<?xml version="1.0"?> 
<VTKFile type="UnstructuredGrid"> 
   <UnstructuredGrid> 
      <Piece NumberOfPoints="6000"  NumberOfCells="1500">  
          <Points>  
             <DataArray type="Float64" NumberOfComponents="3" format="ascii">   
-500.0   0.0   0.0
-450.0   0.0   0.0
-500.0   30.0   0.0
-500.0   0.0   16.666666666666668
-450.0   0.0   0.0
-450.0   30.0   0.0
-500.0   30.0   0.0
-450.0   30.0   16.666666666666668
-500.0   0.0   16.666666666666668
-500.0   30.0   16.666666666666668
-450.0   30.0   16.666666666666668
-500.0   30.0   0.0
-500.0   0.0   16.666666666666668
-450.0   30.0   16.666666666666668
-450.0   0.0   16.666666666666668
-450.0   0.0   0.0
-500.0   0.0   16.666666666666668
-450.0   30.0   16.666666666666668
-450.0   0.0   0.0
-500.0   30.0   0.0
-500.0   0.0   16.666666666666668
-450.0   0.0   16.666666666666668
-500.0   30.0   16.666666666666668
-500.0   0.0   33.333333333333336
-450.0   0.0   16.666666666666668
-450.0   30.0   16.666666666666668
-500.0   30.0   16.666666666666668
-450.0   30.0   33.333333333333336
-500.0   0.0   33.333333333333336
-500.0   30.0   33.333333333333336
-450.0   30.0   33.333333333333336
-500.0   30.0   16.666666666666668
-500.0   0.0   33.333333333333336
-450.0   30.0   33.333333333333336
-450.0   0.0   33.333333333333336
-450.0   0.0   16.666666666666668
-500.0   0.0   33.333333333333336
-450.0   30.0   33.333333333333336
-450.0   0.0   16.666666666666668
-500.0   30.0   16.666666666666668
-500.0   0.0   33.333333333333336
-450.0   0.0   33.333333333333336
-500.0   30.0   33.333333333333336
-500.0   0.0   50.0
-450.0   0.0   33.333333333333336
-450.0   30.0   33.333333333333336
-500.0   30.0   33.333333333333336
-450.0   30.0   50.0
-500.0   0.0   50.0
-500.0   30.0   50.0
-450.0   30.0   50.0
-500.0   30.0   33.333333333333336
-500.0   0.0   50.0
-450.0   30.0   50.0
-450.0   0.0   50.0
-450.0   0.0   33.333333333333336
-500.0   0.0   50.0
-450.0   30.0   50.0
-450.0   0.0   33.333333333333336
-500.0   30.0   33.333333333333336
-500.0   30.0   0.0
-450.0   30.0   0.0
-500.0   60.0   0.0
-500.0   30.0   16.666666666666668
-450.0   30.0   0.0
-450.0   60.0   0.0
-500.0   60.0   0.0
-450.0   60.0   16.666666666666668
-500.0   30.0   16.666666666666668
-500.0   60.0   16.666666666666668
-450.0   60.0   16.666666666666668
-500.0   60.0   0.0
-500.0   30.0   16.666666666666668
-450.0   60.0   16.666666666666668
-450.0   30.0   16.666666666666668
-450.0   30.0   0.0
-500.0   30.0   16.666666666666668
-450.0   60.0   16.666666666666668
-450.0   30.0   0.0
-500.0   60.0   0.0
-500.0   30.0   16.666666666666668
-450.0   30.0   16.666666666666668
-500.0   60.0   16.666666666666668
-500.0   30.0   33.333333333333336
-450.0   30.0   16.666666666666668
-450.0   60.0   16.666666666666668
-500.0   60.0   16.666666666666668
-450.0   60.0   33.333333333333336
-500.0   30.0   33.333333333333336
-500.0   60.0   33.333333333333336
-450.0   60.0   33.333333333333336
-500.0   60.0   16.666666666666668
-500.0   30.0   33.333333333333336
-450.0   60.0   33.333333333333336
-450.0   30.0   33.333333333333336
-450.0   30.0   16.666666666666668
-500.0   30.0   33.333333333333336
-450.0   60.0   33.333333333333336
-450.0   30.0   16.666666666666668
-500.0   60.0   16.666666666666668
-500.0   30.0   33.333333333333336
-450.0   30.0   33.333333333333336
-500.0   60.0   33.333333333333336
-500.0   30.0   50.0
-450.0   30.0   33.333333333333336
-450.0   60.0   33.333333333333336
-500.0   60.0   33.333333333333336
-450.0   60.0   50.0
-500.0   30.0   50.0
-500.0   60.0   50.0
-450.0   60.0   50.0
-500.0   60.0   33.333333333333336
-500.0   30.0   50.0
-450.0   60.0   50.0
-450.0   30.0   50.0
-450.0   30.0   33.333333333333336
-500.0   30.0   50.0
-450.0   60.0   50.0
-450.0   30.0   33.333333333333336
-500.0   60.0   33.333333333333336
-500.0   60.0   0.0
-450.0   60.0   0.0
-500.0   90.0   0.0
-500.0   60.0   16.666666666666668
-450.0   60.0   0.0
-450.0   90.0   0.0
-500.0   90.0   0.0
-450.0   90.0   16.666666666666668
-500.0   60.0   16.666666666666668
-500.0   90.0   16.666666666666668
-450.0   90.0   16.666666666666668
-500.0   90.0   0.0
-500.0   60.0   16.666666666666668
-450.0   90.0   16.666666666666668
-450.0   60.0   16.666666666666668
-450.0   60.0   0.0
-500.0   60.0   16.666666666666668
-450.0   90.0   16.666666666666668
-450.0   60.0   0.0
-500.0   90.0   0.0
-500.0   60.0   16.666666666666668
-450.0   60.0   16.666666666666668
-500.0   90.0   16.666666666666668
-500.0   60.0   33.333333333333336
-450.0   60.0   16.666666666666668
-450.0   90.0   16.666666666666668
-500.0   90.0   16.666666666666668
-450.0   90.0   33.333333333333336
-500.0   60.0   33.333333333333336
-500.0   90.0   33.333333333333336
-450.0   90.0   33.333333333333336
-500.0   90.0   16.666666666666668
-500.0   60.0   33.333333333333336
-450.0   90.0   33.333333333333336
-450.0   60.0   33.333333333333336
-450.0   60.0   16.666666666666668
-500.0   60.0   33.333333333333336
-450.0   90.0   33.333333333333336
-450.0   60.0   16.666666666666668
-500.0   90.0   16.666666666666668
-500.0   60.0   33.333333333333336
-450.0   60.0   33.333333333333336
-500.0   90.0   33.333333333333336
-500.0   60.0   50.0
-450.0   60.0   33.333333333333336
-450.0   90.0   33.333333333333336
-500.0   90.0   33.333333333333336
-450.0   90.0   50.0
-500.0   60.0   50.0
-500.0   90.0   50.0
-450.0   90.0   50.0
-500.0   90.0   33.333333333333336
-500.0   60.0   50.0
-450.0   90.0   50.0
-450.0   60.0   50.0
-450.0   60.0   33.333333333333336
-500.0   60.0   50.0
-450.0   90.0   50.0
-450.0   60.0   33.333333333333336
-500.0   90.0   33.333333333333336
-500.0   90.0   0.0
-450.0   90.0   0.0
-500.0   120.0   0.0
-500.0   90.0   16.666666666666668
-450.0   90.0   0.0
-450.0   120.0   0.0
-500.0   120.0   0.0
-450.0   120.0   16.666666666666668
-500.0   90.0   16.666666666666668
-500.0   120.0   16.666666666666668
-450.0   120.0   16.666666666666668
-500.0   120.0   0.0
-500.0   90.0   16.666666666666668
-450.0   120.0   16.666666666666668
-450.0   90.0   16.666666666666668
-450.0   90.0   0.0
-500.0   90.0   16.666666666666668
-450.0   120.0   16.666666666666668
-450.0   90.0   0.0
-500.0   120.0   0.0
-500.0   90.0   16.666666666666668
-450.0   90.0   16.666666666666668
-500.0   120.0   16.666666666666668
-500.0   90.0   33.333333333333336
-450.0   90.0   16.666666666666668
-450.0   120.0   16.666666666666668
-500.0   120.0   16.666666666666668
-450.0   120.0   33.333333333333336
-500.0   90.0   33.333333333333336
-500.0   120.0   33.333333333333336
-450.0   120.0   33.333333333333336
-500.0   120.0   16.666666666666668
-500.0   90.0   33.333333333333336
-450.0   120.0   33.333333333333336
-450.0   90.0   33.333333333333336
-450.0   90.0   16.666666666666668
-500.0   90.0   33.333333333333336
-450.0   120.0   33.333333333333336
-450.0   90.0   16.666666666666668
-500.0   120.0   16.666666666666668
-500.0   90.0   33.333333333333336
-450.0   90.0   33.333333333333336
-500.0   120.0   33.333333333333336
-500.0   90.0   50.0
-450.0   90.0   33.333333333333336
-450.0   120.0   33.333333333333336
-500.0   120.0   33.333333333333336
-450.0   120.0   50.0
-500.0   90.0   50.0
-500.0   120.0   50.0
-450.0   120.0   50.0
-500.0   120.0   33.333333333333336
-500.0   90.0   50.0
-450.0   120.0   50.0
-450.0   90.0   50.0
-450.0   90.0   33.333333333333336
-500.0   90.0   50.0
-450.0   120.0   50.0
-450.0   90.0   33.333333333333336
-500.0   120.0   33.333333333333336
-500.0   120.0   0.0
-450.0   120.0   0.0
-500.0   150.0   0.0
-500.0   120.0   16.666666666666668
-450.0   120.0   0.0
-450.0   150.0   0.0
-500.0   150.0   0.0
-450.0   150.0   16.666666666666668
-500.0   120.0   16.666666666666668
-500.0   150.0   16.666666666666668
-450.0   150.0   16.666666666666668
-500.0   150.0   0.0
-500.0   120.0   16.666666666666668
-450.0   150.0   16.666666666666668
-450.0   120.0   16.666666666666668
-450.0   120.0   0.0
-500.0   120.0   16.666666666666668
-450.0   150.0   16.666666666666668
-450.0   120.0   0.0
-500.0   150.0   0.0
-500.0   120.0   16.666666666666668
-450.0   120.0   16.666666666666668
-500.0   150.0   16.666666666666668
-500.0   120.0   33.333333333333336
-450.0   120.0   16.666666666666668
-450.0   150.0   16.666666666666668
-500.0   150.0   16.666666666666668
-450.0   150.0   33.333333333333336
-500.0   120.0   33.333333333333336
-500.0   150.0   33.333333333333336
-450.0   150.0   33.333333333333336
-500.0   150.0   16.666666666666668
-500.0   120.0   33.333333333333336
-450.0   150.0   33.333333333333336
-450.0   120.0   33.333333333333336
-450.0   120.0   16.666666666666668
-500.0   120.0   33.333333333333336
-450.0   150.0   33.333333333333336
-450.0   120.0   16.666666666666668
-500.0   150.0   16.666666666666668
-500.0   120.0   33.333333333333336
-450.0   120.0   33.333333333333336
-500.0   150.0   33.333333333333336
-500.0   120.0   50.0
-450.0   120.0   33.333333333333336
-450.0   150.0   33.333333333333336
-500.0   150.0   33.333333333333336
-450.0   150.0   50.0
-500.0   120.0   50.0
-500.0   150.0   50.0
-450.0   150.0   50.0
-500.0   150.0   33.333333333333336
-500.0   120.0   50.0
-450.0   150.0   50.0
-450.0   120.0   50.0
-450.0   120.0   33.333333333333336
-500.0   120.0   50.0
-450.0   150.0   50.0
-450.0   120.0   33.333333333333336
-500.0   150.0   33.333333333333336
-450.0   0.0   0.0
-400.0   0.0   0.0
-450.0   30.0   0.0
-450.0   0.0   16.666666666666668
-400.0   0.0   0.0
-400.0   30.0   0.0
-450.0   30.0   0.0
-400.0   30.0   16.666666666666668
-450.0   0.0   16.666666666666668
-450.0   30.0   16.666666666666668
-400.0   30.0   16.666666666666668
-450.0   30.0   0.0
-450.0   0.0   16.666666666666668
-400.0   30.0   16.666666666666668
-400.0   0.0   16.666666666666668
-400.0   0.0   0.0
-450.0   0.0   16.666666666666668
-400.0   30.0   16.666666666666668
-400.0   0.0   0.0
-450.0   30.0   0.0
-450.0   0.0   16.666666666666668
-400.0   0.0   16.666666666666668
-450.0   30.0   16.666666666666668
-450.0   0.0   33.333333333333336
-400.0   0.0   16.666666666666668
-400.0   30.0   16.666666666666668
-450.0   30.0   16.666666666666668
-400.0   30.0   33.333333333333336
-450.0   0.0   33.333333333333336
-450.0   30.0   33.333333333333336
-400.0   30.0   33.333333333333336
-450.0   30.0   16.666666666666668
-450.0   0.0   33.333333333333336
-400.0   30.0   33.333333333333336
-400.0   0.0   33.333333333333336
-400.0   0.0   16.666666666666668
-450.0   0.0   33.333333333333336
-400.0   30.0   33.333333333333336
-400.0   0.0   16.666666666666668
-450.0   30.0   16.666666666666668
-450.0   0.0   33.333333333333336
-400.0   0.0   33.333333333333336
-450.0   30.0   33.333333333333336
-450.0   0.0   50.0
-400.0   0.0   33.333333333333336
-400.0   30.0   33.333333333333336
-450.0   30.0   33.333333333333336
-400.0   30.0   50.0
-450.0   0.0   50.0
-450.0   30.0   50.0
-400.0   30.0   50.0
-450.0   30.0   33.333333333333336
-450.0   0.0   50.0
-400.0   30.0   50.0
-400.0   0.0   50.0
-400.0   0.0   33.333333333333336
-450.0   0.0   50.0
-400.0   30.0   50.0
-400.0   0.0   33.333333333333336
-450.0   30.0   33.333333333333336
-450.0   30.0   0.0
-400.0   30.0   0.0
-450.0   60.0   0.0
-450.0   30.0   16.666666666666668
-400.0   30.0   0.0
-400.0   60.0   0.0
-450.0   60.0   0.0
-400.0   60.0   16.666666666666668
-450.0   30.0   16.666666666666668
-450.0   60.0   16.666666666666668
-400.0   60.0   16.666666666666668
-450.0   60.0   0.0
-450.0   30.0   16.666666666666668
-400.0   60.0   16.666666666666668
-400.0   30.0   16.666666666666668
-400.0   30.0   0.0
-450.0   30.0   16.666666666666668
-400.0   60.0   16.666666666666668
-400.0   30.0   0.0
-450.0   60.0   0.0
-450.0   30.0   16.666666666666668
-400.0   30.0   16.666666666666668
-450.0   60.0   16.666666666666668
-450.0   30.0   33.333333333333336
-400.0   30.0   16.666666666666668
-400.0   60.0   16.666666666666668
-450.0   60.0   16.666666666666668
-400.0   60.0   33.333333333333336
-450.0   30.0   33.333333333333336
-450.0   60.0   33.333333333333336
-400.0   60.0   33.333333333333336
-450.0   60.0   16.666666666666668
-450.0   30.0   33.333333333333336
-400.0   60.0   33.333333333333336
-400.0   30.0   33.333333333333336
-400.0   30.0   16.666666666666668
-450.0   30.0   33.333333333333336
-400.0   60.0   33.333333333333336
-400.0   30.0   16.666666666666668
-450.0   60.0   16.666666666666668
-450.0   30.0   33.333333333333336
-400.0   30.0   33.333333333333336
-450.0   60.0   33.333333333333336
-450.0   30.0   50.0
-400.0   30.0   33.333333333333336
-400.0   60.0   33.333333333333336
-450.0   60.0   33.333333333333336
-400.0   60.0   50.0
-450.0   30.0   50.0
-450.0   60.0   50.0
-400.0   60.0   50.0
-450.0   60.0   33.333333333333336
-450.0   30.0   50.0
-400.0   60.0   50.0
-400.0   30.0   50.0
-400.0   30.0   33.333333333333336
-450.0   30.0   50.0
-400.0   60.0   50.0
-400.0   30.0   33.333333333333336
-450.0   60.0   33.333333333333336
-450.0   60.0   0.0
-400.0   60.0   0.0
-450.0   90.0   0.0
-450.0   60.0   16.666666666666668
-400.0   60.0   0.0
-400.0   90.0   0.0
-450.0   90.0   0.0
-400.0   90.0   16.666666666666668
-450.0   60.0   16.666666666666668
-450.0   90.0   16.666666666666668
-400.0   90.0   16.666666666666668
-450.0   90.0   0.0
-450.0   60.0   16.666666666666668
-400.0   90.0   16.666666666666668
-400.0   60.0   16.666666666666668
-400.0   60.0   0.0
-450.0   60.0   16.666666666666668
-400.0   90.0   16.666666666666668
-400.0   60.0   0.0
-450.0   90.0   0.0
-450.0   60.0   16.666666666666668
-400.0   60.0   16.666666666666668
-450.0   90.0   16.666666666666668
-450.0   60.0   33.333333333333336
-400.0   60.0   16.666666666666668
-400.0   90.0   16.666666666666668
-450.0   90.0   16.666666666666668
-400.0   90.0   33.333333333333336
-450.0   60.0   33.333333333333336
-450.0   90.0   33.333333333333336
-400.0   90.0   33.333333333333336
-450.0   90.0   16.666666666666668
-450.0   60.0   33.333333333333336
-400.0   90.0   33.333333333333336
-400.0   60.0   33.333333333333336
-400.0   60.0   16.666666666666668
-450.0   60.0   33.333333333333336
-400.0   90.0   33.333333333333336
-400.0   60.0   16.666666666666668
-450.0   90.0   16.666666666666668
-450.0   60.0   33.333333333333336
-400.0   60.0   33.333333333333336
-450.0   90.0   33.333333333333336
-450.0   60.0   50.0
-400.0   60.0   33.333333333333336
-400.0   90.0   33.333333333333336
-450.0   90.0   33.333333333333336
-400.0   90.0   50.0
-450.0   60.0   50.0
-450.0   90.0   50.0
-400.0   90.0   50.0
-450.0   90.0   33.333333333333336
-450.0   60.0   50.0
-400.0   90.0   50.0
-400.0   60.0   50.0
-400.0   60.0   33.333333333333336
-450.0   60.0   50.0
-400.0   90.0   50.0
-400.0   60.0   33.333333333333336
-450.0   90.0   33.333333333333336
-450.0   90.0   0.0
-400.0   90.0   0.0
-450.0   120.0   0.0
-450.0   90.0   16.666666666666668
-400.0   90.0   0.0
-400.0   120.0   0.0
-450.0   120.0   0.0
-400.0   120.0   16.666666666666668
-450.0   90.0   16.666666666666668
-450.0   120.0   16.666666666666668
-400.0   120.0   16.666666666666668
-450.0   120.0   0.0
-450.0   90.0   16.666666666666668
-400.0   120.0   16.666666666666668
-400.0   90.0   16.666666666666668
-400.0   90.0   0.0
-450.0   90.0   16.666666666666668
-400.0   120.0   16.666666666666668
-400.0   90.0   0.0
-450.0   120.0   0.0
-450.0   90.0   16.666666666666668
-400.0   90.0   16.666666666666668
-450.0   120.0   16.666666666666668
-450.0   90.0   33.333333333333336
-400.0   90.0   16.666666666666668
-400.0   120.0   16.666666666666668
-450.0   120.0   16.666666666666668
-400.0   120.0   33.333333333333336
-450.0   90.0   33.333333333333336
-450.0   120.0   33.333333333333336
-400.0   120.0   33.333333333333336
-450.0   120.0   16.666666666666668
-450.0   90.0   33.333333333333336
-400.0   120.0   33.333333333333336
-400.0   90.0   33.333333333333336
-400.0   90.0   16.666666666666668
-450.0   90.0   33.333333333333336
-400.0   120.0   33.333333333333336
-400.0   90.0   16.666666666666668
-450.0   120.0   16.666666666666668
-450.0   90.0   33.333333333333336
-400.0   90.0   33.333333333333336
-450.0   120.0   33.333333333333336
-450.0   90.0   50.0
-400.0   90.0   33.333333333333336
-400.0   120.0   33.333333333333336
-450.0   120.0   33.333333333333336
-400.0   120.0   50.0
-450.0   90.0   50.0
-450.0   120.0   50.0
-400.0   120.0   50.0
-450.0   120.0   33.333333333333336
-450.0   90.0   50.0
-400.0   120.0   50.0
-400.0   90.0   50.0
-400.0   90.0   33.333333333333336
-450.0   90.0   50.0
-400.0   120.0   50.0
-400.0   90.0   33.333333333333336
-450.0   120.0   33.333333333333336
-450.0   120.0   0.0
-400.0   120.0   0.0
-450.0   150.0   0.0
-450.0   120.0   16.666666666666668
-400.0   120.0   0.0
-400.0   150.0   0.0
-450.0   150.0   0.0
-400.0   150.0   16.666666666666668
-450.0   120.0   16.666666666666668
-450.0   150.0   16.666666666666668
-400.0   150.0   16.666666666666668
-450.0   150.0   0.0
-450.0   120.0   16.666666666666668
-400.0   150.0   16.666666666666668
-400.0   120.0   16.666666666666668
-400.0   120.0   0.0
-450.0   120.0   16.666666666666668
-400.0   150.0   16.666666666666668
-400.0   120.0   0.0
-450.0   150.0   0.0
-450.0   120.0   16.666666666666668
-400.0   120.0   16.666666666666668
-450.0   150.0   16.666666666666668
-450.0   120.0   33.333333333333336
-400.0   120.0   16.666666666666668
-400.0   150.0   16.666666666666668
-450.0   150.0   16.666666666666668
-400.0   150.0   33.333333333333336
-450.0   120.0   33.333333333333336
-450.0   150.0   33.333333333333336
-400.0   150.0   33.333333333333336
-450.0   150.0   16.666666666666668
-450.0   120.0   33.333333333333336
-400.0   150.0   33.333333333333336
-400.0   120.0   33.333333333333336
-400.0   120.0   16.666666666666668
-450.0   120.0   33.333333333333336
-400.0   150.0   33.333333333333336
-400.0   120.0   16.666666666666668
-450.0   150.0   16.666666666666668
-450.0   120.0   33.333333333333336
-400.0   120.0   33.333333333333336
-450.0   150.0   33.333333333333336
-450.0   120.0   50.0
-400.0   120.0   33.333333333333336
-400.0   150.0   33.333333333333336
-450.0   150.0   33.333333333333336
-400.0   150.0   50.0
-450.0   120.0   50.0
-450.0   150.0   50.0
-400.0   150.0   50.0
-450.0   150.0   33.333333333333336
-450.0   120.0   50.0
-400.0   150.0   50.0
-400.0   120.0   50.0
-400.0   120.0   33.333333333333336
-450.0   120.0   50.0
-400.0   150.0   50.0
-400.0   120.0   33.333333333333336
-450.0   150.0   33.333333333333336
-400.0   0.0   0.0
-350.0   0.0   0.0
-400.0   30.0   0.0
-400.0   0.0   16.666666666666668
-350.0   0.0   0.0
-350.0   30.0   0.0
-400.0   30.0   0.0
-350.0   30.0   16.666666666666668
-400.0   0.0   16.666666666666668
-400.0   30.0   16.666666666666668
-350.0   30.0   16.666666666666668
-400.0   30.0   0.0
-400.0   0.0   16.666666666666668
-350.0   30.0   16.666666666666668
-350.0   0.0   16.666666666666668
-350.0   0.0   0.0
-400.0   0.0   16.666666666666668
-350.0   30.0   16.666666666666668
-350.0   0.0   0.0
-400.0   30.0   0.0
-400.0   0.0   16.666666666666668
-350.0   0.0   16.666666666666668
-400.0   30.0   16.666666666666668
-400.0   0.0   33.333333333333336
-350.0   0.0   16.666666666666668
-350.0   30.0   16.666666666666668
-400.0   30.0   16.666666666666668
-350.0   30.0   33.333333333333336
-400.0   0.0   33.333333333333336
-400.0   30.0   33.333333333333336
-350.0   30.0   33.333333333333336
-400.0   30.0   16.666666666666668
-400.0   0.0   33.333333333333336
-350.0   30.0   33.333333333333336
-350.0   0.0   33.333333333333336
-350.0   0.0   16.666666666666668
-400.0   0.0   33.333333333333336
-350.0   30.0   33.333333333333336
-350.0   0.0   16.666666666666668
-400.0   30.0   16.666666666666668
-400.0   0.0   33.333333333333336
-350.0   0.0   33.333333333333336
-400.0   30.0   33.333333333333336
-400.0   0.0   50.0
-350.0   0.0   33.333333333333336
-350.0   30.0   33.333333333333336
-400.0   30.0   33.333333333333336
-350.0   30.0   50.0
-400.0   0.0   50.0
-400.0   30.0   50.0
-350.0   30.0   50.0
-400.0   30.0   33.333333333333336
-400.0   0.0   50.0
-350.0   30.0   50.0
-350.0   0.0   50.0
-350.0   0.0   33.333333333333336
-400.0   0.0   50.0
-350.0   30.0   50.0
-350.0   0.0   33.333333333333336
-400.0   30.0   33.333333333333336
-400.0   30.0   0.0
-350.0   30.0   0.0
-400.0   60.0   0.0
-400.0   30.0   16.666666666666668
-350.0   30.0   0.0
-350.0   60.0   0.0
-400.0   60.0   0.0
-350.0   60.0   16.666666666666668
-400.0   30.0   16.666666666666668
-400.0   60.0   16.666666666666668
-350.0   60.0   16.666666666666668
-400.0   60.0   0.0
-400.0   30.0   16.666666666666668
-350.0   60.0   16.666666666666668
-350.0   30.0   16.666666666666668
-350.0   30.0   0.0
-400.0   30.0   16.666666666666668
-350.0   60.0   16.666666666666668
-350.0   30.0   0.0
-400.0   60.0   0.0
-400.0   30.0   16.666666666666668
-350.0   30.0   16.666666666666668
-400.0   60.0   16.666666666666668
-400.0   30.0   33.333333333333336
-350.0   30.0   16.666666666666668
-350.0   60.0   16.666666666666668
-400.0   60.0   16.666666666666668
-350.0   60.0   33.333333333333336
-400.0   30.0   33.333333333333336
-400.0   60.0   33.333333333333336
-350.0   60.0   33.333333333333336
-400.0   60.0   16.666666666666668
-400.0   30.0   33.333333333333336
-350.0   60.0   33.333333333333336
-350.0   30.0   33.333333333333336
-350.0   30.0   16.666666666666668
-400.0   30.0   33.333333333333336
-350.0   60.0   33.333333333333336
-350.0   30.0   16.666666666666668
-400.0   60.0   16.666666666666668
-400.0   30.0   33.333333333333336
-350.0   30.0   33.333333333333336
-400.0   60.0   33.333333333333336
-400.0   30.0   50.0
-350.0   30.0   33.333333333333336
-350.0   60.0   33.333333333333336
-400.0   60.0   33.333333333333336
-350.0   60.0   50.0
-400.0   30.0   50.0
-400.0   60.0   50.0
-350.0   60.0   50.0
-400.0   60.0   33.333333333333336
-400.0   30.0   50.0
-350.0   60.0   50.0
-350.0   30.0   50.0
-350.0   30.0   33.333333333333336
-400.0   30.0   50.0
-350.0   60.0   50.0
-350.0   30.0   33.333333333333336
-400.0   60.0   33.333333333333336
-400.0   60.0   0.0
-350.0   60.0   0.0
-400.0   90.0   0.0
-400.0   60.0   16.666666666666668
-350.0   60.0   0.0
-350.0   90.0   0.0
-400.0   90.0   0.0
-350.0   90.0   16.666666666666668
-400.0   60.0   16.666666666666668
-400.0   90.0   16.666666666666668
-350.0   90.0   16.666666666666668
-400.0   90.0   0.0
-400.0   60.0   16.666666666666668
-350.0   90.0   16.666666666666668
-350.0   60.0   16.666666666666668
-350.0   60.0   0.0
-400.0   60.0   16.666666666666668
-350.0   90.0   16.666666666666668
-350.0   60.0   0.0
-400.0   90.0   0.0
-400.0   60.0   16.666666666666668
-350.0   60.0   16.666666666666668
-400.0   90.0   16.666666666666668
-400.0   60.0   33.333333333333336
-350.0   60.0   16.666666666666668
-350.0   90.0   16.666666666666668
-400.0   90.0   16.666666666666668
-350.0   90.0   33.333333333333336
-400.0   60.0   33.333333333333336
-400.0   90.0   33.333333333333336
-350.0   90.0   33.333333333333336
-400.0   90.0   16.666666666666668
-400.0   60.0   33.333333333333336
-350.0   90.0   33.333333333333336
-350.0   60.0   33.333333333333336
-350.0   60.0   16.666666666666668
-400.0   60.0   33.333333333333336
-350.0   90.0   33.333333333333336
-350.0   60.0   16.666666666666668
-400.0   90.0   16.666666666666668
-400.0   60.0   33.333333333333336
-350.0   60.0   33.333333333333336
-400.0   90.0   33.333333333333336
-400.0   60.0   50.0
-350.0   60.0   33.333333333333336
-350.0   90.0   33.333333333333336
-400.0   90.0   33.333333333333336
-350.0   90.0   50.0
-400.0   60.0   50.0
-400.0   90.0   50.0
-350.0   90.0   50.0
-400.0   90.0   33.333333333333336
-400.0   60.0   50.0
-350.0   90.0   50.0
-350.0   60.0   50.0
-350.0   60.0   33.333333333333336
-400.0   60.0   50.0
-350.0   90.0   50.0
-350.0   60.0   33.333333333333336
-400.0   90.0   33.333333333333336
-400.0   90.0   0.0
-350.0   90.0   0.0
-400.0   120.0   0.0
-400.0   90.0   16.666666666666668
-350.0   90.0   0.0
-350.0   120.0   0.0
-400.0   120.0   0.0
-350.0   120.0   16.666666666666668
-400.0   90.0   16.666666666666668
-400.0   120.0   16.666666666666668
-350.0   120.0   16.666666666666668
-400.0   120.0   0.0
-400.0   90.0   16.666666666666668
-350.0   120.0   16.666666666666668
-350.0   90.0   16.666666666666668
-350.0   90.0   0.0
-400.0   90.0   16.666666666666668
-350.0   120.0   16.666666666666668
-350.0   90.0   0.0
-400.0   120.0   0.0
-400.0   90.0   16.666666666666668
-350.0   90.0   16.666666666666668
-400.0   120.0   16.666666666666668
-400.0   90.0   33.333333333333336
-350.0   90.0   16.666666666666668
-350.0   120.0   16.666666666666668
-400.0   120.0   16.666666666666668
-350.0   120.0   33.333333333333336
-400.0   90.0   33.333333333333336
-400.0   120.0   33.333333333333336
-350.0   120.0   33.333333333333336
-400.0   120.0   16.666666666666668
-400.0   90.0   33.333333333333336
-350.0   120.0   33.333333333333336
-350.0   90.0   33.333333333333336
-350.0   90.0   16.666666666666668
-400.0   90.0   33.333333333333336
-350.0   120.0   33.333333333333336
-350.0   90.0   16.666666666666668
-400.0   120.0   16.666666666666668
-400.0   90.0   33.333333333333336
-350.0   90.0   33.333333333333336
-400.0   120.0   33.333333333333336
-400.0   90.0   50.0
-350.0   90.0   33.333333333333336
-350.0   120.0   33.333333333333336
-400.0   120.0   33.333333333333336
-350.0   120.0   50.0
-400.0   90.0   50.0
-400.0   120.0   50.0
-350.0   120.0   50.0
-400.0   120.0   33.333333333333336
-400.0   90.0   50.0
-350.0   120.0   50.0
-350.0   90.0   50.0
-350.0   90.0   33.333333333333336
-400.0   90.0   50.0
-350.0   120.0   50.0
-350.0   90.0   33.333333333333336
-400.0   120.0   33.333333333333336
-400.0   120.0   0.0
-350.0   120.0   0.0
-400.0   150.0   0.0
-400.0   120.0   16.666666666666668
-350.0   120.0   0.0
-350.0   150.0   0.0
-400.0   150.0   0.0
-350.0   150.0   16.666666666666668
-400.0   120.0   16.666666666666668
-400.0   150.0   16.666666666666668
-350.0   150.0   16.666666666666668
-400.0   150.0   0.0
-400.0   120.0   16.666666666666668
-350.0   150.0   16.666666666666668
-350.0   120.0   16.666666666666668
-350.0   120.0   0.0
-400.0   120.0   16.666666666666668
-350.0   150.0   16.666666666666668
-350.0   120.0   0.0
-400.0   150.0   0.0
-400.0   120.0   16.666666666666668
-350.0   120.0   16.666666666666668
-400.0   150.0   16.666666666666668
-400.0   120.0   33.333333333333336
-350.0   120.0   16.666666666666668
-350.0   150.0   16.666666666666668
-400.0   150.0   16.666666666666668
-350.0   150.0   33.333333333333336
-400.0   120.0   33.333333333333336
-400.0   150.0   33.333333333333336
-350.0   150.0   33.333333333333336
-400.0   150.0   16.666666666666668
-400.0   120.0   33.333333333333336
-350.0   150.0   33.333333333333336
-350.0   120.0   33.333333333333336
-350.0   120.0   16.666666666666668
-400.0   120.0   33.333333333333336
-350.0   150.0   33.333333333333336
-350.0   120.0   16.666666666666668
-400.0   150.0   16.666666666666668
-400.0   120.0   33.333333333333336
-350.0   120.0   33.333333333333336
-400.0   150.0   33.333333333333336
-400.0   120.0   50.0
-350.0   120.0   33.333333333333336
-350.0   150.0   33.333333333333336
-400.0   150.0   33.333333333333336
-350.0   150.0   50.0
-400.0   120.0   50.0
-400.0   150.0   50.0
-350.0   150.0   50.0
-400.0   150.0   33.333333333333336
-400.0   120.0   50.0
-350.0   150.0   50.0
-350.0   120.0   50.0
-350.0   120.0   33.333333333333336
-400.0   120.0   50.0
-350.0   150.0   50.0
-350.0   120.0   33.333333333333336
-400.0   150.0   33.333333333333336
-350.0   0.0   0.0
-300.0   0.0   0.0
-350.0   30.0   0.0
-350.0   0.0   16.666666666666668
-300.0   0.0   0.0
-300.0   30.0   0.0
-350.0   30.0   0.0
-300.0   30.0   16.666666666666668
-350.0   0.0   16.666666666666668
-350.0   30.0   16.666666666666668
-300.0   30.0   16.666666666666668
-350.0   30.0   0.0
-350.0   0.0   16.666666666666668
-300.0   30.0   16.666666666666668
-300.0   0.0   16.666666666666668
-300.0   0.0   0.0
-350.0   0.0   16.666666666666668
-300.0   30.0   16.666666666666668
-300.0   0.0   0.0
-350.0   30.0   0.0
-350.0   0.0   16.666666666666668
-300.0   0.0   16.666666666666668
-350.0   30.0   16.666666666666668
-350.0   0.0   33.333333333333336
-300.0   0.0   16.666666666666668
-300.0   30.0   16.666666666666668
-350.0   30.0   16.666666666666668
-300.0   30.0   33.333333333333336
-350.0   0.0   33.333333333333336
-350.0   30.0   33.333333333333336
-300.0   30.0   33.333333333333336
-350.0   30.0   16.666666666666668
-350.0   0.0   33.333333333333336
-300.0   30.0   33.333333333333336
-300.0   0.0   33.333333333333336
-300.0   0.0   16.666666666666668
-350.0   0.0   33.333333333333336
-300.0   30.0   33.333333333333336
-300.0   0.0   16.666666666666668
-350.0   30.0   16.666666666666668
-350.0   0.0   33.333333333333336
-300.0   0.0   33.333333333333336
-350.0   30.0   33.333333333333336
-350.0   0.0   50.0
-300.0   0.0   33.333333333333336
-300.0   30.0   33.333333333333336
-350.0   30.0   33.333333333333336
-300.0   30.0   50.0
-350.0   0.0   50.0
-350.0   30.0   50.0
-300.0   30.0   50.0
-350.0   30.0   33.333333333333336
-350.0   0.0   50.0
-300.0   30.0   50.0
-300.0   0.0   50.0
-300.0   0.0   33.333333333333336
-350.0   0.0   50.0
-300.0   30.0   50.0
-300.0   0.0   33.333333333333336
-350.0   30.0   33.333333333333336
-350.0   30.0   0.0
-300.0   30.0   0.0
-350.0   60.0   0.0
-350.0   30.0   16.666666666666668
-300.0   30.0   0.0
-300.0   60.0   0.0
-350.0   60.0   0.0
-300.0   60.0   16.666666666666668
-350.0   30.0   16.666666666666668
-350.0   60.0   16.666666666666668
-300.0   60.0   16.666666666666668
-350.0   60.0   0.0
-350.0   30.0   16.666666666666668
-300.0   60.0   16.666666666666668
-300.0   30.0   16.666666666666668
-300.0   30.0   0.0
-350.0   30.0   16.666666666666668
-300.0   60.0   16.666666666666668
-300.0   30.0   0.0
-350.0   60.0   0.0
-350.0   30.0   16.666666666666668
-300.0   30.0   16.666666666666668
-350.0   60.0   16.666666666666668
-350.0   30.0   33.333333333333336
-300.0   30.0   16.666666666666668
-300.0   60.0   16.666666666666668
-350.0   60.0   16.666666666666668
-300.0   60.0   33.333333333333336
-350.0   30.0   33.333333333333336
-350.0   60.0   33.333333333333336
-300.0   60.0   33.333333333333336
-350.0   60.0   16.666666666666668
-350.0   30.0   33.333333333333336
-300.0   60.0   33.333333333333336
-300.0   30.0   33.333333333333336
-300.0   30.0   16.666666666666668
-350.0   30.0   33.333333333333336
-300.0   60.0   33.333333333333336
-300.0   30.0   16.666666666666668
-350.0   60.0   16.666666666666668
-350.0   30.0   33.333333333333336
-300.0   30.0   33.333333333333336
-350.0   60.0   33.333333333333336
-350.0   30.0   50.0
-300.0   30.0   33.333333333333336
-300.0   60.0   33.333333333333336
-350.0   60.0   33.333333333333336
-300.0   60.0   50.0
-350.0   30.0   50.0
-350.0   60.0   50.0
-300.0   60.0   50.0
-350.0   60.0   33.333333333333336
-350.0   30.0   50.0
-300.0   60.0   50.0
-300.0   30.0   50.0
-300.0   30.0   33.333333333333336
-350.0   30.0   50.0
-300.0   60.0   50.0
-300.0   30.0   33.333333333333336
-350.0   60.0   33.333333333333336
-350.0   60.0   0.0
-300.0   60.0   0.0
-350.0   90.0   0.0
-350.0   60.0   16.666666666666668
-300.0   60.0   0.0
-300.0   90.0   0.0
-350.0   90.0   0.0
-300.0   90.0   16.666666666666668
-350.0   60.0   16.666666666666668
-350.0   90.0   16.666666666666668
-300.0   90.0   16.666666666666668
-350.0   90.0   0.0
-350.0   60.0   16.666666666666668
-300.0   90.0   16.666666666666668
-300.0   60.0   16.666666666666668
-300.0   60.0   0.0
-350.0   60.0   16.666666666666668
-300.0   90.0   16.666666666666668
-300.0   60.0   0.0
-350.0   90.0   0.0
-350.0   60.0   16.666666666666668
-300.0   60.0   16.666666666666668
-350.0   90.0   16.666666666666668
-350.0   60.0   33.333333333333336
-300.0   60.0   16.666666666666668
-300.0   90.0   16.666666666666668
-350.0   90.0   16.666666666666668
-300.0   90.0   33.333333333333336
-350.0   60.0   33.333333333333336
-350.0   90.0   33.333333333333336
-300.0   90.0   33.333333333333336
-350.0   90.0   16.666666666666668
-350.0   60.0   33.333333333333336
-300.0   90.0   33.333333333333336
-300.0   60.0   33.333333333333336
-300.0   60.0   16.666666666666668
-350.0   60.0   33.333333333333336
-300.0   90.0   33.333333333333336
-300.0   60.0   16.666666666666668
-350.0   90.0   16.666666666666668
-350.0   60.0   33.333333333333336
-300.0   60.0   33.333333333333336
-350.0   90.0   33.333333333333336
-350.0   60.0   50.0
-300.0   60.0   33.333333333333336
-300.0   90.0   33.333333333333336
-350.0   90.0   33.333333333333336
-300.0   90.0   50.0
-350.0   60.0   50.0
-350.0   90.0   50.0
-300.0   90.0   50.0
-350.0   90.0   33.333333333333336
-350.0   60.0   50.0
-300.0   90.0   50.0
-300.0   60.0   50.0
-300.0   60.0   33.333333333333336
-350.0   60.0   50.0
-300.0   90.0   50.0
-300.0   60.0   33.333333333333336
-350.0   90.0   33.333333333333336
-350.0   90.0   0.0
-300.0   90.0   0.0
-350.0   120.0   0.0
-350.0   90.0   16.666666666666668
-300.0   90.0   0.0
-300.0   120.0   0.0
-350.0   120.0   0.0
-300.0   120.0   16.666666666666668
-350.0   90.0   16.666666666666668
-350.0   120.0   16.666666666666668
-300.0   120.0   16.666666666666668
-350.0   120.0   0.0
-350.0   90.0   16.666666666666668
-300.0   120.0   16.666666666666668
-300.0   90.0   16.666666666666668
-300.0   90.0   0.0
-350.0   90.0   16.666666666666668
-300.0   120.0   16.666666666666668
-300.0   90.0   0.0
-350.0   120.0   0.0
-350.0   90.0   16.666666666666668
-300.0   90.0   16.666666666666668
-350.0   120.0   16.666666666666668
-350.0   90.0   33.333333333333336
-300.0   90.0   16.666666666666668
-300.0   120.0   16.666666666666668
-350.0   120.0   16.666666666666668
-300.0   120.0   33.333333333333336
-350.0   90.0   33.333333333333336
-350.0   120.0   33.333333333333336
-300.0   120.0   33.333333333333336
-350.0   120.0   16.666666666666668
-350.0   90.0   33.333333333333336
-300.0   120.0   33.333333333333336
-300.0   90.0   33.333333333333336
-300.0   90.0   16.666666666666668
-350.0   90.0   33.333333333333336
-300.0   120.0   33.333333333333336
-300.0   90.0   16.666666666666668
-350.0   120.0   16.666666666666668
-350.0   90.0   33.333333333333336
-300.0   90.0   33.333333333333336
-350.0   120.0   33.333333333333336
-350.0   90.0   50.0
-300.0   90.0   33.333333333333336
-300.0   120.0   33.333333333333336
-350.0   120.0   33.333333333333336
-300.0   120.0   50.0
-350.0   90.0   50.0
-350.0   120.0   50.0
-300.0   120.0   50.0
-350.0   120.0   33.333333333333336
-350.0   90.0   50.0
-300.0   120.0   50.0
-300.0   90.0   50.0
-300.0   90.0   33.333333333333336
-350.0   90.0   50.0
-300.0   120.0   50.0
-300.0   90.0   33.333333333333336
-350.0   120.0   33.333333333333336
-350.0   120.0   0.0
-300.0   120.0   0.0
-350.0   150.0   0.0
-350.0   120.0   16.666666666666668
-300.0   120.0   0.0
-300.0   150.0   0.0
-350.0   150.0   0.0
-300.0   150.0   16.666666666666668
-350.0   120.0   16.666666666666668
-350.0   150.0   16.666666666666668
-300.0   150.0   16.666666666666668
-350.0   150.0   0.0
-350.0   120.0   16.666666666666668
-300.0   150.0   16.666666666666668
-300.0   120.0   16.666666666666668
-300.0   120.0   0.0
-350.0   120.0   16.666666666666668
-300.0   150.0   16.666666666666668
-300.0   120.0   0.0
-350.0   150.0   0.0
-350.0   120.0   16.666666666666668
-300.0   120.0   16.666666666666668
-350.0   150.0   16.666666666666668
-350.0   120.0   33.333333333333336
-300.0   120.0   16.666666666666668
-300.0   150.0   16.666666666666668
-350.0   150.0   16.666666666666668
-300.0   150.0   33.333333333333336
-350.0   120.0   33.333333333333336
-350.0   150.0   33.333333333333336
-300.0   150.0   33.333333333333336
-350.0   150.0   16.666666666666668
-350.0   120.0   33.333333333333336
-300.0   150.0   33.333333333333336
-300.0   120.0   33.333333333333336
-300.0   120.0   16.666666666666668
-350.0   120.0   33.333333333333336
-300.0   150.0   33.333333333333336
-300.0   120.0   16.666666666666668
-350.0   150.0   16.666666666666668
-350.0   120.0   33.333333333333336
-300.0   120.0   33.333333333333336
-350.0   150.0   33.333333333333336
-350.0   120.0   50.0
-300.0   120.0   33.333333333333336
-300.0   150.0   33.333333333333336
-350.0   150.0   33.333333333333336
-300.0   150.0   50.0
-350.0   120.0   50.0
-350.0   150.0   50.0
-300.0   150.0   50.0
-350.0   150.0   33.333333333333336
-350.0   120.0   50.0
-300.0   150.0   50.0
-300.0   120.0   50.0
-300.0   120.0   33.333333333333336
-350.0   120.0   50.0
-300.0   150.0   50.0
-300.0   120.0   33.333333333333336
-350.0   150.0   33.333333333333336
-300.0   0.0   0.0
-250.0   0.0   0.0
-300.0   30.0   0.0
-300.0   0.0   16.666666666666668
-250.0   0.0   0.0
-250.0   30.0   0.0
-300.0   30.0   0.0
-250.0   30.0   16.666666666666668
-300.0   0.0   16.666666666666668
-300.0   30.0   16.666666666666668
-250.0   30.0   16.666666666666668
-300.0   30.0   0.0
-300.0   0.0   16.666666666666668
-250.0   30.0   16.666666666666668
-250.0   0.0   16.666666666666668
-250.0   0.0   0.0
-300.0   0.0   16.666666666666668
-250.0   30.0   16.666666666666668
-250.0   0.0   0.0
-300.0   30.0   0.0
-300.0   0.0   16.666666666666668
-250.0   0.0   16.666666666666668
-300.0   30.0   16.666666666666668
-300.0   0.0   33.333333333333336
-250.0   0.0   16.666666666666668
-250.0   30.0   16.666666666666668
-300.0   30.0   16.666666666666668
-250.0   30.0   33.333333333333336
-300.0   0.0   33.333333333333336
-300.0   30.0   33.333333333333336
-250.0   30.0   33.333333333333336
-300.0   30.0   16.666666666666668
-300.0   0.0   33.333333333333336
-250.0   30.0   33.333333333333336
-250.0   0.0   33.333333333333336
-250.0   0.0   16.666666666666668
-300.0   0.0   33.333333333333336
-250.0   30.0   33.333333333333336
-250.0   0.0   16.666666666666668
-300.0   30.0   16.666666666666668
-300.0   0.0   33.333333333333336
-250.0   0.0   33.333333333333336
-300.0   30.0   33.333333333333336
-300.0   0.0   50.0
-250.0   0.0   33.333333333333336
-250.0   30.0   33.333333333333336
-300.0   30.0   33.333333333333336
-250.0   30.0   50.0
-300.0   0.0   50.0
-300.0   30.0   50.0
-250.0   30.0   50.0
-300.0   30.0   33.333333333333336
-300.0   0.0   50.0
-250.0   30.0   50.0
-250.0   0.0   50.0
-250.0   0.0   33.333333333333336
-300.0   0.0   50.0
-250.0   30.0   50.0
-250.0   0.0   33.333333333333336
-300.0   30.0   33.333333333333336
-300.0   30.0   0.0
-250.0   30.0   0.0
-300.0   60.0   0.0
-300.0   30.0   16.666666666666668
-250.0   30.0   0.0
-250.0   60.0   0.0
-300.0   60.0   0.0
-250.0   60.0   16.666666666666668
-300.0   30.0   16.666666666666668
-300.0   60.0   16.666666666666668
-250.0   60.0   16.666666666666668
-300.0   60.0   0.0
-300.0   30.0   16.666666666666668
-250.0   60.0   16.666666666666668
-250.0   30.0   16.666666666666668
-250.0   30.0   0.0
-300.0   30.0   16.666666666666668
-250.0   60.0   16.666666666666668
-250.0   30.0   0.0
-300.0   60.0   0.0
-300.0   30.0   16.666666666666668
-250.0   30.0   16.666666666666668
-300.0   60.0   16.666666666666668
-300.0   30.0   33.333333333333336
-250.0   30.0   16.666666666666668
-250.0   60.0   16.666666666666668
-300.0   60.0   16.666666666666668
-250.0   60.0   33.333333333333336
-300.0   30.0   33.333333333333336
-300.0   60.0   33.333333333333336
-250.0   60.0   33.333333333333336
-300.0   60.0   16.666666666666668
-300.0   30.0   33.333333333333336
-250.0   60.0   33.333333333333336
-250.0   30.0   33.333333333333336
-250.0   30.0   16.666666666666668
-300.0   30.0   33.333333333333336
-250.0   60.0   33.333333333333336
-250.0   30.0   16.666666666666668
-300.0   60.0   16.666666666666668
-300.0   30.0   33.333333333333336
-250.0   30.0   33.333333333333336
-300.0   60.0   33.333333333333336
-300.0   30.0   50.0
-250.0   30.0   33.333333333333336
-250.0   60.0   33.333333333333336
-300.0   60.0   33.333333333333336
-250.0   60.0   50.0
-300.0   30.0   50.0
-300.0   60.0   50.0
-250.0   60.0   50.0
-300.0   60.0   33.333333333333336
-300.0   30.0   50.0
-250.0   60.0   50.0
-250.0   30.0   50.0
-250.0   30.0   33.333333333333336
-300.0   30.0   50.0
-250.0   60.0   50.0
-250.0   30.0   33.333333333333336
-300.0   60.0   33.333333333333336
-300.0   60.0   0.0
-250.0   60.0   0.0
-300.0   90.0   0.0
-300.0   60.0   16.666666666666668
-250.0   60.0   0.0
-250.0   90.0   0.0
-300.0   90.0   0.0
-250.0   90.0   16.666666666666668
-300.0   60.0   16.666666666666668
-300.0   90.0   16.666666666666668
-250.0   90.0   16.666666666666668
-300.0   90.0   0.0
-300.0   60.0   16.666666666666668
-250.0   90.0   16.666666666666668
-250.0   60.0   16.666666666666668
-250.0   60.0   0.0
-300.0   60.0   16.666666666666668
-250.0   90.0   16.666666666666668
-250.0   60.0   0.0
-300.0   90.0   0.0
-300.0   60.0   16.666666666666668
-250.0   60.0   16.666666666666668
-300.0   90.0   16.666666666666668
-300.0   60.0   33.333333333333336
-250.0   60.0   16.666666666666668
-250.0   90.0   16.666666666666668
-300.0   90.0   16.666666666666668
-250.0   90.0   33.333333333333336
-300.0   60.0   33.333333333333336
-300.0   90.0   33.333333333333336
-250.0   90.0   33.333333333333336
-300.0   90.0   16.666666666666668
-300.0   60.0   33.333333333333336
-250.0   90.0   33.333333333333336
-250.0   60.0   33.333333333333336
-250.0   60.0   16.666666666666668
-300.0   60.0   33.333333333333336
-250.0   90.0   33.333333333333336
-250.0   60.0   16.666666666666668
-300.0   90.0   16.666666666666668
-300.0   60.0   33.333333333333336
-250.0   60.0   33.333333333333336
-300.0   90.0   33.333333333333336
-300.0   60.0   50.0
-250.0   60.0   33.333333333333336
-250.0   90.0   33.333333333333336
-300.0   90.0   33.333333333333336
-250.0   90.0   50.0
-300.0   60.0   50.0
-300.0   90.0   50.0
-250.0   90.0   50.0
-300.0   90.0   33.333333333333336
-300.0   60.0   50.0
-250.0   90.0   50.0
-250.0   60.0   50.0
-250.0   60.0   33.333333333333336
-300.0   60.0   50.0
-250.0   90.0   50.0
-250.0   60.0   33.333333333333336
-300.0   90.0   33.333333333333336
-300.0   90.0   0.0
-250.0   90.0   0.0
-300.0   120.0   0.0
-300.0   90.0   16.666666666666668
-250.0   90.0   0.0
-250.0   120.0   0.0
-300.0   120.0   0.0
-250.0   120.0   16.666666666666668
-300.0   90.0   16.666666666666668
-300.0   120.0   16.666666666666668
-250.0   120.0   16.666666666666668
-300.0   120.0   0.0
-300.0   90.0   16.666666666666668
-250.0   120.0   16.666666666666668
-250.0   90.0   16.666666666666668
-250.0   90.0   0.0
-300.0   90.0   16.666666666666668
-250.0   120.0   16.666666666666668
-250.0   90.0   0.0
-300.0   120.0   0.0
-300.0   90.0   16.666666666666668
-250.0   90.0   16.666666666666668
-300.0   120.0   16.666666666666668
-300.0   90.0   33.333333333333336
-250.0   90.0   16.666666666666668
-250.0   120.0   16.666666666666668
-300.0   120.0   16.666666666666668
-250.0   120.0   33.333333333333336
-300.0   90.0   33.333333333333336
-300.0   120.0   33.333333333333336
-250.0   120.0   33.333333333333336
-300.0   120.0   16.666666666666668
-300.0   90.0   33.333333333333336
-250.0   120.0   33.333333333333336
-250.0   90.0   33.333333333333336
-250.0   90.0   16.666666666666668
-300.0   90.0   33.333333333333336
-250.0   120.0   33.333333333333336
-250.0   90.0   16.666666666666668
-300.0   120.0   16.666666666666668
-300.0   90.0   33.333333333333336
-250.0   90.0   33.333333333333336
-300.0   120.0   33.333333333333336
-300.0   90.0   50.0
-250.0   90.0   33.333333333333336
-250.0   120.0   33.333333333333336
-300.0   120.0   33.333333333333336
-250.0   120.0   50.0
-300.0   90.0   50.0
-300.0   120.0   50.0
-250.0   120.0   50.0
-300.0   120.0   33.333333333333336
-300.0   90.0   50.0
-250.0   120.0   50.0
-250.0   90.0   50.0
-250.0   90.0   33.333333333333336
-300.0   90.0   50.0
-250.0   120.0   50.0
-250.0   90.0   33.333333333333336
-300.0   120.0   33.333333333333336
-300.0   120.0   0.0
-250.0   120.0   0.0
-300.0   150.0   0.0
-300.0   120.0   16.666666666666668
-250.0   120.0   0.0
-250.0   150.0   0.0
-300.0   150.0   0.0
-250.0   150.0   16.666666666666668
-300.0   120.0   16.666666666666668
-300.0   150.0   16.666666666666668
-250.0   150.0   16.666666666666668
-300.0   150.0   0.0
-300.0   120.0   16.666666666666668
-250.0   150.0   16.666666666666668
-250.0   120.0   16.666666666666668
-250.0   120.0   0.0
-300.0   120.0   16.666666666666668
-250.0   150.0   16.666666666666668
-250.0   120.0   0.0
-300.0   150.0   0.0
-300.0   120.0   16.666666666666668
-250.0   120.0   16.666666666666668
-300.0   150.0   16.666666666666668
-300.0   120.0   33.333333333333336
-250.0   120.0   16.666666666666668
-250.0   150.0   16.666666666666668
-300.0   150.0   16.666666666666668
-250.0   150.0   33.333333333333336
-300.0   120.0   33.333333333333336
-300.0   150.0   33.333333333333336
-250.0   150.0   33.333333333333336
-300.0   150.0   16.666666666666668
-300.0   120.0   33.333333333333336
-250.0   150.0   33.333333333333336
-250.0   120.0   33.333333333333336
-250.0   120.0   16.666666666666668
-300.0   120.0   33.333333333333336
-250.0   150.0   33.333333333333336
-250.0   120.0   16.666666666666668
-300.0   150.0   16.666666666666668
-300.0   120.0   33.333333333333336
-250.0   120.0   33.333333333333336
-300.0   150.0   33.333333333333336
-300.0   120.0   50.0
-250.0   120.0   33.333333333333336
-250.0   150.0   33.333333333333336
-300.0   150.0   33.333333333333336
-250.0   150.0   50.0
-300.0   120.0   50.0
-300.0   150.0   50.0
-250.0   150.0   50.0
-300.0   150.0   33.333333333333336
-300.0   120.0   50.0
-250.0   150.0   50.0
-250.0   120.0   50.0
-250.0   120.0   33.333333333333336
-300.0   120.0   50.0
-250.0   150.0   50.0
-250.0   120.0   33.333333333333336
-300.0   150.0   33.333333333333336
-250.0   0.0   0.0
-200.0   0.0   0.0
-250.0   30.0   0.0
-250.0   0.0   16.666666666666668
-200.0   0.0   0.0
-200.0   30.0   0.0
-250.0   30.0   0.0
-200.0   30.0   16.666666666666668
-250.0   0.0   16.666666666666668
-250.0   30.0   16.666666666666668
-200.0   30.0   16.666666666666668
-250.0   30.0   0.0
-250.0   0.0   16.666666666666668
-200.0   30.0   16.666666666666668
-200.0   0.0   16.666666666666668
-200.0   0.0   0.0
-250.0   0.0   16.666666666666668
-200.0   30.0   16.666666666666668
-200.0   0.0   0.0
-250.0   30.0   0.0
-250.0   0.0   16.666666666666668
-200.0   0.0   16.666666666666668
-250.0   30.0   16.666666666666668
-250.0   0.0   33.333333333333336
-200.0   0.0   16.666666666666668
-200.0   30.0   16.666666666666668
-250.0   30.0   16.666666666666668
-200.0   30.0   33.333333333333336
-250.0   0.0   33.333333333333336
-250.0   30.0   33.333333333333336
-200.0   30.0   33.333333333333336
-250.0   30.0   16.666666666666668
-250.0   0.0   33.333333333333336
-200.0   30.0   33.333333333333336
-200.0   0.0   33.333333333333336
-200.0   0.0   16.666666666666668
-250.0   0.0   33.333333333333336
-200.0   30.0   33.333333333333336
-200.0   0.0   16.666666666666668
-250.0   30.0   16.666666666666668
-250.0   0.0   33.333333333333336
-200.0   0.0   33.333333333333336
-250.0   30.0   33.333333333333336
-250.0   0.0   50.0
-200.0   0.0   33.333333333333336
-200.0   30.0   33.333333333333336
-250.0   30.0   33.333333333333336
-200.0   30.0   50.0
-250.0   0.0   50.0
-250.0   30.0   50.0
-200.0   30.0   50.0
-250.0   30.0   33.333333333333336
-250.0   0.0   50.0
-200.0   30.0   50.0
-200.0   0.0   50.0
-200.0   0.0   33.333333333333336
-250.0   0.0   50.0
-200.0   30.0   50.0
-200.0   0.0   33.333333333333336
-250.0   30.0   33.333333333333336
-250.0   30.0   0.0
-200.0   30.0   0.0
-250.0   60.0   0.0
-250.0   30.0   16.666666666666668
-200.0   30.0   0.0
-200.0   60.0   0.0
-250.0   60.0   0.0
-200.0   60.0   16.666666666666668
-250.0   30.0   16.666666666666668
-250.0   60.0   16.666666666666668
-200.0   60.0   16.666666666666668
-250.0   60.0   0.0
-250.0   30.0   16.666666666666668
-200.0   60.0   16.666666666666668
-200.0   30.0   16.666666666666668
-200.0   30.0   0.0
-250.0   30.0   16.666666666666668
-200.0   60.0   16.666666666666668
-200.0   30.0   0.0
-250.0   60.0   0.0
-250.0   30.0   16.666666666666668
-200.0   30.0   16.666666666666668
-250.0   60.0   16.666666666666668
-250.0   30.0   33.333333333333336
-200.0   30.0   16.666666666666668
-200.0   60.0   16.666666666666668
-250.0   60.0   16.666666666666668
-200.0   60.0   33.333333333333336
-250.0   30.0   33.333333333333336
-250.0   60.0   33.333333333333336
-200.0   60.0   33.333333333333336
-250.0   60.0   16.666666666666668
-250.0   30.0   33.333333333333336
-200.0   60.0   33.333333333333336
-200.0   30.0   33.333333333333336
-200.0   30.0   16.666666666666668
-250.0   30.0   33.333333333333336
-200.0   60.0   33.333333333333336
-200.0   30.0   16.666666666666668
-250.0   60.0   16.666666666666668
-250.0   30.0   33.333333333333336
-200.0   30.0   33.333333333333336
-250.0   60.0   33.333333333333336
-250.0   30.0   50.0
-200.0   30.0   33.333333333333336
-200.0   60.0   33.333333333333336
-250.0   60.0   33.333333333333336
-200.0   60.0   50.0
-250.0   30.0   50.0
-250.0   60.0   50.0
-200.0   60.0   50.0
-250.0   60.0   33.333333333333336
-250.0   30.0   50.0
-200.0   60.0   50.0
-200.0   30.0   50.0
-200.0   30.0   33.333333333333336
-250.0   30.0   50.0
-200.0   60.0   50.0
-200.0   30.0   33.333333333333336
-250.0   60.0   33.333333333333336
-250.0   60.0   0.0
-200.0   60.0   0.0
-250.0   90.0   0.0
-250.0   60.0   16.666666666666668
-200.0   60.0   0.0
-200.0   90.0   0.0
-250.0   90.0   0.0
-200.0   90.0   16.666666666666668
-250.0   60.0   16.666666666666668
-250.0   90.0   16.666666666666668
-200.0   90.0   16.666666666666668
-250.0   90.0   0.0
-250.0   60.0   16.666666666666668
-200.0   90.0   16.666666666666668
-200.0   60.0   16.666666666666668
-200.0   60.0   0.0
-250.0   60.0   16.666666666666668
-200.0   90.0   16.666666666666668
-200.0   60.0   0.0
-250.0   90.0   0.0
-250.0   60.0   16.666666666666668
-200.0   60.0   16.666666666666668
-250.0   90.0   16.666666666666668
-250.0   60.0   33.333333333333336
-200.0   60.0   16.666666666666668
-200.0   90.0   16.666666666666668
-250.0   90.0   16.666666666666668
-200.0   90.0   33.333333333333336
-250.0   60.0   33.333333333333336
-250.0   90.0   33.333333333333336
-200.0   90.0   33.333333333333336
-250.0   90.0   16.666666666666668
-250.0   60.0   33.333333333333336
-200.0   90.0   33.333333333333336
-200.0   60.0   33.333333333333336
-200.0   60.0   16.666666666666668
-250.0   60.0   33.333333333333336
-200.0   90.0   33.333333333333336
-200.0   60.0   16.666666666666668
-250.0   90.0   16.666666666666668
-250.0   60.0   33.333333333333336
-200.0   60.0   33.333333333333336
-250.0   90.0   33.333333333333336
-250.0   60.0   50.0
-200.0   60.0   33.333333333333336
-200.0   90.0   33.333333333333336
-250.0   90.0   33.333333333333336
-200.0   90.0   50.0
-250.0   60.0   50.0
-250.0   90.0   50.0
-200.0   90.0   50.0
-250.0   90.0   33.333333333333336
-250.0   60.0   50.0
-200.0   90.0   50.0
-200.0   60.0   50.0
-200.0   60.0   33.333333333333336
-250.0   60.0   50.0
-200.0   90.0   50.0
-200.0   60.0   33.333333333333336
-250.0   90.0   33.333333333333336
-250.0   90.0   0.0
-200.0   90.0   0.0
-250.0   120.0   0.0
-250.0   90.0   16.666666666666668
-200.0   90.0   0.0
-200.0   120.0   0.0
-250.0   120.0   0.0
-200.0   120.0   16.666666666666668
-250.0   90.0   16.666666666666668
-250.0   120.0   16.666666666666668
-200.0   120.0   16.666666666666668
-250.0   120.0   0.0
-250.0   90.0   16.666666666666668
-200.0   120.0   16.666666666666668
-200.0   90.0   16.666666666666668
-200.0   90.0   0.0
-250.0   90.0   16.666666666666668
-200.0   120.0   16.666666666666668
-200.0   90.0   0.0
-250.0   120.0   0.0
-250.0   90.0   16.666666666666668
-200.0   90.0   16.666666666666668
-250.0   120.0   16.666666666666668
-250.0   90.0   33.333333333333336
-200.0   90.0   16.666666666666668
-200.0   120.0   16.666666666666668
-250.0   120.0   16.666666666666668
-200.0   120.0   33.333333333333336
-250.0   90.0   33.333333333333336
-250.0   120.0   33.333333333333336
-200.0   120.0   33.333333333333336
-250.0   120.0   16.666666666666668
-250.0   90.0   33.333333333333336
-200.0   120.0   33.333333333333336
-200.0   90.0   33.333333333333336
-200.0   90.0   16.666666666666668
-250.0   90.0   33.333333333333336
-200.0   120.0   33.333333333333336
-200.0   90.0   16.666666666666668
-250.0   120.0   16.666666666666668
-250.0   90.0   33.333333333333336
-200.0   90.0   33.333333333333336
-250.0   120.0   33.333333333333336
-250.0   90.0   50.0
-200.0   90.0   33.333333333333336
-200.0   120.0   33.333333333333336
-250.0   120.0   33.333333333333336
-200.0   120.0   50.0
-250.0   90.0   50.0
-250.0   120.0   50.0
-200.0   120.0   50.0
-250.0   120.0   33.333333333333336
-250.0   90.0   50.0
-200.0   120.0   50.0
-200.0   90.0   50.0
-200.0   90.0   33.333333333333336
-250.0   90.0   50.0
-200.0   120.0   50.0
-200.0   90.0   33.333333333333336
-250.0   120.0   33.333333333333336
-250.0   120.0   0.0
-200.0   120.0   0.0
-250.0   150.0   0.0
-250.0   120.0   16.666666666666668
-200.0   120.0   0.0
-200.0   150.0   0.0
-250.0   150.0   0.0
-200.0   150.0   16.666666666666668
-250.0   120.0   16.666666666666668
-250.0   150.0   16.666666666666668
-200.0   150.0   16.666666666666668
-250.0   150.0   0.0
-250.0   120.0   16.666666666666668
-200.0   150.0   16.666666666666668
-200.0   120.0   16.666666666666668
-200.0   120.0   0.0
-250.0   120.0   16.666666666666668
-200.0   150.0   16.666666666666668
-200.0   120.0   0.0
-250.0   150.0   0.0
-250.0   120.0   16.666666666666668
-200.0   120.0   16.666666666666668
-250.0   150.0   16.666666666666668
-250.0   120.0   33.333333333333336
-200.0   120.0   16.666666666666668
-200.0   150.0   16.666666666666668
-250.0   150.0   16.666666666666668
-200.0   150.0   33.333333333333336
-250.0   120.0   33.333333333333336
-250.0   150.0   33.333333333333336
-200.0   150.0   33.333333333333336
-250.0   150.0   16.666666666666668
-250.0   120.0   33.333333333333336
-200.0   150.0   33.333333333333336
-200.0   120.0   33.333333333333336
-200.0   120.0   16.666666666666668
-250.0   120.0   33.333333333333336
-200.0   150.0   33.333333333333336
-200.0   120.0   16.666666666666668
-250.0   150.0   16.666666666666668
-250.0   120.0   33.333333333333336
-200.0   120.0   33.333333333333336
-250.0   150.0   33.333333333333336
-250.0   120.0   50.0
-200.0   120.0   33.333333333333336
-200.0   150.0   33.333333333333336
-250.0   150.0   33.333333333333336
-200.0   150.0   50.0
-250.0   120.0   50.0
-250.0   150.0   50.0
-200.0   150.0   50.0
-250.0   150.0   33.333333333333336
-250.0   120.0   50.0
-200.0   150.0   50.0
-200.0   120.0   50.0
-200.0   120.0   33.333333333333336
-250.0   120.0   50.0
-200.0   150.0   50.0
-200.0   120.0   33.333333333333336
-250.0   150.0   33.333333333333336
-200.0   0.0   0.0
-150.0   0.0   0.0
-200.0   30.0   0.0
-200.0   0.0   16.666666666666668
-150.0   0.0   0.0
-150.0   30.0   0.0
-200.0   30.0   0.0
-150.0   30.0   16.666666666666668
-200.0   0.0   16.666666666666668
-200.0   30.0   16.666666666666668
-150.0   30.0   16.666666666666668
-200.0   30.0   0.0
-200.0   0.0   16.666666666666668
-150.0   30.0   16.666666666666668
-150.0   0.0   16.666666666666668
-150.0   0.0   0.0
-200.0   0.0   16.666666666666668
-150.0   30.0   16.666666666666668
-150.0   0.0   0.0
-200.0   30.0   0.0
-200.0   0.0   16.666666666666668
-150.0   0.0   16.666666666666668
-200.0   30.0   16.666666666666668
-200.0   0.0   33.333333333333336
-150.0   0.0   16.666666666666668
-150.0   30.0   16.666666666666668
-200.0   30.0   16.666666666666668
-150.0   30.0   33.333333333333336
-200.0   0.0   33.333333333333336
-200.0   30.0   33.333333333333336
-150.0   30.0   33.333333333333336
-200.0   30.0   16.666666666666668
-200.0   0.0   33.333333333333336
-150.0   30.0   33.333333333333336
-150.0   0.0   33.333333333333336
-150.0   0.0   16.666666666666668
-200.0   0.0   33.333333333333336
-150.0   30.0   33.333333333333336
-150.0   0.0   16.666666666666668
-200.0   30.0   16.666666666666668
-200.0   0.0   33.333333333333336
-150.0   0.0   33.333333333333336
-200.0   30.0   33.333333333333336
-200.0   0.0   50.0
-150.0   0.0   33.333333333333336
-150.0   30.0   33.333333333333336
-200.0   30.0   33.333333333333336
-150.0   30.0   50.0
-200.0   0.0   50.0
-200.0   30.0   50.0
-150.0   30.0   50.0
-200.0   30.0   33.333333333333336
-200.0   0.0   50.0
-150.0   30.0   50.0
-150.0   0.0   50.0
-150.0   0.0   33.333333333333336
-200.0   0.0   50.0
-150.0   30.0   50.0
-150.0   0.0   33.333333333333336
-200.0   30.0   33.333333333333336
-200.0   30.0   0.0
-150.0   30.0   0.0
-200.0   60.0   0.0
-200.0   30.0   16.666666666666668
-150.0   30.0   0.0
-150.0   60.0   0.0
-200.0   60.0   0.0
-150.0   60.0   16.666666666666668
-200.0   30.0   16.666666666666668
-200.0   60.0   16.666666666666668
-150.0   60.0   16.666666666666668
-200.0   60.0   0.0
-200.0   30.0   16.666666666666668
-150.0   60.0   16.666666666666668
-150.0   30.0   16.666666666666668
-150.0   30.0   0.0
-200.0   30.0   16.666666666666668
-150.0   60.0   16.666666666666668
-150.0   30.0   0.0
-200.0   60.0   0.0
-200.0   30.0   16.666666666666668
-150.0   30.0   16.666666666666668
-200.0   60.0   16.666666666666668
-200.0   30.0   33.333333333333336
-150.0   30.0   16.666666666666668
-150.0   60.0   16.666666666666668
-200.0   60.0   16.666666666666668
-150.0   60.0   33.333333333333336
-200.0   30.0   33.333333333333336
-200.0   60.0   33.333333333333336
-150.0   60.0   33.333333333333336
-200.0   60.0   16.666666666666668
-200.0   30.0   33.333333333333336
-150.0   60.0   33.333333333333336
-150.0   30.0   33.333333333333336
-150.0   30.0   16.666666666666668
-200.0   30.0   33.333333333333336
-150.0   60.0   33.333333333333336
-150.0   30.0   16.666666666666668
-200.0   60.0   16.666666666666668
-200.0   30.0   33.333333333333336
-150.0   30.0   33.333333333333336
-200.0   60.0   33.333333333333336
-200.0   30.0   50.0
-150.0   30.0   33.333333333333336
-150.0   60.0   33.333333333333336
-200.0   60.0   33.333333333333336
-150.0   60.0   50.0
-200.0   30.0   50.0
-200.0   60.0   50.0
-150.0   60.0   50.0
-200.0   60.0   33.333333333333336
-200.0   30.0   50.0
-150.0   60.0   50.0
-150.0   30.0   50.0
-150.0   30.0   33.333333333333336
-200.0   30.0   50.0
-150.0   60.0   50.0
-150.0   30.0   33.333333333333336
-200.0   60.0   33.333333333333336
-200.0   60.0   0.0
-150.0   60.0   0.0
-200.0   90.0   0.0
-200.0   60.0   16.666666666666668
-150.0   60.0   0.0
-150.0   90.0   0.0
-200.0   90.0   0.0
-150.0   90.0   16.666666666666668
-200.0   60.0   16.666666666666668
-200.0   90.0   16.666666666666668
-150.0   90.0   16.666666666666668
-200.0   90.0   0.0
-200.0   60.0   16.666666666666668
-150.0   90.0   16.666666666666668
-150.0   60.0   16.666666666666668
-150.0   60.0   0.0
-200.0   60.0   16.666666666666668
-150.0   90.0   16.666666666666668
-150.0   60.0   0.0
-200.0   90.0   0.0
-200.0   60.0   16.666666666666668
-150.0   60.0   16.666666666666668
-200.0   90.0   16.666666666666668
-200.0   60.0   33.333333333333336
-150.0   60.0   16.666666666666668
-150.0   90.0   16.666666666666668
-200.0   90.0   16.666666666666668
-150.0   90.0   33.333333333333336
-200.0   60.0   33.333333333333336
-200.0   90.0   33.333333333333336
-150.0   90.0   33.333333333333336
-200.0   90.0   16.666666666666668
-200.0   60.0   33.333333333333336
-150.0   90.0   33.333333333333336
-150.0   60.0   33.333333333333336
-150.0   60.0   16.666666666666668
-200.0   60.0   33.333333333333336
-150.0   90.0   33.333333333333336
-150.0   60.0   16.666666666666668
-200.0   90.0   16.666666666666668
-200.0   60.0   33.333333333333336
-150.0   60.0   33.333333333333336
-200.0   90.0   33.333333333333336
-200.0   60.0   50.0
-150.0   60.0   33.333333333333336
-150.0   90.0   33.333333333333336
-200.0   90.0   33.333333333333336
-150.0   90.0   50.0
-200.0   60.0   50.0
-200.0   90.0   50.0
-150.0   90.0   50.0
-200.0   90.0   33.333333333333336
-200.0   60.0   50.0
-150.0   90.0   50.0
-150.0   60.0   50.0
-150.0   60.0   33.333333333333336
-200.0   60.0   50.0
-150.0   90.0   50.0
-150.0   60.0   33.333333333333336
-200.0   90.0   33.333333333333336
-200.0   90.0   0.0
-150.0   90.0   0.0
-200.0   120.0   0.0
-200.0   90.0   16.666666666666668
-150.0   90.0   0.0
-150.0   120.0   0.0
-200.0   120.0   0.0
-150.0   120.0   16.666666666666668
-200.0   90.0   16.666666666666668
-200.0   120.0   16.666666666666668
-150.0   120.0   16.666666666666668
-200.0   120.0   0.0
-200.0   90.0   16.666666666666668
-150.0   120.0   16.666666666666668
-150.0   90.0   16.666666666666668
-150.0   90.0   0.0
-200.0   90.0   16.666666666666668
-150.0   120.0   16.666666666666668
-150.0   90.0   0.0
-200.0   120.0   0.0
-200.0   90.0   16.666666666666668
-150.0   90.0   16.666666666666668
-200.0   120.0   16.666666666666668
-200.0   90.0   33.333333333333336
-150.0   90.0   16.666666666666668
-150.0   120.0   16.666666666666668
-200.0   120.0   16.666666666666668
-150.0   120.0   33.333333333333336
-200.0   90.0   33.333333333333336
-200.0   120.0   33.333333333333336
-150.0   120.0   33.333333333333336
-200.0   120.0   16.666666666666668
-200.0   90.0   33.333333333333336
-150.0   120.0   33.333333333333336
-150.0   90.0   33.333333333333336
-150.0   90.0   16.666666666666668
-200.0   90.0   33.333333333333336
-150.0   120.0   33.333333333333336
-150.0   90.0   16.666666666666668
-200.0   120.0   16.666666666666668
-200.0   90.0   33.333333333333336
-150.0   90.0   33.333333333333336
-200.0   120.0   33.333333333333336
-200.0   90.0   50.0
-150.0   90.0   33.333333333333336
-150.0   120.0   33.333333333333336
-200.0   120.0   33.333333333333336
-150.0   120.0   50.0
-200.0   90.0   50.0
-200.0   120.0   50.0
-150.0   120.0   50.0
-200.0   120.0   33.333333333333336
-200.0   90.0   50.0
-150.0   120.0   50.0
-150.0   90.0   50.0
-150.0   90.0   33.333333333333336
-200.0   90.0   50.0
-150.0   120.0   50.0
-150.0   90.0   33.333333333333336
-200.0   120.0   33.333333333333336
-200.0   120.0   0.0
-150.0   120.0   0.0
-200.0   150.0   0.0
-200.0   120.0   16.666666666666668
-150.0   120.0   0.0
-150.0   150.0   0.0
-200.0   150.0   0.0
-150.0   150.0   16.666666666666668
-200.0   120.0   16.666666666666668
-200.0   150.0   16.666666666666668
-150.0   150.0   16.666666666666668
-200.0   150.0   0.0
-200.0   120.0   16.666666666666668
-150.0   150.0   16.666666666666668
-150.0   120.0   16.666666666666668
-150.0   120.0   0.0
-200.0   120.0   16.666666666666668
-150.0   150.0   16.666666666666668
-150.0   120.0   0.0
-200.0   150.0   0.0
-200.0   120.0   16.666666666666668
-150.0   120.0   16.666666666666668
-200.0   150.0   16.666666666666668
-200.0   120.0   33.333333333333336
-150.0   120.0   16.666666666666668
-150.0   150.0   16.666666666666668
-200.0   150.0   16.666666666666668
-150.0   150.0   33.333333333333336
-200.0   120.0   33.333333333333336
-200.0   150.0   33.333333333333336
-150.0   150.0   33.333333333333336
-200.0   150.0   16.666666666666668
-200.0   120.0   33.333333333333336
-150.0   150.0   33.333333333333336
-150.0   120.0   33.333333333333336
-150.0   120.0   16.666666666666668
-200.0   120.0   33.333333333333336
-150.0   150.0   33.333333333333336
-150.0   120.0   16.666666666666668
-200.0   150.0   16.666666666666668
-200.0   120.0   33.333333333333336
-150.0   120.0   33.333333333333336
-200.0   150.0   33.333333333333336
-200.0   120.0   50.0
-150.0   120.0   33.333333333333336
-150.0   150.0   33.333333333333336
-200.0   150.0   33.333333333333336
-150.0   150.0   50.0
-200.0   120.0   50.0
-200.0   150.0   50.0
-150.0   150.0   50.0
-200.0   150.0   33.333333333333336
-200.0   120.0   50.0
-150.0   150.0   50.0
-150.0   120.0   50.0
-150.0   120.0   33.333333333333336
-200.0   120.0   50.0
-150.0   150.0   50.0
-150.0   120.0   33.333333333333336
-200.0   150.0   33.333333333333336
-150.0   0.0   0.0
-100.0   0.0   0.0
-150.0   30.0   0.0
-150.0   0.0   16.666666666666668
-100.0   0.0   0.0
-100.0   30.0   0.0
-150.0   30.0   0.0
-100.0   30.0   16.666666666666668
-150.0   0.0   16.666666666666668
-150.0   30.0   16.666666666666668
-100.0   30.0   16.666666666666668
-150.0   30.0   0.0
-150.0   0.0   16.666666666666668
-100.0   30.0   16.666666666666668
-100.0   0.0   16.666666666666668
-100.0   0.0   0.0
-150.0   0.0   16.666666666666668
-100.0   30.0   16.666666666666668
-100.0   0.0   0.0
-150.0   30.0   0.0
-150.0   0.0   16.666666666666668
-100.0   0.0   16.666666666666668
-150.0   30.0   16.666666666666668
-150.0   0.0   33.333333333333336
-100.0   0.0   16.666666666666668
-100.0   30.0   16.666666666666668
-150.0   30.0   16.666666666666668
-100.0   30.0   33.333333333333336
-150.0   0.0   33.333333333333336
-150.0   30.0   33.333333333333336
-100.0   30.0   33.333333333333336
-150.0   30.0   16.666666666666668
-150.0   0.0   33.333333333333336
-100.0   30.0   33.333333333333336
-100.0   0.0   33.333333333333336
-100.0   0.0   16.666666666666668
-150.0   0.0   33.333333333333336
-100.0   30.0   33.333333333333336
-100.0   0.0   16.666666666666668
-150.0   30.0   16.666666666666668
-150.0   0.0   33.333333333333336
-100.0   0.0   33.333333333333336
-150.0   30.0   33.333333333333336
-150.0   0.0   50.0
-100.0   0.0   33.333333333333336
-100.0   30.0   33.333333333333336
-150.0   30.0   33.333333333333336
-100.0   30.0   50.0
-150.0   0.0   50.0
-150.0   30.0   50.0
-100.0   30.0   50.0
-150.0   30.0   33.333333333333336
-150.0   0.0   50.0
-100.0   30.0   50.0
-100.0   0.0   50.0
-100.0   0.0   33.333333333333336
-150.0   0.0   50.0
-100.0   30.0   50.0
-100.0   0.0   33.333333333333336
-150.0   30.0   33.333333333333336
-150.0   30.0   0.0
-100.0   30.0   0.0
-150.0   60.0   0.0
-150.0   30.0   16.666666666666668
-100.0   30.0   0.0
-100.0   60.0   0.0
-150.0   60.0   0.0
-100.0   60.0   16.666666666666668
-150.0   30.0   16.666666666666668
-150.0   60.0   16.666666666666668
-100.0   60.0   16.666666666666668
-150.0   60.0   0.0
-150.0   30.0   16.666666666666668
-100.0   60.0   16.666666666666668
-100.0   30.0   16.666666666666668
-100.0   30.0   0.0
-150.0   30.0   16.666666666666668
-100.0   60.0   16.666666666666668
-100.0   30.0   0.0
-150.0   60.0   0.0
-150.0   30.0   16.666666666666668
-100.0   30.0   16.666666666666668
-150.0   60.0   16.666666666666668
-150.0   30.0   33.333333333333336
-100.0   30.0   16.666666666666668
-100.0   60.0   16.666666666666668
-150.0   60.0   16.666666666666668
-100.0   60.0   33.333333333333336
-150.0   30.0   33.333333333333336
-150.0   60.0   33.333333333333336
-100.0   60.0   33.333333333333336
-150.0   60.0   16.666666666666668
-150.0   30.0   33.333333333333336
-100.0   60.0   33.333333333333336
-100.0   30.0   33.333333333333336
-100.0   30.0   16.666666666666668
-150.0   30.0   33.333333333333336
-100.0   60.0   33.333333333333336
-100.0   30.0   16.666666666666668
-150.0   60.0   16.666666666666668
-150.0   30.0   33.333333333333336
-100.0   30.0   33.333333333333336
-150.0   60.0   33.333333333333336
-150.0   30.0   50.0
-100.0   30.0   33.333333333333336
-100.0   60.0   33.333333333333336
-150.0   60.0   33.333333333333336
-100.0   60.0   50.0
-150.0   30.0   50.0
-150.0   60.0   50.0
-100.0   60.0   50.0
-150.0   60.0   33.333333333333336
-150.0   30.0   50.0
-100.0   60.0   50.0
-100.0   30.0   50.0
-100.0   30.0   33.333333333333336
-150.0   30.0   50.0
-100.0   60.0   50.0
-100.0   30.0   33.333333333333336
-150.0   60.0   33.333333333333336
-150.0   60.0   0.0
-100.0   60.0   0.0
-150.0   90.0   0.0
-150.0   60.0   16.666666666666668
-100.0   60.0   0.0
-100.0   90.0   0.0
-150.0   90.0   0.0
-100.0   90.0   16.666666666666668
-150.0   60.0   16.666666666666668
-150.0   90.0   16.666666666666668
-100.0   90.0   16.666666666666668
-150.0   90.0   0.0
-150.0   60.0   16.666666666666668
-100.0   90.0   16.666666666666668
-100.0   60.0   16.666666666666668
-100.0   60.0   0.0
-150.0   60.0   16.666666666666668
-100.0   90.0   16.666666666666668
-100.0   60.0   0.0
-150.0   90.0   0.0
-150.0   60.0   16.666666666666668
-100.0   60.0   16.666666666666668
-150.0   90.0   16.666666666666668
-150.0   60.0   33.333333333333336
-100.0   60.0   16.666666666666668
-100.0   90.0   16.666666666666668
-150.0   90.0   16.666666666666668
-100.0   90.0   33.333333333333336
-150.0   60.0   33.333333333333336
-150.0   90.0   33.333333333333336
-100.0   90.0   33.333333333333336
-150.0   90.0   16.666666666666668
-150.0   60.0   33.333333333333336
-100.0   90.0   33.333333333333336
-100.0   60.0   33.333333333333336
-100.0   60.0   16.666666666666668
-150.0   60.0   33.333333333333336
-100.0   90.0   33.333333333333336
-100.0   60.0   16.666666666666668
-150.0   90.0   16.666666666666668
-150.0   60.0   33.333333333333336
-100.0   60.0   33.333333333333336
-150.0   90.0   33.333333333333336
-150.0   60.0   50.0
-100.0   60.0   33.333333333333336
-100.0   90.0   33.333333333333336
-150.0   90.0   33.333333333333336
-100.0   90.0   50.0
-150.0   60.0   50.0
-150.0   90.0   50.0
-100.0   90.0   50.0
-150.0   90.0   33.333333333333336
-150.0   60.0   50.0
-100.0   90.0   50.0
-100.0   60.0   50.0
-100.0   60.0   33.333333333333336
-150.0   60.0   50.0
-100.0   90.0   50.0
-100.0   60.0   33.333333333333336
-150.0   90.0   33.333333333333336
-150.0   90.0   0.0
-100.0   90.0   0.0
-150.0   120.0   0.0
-150.0   90.0   16.666666666666668
-100.0   90.0   0.0
-100.0   120.0   0.0
-150.0   120.0   0.0
-100.0   120.0   16.666666666666668
-150.0   90.0   16.666666666666668
-150.0   120.0   16.666666666666668
-100.0   120.0   16.666666666666668
-150.0   120.0   0.0
-150.0   90.0   16.666666666666668
-100.0   120.0   16.666666666666668
-100.0   90.0   16.666666666666668
-100.0   90.0   0.0
-150.0   90.0   16.666666666666668
-100.0   120.0   16.666666666666668
-100.0   90.0   0.0
-150.0   120.0   0.0
-150.0   90.0   16.666666666666668
-100.0   90.0   16.666666666666668
-150.0   120.0   16.666666666666668
-150.0   90.0   33.333333333333336
-100.0   90.0   16.666666666666668
-100.0   120.0   16.666666666666668
-150.0   120.0   16.666666666666668
-100.0   120.0   33.333333333333336
-150.0   90.0   33.333333333333336
-150.0   120.0   33.333333333333336
-100.0   120.0   33.333333333333336
-150.0   120.0   16.666666666666668
-150.0   90.0   33.333333333333336
-100.0   120.0   33.333333333333336
-100.0   90.0   33.333333333333336
-100.0   90.0   16.666666666666668
-150.0   90.0   33.333333333333336
-100.0   120.0   33.333333333333336
-100.0   90.0   16.666666666666668
-150.0   120.0   16.666666666666668
-150.0   90.0   33.333333333333336
-100.0   90.0   33.333333333333336
-150.0   120.0   33.333333333333336
-150.0   90.0   50.0
-100.0   90.0   33.333333333333336
-100.0   120.0   33.333333333333336
-150.0   120.0   33.333333333333336
-100.0   120.0   50.0
-150.0   90.0   50.0
-150.0   120.0   50.0
-100.0   120.0   50.0
-150.0   120.0   33.333333333333336
-150.0   90.0   50.0
-100.0   120.0   50.0
-100.0   90.0   50.0
-100.0   90.0   33.333333333333336
-150.0   90.0   50.0
-100.0   120.0   50.0
-100.0   90.0   33.333333333333336
-150.0   120.0   33.333333333333336
-150.0   120.0   0.0
-100.0   120.0   0.0
-150.0   150.0   0.0
-150.0   120.0   16.666666666666668
-100.0   120.0   0.0
-100.0   150.0   0.0
-150.0   150.0   0.0
-100.0   150.0   16.666666666666668
-150.0   120.0   16.666666666666668
-150.0   150.0   16.666666666666668
-100.0   150.0   16.666666666666668
-150.0   150.0   0.0
-150.0   120.0   16.666666666666668
-100.0   150.0   16.666666666666668
-100.0   120.0   16.666666666666668
-100.0   120.0   0.0
-150.0   120.0   16.666666666666668
-100.0   150.0   16.666666666666668
-100.0   120.0   0.0
-150.0   150.0   0.0
-150.0   120.0   16.666666666666668
-100.0   120.0   16.666666666666668
-150.0   150.0   16.666666666666668
-150.0   120.0   33.333333333333336
-100.0   120.0   16.666666666666668
-100.0   150.0   16.666666666666668
-150.0   150.0   16.666666666666668
-100.0   150.0   33.333333333333336
-150.0   120.0   33.333333333333336
-150.0   150.0   33.333333333333336
-100.0   150.0   33.333333333333336
-150.0   150.0   16.666666666666668
-150.0   120.0   33.333333333333336
-100.0   150.0   33.333333333333336
-100.0   120.0   33.333333333333336
-100.0   120.0   16.666666666666668
-150.0   120.0   33.333333333333336
-100.0   150.0   33.333333333333336
-100.0   120.0   16.666666666666668
-150.0   150.0   16.666666666666668
-150.0   120.0   33.333333333333336
-100.0   120.0   33.333333333333336
-150.0   150.0   33.333333333333336
-150.0   120.0   50.0
-100.0   120.0   33.333333333333336
-100.0   150.0   33.333333333333336
-150.0   150.0   33.333333333333336
-100.0   150.0   50.0
-150.0   120.0   50.0
-150.0   150.0   50.0
-100.0   150.0   50.0
-150.0   150.0   33.333333333333336
-150.0   120.0   50.0
-100.0   150.0   50.0
-100.0   120.0   50.0
-100.0   120.0   33.333333333333336
-150.0   120.0   50.0
-100.0   150.0   50.0
-100.0   120.0   33.333333333333336
-150.0   150.0   33.333333333333336
-100.0   0.0   0.0
-50.0   0.0   0.0
-100.0   30.0   0.0
-100.0   0.0   16.666666666666668
-50.0   0.0   0.0
-50.0   30.0   0.0
-100.0   30.0   0.0
-50.0   30.0   16.666666666666668
-100.0   0.0   16.666666666666668
-100.0   30.0   16.666666666666668
-50.0   30.0   16.666666666666668
-100.0   30.0   0.0
-100.0   0.0   16.666666666666668
-50.0   30.0   16.666666666666668
-50.0   0.0   16.666666666666668
-50.0   0.0   0.0
-100.0   0.0   16.666666666666668
-50.0   30.0   16.666666666666668
-50.0   0.0   0.0
-100.0   30.0   0.0
-100.0   0.0   16.666666666666668
-50.0   0.0   16.666666666666668
-100.0   30.0   16.666666666666668
-100.0   0.0   33.333333333333336
-50.0   0.0   16.666666666666668
-50.0   30.0   16.666666666666668
-100.0   30.0   16.666666666666668
-50.0   30.0   33.333333333333336
-100.0   0.0   33.333333333333336
-100.0   30.0   33.333333333333336
-50.0   30.0   33.333333333333336
-100.0   30.0   16.666666666666668
-100.0   0.0   33.333333333333336
-50.0   30.0   33.333333333333336
-50.0   0.0   33.333333333333336
-50.0   0.0   16.666666666666668
-100.0   0.0   33.333333333333336
-50.0   30.0   33.333333333333336
-50.0   0.0   16.666666666666668
-100.0   30.0   16.666666666666668
-100.0   0.0   33.333333333333336
-50.0   0.0   33.333333333333336
-100.0   30.0   33.333333333333336
-100.0   0.0   50.0
-50.0   0.0   33.333333333333336
-50.0   30.0   33.333333333333336
-100.0   30.0   33.333333333333336
-50.0   30.0   50.0
-100.0   0.0   50.0
-100.0   30.0   50.0
-50.0   30.0   50.0
-100.0   30.0   33.333333333333336
-100.0   0.0   50.0
-50.0   30.0   50.0
-50.0   0.0   50.0
-50.0   0.0   33.333333333333336
-100.0   0.0   50.0
-50.0   30.0   50.0
-50.0   0.0   33.333333333333336
-100.0   30.0   33.333333333333336
-100.0   30.0   0.0
-50.0   30.0   0.0
-100.0   60.0   0.0
-100.0   30.0   16.666666666666668
-50.0   30.0   0.0
-50.0   60.0   0.0
-100.0   60.0   0.0
-50.0   60.0   16.666666666666668
-100.0   30.0   16.666666666666668
-100.0   60.0   16.666666666666668
-50.0   60.0   16.666666666666668
-100.0   60.0   0.0
-100.0   30.0   16.666666666666668
-50.0   60.0   16.666666666666668
-50.0   30.0   16.666666666666668
-50.0   30.0   0.0
-100.0   30.0   16.666666666666668
-50.0   60.0   16.666666666666668
-50.0   30.0   0.0
-100.0   60.0   0.0
-100.0   30.0   16.666666666666668
-50.0   30.0   16.666666666666668
-100.0   60.0   16.666666666666668
-100.0   30.0   33.333333333333336
-50.0   30.0   16.666666666666668
-50.0   60.0   16.666666666666668
-100.0   60.0   16.666666666666668
-50.0   60.0   33.333333333333336
-100.0   30.0   33.333333333333336
-100.0   60.0   33.333333333333336
-50.0   60.0   33.333333333333336
-100.0   60.0   16.666666666666668
-100.0   30.0   33.333333333333336
-50.0   60.0   33.333333333333336
-50.0   30.0   33.333333333333336
-50.0   30.0   16.666666666666668
-100.0   30.0   33.333333333333336
-50.0   60.0   33.333333333333336
-50.0   30.0   16.666666666666668
-100.0   60.0   16.666666666666668
-100.0   30.0   33.333333333333336
-50.0   30.0   33.333333333333336
-100.0   60.0   33.333333333333336
-100.0   30.0   50.0
-50.0   30.0   33.333333333333336
-50.0   60.0   33.333333333333336
-100.0   60.0   33.333333333333336
-50.0   60.0   50.0
-100.0   30.0   50.0
-100.0   60.0   50.0
-50.0   60.0   50.0
-100.0   60.0   33.333333333333336
-100.0   30.0   50.0
-50.0   60.0   50.0
-50.0   30.0   50.0
-50.0   30.0   33.333333333333336
-100.0   30.0   50.0
-50.0   60.0   50.0
-50.0   30.0   33.333333333333336
-100.0   60.0   33.333333333333336
-100.0   60.0   0.0
-50.0   60.0   0.0
-100.0   90.0   0.0
-100.0   60.0   16.666666666666668
-50.0   60.0   0.0
-50.0   90.0   0.0
-100.0   90.0   0.0
-50.0   90.0   16.666666666666668
-100.0   60.0   16.666666666666668
-100.0   90.0   16.666666666666668
-50.0   90.0   16.666666666666668
-100.0   90.0   0.0
-100.0   60.0   16.666666666666668
-50.0   90.0   16.666666666666668
-50.0   60.0   16.666666666666668
-50.0   60.0   0.0
-100.0   60.0   16.666666666666668
-50.0   90.0   16.666666666666668
-50.0   60.0   0.0
-100.0   90.0   0.0
-100.0   60.0   16.666666666666668
-50.0   60.0   16.666666666666668
-100.0   90.0   16.666666666666668
-100.0   60.0   33.333333333333336
-50.0   60.0   16.666666666666668
-50.0   90.0   16.666666666666668
-100.0   90.0   16.666666666666668
-50.0   90.0   33.333333333333336
-100.0   60.0   33.333333333333336
-100.0   90.0   33.333333333333336
-50.0   90.0   33.333333333333336
-100.0   90.0   16.666666666666668
-100.0   60.0   33.333333333333336
-50.0   90.0   33.333333333333336
-50.0   60.0   33.333333333333336
-50.0   60.0   16.666666666666668
-100.0   60.0   33.333333333333336
-50.0   90.0   33.333333333333336
-50.0   60.0   16.666666666666668
-100.0   90.0   16.666666666666668
-100.0   60.0   33.333333333333336
-50.0   60.0   33.333333333333336
-100.0   90.0   33.333333333333336
-100.0   60.0   50.0
-50.0   60.0   33.333333333333336
-50.0   90.0   33.333333333333336
-100.0   90.0   33.333333333333336
-50.0   90.0   50.0
-100.0   60.0   50.0
-100.0   90.0   50.0
-50.0   90.0   50.0
-100.0   90.0   33.333333333333336
-100.0   60.0   50.0
-50.0   90.0   50.0
-50.0   60.0   50.0
-50.0   60.0   33.333333333333336
-100.0   60.0   50.0
-50.0   90.0   50.0
-50.0   60.0   33.333333333333336
-100.0   90.0   33.333333333333336
-100.0   90.0   0.0
-50.0   90.0   0.0
-100.0   120.0   0.0
-100.0   90.0   16.666666666666668
-50.0   90.0   0.0
-50.0   120.0   0.0
-100.0   120.0   0.0
-50.0   120.0   16.666666666666668
-100.0   90.0   16.666666666666668
-100.0   120.0   16.666666666666668
-50.0   120.0   16.666666666666668
-100.0   120.0   0.0
-100.0   90.0   16.666666666666668
-50.0   120.0   16.666666666666668
-50.0   90.0   16.666666666666668
-50.0   90.0   0.0
-100.0   90.0   16.666666666666668
-50.0   120.0   16.666666666666668
-50.0   90.0   0.0
-100.0   120.0   0.0
-100.0   90.0   16.666666666666668
-50.0   90.0   16.666666666666668
-100.0   120.0   16.666666666666668
-100.0   90.0   33.333333333333336
-50.0   90.0   16.666666666666668
-50.0   120.0   16.666666666666668
-100.0   120.0   16.666666666666668
-50.0   120.0   33.333333333333336
-100.0   90.0   33.333333333333336
-100.0   120.0   33.333333333333336
-50.0   120.0   33.333333333333336
-100.0   120.0   16.666666666666668
-100.0   90.0   33.333333333333336
-50.0   120.0   33.333333333333336
-50.0   90.0   33.333333333333336
-50.0   90.0   16.666666666666668
-100.0   90.0   33.333333333333336
-50.0   120.0   33.333333333333336
-50.0   90.0   16.666666666666668
-100.0   120.0   16.666666666666668
-100.0   90.0   33.333333333333336
-50.0   90.0   33.333333333333336
-100.0   120.0   33.333333333333336
-100.0   90.0   50.0
-50.0   90.0   33.333333333333336
-50.0   120.0   33.333333333333336
-100.0   120.0   33.333333333333336
-50.0   120.0   50.0
-100.0   90.0   50.0
-100.0   120.0   50.0
-50.0   120.0   50.0
-100.0   120.0   33.333333333333336
-100.0   90.0   50.0
-50.0   120.0   50.0
-50.0   90.0   50.0
-50.0   90.0   33.333333333333336
-100.0   90.0   50.0
-50.0   120.0   50.0
-50.0   90.0   33.333333333333336
-100.0   120.0   33.333333333333336
-100.0   120.0   0.0
-50.0   120.0   0.0
-100.0   150.0   0.0
-100.0   120.0   16.666666666666668
-50.0   120.0   0.0
-50.0   150.0   0.0
-100.0   150.0   0.0
-50.0   150.0   16.666666666666668
-100.0   120.0   16.666666666666668
-100.0   150.0   16.666666666666668
-50.0   150.0   16.666666666666668
-100.0   150.0   0.0
-100.0   120.0   16.666666666666668
-50.0   150.0   16.666666666666668
-50.0   120.0   16.666666666666668
-50.0   120.0   0.0
-100.0   120.0   16.666666666666668
-50.0   150.0   16.666666666666668
-50.0   120.0   0.0
-100.0   150.0   0.0
-100.0   120.0   16.666666666666668
-50.0   120.0   16.666666666666668
-100.0   150.0   16.666666666666668
-100.0   120.0   33.333333333333336
-50.0   120.0   16.666666666666668
-50.0   150.0   16.666666666666668
-100.0   150.0   16.666666666666668
-50.0   150.0   33.333333333333336
-100.0   120.0   33.333333333333336
-100.0   150.0   33.333333333333336
-50.0   150.0   33.333333333333336
-100.0   150.0   16.666666666666668
-100.0   120.0   33.333333333333336
-50.0   150.0   33.333333333333336
-50.0   120.0   33.333333333333336
-50.0   120.0   16.666666666666668
-100.0   120.0   33.333333333333336
-50.0   150.0   33.333333333333336
-50.0   120.0   16.666666666666668
-100.0   150.0   16.666666666666668
-100.0   120.0   33.333333333333336
-50.0   120.0   33.333333333333336
-100.0   150.0   33.333333333333336
-100.0   120.0   50.0
-50.0   120.0   33.333333333333336
-50.0   150.0   33.333333333333336
-100.0   150.0   33.333333333333336
-50.0   150.0   50.0
-100.0   120.0   50.0
-100.0   150.0   50.0
-50.0   150.0   50.0
-100.0   150.0   33.333333333333336
-100.0   120.0   50.0
-50.0   150.0   50.0
-50.0   120.0   50.0
-50.0   120.0   33.333333333333336
-100.0   120.0   50.0
-50.0   150.0   50.0
-50.0   120.0   33.333333333333336
-100.0   150.0   33.333333333333336
-50.0   0.0   0.0
0.0   0.0   0.0
-50.0   30.0   0.0
-50.0   0.0   16.666666666666668
0.0   0.0   0.0
0.0   30.0   0.0
-50.0   30.0   0.0
0.0   30.0   16.666666666666668
-50.0   0.0   16.666666666666668
-50.0   30.0   16.666666666666668
0.0   30.0   16.666666666666668
-50.0   30.0   0.0
-50.0   0.0   16.666666666666668
0.0   30.0   16.666666666666668
0.0   0.0   16.666666666666668
0.0   0.0   0.0
-50.0   0.0   16.666666666666668
0.0   30.0   16.666666666666668
0.0   0.0   0.0
-50.0   30.0   0.0
-50.0   0.0   16.666666666666668
0.0   0.0   16.666666666666668
-50.0   30.0   16.666666666666668
-50.0   0.0   33.333333333333336
0.0   0.0   16.666666666666668
0.0   30.0   16.666666666666668
-50.0   30.0   16.666666666666668
0.0   30.0   33.333333333333336
-50.0   0.0   33.333333333333336
-50.0   30.0   33.333333333333336
0.0   30.0   33.333333333333336
-50.0   30.0   16.666666666666668
-50.0   0.0   33.333333333333336
0.0   30.0   33.333333333333336
0.0   0.0   33.333333333333336
0.0   0.0   16.666666666666668
-50.0   0.0   33.333333333333336
0.0   30.0   33.333333333333336
0.0   0.0   16.666666666666668
-50.0   30.0   16.666666666666668
-50.0   0.0   33.333333333333336
0.0   0.0   33.333333333333336
-50.0   30.0   33.333333333333336
-50.0   0.0   50.0
0.0   0.0   33.333333333333336
0.0   30.0   33.333333333333336
-50.0   30.0   33.333333333333336
0.0   30.0   50.0
-50.0   0.0   50.0
-50.0   30.0   50.0
0.0   30.0   50.0
-50.0   30.0   33.333333333333336
-50.0   0.0   50.0
0.0   30.0   50.0
0.0   0.0   50.0
0.0   0.0   33.333333333333336
-50.0   0.0   50.0
0.0   30.0   50.0
0.0   0.0   33.333333333333336
-50.0   30.0   33.333333333333336
-50.0   30.0   0.0
0.0   30.0   0.0
-50.0   60.0   0.0
-50.0   30.0   16.666666666666668
0.0   30.0   0.0
0.0   60.0   0.0
-50.0   60.0   0.0
0.0   60.0   16.666666666666668
-50.0   30.0   16.666666666666668
-50.0   60.0   16.666666666666668
0.0   60.0   16.666666666666668
-50.0   60.0   0.0
-50.0   30.0   16.666666666666668
0.0   60.0   16.666666666666668
0.0   30.0   16.666666666666668
0.0   30.0   0.0
-50.0   30.0   16.666666666666668
0.0   60.0   16.666666666666668
0.0   30.0   0.0
-50.0   60.0   0.0
-50.0   30.0   16.666666666666668
0.0   30.0   16.666666666666668
-50.0   60.0   16.666666666666668
-50.0   30.0   33.333333333333336
0.0   30.0   16.666666666666668
0.0   60.0   16.666666666666668
-50.0   60.0   16.666666666666668
0.0   60.0   33.333333333333336
-50.0   30.0   33.333333333333336
-50.0   60.0   33.333333333333336
0.0   60.0   33.333333333333336
-50.0   60.0   16.666666666666668
-50.0   30.0   33.333333333333336
0.0   60.0   33.333333333333336
0.0   30.0   33.333333333333336
0.0   30.0   16.666666666666668
-50.0   30.0   33.333333333333336
0.0   60.0   33.333333333333336
0.0   30.0   16.666666666666668
-50.0   60.0   16.666666666666668
-50.0   30.0   33.333333333333336
0.0   30.0   33.333333333333336
-50.0   60.0   33.333333333333336
-50.0   30.0   50.0
0.0   30.0   33.333333333333336
0.0   60.0   33.333333333333336
-50.0   60.0   33.333333333333336
0.0   60.0   50.0
-50.0   30.0   50.0
-50.0   60.0   50.0
0.0   60.0   50.0
-50.0   60.0   33.333333333333336
-50.0   30.0   50.0
0.0   60.0   50.0
0.0   30.0   50.0
0.0   30.0   33.333333333333336
-50.0   30.0   50.0
0.0   60.0   50.0
0.0   30.0   33.333333333333336
-50.0   60.0   33.333333333333336
-50.0   60.0   0.0
0.0   60.0   0.0
-50.0   90.0   0.0
-50.0   60.0   16.666666666666668
0.0   60.0   0.0
0.0   90.0   0.0
-50.0   90.0   0.0
0.0   90.0   16.666666666666668
-50.0   60.0   16.666666666666668
-50.0   90.0   16.666666666666668
0.0   90.0   16.666666666666668
-50.0   90.0   0.0
-50.0   60.0   16.666666666666668
0.0   90.0   16.666666666666668
0.0   60.0   16.666666666666668
0.0   60.0   0.0
-50.0   60.0   16.666666666666668
0.0   90.0   16.666666666666668
0.0   60.0   0.0
-50.0   90.0   0.0
-50.0   60.0   16.666666666666668
0.0   60.0   16.666666666666668
-50.0   90.0   16.666666666666668
-50.0   60.0   33.333333333333336
0.0   60.0   16.666666666666668
0.0   90.0   16.666666666666668
-50.0   90.0   16.666666666666668
0.0   90.0   33.333333333333336
-50.0   60.0   33.333333333333336
-50.0   90.0   33.333333333333336
0.0   90.0   33.333333333333336
-50.0   90.0   16.666666666666668
-50.0   60.0   33.333333333333336
0.0   90.0   33.333333333333336
0.0   60.0   33.333333333333336
0.0   60.0   16.666666666666668
-50.0   60.0   33.333333333333336
0.0   90.0   33.333333333333336
0.0   60.0   16.666666666666668
-50.0   90.0   16.666666666666668
-50.0   60.0   33.333333333333336
0.0   60.0   33.333333333333336
-50.0   90.0   33.333333333333336
-50.0   60.0   50.0
0.0   60.0   33.333333333333336
0.0   90.0   33.333333333333336
-50.0   90.0   33.333333333333336
0.0   90.0   50.0
-50.0   60.0   50.0
-50.0   90.0   50.0
0.0   90.0   50.0
-50.0   90.0   33.333333333333336
-50.0   60.0   50.0
0.0   90.0   50.0
0.0   60.0   50.0
0.0   60.0   33.333333333333336
-50.0   60.0   50.0
0.0   90.0   50.0
0.0   60.0   33.333333333333336
-50.0   90.0   33.333333333333336
-50.0   90.0   0.0
0.0   90.0   0.0
-50.0   120.0   0.0
-50.0   90.0   16.666666666666668
0.0   90.0   0.0
0.0   120.0   0.0
-50.0   120.0   0.0
0.0   120.0   16.666666666666668
-50.0   90.0   16.666666666666668
-50.0   120.0   16.666666666666668
0.0   120.0   16.666666666666668
-50.0   120.0   0.0
-50.0   90.0   16.666666666666668
0.0   120.0   16.666666666666668
0.0   90.0   16.666666666666668
0.0   90.0   0.0
-50.0   90.0   16.666666666666668
0.0   120.0   16.666666666666668
0.0   90.0   0.0
-50.0   120.0   0.0
-50.0   90.0   16.666666666666668
0.0   90.0   16.666666666666668
-50.0   120.0   16.666666666666668
-50.0   90.0   33.333333333333336
0.0   90.0   16.666666666666668
0.0   120.0   16.666666666666668
-50.0   120.0   16.666666666666668
0.0   120.0   33.333333333333336
-50.0   90.0   33.333333333333336
-50.0   120.0   33.333333333333336
0.0   120.0   33.333333333333336
-50.0   120.0   16.666666666666668
-50.0   90.0   33.333333333333336
0.0   120.0   33.333333333333336
0.0   90.0   33.333333333333336
0.0   90.0   16.666666666666668
-50.0   90.0   33.333333333333336
0.0   120.0   33.333333333333336
0.0   90.0   16.666666666666668
-50.0   120.0   16.666666666666668
-50.0   90.0   33.333333333333336
0.0   90.0   33.333333333333336
-50.0   120.0   33.333333333333336
-50.0   90.0   50.0
0.0   90.0   33.333333333333336
0.0   120.0   33.333333333333336
-50.0   120.0   33.333333333333336
0.0   120.0   50.0
-50.0   90.0   50.0
-50.0   120.0   50.0
0.0   120.0   50.0
-50.0   120.0   33.333333333333336
-50.0   90.0   50.0
0.0   120.0   50.0
0.0   90.0   50.0
0.0   90.0   33.333333333333336
-50.0   90.0   50.0
0.0   120.0   50.0
0.0   90.0   33.333333333333336
-50.0   120.0   33.333333333333336
-50.0   120.0   0.0
0.0   120.0   0.0
-50.0   150.0   0.0
-50.0   120.0   16.666666666666668
0.0   120.0   0.0
0.0   150.0   0.0
-50.0   150.0   0.0
0.0   150.0   16.666666666666668
-50.0   120.0   16.666666666666668
-50.0   150.0   16.666666666666668
0.0   150.0   16.666666666666668
-50.0   150.0   0.0
-50.0   120.0   16.666666666666668
0.0   150.0   16.666666666666668
0.0   120.0   16.666666666666668
0.0   120.0   0.0
-50.0   120.0   16.666666666666668
0.0   150.0   16.666666666666668
0.0   120.0   0.0
-50.0   150.0   0.0
-50.0   120.0   16.666666666666668
0.0   120.0   16.666666666666668
-50.0   150.0   16.666666666666668
-50.0   120.0   33.333333333333336
0.0   120.0   16.666666666666668
0.0   150.0   16.666666666666668
-50.0   150.0   16.666666666666668
0.0   150.0   33.333333333333336
-50.0   120.0   33.333333333333336
-50.0   150.0   33.333333333333336
0.0   150.0   33.333333333333336
-50.0   150.0   16.666666666666668
-50.0   120.0   33.333333333333336
0.0   150.0   33.333333333333336
0.0   120.0   33.333333333333336
0.0   120.0   16.666666666666668
-50.0   120.0   33.333333333333336
0.0   150.0   33.333333333333336
0.0   120.0   16.666666666666668
-50.0   150.0   16.666666666666668
-50.0   120.0   33.333333333333336
0.0   120.0   33.333333333333336
-50.0   150.0   33.333333333333336
-50.0   120.0   50.0
0.0   120.0   33.333333333333336
0.0   150.0   33.333333333333336
-50.0   150.0   33.333333333333336
0.0   150.0   50.0
-50.0   120.0   50.0
-50.0   150.0   50.0
0.0   150.0   50.0
-50.0   150.0   33.333333333333336
-50.0   120.0   50.0
0.0   150.0   50.0
0.0   120.0   50.0
0.0   120.0   33.333333333333336
-50.0   120.0   50.0
0.0   150.0   50.0
0.0   120.0   33.333333333333336
-50.0   150.0   33.333333333333336
0.0   0.0   0.0
50.0   0.0   0.0
0.0   30.0   0.0
0.0   0.0   16.666666666666668
50.0   0.0   0.0
50.0   30.0   0.0
0.0   30.0   0.0
50.0   30.0   16.666666666666668
0.0   0.0   16.666666666666668
0.0   30.0   16.666666666666668
50.0   30.0   16.666666666666668
0.0   30.0   0.0
0.0   0.0   16.666666666666668
50.0   30.0   16.666666666666668
50.0   0.0   16.666666666666668
50.0   0.0   0.0
0.0   0.0   16.666666666666668
50.0   30.0   16.666666666666668
50.0   0.0   0.0
0.0   30.0   0.0
0.0   0.0   16.666666666666668
50.0   0.0   16.666666666666668
0.0   30.0   16.666666666666668
0.0   0.0   33.333333333333336
50.0   0.0   16.666666666666668
50.0   30.0   16.666666666666668
0.0   30.0   16.666666666666668
50.0   30.0   33.333333333333336
0.0   0.0   33.333333333333336
0.0   30.0   33.333333333333336
50.0   30.0   33.333333333333336
0.0   30.0   16.666666666666668
0.0   0.0   33.333333333333336
50.0   30.0   33.333333333333336
50.0   0.0   33.333333333333336
50.0   0.0   16.666666666666668
0.0   0.0   33.333333333333336
50.0   30.0   33.333333333333336
50.0   0.0   16.666666666666668
0.0   30.0   16.666666666666668
0.0   0.0   33.333333333333336
50.0   0.0   33.333333333333336
0.0   30.0   33.333333333333336
0.0   0.0   50.0
50.0   0.0   33.333333333333336
50.0   30.0   33.333333333333336
0.0   30.0   33.333333333333336
50.0   30.0   50.0
0.0   0.0   50.0
0.0   30.0   50.0
50.0   30.0   50.0
0.0   30.0   33.333333333333336
0.0   0.0   50.0
50.0   30.0   50.0
50.0   0.0   50.0
50.0   0.0   33.333333333333336
0.0   0.0   50.0
50.0   30.0   50.0
50.0   0.0   33.333333333333336
0.0   30.0   33.333333333333336
0.0   30.0   0.0
50.0   30.0   0.0
0.0   60.0   0.0
0.0   30.0   16.666666666666668
50.0   30.0   0.0
50.0   60.0   0.0
0.0   60.0   0.0
50.0   60.0   16.666666666666668
0.0   30.0   16.666666666666668
0.0   60.0   16.666666666666668
50.0   60.0   16.666666666666668
0.0   60.0   0.0
0.0   30.0   16.666666666666668
50.0   60.0   16.666666666666668
50.0   30.0   16.666666666666668
50.0   30.0   0.0
0.0   30.0   16.666666666666668
50.0   60.0   16.666666666666668
50.0   30.0   0.0
0.0   60.0   0.0
0.0   30.0   16.666666666666668
50.0   30.0   16.666666666666668
0.0   60.0   16.666666666666668
0.0   30.0   33.333333333333336
50.0   30.0   16.666666666666668
50.0   60.0   16.666666666666668
0.0   60.0   16.666666666666668
50.0   60.0   33.333333333333336
0.0   30.0   33.333333333333336
0.0   60.0   33.333333333333336
50.0   60.0   33.333333333333336
0.0   60.0   16.666666666666668
0.0   30.0   33.333333333333336
50.0   60.0   33.333333333333336
50.0   30.0   33.333333333333336
50.0   30.0   16.666666666666668
0.0   30.0   33.333333333333336
50.0   60.0   33.333333333333336
50.0   30.0   16.666666666666668
0.0   60.0   16.666666666666668
0.0   30.0   33.333333333333336
50.0   30.0   33.333333333333336
0.0   60.0   33.333333333333336
0.0   30.0   50.0
50.0   30.0   33.333333333333336
50.0   60.0   33.333333333333336
0.0   60.0   33.333333333333336
50.0   60.0   50.0
0.0   30.0   50.0
0.0   60.0   50.0
50.0   60.0   50.0
0.0   60.0   33.333333333333336
0.0   30.0   50.0
50.0   60.0   50.0
50.0   30.0   50.0
50.0   30.0   33.333333333333336
0.0   30.0   50.0
50.0   60.0   50.0
50.0   30.0   33.333333333333336
0.0   60.0   33.333333333333336
0.0   60.0   0.0
50.0   60.0   0.0
0.0   90.0   0.0
0.0   60.0   16.666666666666668
50.0   60.0   0.0
50.0   90.0   0.0
0.0   90.0   0.0
50.0   90.0   16.666666666666668
0.0   60.0   16.666666666666668
0.0   90.0   16.666666666666668
50.0   90.0   16.666666666666668
0.0   90.0   0.0
0.0   60.0   16.666666666666668
50.0   90.0   16.666666666666668
50.0   60.0   16.666666666666668
50.0   60.0   0.0
0.0   60.0   16.666666666666668
50.0   90.0   16.666666666666668
50.0   60.0   0.0
0.0   90.0   0.0
0.0   60.0   16.666666666666668
50.0   60.0   16.666666666666668
0.0   90.0   16.666666666666668
0.0   60.0   33.333333333333336
50.0   60.0   16.666666666666668
50.0   90.0   16.666666666666668
0.0   90.0   16.666666666666668
50.0   90.0   33.333333333333336
0.0   60.0   33.333333333333336
0.0   90.0   33.333333333333336
50.0   90.0   33.333333333333336
0.0   90.0   16.666666666666668
0.0   60.0   33.333333333333336
50.0   90.0   33.333333333333336
50.0   60.0   33.333333333333336
50.0   60.0   16.666666666666668
0.0   60.0   33.333333333333336
50.0   90.0   33.333333333333336
50.0   60.0   16.666666666666668
0.0   90.0   16.666666666666668
0.0   60.0   33.333333333333336
50.0   60.0   33.333333333333336
0.0   90.0   33.333333333333336
0.0   60.0   50.0
50.0   60.0   33.333333333333336
50.0   90.0   33.333333333333336
0.0   90.0   33.333333333333336
50.0   90.0   50.0
0.0   60.0   50.0
0.0   90.0   50.0
50.0   90.0   50.0
0.0   90.0   33.333333333333336
0.0   60.0   50.0
50.0   90.0   50.0
50.0   60.0   50.0
50.0   60.0   33.333333333333336
0.0   60.0   50.0
50.0   90.0   50.0
50.0   60.0   33.333333333333336
0.0   90.0   33.333333333333336
0.0   90.0   0.0
50.0   90.0   0.0
0.0   120.0   0.0
0.0   90.0   16.666666666666668
50.0   90.0   0.0
50.0   120.0   0.0
0.0   120.0   0.0
50.0   120.0   16.666666666666668
0.0   90.0   16.666666666666668
0.0   120.0   16.666666666666668
50.0   120.0   16.666666666666668
0.0   120.0   0.0
0.0   90.0   16.666666666666668
50.0   120.0   16.666666666666668
50.0   90.0   16.666666666666668
50.0   90.0   0.0
0.0   90.0   16.666666666666668
50.0   120.0   16.666666666666668
50.0   90.0   0.0
0.0   120.0   0.0
0.0   90.0   16.666666666666668
50.0   90.0   16.666666666666668
0.0   120.0   16.666666666666668
0.0   90.0   33.333333333333336
50.0   90.0   16.666666666666668
50.0   120.0   16.666666666666668
0.0   120.0   16.666666666666668
50.0   120.0   33.333333333333336
0.0   90.0   33.333333333333336
0.0   120.0   33.333333333333336
50.0   120.0   33.333333333333336
0.0   120.0   16.666666666666668
0.0   90.0   33.333333333333336
50.0   120.0   33.333333333333336
50.0   90.0   33.333333333333336
50.0   90.0   16.666666666666668
0.0   90.0   33.333333333333336
50.0   120.0   33.333333333333336
50.0   90.0   16.666666666666668
0.0   120.0   16.666666666666668
0.0   90.0   33.333333333333336
50.0   90.0   33.333333333333336
0.0   120.0   33.333333333333336
0.0   90.0   50.0
50.0   90.0   33.333333333333336
50.0   120.0   33.333333333333336
0.0   120.0   33.333333333333336
50.0   120.0   50.0
0.0   90.0   50.0
0.0   120.0   50.0
50.0   120.0   50.0
0.0   120.0   33.333333333333336
0.0   90.0   50.0
50.0   120.0   50.0
50.0   90.0   50.0
50.0   90.0   33.333333333333336
0.0   90.0   50.0
50.0   120.0   50.0
50.0   90.0   33.333333333333336
0.0   120.0   33.333333333333336
0.0   120.0   0.0
50.0   120.0   0.0
0.0   150.0   0.0
0.0   120.0   16.666666666666668
50.0   120.0   0.0
50.0   150.0   0.0
0.0   150.0   0.0
50.0   150.0   16.666666666666668
0.0   120.0   16.666666666666668
0.0   150.0   16.666666666666668
50.0   150.0   16.666666666666668
0.0   150.0   0.0
0.0   120.0   16.666666666666668
50.0   150.0   16.666666666666668
50.0   120.0   16.666666666666668
50.0   120.0   0.0
0.0   120.0   16.666666666666668
50.0   150.0   16.666666666666668
50.0   120.0   0.0
0.0   150.0   0.0
0.0   120.0   16.666666666666668
50.0   120.0   16.666666666666668
0.0   150.0   16.666666666666668
0.0   120.0   33.333333333333336
50.0   120.0   16.666666666666668
50.0   150.0   16.666666666666668
0.0   150.0   16.666666666666668
50.0   150.0   33.333333333333336
0.0   120.0   33.333333333333336
0.0   150.0   33.333333333333336
50.0   150.0   33.333333333333336
0.0   150.0   16.666666666666668
0.0   120.0   33.333333333333336
50.0   150.0   33.333333333333336
50.0   120.0   33.333333333333336
50.0   120.0   16.666666666666668
0.0   120.0   33.333333333333336
50.0   150.0   33.333333333333336
50.0   120.0   16.666666666666668
0.0   150.0   16.666666666666668
0.0   120.0   33.333333333333336
50.0   120.0   33.333333333333336
0.0   150.0   33.333333333333336
0.0   120.0   50.0
50.0   120.0   33.333333333333336
50.0   150.0   33.333333333333336
0.0   150.0   33.333333333333336
50.0   150.0   50.0
0.0   120.0   50.0
0.0   150.0   50.0
50.0   150.0   50.0
0.0   150.0   33.333333333333336
0.0   120.0   50.0
50.0   150.0   50.0
50.0   120.0   50.0
50.0   120.0   33.333333333333336
0.0   120.0   50.0
50.0   150.0   50.0
50.0   120.0   33.333333333333336
0.0   150.0   33.333333333333336
50.0   0.0   0.0
100.0   0.0   0.0
50.0   30.0   0.0
50.0   0.0   16.666666666666668
100.0   0.0   0.0
100.0   30.0   0.0
50.0   30.0   0.0
100.0   30.0   16.666666666666668
50.0   0.0   16.666666666666668
50.0   30.0   16.666666666666668
100.0   30.0   16.666666666666668
50.0   30.0   0.0
50.0   0.0   16.666666666666668
100.0   30.0   16.666666666666668
100.0   0.0   16.666666666666668
100.0   0.0   0.0
50.0   0.0   16.666666666666668
100.0   30.0   16.666666666666668
100.0   0.0   0.0
50.0   30.0   0.0
50.0   0.0   16.666666666666668
100.0   0.0   16.666666666666668
50.0   30.0   16.666666666666668
50.0   0.0   33.333333333333336
100.0   0.0   16.666666666666668
100.0   30.0   16.666666666666668
50.0   30.0   16.666666666666668
100.0   30.0   33.333333333333336
50.0   0.0   33.333333333333336
50.0   30.0   33.333333333333336
100.0   30.0   33.333333333333336
50.0   30.0   16.666666666666668
50.0   0.0   33.333333333333336
100.0   30.0   33.333333333333336
100.0   0.0   33.333333333333336
100.0   0.0   16.666666666666668
50.0   0.0   33.333333333333336
100.0   30.0   33.333333333333336
100.0   0.0   16.666666666666668
50.0   30.0   16.666666666666668
50.0   0.0   33.333333333333336
100.0   0.0   33.333333333333336
50.0   30.0   33.333333333333336
50.0   0.0   50.0
100.0   0.0   33.333333333333336
100.0   30.0   33.333333333333336
50.0   30.0   33.333333333333336
100.0   30.0   50.0
50.0   0.0   50.0
50.0   30.0   50.0
100.0   30.0   50.0
50.0   30.0   33.333333333333336
50.0   0.0   50.0
100.0   30.0   50.0
100.0   0.0   50.0
100.0   0.0   33.333333333333336
50.0   0.0   50.0
100.0   30.0   50.0
100.0   0.0   33.333333333333336
50.0   30.0   33.333333333333336
50.0   30.0   0.0
100.0   30.0   0.0
50.0   60.0   0.0
50.0   30.0   16.666666666666668
100.0   30.0   0.0
100.0   60.0   0.0
50.0   60.0   0.0
100.0   60.0   16.666666666666668
50.0   30.0   16.666666666666668
50.0   60.0   16.666666666666668
100.0   60.0   16.666666666666668
50.0   60.0   0.0
50.0   30.0   16.666666666666668
100.0   60.0   16.666666666666668
100.0   30.0   16.666666666666668
100.0   30.0   0.0
50.0   30.0   16.666666666666668
100.0   60.0   16.666666666666668
100.0   30.0   0.0
50.0   60.0   0.0
50.0   30.0   16.666666666666668
100.0   30.0   16.666666666666668
50.0   60.0   16.666666666666668
50.0   30.0   33.333333333333336
100.0   30.0   16.666666666666668
100.0   60.0   16.666666666666668
50.0   60.0   16.666666666666668
100.0   60.0   33.333333333333336
50.0   30.0   33.333333333333336
50.0   60.0   33.333333333333336
100.0   60.0   33.333333333333336
50.0   60.0   16.666666666666668
50.0   30.0   33.333333333333336
100.0   60.0   33.333333333333336
100.0   30.0   33.333333333333336
100.0   30.0   16.666666666666668
50.0   30.0   33.333333333333336
100.0   60.0   33.333333333333336
100.0   30.0   16.666666666666668
50.0   60.0   16.666666666666668
50.0   30.0   33.333333333333336
100.0   30.0   33.333333333333336
50.0   60.0   33.333333333333336
50.0   30.0   50.0
100.0   30.0   33.333333333333336
100.0   60.0   33.333333333333336
50.0   60.0   33.333333333333336
100.0   60.0   50.0
50.0   30.0   50.0
50.0   60.0   50.0
100.0   60.0   50.0
50.0   60.0   33.333333333333336
50.0   30.0   50.0
100.0   60.0   50.0
100.0   30.0   50.0
100.0   30.0   33.333333333333336
50.0   30.0   50.0
100.0   60.0   50.0
100.0   30.0   33.333333333333336
50.0   60.0   33.333333333333336
50.0   60.0   0.0
100.0   60.0   0.0
50.0   90.0   0.0
50.0   60.0   16.666666666666668
100.0   60.0   0.0
100.0   90.0   0.0
50.0   90.0   0.0
100.0   90.0   16.666666666666668
50.0   60.0   16.666666666666668
50.0   90.0   16.666666666666668
100.0   90.0   16.666666666666668
50.0   90.0   0.0
50.0   60.0   16.666666666666668
100.0   90.0   16.666666666666668
100.0   60.0   16.666666666666668
100.0   60.0   0.0
50.0   60.0   16.666666666666668
100.0   90.0   16.666666666666668
100.0   60.0   0.0
50.0   90.0   0.0
50.0   60.0   16.666666666666668
100.0   60.0   16.666666666666668
50.0   90.0   16.666666666666668
50.0   60.0   33.333333333333336
100.0   60.0   16.666666666666668
100.0   90.0   16.666666666666668
50.0   90.0   16.666666666666668
100.0   90.0   33.333333333333336
50.0   60.0   33.333333333333336
50.0   90.0   33.333333333333336
100.0   90.0   33.333333333333336
50.0   90.0   16.666666666666668
50.0   60.0   33.333333333333336
100.0   90.0   33.333333333333336
100.0   60.0   33.333333333333336
100.0   60.0   16.666666666666668
50.0   60.0   33.333333333333336
100.0   90.0   33.333333333333336
100.0   60.0   16.666666666666668
50.0   90.0   16.666666666666668
50.0   60.0   33.333333333333336
100.0   60.0   33.333333333333336
50.0   90.0   33.333333333333336
50.0   60.0   50.0
100.0   60.0   33.333333333333336
100.0   90.0   33.333333333333336
50.0   90.0   33.333333333333336
100.0   90.0   50.0
50.0   60.0   50.0
50.0   90.0   50.0
100.0   90.0   50.0
50.0   90.0   33.333333333333336
50.0   60.0   50.0
100.0   90.0   50.0
100.0   60.0   50.0
100.0   60.0   33.333333333333336
50.0   60.0   50.0
100.0   90.0   50.0
100.0   60.0   33.333333333333336
50.0   90.0   33.333333333333336
50.0   90.0   0.0
100.0   90.0   0.0
50.0   120.0   0.0
50.0   90.0   16.666666666666668
100.0   90.0   0.0
100.0   120.0   0.0
50.0   120.0   0.0
100.0   120.0   16.666666666666668
50.0   90.0   16.666666666666668
50.0   120.0   16.666666666666668
100.0   120.0   16.666666666666668
50.0   120.0   0.0
50.0   90.0   16.666666666666668
100.0   120.0   16.666666666666668
100.0   90.0   16.666666666666668
100.0   90.0   0.0
50.0   90.0   16.666666666666668
100.0   120.0   16.666666666666668
100.0   90.0   0.0
50.0   120.0   0.0
50.0   90.0   16.666666666666668
100.0   90.0   16.666666666666668
50.0   120.0   16.666666666666668
50.0   90.0   33.333333333333336
100.0   90.0   16.666666666666668
100.0   120.0   16.666666666666668
50.0   120.0   16.666666666666668
100.0   120.0   33.333333333333336
50.0   90.0   33.333333333333336
50.0   120.0   33.333333333333336
100.0   120.0   33.333333333333336
50.0   120.0   16.666666666666668
50.0   90.0   33.333333333333336
100.0   120.0   33.333333333333336
100.0   90.0   33.333333333333336
100.0   90.0   16.666666666666668
50.0   90.0   33.333333333333336
100.0   120.0   33.333333333333336
100.0   90.0   16.666666666666668
50.0   120.0   16.666666666666668
50.0   90.0   33.333333333333336
100.0   90.0   33.333333333333336
50.0   120.0   33.333333333333336
50.0   90.0   50.0
100.0   90.0   33.333333333333336
100.0   120.0   33.333333333333336
50.0   120.0   33.333333333333336
100.0   120.0   50.0
50.0   90.0   50.0
50.0   120.0   50.0
100.0   120.0   50.0
50.0   120.0   33.333333333333336
50.0   90.0   50.0
100.0   120.0   50.0
100.0   90.0   50.0
100.0   90.0   33.333333333333336
50.0   90.0   50.0
100.0   120.0   50.0
100.0   90.0   33.333333333333336
50.0   120.0   33.333333333333336
50.0   120.0   0.0
100.0   120.0   0.0
50.0   150.0   0.0
50.0   120.0   16.666666666666668
100.0   120.0   0.0
100.0   150.0   0.0
50.0   150.0   0.0
100.0   150.0   16.666666666666668
50.0   120.0   16.666666666666668
50.0   150.0   16.666666666666668
100.0   150.0   16.666666666666668
50.0   150.0   0.0
50.0   120.0   16.666666666666668
100.0   150.0   16.666666666666668
100.0   120.0   16.666666666666668
100.0   120.0   0.0
50.0   120.0   16.666666666666668
100.0   150.0   16.666666666666668
100.0   120.0   0.0
50.0   150.0   0.0
50.0   120.0   16.666666666666668
100.0   120.0   16.666666666666668
50.0   150.0   16.666666666666668
50.0   120.0   33.333333333333336
100.0   120.0   16.666666666666668
100.0   150.0   16.666666666666668
50.0   150.0   16.666666666666668
100.0   150.0   33.333333333333336
50.0   120.0   33.333333333333336
50.0   150.0   33.333333333333336
100.0   150.0   33.333333333333336
50.0   150.0   16.666666666666668
50.0   120.0   33.333333333333336
100.0   150.0   33.333333333333336
100.0   120.0   33.333333333333336
100.0   120.0   16.666666666666668
50.0   120.0   33.333333333333336
100.0   150.0   33.333333333333336
100.0   120.0   16.666666666666668
50.0   150.0   16.666666666666668
50.0   120.0   33.333333333333336
100.0   120.0   33.333333333333336
50.0   150.0   33.333333333333336
50.0   120.0   50.0
100.0   120.0   33.333333333333336
100.0   150.0   33.333333333333336
50.0   150.0   33.333333333333336
100.0   150.0   50.0
50.0   120.0   50.0
50.0   150.0   50.0
100.0   150.0   50.0
50.0   150.0   33.333333333333336
50.0   120.0   50.0
100.0   150.0   50.0
100.0   120.0   50.0
100.0   120.0   33.333333333333336
50.0   120.0   50.0
100.0   150.0   50.0
100.0   120.0   33.333333333333336
50.0   150.0   33.333333333333336
100.0   0.0   0.0
150.0   0.0   0.0
100.0   30.0   0.0
100.0   0.0   16.666666666666668
150.0   0.0   0.0
150.0   30.0   0.0
100.0   30.0   0.0
150.0   30.0   16.666666666666668
100.0   0.0   16.666666666666668
100.0   30.0   16.666666666666668
150.0   30.0   16.666666666666668
100.0   30.0   0.0
100.0   0.0   16.666666666666668
150.0   30.0   16.666666666666668
150.0   0.0   16.666666666666668
150.0   0.0   0.0
100.0   0.0   16.666666666666668
150.0   30.0   16.666666666666668
150.0   0.0   0.0
100.0   30.0   0.0
100.0   0.0   16.666666666666668
150.0   0.0   16.666666666666668
100.0   30.0   16.666666666666668
100.0   0.0   33.333333333333336
150.0   0.0   16.666666666666668
150.0   30.0   16.666666666666668
100.0   30.0   16.666666666666668
150.0   30.0   33.333333333333336
100.0   0.0   33.333333333333336
100.0   30.0   33.333333333333336
150.0   30.0   33.333333333333336
100.0   30.0   16.666666666666668
100.0   0.0   33.333333333333336
150.0   30.0   33.333333333333336
150.0   0.0   33.333333333333336
150.0   0.0   16.666666666666668
100.0   0.0   33.333333333333336
150.0   30.0   33.333333333333336
150.0   0.0   16.666666666666668
100.0   30.0   16.666666666666668
100.0   0.0   33.333333333333336
150.0   0.0   33.333333333333336
100.0   30.0   33.333333333333336
100.0   0.0   50.0
150.0   0.0   33.333333333333336
150.0   30.0   33.333333333333336
100.0   30.0   33.333333333333336
150.0   30.0   50.0
100.0   0.0   50.0
100.0   30.0   50.0
150.0   30.0   50.0
100.0   30.0   33.333333333333336
100.0   0.0   50.0
150.0   30.0   50.0
150.0   0.0   50.0
150.0   0.0   33.333333333333336
100.0   0.0   50.0
150.0   30.0   50.0
150.0   0.0   33.333333333333336
100.0   30.0   33.333333333333336
100.0   30.0   0.0
150.0   30.0   0.0
100.0   60.0   0.0
100.0   30.0   16.666666666666668
150.0   30.0   0.0
150.0   60.0   0.0
100.0   60.0   0.0
150.0   60.0   16.666666666666668
100.0   30.0   16.666666666666668
100.0   60.0   16.666666666666668
150.0   60.0   16.666666666666668
100.0   60.0   0.0
100.0   30.0   16.666666666666668
150.0   60.0   16.666666666666668
150.0   30.0   16.666666666666668
150.0   30.0   0.0
100.0   30.0   16.666666666666668
150.0   60.0   16.666666666666668
150.0   30.0   0.0
100.0   60.0   0.0
100.0   30.0   16.666666666666668
150.0   30.0   16.666666666666668
100.0   60.0   16.666666666666668
100.0   30.0   33.333333333333336
150.0   30.0   16.666666666666668
150.0   60.0   16.666666666666668
100.0   60.0   16.666666666666668
150.0   60.0   33.333333333333336
100.0   30.0   33.333333333333336
100.0   60.0   33.333333333333336
150.0   60.0   33.333333333333336
100.0   60.0   16.666666666666668
100.0   30.0   33.333333333333336
150.0   60.0   33.333333333333336
150.0   30.0   33.333333333333336
150.0   30.0   16.666666666666668
100.0   30.0   33.333333333333336
150.0   60.0   33.333333333333336
150.0   30.0   16.666666666666668
100.0   60.0   16.666666666666668
100.0   30.0   33.333333333333336
150.0   30.0   33.333333333333336
100.0   60.0   33.333333333333336
100.0   30.0   50.0
150.0   30.0   33.333333333333336
150.0   60.0   33.333333333333336
100.0   60.0   33.333333333333336
150.0   60.0   50.0
100.0   30.0   50.0
100.0   60.0   50.0
150.0   60.0   50.0
100.0   60.0   33.333333333333336
100.0   30.0   50.0
150.0   60.0   50.0
150.0   30.0   50.0
150.0   30.0   33.333333333333336
100.0   30.0   50.0
150.0   60.0   50.0
150.0   30.0   33.333333333333336
100.0   60.0   33.333333333333336
100.0   60.0   0.0
150.0   60.0   0.0
100.0   90.0   0.0
100.0   60.0   16.666666666666668
150.0   60.0   0.0
150.0   90.0   0.0
100.0   90.0   0.0
150.0   90.0   16.666666666666668
100.0   60.0   16.666666666666668
100.0   90.0   16.666666666666668
150.0   90.0   16.666666666666668
100.0   90.0   0.0
100.0   60.0   16.666666666666668
150.0   90.0   16.666666666666668
150.0   60.0   16.666666666666668
150.0   60.0   0.0
100.0   60.0   16.666666666666668
150.0   90.0   16.666666666666668
150.0   60.0   0.0
100.0   90.0   0.0
100.0   60.0   16.666666666666668
150.0   60.0   16.666666666666668
100.0   90.0   16.666666666666668
100.0   60.0   33.333333333333336
150.0   60.0   16.666666666666668
150.0   90.0   16.666666666666668
100.0   90.0   16.666666666666668
150.0   90.0   33.333333333333336
100.0   60.0   33.333333333333336
100.0   90.0   33.333333333333336
150.0   90.0   33.333333333333336
100.0   90.0   16.666666666666668
100.0   60.0   33.333333333333336
150.0   90.0   33.333333333333336
150.0   60.0   33.333333333333336
150.0   60.0   16.666666666666668
100.0   60.0   33.333333333333336
150.0   90.0   33.333333333333336
150.0   60.0   16.666666666666668
100.0   90.0   16.666666666666668
100.0   60.0   33.333333333333336
150.0   60.0   33.333333333333336
100.0   90.0   33.333333333333336
100.0   60.0   50.0
150.0   60.0   33.333333333333336
150.0   90.0   33.333333333333336
100.0   90.0   33.333333333333336
150.0   90.0   50.0
100.0   60.0   50.0
100.0   90.0   50.0
150.0   90.0   50.0
100.0   90.0   33.333333333333336
100.0   60.0   50.0
150.0   90.0   50.0
150.0   60.0   50.0
150.0   60.0   33.333333333333336
100.0   60.0   50.0
150.0   90.0   50.0
150.0   60.0   33.333333333333336
100.0   90.0   33.333333333333336
100.0   90.0   0.0
150.0   90.0   0.0
100.0   120.0   0.0
100.0   90.0   16.666666666666668
150.0   90.0   0.0
150.0   120.0   0.0
100.0   120.0   0.0
150.0   120.0   16.666666666666668
100.0   90.0   16.666666666666668
100.0   120.0   16.666666666666668
150.0   120.0   16.666666666666668
100.0   120.0   0.0
100.0   90.0   16.666666666666668
150.0   120.0   16.666666666666668
150.0   90.0   16.666666666666668
150.0   90.0   0.0
100.0   90.0   16.666666666666668
150.0   120.0   16.666666666666668
150.0   90.0   0.0
100.0   120.0   0.0
100.0   90.0   16.666666666666668
150.0   90.0   16.666666666666668
100.0   120.0   16.666666666666668
100.0   90.0   33.333333333333336
150.0   90.0   16.666666666666668
150.0   120.0   16.666666666666668
100.0   120.0   16.666666666666668
150.0   120.0   33.333333333333336
100.0   90.0   33.333333333333336
100.0   120.0   33.333333333333336
150.0   120.0   33.333333333333336
100.0   120.0   16.666666666666668
100.0   90.0   33.333333333333336
150.0   120.0   33.333333333333336
150.0   90.0   33.333333333333336
150.0   90.0   16.666666666666668
100.0   90.0   33.333333333333336
150.0   120.0   33.333333333333336
150.0   90.0   16.666666666666668
100.0   120.0   16.666666666666668
100.0   90.0   33.333333333333336
150.0   90.0   33.333333333333336
100.0   120.0   33.333333333333336
100.0   90.0   50.0
150.0   90.0   33.333333333333336
150.0   120.0   33.333333333333336
100.0   120.0   33.333333333333336
150.0   120.0   50.0
100.0   90.0   50.0
100.0   120.0   50.0
150.0   120.0   50.0
100.0   120.0   33.333333333333336
100.0   90.0   50.0
150.0   120.0   50.0
150.0   90.0   50.0
150.0   90.0   33.333333333333336
100.0   90.0   50.0
150.0   120.0   50.0
150.0   90.0   33.333333333333336
100.0   120.0   33.333333333333336
100.0   120.0   0.0
150.0   120.0   0.0
100.0   150.0   0.0
100.0   120.0   16.666666666666668
150.0   120.0   0.0
150.0   150.0   0.0
100.0   150.0   0.0
150.0   150.0   16.666666666666668
100.0   120.0   16.666666666666668
100.0   150.0   16.666666666666668
150.0   150.0   16.666666666666668
100.0   150.0   0.0
100.0   120.0   16.666666666666668
150.0   150.0   16.666666666666668
150.0   120.0   16.666666666666668
150.0   120.0   0.0
100.0   120.0   16.666666666666668
150.0   150.0   16.666666666666668
150.0   120.0   0.0
100.0   150.0   0.0
100.0   120.0   16.666666666666668
150.0   120.0   16.666666666666668
100.0   150.0   16.666666666666668
100.0   120.0   33.333333333333336
150.0   120.0   16.666666666666668
150.0   150.0   16.666666666666668
100.0   150.0   16.666666666666668
150.0   150.0   33.333333333333336
100.0   120.0   33.333333333333336
100.0   150.0   33.333333333333336
150.0   150.0   33.333333333333336
100.0   150.0   16.666666666666668
100.0   120.0   33.333333333333336
150.0   150.0   33.333333333333336
150.0   120.0   33.333333333333336
150.0   120.0   16.666666666666668
100.0   120.0   33.333333333333336
150.0   150.0   33.333333333333336
150.0   120.0   16.666666666666668
100.0   150.0   16.666666666666668
100.0   120.0   33.333333333333336
150.0   120.0   33.333333333333336
100.0   150.0   33.333333333333336
100.0   120.0   50.0
150.0   120.0   33.333333333333336
150.0   150.0   33.333333333333336
100.0   150.0   33.333333333333336
150.0   150.0   50.0
100.0   120.0   50.0
100.0   150.0   50.0
150.0   150.0   50.0
100.0   150.0   33.333333333333336
100.0   120.0   50.0
150.0   150.0   50.0
150.0   120.0   50.0
150.0   120.0   33.333333333333336
100.0   120.0   50.0
150.0   150.0   50.0
150.0   120.0   33.333333333333336
100.0   150.0   33.333333333333336
150.0   0.0   0.0
200.0   0.0   0.0
150.0   30.0   0.0
150.0   0.0   16.666666666666668
200.0   0.0   0.0
200.0   30.0   0.0
150.0   30.0   0.0
200.0   30.0   16.666666666666668
150.0   0.0   16.666666666666668
150.0   30.0   16.666666666666668
200.0   30.0   16.666666666666668
150.0   30.0   0.0
150.0   0.0   16.666666666666668
200.0   30.0   16.666666666666668
200.0   0.0   16.666666666666668
200.0   0.0   0.0
150.0   0.0   16.666666666666668
200.0   30.0   16.666666666666668
200.0   0.0   0.0
150.0   30.0   0.0
150.0   0.0   16.666666666666668
200.0   0.0   16.666666666666668
150.0   30.0   16.666666666666668
150.0   0.0   33.333333333333336
200.0   0.0   16.666666666666668
200.0   30.0   16.666666666666668
150.0   30.0   16.666666666666668
200.0   30.0   33.333333333333336
150.0   0.0   33.333333333333336
150.0   30.0   33.333333333333336
200.0   30.0   33.333333333333336
150.0   30.0   16.666666666666668
150.0   0.0   33.333333333333336
200.0   30.0   33.333333333333336
200.0   0.0   33.333333333333336
200.0   0.0   16.666666666666668
150.0   0.0   33.333333333333336
200.0   30.0   33.333333333333336
200.0   0.0   16.666666666666668
150.0   30.0   16.666666666666668
150.0   0.0   33.333333333333336
200.0   0.0   33.333333333333336
150.0   30.0   33.333333333333336
150.0   0.0   50.0
200.0   0.0   33.333333333333336
200.0   30.0   33.333333333333336
150.0   30.0   33.333333333333336
200.0   30.0   50.0
150.0   0.0   50.0
150.0   30.0   50.0
200.0   30.0   50.0
150.0   30.0   33.333333333333336
150.0   0.0   50.0
200.0   30.0   50.0
200.0   0.0   50.0
200.0   0.0   33.333333333333336
150.0   0.0   50.0
200.0   30.0   50.0
200.0   0.0   33.333333333333336
150.0   30.0   33.333333333333336
150.0   30.0   0.0
200.0   30.0   0.0
150.0   60.0   0.0
150.0   30.0   16.666666666666668
200.0   30.0   0.0
200.0   60.0   0.0
150.0   60.0   0.0
200.0   60.0   16.666666666666668
150.0   30.0   16.666666666666668
150.0   60.0   16.666666666666668
200.0   60.0   16.666666666666668
150.0   60.0   0.0
150.0   30.0   16.666666666666668
200.0   60.0   16.666666666666668
200.0   30.0   16.666666666666668
200.0   30.0   0.0
150.0   30.0   16.666666666666668
200.0   60.0   16.666666666666668
200.0   30.0   0.0
150.0   60.0   0.0
150.0   30.0   16.666666666666668
200.0   30.0   16.666666666666668
150.0   60.0   16.666666666666668
150.0   30.0   33.333333333333336
200.0   30.0   16.666666666666668
200.0   60.0   16.666666666666668
150.0   60.0   16.666666666666668
200.0   60.0   33.333333333333336
150.0   30.0   33.333333333333336
150.0   60.0   33.333333333333336
200.0   60.0   33.333333333333336
150.0   60.0   16.666666666666668
150.0   30.0   33.333333333333336
200.0   60.0   33.333333333333336
200.0   30.0   33.333333333333336
200.0   30.0   16.666666666666668
150.0   30.0   33.333333333333336
200.0   60.0   33.333333333333336
200.0   30.0   16.666666666666668
150.0   60.0   16.666666666666668
150.0   30.0   33.333333333333336
200.0   30.0   33.333333333333336
150.0   60.0   33.333333333333336
150.0   30.0   50.0
200.0   30.0   33.333333333333336
200.0   60.0   33.333333333333336
150.0   60.0   33.333333333333336
200.0   60.0   50.0
150.0   30.0   50.0
150.0   60.0   50.0
200.0   60.0   50.0
150.0   60.0   33.333333333333336
150.0   30.0   50.0
200.0   60.0   50.0
200.0   30.0   50.0
200.0   30.0   33.333333333333336
150.0   30.0   50.0
200.0   60.0   50.0
200.0   30.0   33.333333333333336
150.0   60.0   33.333333333333336
150.0   60.0   0.0
200.0   60.0   0.0
150.0   90.0   0.0
150.0   60.0   16.666666666666668
200.0   60.0   0.0
200.0   90.0   0.0
150.0   90.0   0.0
200.0   90.0   16.666666666666668
150.0   60.0   16.666666666666668
150.0   90.0   16.666666666666668
200.0   90.0   16.666666666666668
150.0   90.0   0.0
150.0   60.0   16.666666666666668
200.0   90.0   16.666666666666668
200.0   60.0   16.666666666666668
200.0   60.0   0.0
150.0   60.0   16.666666666666668
200.0   90.0   16.666666666666668
200.0   60.0   0.0
150.0   90.0   0.0
150.0   60.0   16.666666666666668
200.0   60.0   16.666666666666668
150.0   90.0   16.666666666666668
150.0   60.0   33.333333333333336
200.0   60.0   16.666666666666668
200.0   90.0   16.666666666666668
150.0   90.0   16.666666666666668
200.0   90.0   33.333333333333336
150.0   60.0   33.333333333333336
150.0   90.0   33.333333333333336
200.0   90.0   33.333333333333336
150.0   90.0   16.666666666666668
150.0   60.0   33.333333333333336
200.0   90.0   33.333333333333336
200.0   60.0   33.333333333333336
200.0   60.0   16.666666666666668
150.0   60.0   33.333333333333336
200.0   90.0   33.333333333333336
200.0   60.0   16.666666666666668
150.0   90.0   16.666666666666668
150.0   60.0   33.333333333333336
200.0   60.0   33.333333333333336
150.0   90.0   33.333333333333336
150.0   60.0   50.0
200.0   60.0   33.333333333333336
200.0   90.0   33.333333333333336
150.0   90.0   33.333333333333336
200.0   90.0   50.0
150.0   60.0   50.0
150.0   90.0   50.0
200.0   90.0   50.0
150.0   90.0   33.333333333333336
150.0   60.0   50.0
200.0   90.0   50.0
200.0   60.0   50.0
200.0   60.0   33.333333333333336
150.0   60.0   50.0
200.0   90.0   50.0
200.0   60.0   33.333333333333336
150.0   90.0   33.333333333333336
150.0   90.0   0.0
200.0   90.0   0.0
150.0   120.0   0.0
150.0   90.0   16.666666666666668
200.0   90.0   0.0
200.0   120.0   0.0
150.0   120.0   0.0
200.0   120.0   16.666666666666668
150.0   90.0   16.666666666666668
150.0   120.0   16.666666666666668
200.0   120.0   16.666666666666668
150.0   120.0   0.0
150.0   90.0   16.666666666666668
200.0   120.0   16.666666666666668
200.0   90.0   16.666666666666668
200.0   90.0   0.0
150.0   90.0   16.666666666666668
200.0   120.0   16.666666666666668
200.0   90.0   0.0
150.0   120.0   0.0
150.0   90.0   16.666666666666668
200.0   90.0   16.666666666666668
150.0   120.0   16.666666666666668
150.0   90.0   33.333333333333336
200.0   90.0   16.666666666666668
200.0   120.0   16.666666666666668
150.0   120.0   16.666666666666668
200.0   120.0   33.333333333333336
150.0   90.0   33.333333333333336
150.0   120.0   33.333333333333336
200.0   120.0   33.333333333333336
150.0   120.0   16.666666666666668
150.0   90.0   33.333333333333336
200.0   120.0   33.333333333333336
200.0   90.0   33.333333333333336
200.0   90.0   16.666666666666668
150.0   90.0   33.333333333333336
200.0   120.0   33.333333333333336
200.0   90.0   16.666666666666668
150.0   120.0   16.666666666666668
150.0   90.0   33.333333333333336
200.0   90.0   33.333333333333336
150.0   120.0   33.333333333333336
150.0   90.0   50.0
200.0   90.0   33.333333333333336
200.0   120.0   33.333333333333336
150.0   120.0   33.333333333333336
200.0   120.0   50.0
150.0   90.0   50.0
150.0   120.0   50.0
200.0   120.0   50.0
150.0   120.0   33.333333333333336
150.0   90.0   50.0
200.0   120.0   50.0
200.0   90.0   50.0
200.0   90.0   33.333333333333336
150.0   90.0   50.0
200.0   120.0   50.0
200.0   90.0   33.333333333333336
150.0   120.0   33.333333333333336
150.0   120.0   0.0
200.0   120.0   0.0
150.0   150.0   0.0
150.0   120.0   16.666666666666668
200.0   120.0   0.0
200.0   150.0   0.0
150.0   150.0   0.0
200.0   150.0   16.666666666666668
150.0   120.0   16.666666666666668
150.0   150.0   16.666666666666668
200.0   150.0   16.666666666666668
150.0   150.0   0.0
150.0   120.0   16.666666666666668
200.0   150.0   16.666666666666668
200.0   120.0   16.666666666666668
200.0   120.0   0.0
150.0   120.0   16.666666666666668
200.0   150.0   16.666666666666668
200.0   120.0   0.0
150.0   150.0   0.0
150.0   120.0   16.666666666666668
200.0   120.0   16.666666666666668
150.0   150.0   16.666666666666668
150.0   120.0   33.333333333333336
200.0   120.0   16.666666666666668
200.0   150.0   16.666666666666668
150.0   150.0   16.666666666666668
200.0   150.0   33.333333333333336
150.0   120.0   33.333333333333336
150.0   150.0   33.333333333333336
200.0   150.0   33.333333333333336
150.0   150.0   16.666666666666668
150.0   120.0   33.333333333333336
200.0   150.0   33.333333333333336
200.0   120.0   33.333333333333336
200.0   120.0   16.666666666666668
150.0   120.0   33.333333333333336
200.0   150.0   33.333333333333336
200.0   120.0   16.666666666666668
150.0   150.0   16.666666666666668
150.0   120.0   33.333333333333336
200.0   120.0   33.333333333333336
150.0   150.0   33.333333333333336
150.0   120.0   50.0
200.0   120.0   33.333333333333336
200.0   150.0   33.333333333333336
150.0   150.0   33.333333333333336
200.0   150.0   50.0
150.0   120.0   50.0
150.0   150.0   50.0
200.0   150.0   50.0
150.0   150.0   33.333333333333336
150.0   120.0   50.0
200.0   150.0   50.0
200.0   120.0   50.0
200.0   120.0   33.333333333333336
150.0   120.0   50.0
200.0   150.0   50.0
200.0   120.0   33.333333333333336
150.0   150.0   33.333333333333336
200.0   0.0   0.0
250.0   0.0   0.0
200.0   30.0   0.0
200.0   0.0   16.666666666666668
250.0   0.0   0.0
250.0   30.0   0.0
200.0   30.0   0.0
250.0   30.0   16.666666666666668
200.0   0.0   16.666666666666668
200.0   30.0   16.666666666666668
250.0   30.0   16.666666666666668
200.0   30.0   0.0
200.0   0.0   16.666666666666668
250.0   30.0   16.666666666666668
250.0   0.0   16.666666666666668
250.0   0.0   0.0
200.0   0.0   16.666666666666668
250.0   30.0   16.666666666666668
250.0   0.0   0.0
200.0   30.0   0.0
200.0   0.0   16.666666666666668
250.0   0.0   16.666666666666668
200.0   30.0   16.666666666666668
200.0   0.0   33.333333333333336
250.0   0.0   16.666666666666668
250.0   30.0   16.666666666666668
200.0   30.0   16.666666666666668
250.0   30.0   33.333333333333336
200.0   0.0   33.333333333333336
200.0   30.0   33.333333333333336
250.0   30.0   33.333333333333336
200.0   30.0   16.666666666666668
200.0   0.0   33.333333333333336
250.0   30.0   33.333333333333336
250.0   0.0   33.333333333333336
250.0   0.0   16.666666666666668
200.0   0.0   33.333333333333336
250.0   30.0   33.333333333333336
250.0   0.0   16.666666666666668
200.0   30.0   16.666666666666668
200.0   0.0   33.333333333333336
250.0   0.0   33.333333333333336
200.0   30.0   33.333333333333336
200.0   0.0   50.0
250.0   0.0   33.333333333333336
250.0   30.0   33.333333333333336
200.0   30.0   33.333333333333336
250.0   30.0   50.0
200.0   0.0   50.0
200.0   30.0   50.0
250.0   30.0   50.0
200.0   30.0   33.333333333333336
200.0   0.0   50.0
250.0   30.0   50.0
250.0   0.0   50.0
250.0   0.0   33.333333333333336
200.0   0.0   50.0
250.0   30.0   50.0
250.0   0.0   33.333333333333336
200.0   30.0   33.333333333333336
200.0   30.0   0.0
250.0   30.0   0.0
200.0   60.0   0.0
200.0   30.0   16.666666666666668
250.0   30.0   0.0
250.0   60.0   0.0
200.0   60.0   0.0
250.0   60.0   16.666666666666668
200.0   30.0   16.666666666666668
200.0   60.0   16.666666666666668
250.0   60.0   16.666666666666668
200.0   60.0   0.0
200.0   30.0   16.666666666666668
250.0   60.0   16.666666666666668
250.0   30.0   16.666666666666668
250.0   30.0   0.0
200.0   30.0   16.666666666666668
250.0   60.0   16.666666666666668
250.0   30.0   0.0
200.0   60.0   0.0
200.0   30.0   16.666666666666668
250.0   30.0   16.666666666666668
200.0   60.0   16.666666666666668
200.0   30.0   33.333333333333336
250.0   30.0   16.666666666666668
250.0   60.0   16.666666666666668
200.0   60.0   16.666666666666668
250.0   60.0   33.333333333333336
200.0   30.0   33.333333333333336
200.0   60.0   33.333333333333336
250.0   60.0   33.333333333333336
200.0   60.0   16.666666666666668
200.0   30.0   33.333333333333336
250.0   60.0   33.333333333333336
250.0   30.0   33.333333333333336
250.0   30.0   16.666666666666668
200.0   30.0   33.333333333333336
250.0   60.0   33.333333333333336
250.0   30.0   16.666666666666668
200.0   60.0   16.666666666666668
200.0   30.0   33.333333333333336
250.0   30.0   33.333333333333336
200.0   60.0   33.333333333333336
200.0   30.0   50.0
250.0   30.0   33.333333333333336
250.0   60.0   33.333333333333336
200.0   60.0   33.333333333333336
250.0   60.0   50.0
200.0   30.0   50.0
200.0   60.0   50.0
250.0   60.0   50.0
200.0   60.0   33.333333333333336
200.0   30.0   50.0
250.0   60.0   50.0
250.0   30.0   50.0
250.0   30.0   33.333333333333336
200.0   30.0   50.0
250.0   60.0   50.0
250.0   30.0   33.333333333333336
200.0   60.0   33.333333333333336
200.0   60.0   0.0
250.0   60.0   0.0
200.0   90.0   0.0
200.0   60.0   16.666666666666668
250.0   60.0   0.0
250.0   90.0   0.0
200.0   90.0   0.0
250.0   90.0   16.666666666666668
200.0   60.0   16.666666666666668
200.0   90.0   16.666666666666668
250.0   90.0   16.666666666666668
200.0   90.0   0.0
200.0   60.0   16.666666666666668
250.0   90.0   16.666666666666668
250.0   60.0   16.666666666666668
250.0   60.0   0.0
200.0   60.0   16.666666666666668
250.0   90.0   16.666666666666668
250.0   60.0   0.0
200.0   90.0   0.0
200.0   60.0   16.666666666666668
250.0   60.0   16.666666666666668
200.0   90.0   16.666666666666668
200.0   60.0   33.333333333333336
250.0   60.0   16.666666666666668
250.0   90.0   16.666666666666668
200.0   90.0   16.666666666666668
250.0   90.0   33.333333333333336
200.0   60.0   33.333333333333336
200.0   90.0   33.333333333333336
250.0   90.0   33.333333333333336
200.0   90.0   16.666666666666668
200.0   60.0   33.333333333333336
250.0   90.0   33.333333333333336
250.0   60.0   33.333333333333336
250.0   60.0   16.666666666666668
200.0   60.0   33.333333333333336
250.0   90.0   33.333333333333336
250.0   60.0   16.666666666666668
200.0   90.0   16.666666666666668
200.0   60.0   33.333333333333336
250.0   60.0   33.333333333333336
200.0   90.0   33.333333333333336
200.0   60.0   50.0
250.0   60.0   33.333333333333336
250.0   90.0   33.333333333333336
200.0   90.0   33.333333333333336
250.0   90.0   50.0
200.0   60.0   50.0
200.0   90.0   50.0
250.0   90.0   50.0
200.0   90.0   33.333333333333336
200.0   60.0   50.0
250.0   90.0   50.0
250.0   60.0   50.0
250.0   60.0   33.333333333333336
200.0   60.0   50.0
250.0   90.0   50.0
250.0   60.0   33.333333333333336
200.0   90.0   33.333333333333336
200.0   90.0   0.0
250.0   90.0   0.0
200.0   120.0   0.0
200.0   90.0   16.666666666666668
250.0   90.0   0.0
250.0   120.0   0.0
200.0   120.0   0.0
250.0   120.0   16.666666666666668
200.0   90.0   16.666666666666668
200.0   120.0   16.666666666666668
250.0   120.0   16.666666666666668
200.0   120.0   0.0
200.0   90.0   16.666666666666668
250.0   120.0   16.666666666666668
250.0   90.0   16.666666666666668
250.0   90.0   0.0
200.0   90.0   16.666666666666668
250.0   120.0   16.666666666666668
250.0   90.0   0.0
200.0   120.0   0.0
200.0   90.0   16.666666666666668
250.0   90.0   16.666666666666668
200.0   120.0   16.666666666666668
200.0   90.0   33.333333333333336
250.0   90.0   16.666666666666668
250.0   120.0   16.666666666666668
200.0   120.0   16.666666666666668
250.0   120.0   33.333333333333336
200.0   90.0   33.333333333333336
200.0   120.0   33.333333333333336
250.0   120.0   33.333333333333336
200.0   120.0   16.666666666666668
200.0   90.0   33.333333333333336
250.0   120.0   33.333333333333336
250.0   90.0   33.333333333333336
250.0   90.0   16.666666666666668
200.0   90.0   33.333333333333336
250.0   120.0   33.333333333333336
250.0   90.0   16.666666666666668
200.0   120.0   16.666666666666668
200.0   90.0   33.333333333333336
250.0   90.0   33.333333333333336
200.0   120.0   33.333333333333336
200.0   90.0   50.0
250.0   90.0   33.333333333333336
250.0   120.0   33.333333333333336
200.0   120.0   33.333333333333336
250.0   120.0   50.0
200.0   90.0   50.0
200.0   120.0   50.0
250.0   120.0   50.0
200.0   120.0   33.333333333333336
200.0   90.0   50.0
250.0   120.0   50.0
250.0   90.0   50.0
250.0   90.0   33.333333333333336
200.0   90.0   50.0
250.0   120.0   50.0
250.0   90.0   33.333333333333336
200.0   120.0   33.333333333333336
200.0   120.0   0.0
250.0   120.0   0.0
200.0   150.0   0.0
200.0   120.0   16.666666666666668
250.0   120.0   0.0
250.0   150.0   0.0
200.0   150.0   0.0
250.0   150.0   16.666666666666668
200.0   120.0   16.666666666666668
200.0   150.0   16.666666666666668
250.0   150.0   16.666666666666668
200.0   150.0   0.0
200.0   120.0   16.666666666666668
250.0   150.0   16.666666666666668
250.0   120.0   16.666666666666668
250.0   120.0   0.0
200.0   120.0   16.666666666666668
250.0   150.0   16.666666666666668
250.0   120.0   0.0
200.0   150.0   0.0
200.0   120.0   16.666666666666668
250.0   120.0   16.666666666666668
200.0   150.0   16.666666666666668
200.0   120.0   33.333333333333336
250.0   120.0   16.666666666666668
250.0   150.0   16.666666666666668
200.0   150.0   16.666666666666668
250.0   150.0   33.333333333333336
200.0   120.0   33.333333333333336
200.0   150.0   33.333333333333336
250.0   150.0   33.333333333333336
200.0   150.0   16.666666666666668
200.0   120.0   33.333333333333336
250.0   150.0   33.333333333333336
250.0   120.0   33.333333333333336
250.0   120.0   16.666666666666668
200.0   120.0   33.333333333333336
250.0   150.0   33.333333333333336
250.0   120.0   16.666666666666668
200.0   150.0   16.666666666666668
200.0   120.0   33.333333333333336
250.0   120.0   33.333333333333336
200.0   150.0   33.333333333333336
200.0   120.0   50.0
250.0   120.0   33.333333333333336
250.0   150.0   33.333333333333336
200.0   150.0   33.333333333333336
250.0   150.0   50.0
200.0   120.0   50.0
200.0   150.0   50.0
250.0   150.0   50.0
200.0   150.0   33.333333333333336
200.0   120.0   50.0
250.0   150.0   50.0
250.0   120.0   50.0
250.0   120.0   33.333333333333336
200.0   120.0   50.0
250.0   150.0   50.0
250.0   120.0   33.333333333333336
200.0   150.0   33.333333333333336
250.0   0.0   0.0
300.0   0.0   0.0
250.0   30.0   0.0
250.0   0.0   16.666666666666668
300.0   0.0   0.0
300.0   30.0   0.0
250.0   30.0   0.0
300.0   30.0   16.666666666666668
250.0   0.0   16.666666666666668
250.0   30.0   16.666666666666668
300.0   30.0   16.666666666666668
250.0   30.0   0.0
250.0   0.0   16.666666666666668
300.0   30.0   16.666666666666668
300.0   0.0   16.666666666666668
300.0   0.0   0.0
250.0   0.0   16.666666666666668
300.0   30.0   16.666666666666668
300.0   0.0   0.0
250.0   30.0   0.0
250.0   0.0   16.666666666666668
300.0   0.0   16.666666666666668
250.0   30.0   16.666666666666668
250.0   0.0   33.333333333333336
300.0   0.0   16.666666666666668
300.0   30.0   16.666666666666668
250.0   30.0   16.666666666666668
300.0   30.0   33.333333333333336
250.0   0.0   33.333333333333336
250.0   30.0   33.333333333333336
300.0   30.0   33.333333333333336
250.0   30.0   16.666666666666668
250.0   0.0   33.333333333333336
300.0   30.0   33.333333333333336
300.0   0.0   33.333333333333336
300.0   0.0   16.666666666666668
250.0   0.0   33.333333333333336
300.0   30.0   33.333333333333336
300.0   0.0   16.666666666666668
250.0   30.0   16.666666666666668
250.0   0.0   33.333333333333336
300.0   0.0   33.333333333333336
250.0   30.0   33.333333333333336
250.0   0.0   50.0
300.0   0.0   33.333333333333336
300.0   30.0   33.333333333333336
250.0   30.0   33.333333333333336
300.0   30.0   50.0
250.0   0.0   50.0
250.0   30.0   50.0
300.0   30.0   50.0
250.0   30.0   33.333333333333336
250.0   0.0   50.0
300.0   30.0   50.0
300.0   0.0   50.0
300.0   0.0   33.333333333333336
250.0   0.0   50.0
300.0   30.0   50.0
300.0   0.0   33.333333333333336
250.0   30.0   33.333333333333336
250.0   30.0   0.0
300.0   30.0   0.0
250.0   60.0   0.0
250.0   30.0   16.666666666666668
300.0   30.0   0.0
300.0   60.0   0.0
250.0   60.0   0.0
300.0   60.0   16.666666666666668
250.0   30.0   16.666666666666668
250.0   60.0   16.666666666666668
300.0   60.0   16.666666666666668
250.0   60.0   0.0
250.0   30.0   16.666666666666668
300.0   60.0   16.666666666666668
300.0   30.0   16.666666666666668
300.0   30.0   0.0
250.0   30.0   16.666666666666668
300.0   60.0   16.666666666666668
300.0   30.0   0.0
250.0   60.0   0.0
250.0   30.0   16.666666666666668
300.0   30.0   16.666666666666668
250.0   60.0   16.666666666666668
250.0   30.0   33.333333333333336
300.0   30.0   16.666666666666668
300.0   60.0   16.666666666666668
250.0   60.0   16.666666666666668
300.0   60.0   33.333333333333336
250.0   30.0   33.333333333333336
250.0   60.0   33.333333333333336
300.0   60.0   33.333333333333336
250.0   60.0   16.666666666666668
250.0   30.0   33.333333333333336
300.0   60.0   33.333333333333336
300.0   30.0   33.333333333333336
300.0   30.0   16.666666666666668
250.0   30.0   33.333333333333336
300.0   60.0   33.333333333333336
300.0   30.0   16.666666666666668
250.0   60.0   16.666666666666668
250.0   30.0   33.333333333333336
300.0   30.0   33.333333333333336
250.0   60.0   33.333333333333336
250.0   30.0   50.0
300.0   30.0   33.333333333333336
300.0   60.0   33.333333333333336
250.0   60.0   33.333333333333336
300.0   60.0   50.0
250.0   30.0   50.0
250.0   60.0   50.0
300.0   60.0   50.0
250.0   60.0   33.333333333333336
250.0   30.0   50.0
300.0   60.0   50.0
300.0   30.0   50.0
300.0   30.0   33.333333333333336
250.0   30.0   50.0
300.0   60.0   50.0
300.0   30.0   33.333333333333336
250.0   60.0   33.333333333333336
250.0   60.0   0.0
300.0   60.0   0.0
250.0   90.0   0.0
250.0   60.0   16.666666666666668
300.0   60.0   0.0
300.0   90.0   0.0
250.0   90.0   0.0
300.0   90.0   16.666666666666668
250.0   60.0   16.666666666666668
250.0   90.0   16.666666666666668
300.0   90.0   16.666666666666668
250.0   90.0   0.0
250.0   60.0   16.666666666666668
300.0   90.0   16.666666666666668
300.0   60.0   16.666666666666668
300.0   60.0   0.0
250.0   60.0   16.666666666666668
300.0   90.0   16.666666666666668
300.0   60.0   0.0
250.0   90.0   0.0
250.0   60.0   16.666666666666668
300.0   60.0   16.666666666666668
250.0   90.0   16.666666666666668
250.0   60.0   33.333333333333336
300.0   60.0   16.666666666666668
300.0   90.0   16.666666666666668
250.0   90.0   16.666666666666668
300.0   90.0   33.333333333333336
250.0   60.0   33.333333333333336
250.0   90.0   33.333333333333336
300.0   90.0   33.333333333333336
250.0   90.0   16.666666666666668
250.0   60.0   33.333333333333336
300.0   90.0   33.333333333333336
300.0   60.0   33.333333333333336
300.0   60.0   16.666666666666668
250.0   60.0   33.333333333333336
300.0   90.0   33.333333333333336
300.0   60.0   16.666666666666668
250.0   90.0   16.666666666666668
250.0   60.0   33.333333333333336
300.0   60.0   33.333333333333336
250.0   90.0   33.333333333333336
250.0   60.0   50.0
300.0   60.0   33.333333333333336
300.0   90.0   33.333333333333336
250.0   90.0   33.333333333333336
300.0   90.0   50.0
250.0   60.0   50.0
250.0   90.0   50.0
300.0   90.0   50.0
250.0   90.0   33.333333333333336
250.0   60.0   50.0
300.0   90.0   50.0
300.0   60.0   50.0
300.0   60.0   33.333333333333336
250.0   60.0   50.0
300.0   90.0   50.0
300.0   60.0   33.333333333333336
250.0   90.0   33.333333333333336
250.0   90.0   0.0
300.0   90.0   0.0
250.0   120.0   0.0
250.0   90.0   16.666666666666668
300.0   90.0   0.0
300.0   120.0   0.0
250.0   120.0   0.0
300.0   120.0   16.666666666666668
250.0   90.0   16.666666666666668
250.0   120.0   16.666666666666668
300.0   120.0   16.666666666666668
250.0   120.0   0.0
250.0   90.0   16.666666666666668
300.0   120.0   16.666666666666668
300.0   90.0   16.666666666666668
300.0   90.0   0.0
250.0   90.0   16.666666666666668
300.0   120.0   16.666666666666668
300.0   90.0   0.0
250.0   120.0   0.0
250.0   90.0   16.666666666666668
300.0   90.0   16.666666666666668
250.0   120.0   16.666666666666668
250.0   90.0   33.333333333333336
300.0   90.0   16.666666666666668
300.0   120.0   16.666666666666668
250.0   120.0   16.666666666666668
300.0   120.0   33.333333333333336
250.0   90.0   33.333333333333336
250.0   120.0   33.333333333333336
300.0   120.0   33.333333333333336
250.0   120.0   16.666666666666668
250.0   90.0   33.333333333333336
300.0   120.0   33.333333333333336
300.0   90.0   33.333333333333336
300.0   90.0   16.666666666666668
250.0   90.0   33.333333333333336
300.0   120.0   33.333333333333336
300.0   90.0   16.666666666666668
250.0   120.0   16.666666666666668
250.0   90.0   33.333333333333336
300.0   90.0   33.333333333333336
250.0   120.0   33.333333333333336
250.0   90.0   50.0
300.0   90.0   33.333333333333336
300.0   120.0   33.333333333333336
250.0   120.0   33.333333333333336
300.0   120.0   50.0
250.0   90.0   50.0
250.0   120.0   50.0
300.0   120.0   50.0
250.0   120.0   33.333333333333336
250.0   90.0   50.0
300.0   120.0   50.0
300.0   90.0   50.0
300.0   90.0   33.333333333333336
250.0   90.0   50.0
300.0   120.0   50.0
300.0   90.0   33.333333333333336
250.0   120.0   33.333333333333336
250.0   120.0   0.0
300.0   120.0   0.0
250.0   150.0   0.0
250.0   120.0   16.666666666666668
300.0   120.0   0.0
300.0   150.0   0.0
250.0   150.0   0.0
300.0   150.0   16.666666666666668
250.0   120.0   16.666666666666668
250.0   150.0   16.666666666666668
300.0   150.0   16.666666666666668
250.0   150.0   0.0
250.0   120.0   16.666666666666668
300.0   150.0   16.666666666666668
300.0   120.0   16.666666666666668
300.0   120.0   0.0
250.0   120.0   16.666666666666668
300.0   150.0   16.666666666666668
300.0   120.0   0.0
250.0   150.0   0.0
250.0   120.0   16.666666666666668
300.0   120.0   16.666666666666668
250.0   150.0   16.666666666666668
250.0   120.0   33.333333333333336
300.0   120.0   16.666666666666668
300.0   150.0   16.666666666666668
250.0   150.0   16.666666666666668
300.0   150.0   33.333333333333336
250.0   120.0   33.333333333333336
250.0   150.0   33.333333333333336
300.0   150.0   33.333333333333336
250.0   150.0   16.666666666666668
250.0   120.0   33.333333333333336
300.0   150.0   33.333333333333336
300.0   120.0   33.333333333333336
300.0   120.0   16.666666666666668
250.0   120.0   33.333333333333336
300.0   150.0   33.333333333333336
300.0   120.0   16.666666666666668
250.0   150.0   16.666666666666668
250.0   120.0   33.333333333333336
300.0   120.0   33.333333333333336
250.0   150.0   33.333333333333336
250.0   120.0   50.0
300.0   120.0   33.333333333333336
300.0   150.0   33.333333333333336
250.0   150.0   33.333333333333336
300.0   150.0   50.0
250.0   120.0   50.0
250.0   150.0   50.0
300.0   150.0   50.0
250.0   150.0   33.333333333333336
250.0   120.0   50.0
300.0   150.0   50.0
300.0   120.0   50.0
300.0   120.0   33.333333333333336
250.0   120.0   50.0
300.0   150.0   50.0
300.0   120.0   33.333333333333336
250.0   150.0   33.333333333333336
300.0   0.0   0.0
350.0   0.0   0.0
300.0   30.0   0.0
300.0   0.0   16.666666666666668
350.0   0.0   0.0
350.0   30.0   0.0
300.0   30.0   0.0
350.0   30.0   16.666666666666668
300.0   0.0   16.666666666666668
300.0   30.0   16.666666666666668
350.0   30.0   16.666666666666668
300.0   30.0   0.0
300.0   0.0   16.666666666666668
350.0   30.0   16.666666666666668
350.0   0.0   16.666666666666668
350.0   0.0   0.0
300.0   0.0   16.666666666666668
350.0   30.0   16.666666666666668
350.0   0.0   0.0
300.0   30.0   0.0
300.0   0.0   16.666666666666668
350.0   0.0   16.666666666666668
300.0   30.0   16.666666666666668
300.0   0.0   33.333333333333336
350.0   0.0   16.666666666666668
350.0   30.0   16.666666666666668
300.0   30.0   16.666666666666668
350.0   30.0   33.333333333333336
300.0   0.0   33.333333333333336
300.0   30.0   33.333333333333336
350.0   30.0   33.333333333333336
300.0   30.0   16.666666666666668
300.0   0.0   33.333333333333336
350.0   30.0   33.333333333333336
350.0   0.0   33.333333333333336
350.0   0.0   16.666666666666668
300.0   0.0   33.333333333333336
350.0   30.0   33.333333333333336
350.0   0.0   16.666666666666668
300.0   30.0   16.666666666666668
300.0   0.0   33.333333333333336
350.0   0.0   33.333333333333336
300.0   30.0   33.333333333333336
300.0   0.0   50.0
350.0   0.0   33.333333333333336
350.0   30.0   33.333333333333336
300.0   30.0   33.333333333333336
350.0   30.0   50.0
300.0   0.0   50.0
300.0   30.0   50.0
350.0   30.0   50.0
300.0   30.0   33.333333333333336
300.0   0.0   50.0
350.0   30.0   50.0
350.0   0.0   50.0
350.0   0.0   33.333333333333336
300.0   0.0   50.0
350.0   30.0   50.0
350.0   0.0   33.333333333333336
300.0   30.0   33.333333333333336
300.0   30.0   0.0
350.0   30.0   0.0
300.0   60.0   0.0
300.0   30.0   16.666666666666668
350.0   30.0   0.0
350.0   60.0   0.0
300.0   60.0   0.0
350.0   60.0   16.666666666666668
300.0   30.0   16.666666666666668
300.0   60.0   16.666666666666668
350.0   60.0   16.666666666666668
300.0   60.0   0.0
300.0   30.0   16.666666666666668
350.0   60.0   16.666666666666668
350.0   30.0   16.666666666666668
350.0   30.0   0.0
300.0   30.0   16.666666666666668
350.0   60.0   16.666666666666668
350.0   30.0   0.0
300.0   60.0   0.0
300.0   30.0   16.666666666666668
350.0   30.0   16.666666666666668
300.0   60.0   16.666666666666668
300.0   30.0   33.333333333333336
350.0   30.0   16.666666666666668
350.0   60.0   16.666666666666668
300.0   60.0   16.666666666666668
350.0   60.0   33.333333333333336
300.0   30.0   33.333333333333336
300.0   60.0   33.333333333333336
350.0   60.0   33.333333333333336
300.0   60.0   16.666666666666668
300.0   30.0   33.333333333333336
350.0   60.0   33.333333333333336
350.0   30.0   33.333333333333336
350.0   30.0   16.666666666666668
300.0   30.0   33.333333333333336
350.0   60.0   33.333333333333336
350.0   30.0   16.666666666666668
300.0   60.0   16.666666666666668
300.0   30.0   33.333333333333336
350.0   30.0   33.333333333333336
300.0   60.0   33.333333333333336
300.0   30.0   50.0
350.0   30.0   33.333333333333336
350.0   60.0   33.333333333333336
300.0   60.0   33.333333333333336
350.0   60.0   50.0
300.0   30.0   50.0
300.0   60.0   50.0
350.0   60.0   50.0
300.0   60.0   33.333333333333336
300.0   30.0   50.0
350.0   60.0   50.0
350.0   30.0   50.0
350.0   30.0   33.333333333333336
300.0   30.0   50.0
350.0   60.0   50.0
350.0   30.0   33.333333333333336
300.0   60.0   33.333333333333336
300.0   60.0   0.0
350.0   60.0   0.0
300.0   90.0   0.0
300.0   60.0   16.666666666666668
350.0   60.0   0.0
350.0   90.0   0.0
300.0   90.0   0.0
350.0   90.0   16.666666666666668
300.0   60.0   16.666666666666668
300.0   90.0   16.666666666666668
350.0   90.0   16.666666666666668
300.0   90.0   0.0
300.0   60.0   16.666666666666668
350.0   90.0   16.666666666666668
350.0   60.0   16.666666666666668
350.0   60.0   0.0
300.0   60.0   16.666666666666668
350.0   90.0   16.666666666666668
350.0   60.0   0.0
300.0   90.0   0.0
300.0   60.0   16.666666666666668
350.0   60.0   16.666666666666668
300.0   90.0   16.666666666666668
300.0   60.0   33.333333333333336
350.0   60.0   16.666666666666668
350.0   90.0   16.666666666666668
300.0   90.0   16.666666666666668
350.0   90.0   33.333333333333336
300.0   60.0   33.333333333333336
300.0   90.0   33.333333333333336
350.0   90.0   33.333333333333336
300.0   90.0   16.666666666666668
300.0   60.0   33.333333333333336
350.0   90.0   33.333333333333336
350.0   60.0   33.333333333333336
350.0   60.0   16.666666666666668
300.0   60.0   33.333333333333336
350.0   90.0   33.333333333333336
350.0   60.0   16.666666666666668
300.0   90.0   16.666666666666668
300.0   60.0   33.333333333333336
350.0   60.0   33.333333333333336
300.0   90.0   33.333333333333336
300.0   60.0   50.0
350.0   60.0   33.333333333333336
350.0   90.0   33.333333333333336
300.0   90.0   33.333333333333336
350.0   90.0   50.0
300.0   60.0   50.0
300.0   90.0   50.0
350.0   90.0   50.0
300.0   90.0   33.333333333333336
300.0   60.0   50.0
350.0   90.0   50.0
350.0   60.0   50.0
350.0   60.0   33.333333333333336
300.0   60.0   50.0
350.0   90.0   50.0
350.0   60.0   33.333333333333336
300.0   90.0   33.333333333333336
300.0   90.0   0.0
350.0   90.0   0.0
300.0   120.0   0.0
300.0   90.0   16.666666666666668
350.0   90.0   0.0
350.0   120.0   0.0
300.0   120.0   0.0
350.0   120.0   16.666666666666668
300.0   90.0   16.666666666666668
300.0   120.0   16.666666666666668
350.0   120.0   16.666666666666668
300.0   120.0   0.0
300.0   90.0   16.666666666666668
350.0   120.0   16.666666666666668
350.0   90.0   16.666666666666668
350.0   90.0   0.0
300.0   90.0   16.666666666666668
350.0   120.0   16.666666666666668
350.0   90.0   0.0
300.0   120.0   0.0
300.0   90.0   16.666666666666668
350.0   90.0   16.666666666666668
300.0   120.0   16.666666666666668
300.0   90.0   33.333333333333336
350.0   90.0   16.666666666666668
350.0   120.0   16.666666666666668
300.0   120.0   16.666666666666668
350.0   120.0   33.333333333333336
300.0   90.0   33.333333333333336
300.0   120.0   33.333333333333336
350.0   120.0   33.333333333333336
300.0   120.0   16.666666666666668
300.0   90.0   33.333333333333336
350.0   120.0   33.333333333333336
350.0   90.0   33.333333333333336
350.0   90.0   16.666666666666668
300.0   90.0   33.333333333333336
350.0   120.0   33.333333333333336
350.0   90.0   16.666666666666668
300.0   120.0   16.666666666666668
300.0   90.0   33.333333333333336
350.0   90.0   33.333333333333336
300.0   120.0   33.333333333333336
300.0   90.0   50.0
350.0   90.0   33.333333333333336
350.0   120.0   33.333333333333336
300.0   120.0   33.333333333333336
350.0   120.0   50.0
300.0   90.0   50.0
300.0   120.0   50.0
350.0   120.0   50.0
300.0   120.0   33.333333333333336
300.0   90.0   50.0
350.0   120.0   50.0
350.0   90.0   50.0
350.0   90.0   33.333333333333336
300.0   90.0   50.0
350.0   120.0   50.0
350.0   90.0   33.333333333333336
300.0   120.0   33.333333333333336
300.0   120.0   0.0
350.0   120.0   0.0
300.0   150.0   0.0
300.0   120.0   16.666666666666668
350.0   120.0   0.0
350.0   150.0   0.0
300.0   150.0   0.0
350.0   150.0   16.666666666666668
300.0   120.0   16.666666666666668
300.0   150.0   16.666666666666668
350.0   150.0   16.666666666666668
300.0   150.0   0.0
300.0   120.0   16.666666666666668
350.0   150.0   16.666666666666668
350.0   120.0   16.666666666666668
350.0   120.0   0.0
300.0   120.0   16.666666666666668
350.0   150.0   16.666666666666668
350.0   120.0   0.0
300.0   150.0   0.0
300.0   120.0   16.666666666666668
350.0   120.0   16.666666666666668
300.0   150.0   16.666666666666668
300.0   120.0   33.333333333333336
350.0   120.0   16.666666666666668
350.0   150.0   16.666666666666668
300.0   150.0   16.666666666666668
350.0   150.0   33.333333333333336
300.0   120.0   33.333333333333336
300.0   150.0   33.333333333333336
350.0   150.0   33.333333333333336
300.0   150.0   16.666666666666668
300.0   120.0   33.333333333333336
350.0   150.0   33.333333333333336
350.0   120.0   33.333333333333336
350.0   120.0   16.666666666666668
300.0   120.0   33.333333333333336
350.0   150.0   33.333333333333336
350.0   120.0   16.666666666666668
300.0   150.0   16.666666666666668
300.0   120.0   33.333333333333336
350.0   120.0   33.333333333333336
300.0   150.0   33.333333333333336
300.0   120.0   50.0
350.0   120.0   33.333333333333336
350.0   150.0   33.333333333333336
300.0   150.0   33.333333333333336
350.0   150.0   50.0
300.0   120.0   50.0
300.0   150.0   50.0
350.0   150.0   50.0
300.0   150.0   33.333333333333336
300.0   120.0   50.0
350.0   150.0   50.0
350.0   120.0   50.0
350.0   120.0   33.333333333333336
300.0   120.0   50.0
350.0   150.0   50.0
350.0   120.0   33.333333333333336
300.0   150.0   33.333333333333336
350.0   0.0   0.0
400.0   0.0   0.0
350.0   30.0   0.0
350.0   0.0   16.666666666666668
400.0   0.0   0.0
400.0   30.0   0.0
350.0   30.0   0.0
400.0   30.0   16.666666666666668
350.0   0.0   16.666666666666668
350.0   30.0   16.666666666666668
400.0   30.0   16.666666666666668
350.0   30.0   0.0
350.0   0.0   16.666666666666668
400.0   30.0   16.666666666666668
400.0   0.0   16.666666666666668
400.0   0.0   0.0
350.0   0.0   16.666666666666668
400.0   30.0   16.666666666666668
400.0   0.0   0.0
350.0   30.0   0.0
350.0   0.0   16.666666666666668
400.0   0.0   16.666666666666668
350.0   30.0   16.666666666666668
350.0   0.0   33.333333333333336
400.0   0.0   16.666666666666668
400.0   30.0   16.666666666666668
350.0   30.0   16.666666666666668
400.0   30.0   33.333333333333336
350.0   0.0   33.333333333333336
350.0   30.0   33.333333333333336
400.0   30.0   33.333333333333336
350.0   30.0   16.666666666666668
350.0   0.0   33.333333333333336
400.0   30.0   33.333333333333336
400.0   0.0   33.333333333333336
400.0   0.0   16.666666666666668
350.0   0.0   33.333333333333336
400.0   30.0   33.333333333333336
400.0   0.0   16.666666666666668
350.0   30.0   16.666666666666668
350.0   0.0   33.333333333333336
400.0   0.0   33.333333333333336
350.0   30.0   33.333333333333336
350.0   0.0   50.0
400.0   0.0   33.333333333333336
400.0   30.0   33.333333333333336
350.0   30.0   33.333333333333336
400.0   30.0   50.0
350.0   0.0   50.0
350.0   30.0   50.0
400.0   30.0   50.0
350.0   30.0   33.333333333333336
350.0   0.0   50.0
400.0   30.0   50.0
400.0   0.0   50.0
400.0   0.0   33.333333333333336
350.0   0.0   50.0
400.0   30.0   50.0
400.0   0.0   33.333333333333336
350.0   30.0   33.333333333333336
350.0   30.0   0.0
400.0   30.0   0.0
350.0   60.0   0.0
350.0   30.0   16.666666666666668
400.0   30.0   0.0
400.0   60.0   0.0
350.0   60.0   0.0
400.0   60.0   16.666666666666668
350.0   30.0   16.666666666666668
350.0   60.0   16.666666666666668
400.0   60.0   16.666666666666668
350.0   60.0   0.0
350.0   30.0   16.666666666666668
400.0   60.0   16.666666666666668
400.0   30.0   16.666666666666668
400.0   30.0   0.0
350.0   30.0   16.666666666666668
400.0   60.0   16.666666666666668
400.0   30.0   0.0
350.0   60.0   0.0
350.0   30.0   16.666666666666668
400.0   30.0   16.666666666666668
350.0   60.0   16.666666666666668
350.0   30.0   33.333333333333336
400.0   30.0   16.666666666666668
400.0   60.0   16.666666666666668
350.0   60.0   16.666666666666668
400.0   60.0   33.333333333333336
350.0   30.0   33.333333333333336
350.0   60.0   33.333333333333336
400.0   60.0   33.333333333333336
350.0   60.0   16.666666666666668
350.0   30.0   33.333333333333336
400.0   60.0   33.333333333333336
400.0   30.0   33.333333333333336
400.0   30.0   16.666666666666668
350.0   30.0   33.333333333333336
400.0   60.0   33.333333333333336
400.0   30.0   16.666666666666668
350.0   60.0   16.666666666666668
350.0   30.0   33.333333333333336
400.0   30.0   33.333333333333336
350.0   60.0   33.333333333333336
350.0   30.0   50.0
400.0   30.0   33.333333333333336
400.0   60.0   33.333333333333336
350.0   60.0   33.333333333333336
400.0   60.0   50.0
350.0   30.0   50.0
350.0   60.0   50.0
400.0   60.0   50.0
350.0   60.0   33.333333333333336
350.0   30.0   50.0
400.0   60.0   50.0
400.0   30.0   50.0
400.0   30.0   33.333333333333336
350.0   30.0   50.0
400.0   60.0   50.0
400.0   30.0   33.333333333333336
350.0   60.0   33.333333333333336
350.0   60.0   0.0
400.0   60.0   0.0
350.0   90.0   0.0
350.0   60.0   16.666666666666668
400.0   60.0   0.0
400.0   90.0   0.0
350.0   90.0   0.0
400.0   90.0   16.666666666666668
350.0   60.0   16.666666666666668
350.0   90.0   16.666666666666668
400.0   90.0   16.666666666666668
350.0   90.0   0.0
350.0   60.0   16.666666666666668
400.0   90.0   16.666666666666668
400.0   60.0   16.666666666666668
400.0   60.0   0.0
350.0   60.0   16.666666666666668
400.0   90.0   16.666666666666668
400.0   60.0   0.0
350.0   90.0   0.0
350.0   60.0   16.666666666666668
400.0   60.0   16.666666666666668
350.0   90.0   16.666666666666668
350.0   60.0   33.333333333333336
400.0   60.0   16.666666666666668
400.0   90.0   16.666666666666668
350.0   90.0   16.666666666666668
400.0   90.0   33.333333333333336
350.0   60.0   33.333333333333336
350.0   90.0   33.333333333333336
400.0   90.0   33.333333333333336
350.0   90.0   16.666666666666668
350.0   60.0   33.333333333333336
400.0   90.0   33.333333333333336
400.0   60.0   33.333333333333336
400.0   60.0   16.666666666666668
350.0   60.0   33.333333333333336
400.0   90.0   33.333333333333336
400.0   60.0   16.666666666666668
350.0   90.0   16.666666666666668
350.0   60.0   33.333333333333336
400.0   60.0   33.333333333333336
350.0   90.0   33.333333333333336
350.0   60.0   50.0
400.0   60.0   33.333333333333336
400.0   90.0   33.333333333333336
350.0   90.0   33.333333333333336
400.0   90.0   50.0
350.0   60.0   50.0
350.0   90.0   50.0
400.0   90.0   50.0
350.0   90.0   33.333333333333336
350.0   60.0   50.0
400.0   90.0   50.0
400.0   60.0   50.0
400.0   60.0   33.333333333333336
350.0   60.0   50.0
400.0   90.0   50.0
400.0   60.0   33.333333333333336
350.0   90.0   33.333333333333336
350.0   90.0   0.0
400.0   90.0   0.0
350.0   120.0   0.0
350.0   90.0   16.666666666666668
400.0   90.0   0.0
400.0   120.0   0.0
350.0   120.0   0.0
400.0   120.0   16.666666666666668
350.0   90.0   16.666666666666668
350.0   120.0   16.666666666666668
400.0   120.0   16.666666666666668
350.0   120.0   0.0
350.0   90.0   16.666666666666668
400.0   120.0   16.666666666666668
400.0   90.0   16.666666666666668
400.0   90.0   0.0
350.0   90.0   16.666666666666668
400.0   120.0   16.666666666666668
400.0   90.0   0.0
350.0   120.0   0.0
350.0   90.0   16.666666666666668
400.0   90.0   16.666666666666668
350.0   120.0   16.666666666666668
350.0   90.0   33.333333333333336
400.0   90.0   16.666666666666668
400.0   120.0   16.666666666666668
350.0   120.0   16.666666666666668
400.0   120.0   33.333333333333336
350.0   90.0   33.333333333333336
350.0   120.0   33.333333333333336
400.0   120.0   33.333333333333336
350.0   120.0   16.666666666666668
350.0   90.0   33.333333333333336
400.0   120.0   33.333333333333336
400.0   90.0   33.333333333333336
400.0   90.0   16.666666666666668
350.0   90.0   33.333333333333336
400.0   120.0   33.333333333333336
400.0   90.0   16.666666666666668
350.0   120.0   16.666666666666668
350.0   90.0   33.333333333333336
400.0   90.0   33.333333333333336
350.0   120.0   33.333333333333336
350.0   90.0   50.0
400.0   90.0   33.333333333333336
400.0   120.0   33.333333333333336
350.0   120.0   33.333333333333336
400.0   120.0   50.0
350.0   90.0   50.0
350.0   120.0   50.0
400.0   120.0   50.0
350.0   120.0   33.333333333333336
350.0   90.0   50.0
400.0   120.0   50.0
400.0   90.0   50.0
400.0   90.0   33.333333333333336
350.0   90.0   50.0
400.0   120.0   50.0
400.0   90.0   33.333333333333336
350.0   120.0   33.333333333333336
350.0   120.0   0.0
400.0   120.0   0.0
350.0   150.0   0.0
350.0   120.0   16.666666666666668
400.0   120.0   0.0
400.0   150.0   0.0
350.0   150.0   0.0
400.0   150.0   16.666666666666668
350.0   120.0   16.666666666666668
350.0   150.0   16.666666666666668
400.0   150.0   16.666666666666668
350.0   150.0   0.0
350.0   120.0   16.666666666666668
400.0   150.0   16.666666666666668
400.0   120.0   16.666666666666668
400.0   120.0   0.0
350.0   120.0   16.666666666666668
400.0   150.0   16.666666666666668
400.0   120.0   0.0
350.0   150.0   0.0
350.0   120.0   16.666666666666668
400.0   120.0   16.666666666666668
350.0   150.0   16.666666666666668
350.0   120.0   33.333333333333336
400.0   120.0   16.666666666666668
400.0   150.0   16.666666666666668
350.0   150.0   16.666666666666668
400.0   150.0   33.333333333333336
350.0   120.0   33.333333333333336
350.0   150.0   33.333333333333336
400.0   150.0   33.333333333333336
350.0   150.0   16.666666666666668
350.0   120.0   33.333333333333336
400.0   150.0   33.333333333333336
400.0   120.0   33.333333333333336
400.0   120.0   16.666666666666668
350.0   120.0   33.333333333333336
400.0   150.0   33.333333333333336
400.0   120.0   16.666666666666668
350.0   150.0   16.666666666666668
350.0   120.0   33.333333333333336
400.0   120.0   33.333333333333336
350.0   150.0   33.333333333333336
350.0   120.0   50.0
400.0   120.0   33.333333333333336
400.0   150.0   33.333333333333336
350.0   150.0   33.333333333333336
400.0   150.0   50.0
350.0   120.0   50.0
350.0   150.0   50.0
400.0   150.0   50.0
350.0   150.0   33.333333333333336
350.0   120.0   50.0
400.0   150.0   50.0
400.0   120.0   50.0
400.0   120.0   33.333333333333336
350.0   120.0   50.0
400.0   150.0   50.0
400.0   120.0   33.333333333333336
350.0   150.0   33.333333333333336
400.0   0.0   0.0
450.0   0.0   0.0
400.0   30.0   0.0
400.0   0.0   16.666666666666668
450.0   0.0   0.0
450.0   30.0   0.0
400.0   30.0   0.0
450.0   30.0   16.666666666666668
400.0   0.0   16.666666666666668
400.0   30.0   16.666666666666668
450.0   30.0   16.666666666666668
400.0   30.0   0.0
400.0   0.0   16.666666666666668
450.0   30.0   16.666666666666668
450.0   0.0   16.666666666666668
450.0   0.0   0.0
400.0   0.0   16.666666666666668
450.0   30.0   16.666666666666668
450.0   0.0   0.0
400.0   30.0   0.0
400.0   0.0   16.666666666666668
450.0   0.0   16.666666666666668
400.0   30.0   16.666666666666668
400.0   0.0   33.333333333333336
450.0   0.0   16.666666666666668
450.0   30.0   16.666666666666668
400.0   30.0   16.666666666666668
450.0   30.0   33.333333333333336
400.0   0.0   33.333333333333336
400.0   30.0   33.333333333333336
450.0   30.0   33.333333333333336
400.0   30.0   16.666666666666668
400.0   0.0   33.333333333333336
450.0   30.0   33.333333333333336
450.0   0.0   33.333333333333336
450.0   0.0   16.666666666666668
400.0   0.0   33.333333333333336
450.0   30.0   33.333333333333336
450.0   0.0   16.666666666666668
400.0   30.0   16.666666666666668
400.0   0.0   33.333333333333336
450.0   0.0   33.333333333333336
400.0   30.0   33.333333333333336
400.0   0.0   50.0
450.0   0.0   33.333333333333336
450.0   30.0   33.333333333333336
400.0   30.0   33.333333333333336
450.0   30.0   50.0
400.0   0.0   50.0
400.0   30.0   50.0
450.0   30.0   50.0
400.0   30.0   33.333333333333336
400.0   0.0   50.0
450.0   30.0   50.0
450.0   0.0   50.0
450.0   0.0   33.333333333333336
400.0   0.0   50.0
450.0   30.0   50.0
450.0   0.0   33.333333333333336
400.0   30.0   33.333333333333336
400.0   30.0   0.0
450.0   30.0   0.0
400.0   60.0   0.0
400.0   30.0   16.666666666666668
450.0   30.0   0.0
450.0   60.0   0.0
400.0   60.0   0.0
450.0   60.0   16.666666666666668
400.0   30.0   16.666666666666668
400.0   60.0   16.666666666666668
450.0   60.0   16.666666666666668
400.0   60.0   0.0
400.0   30.0   16.666666666666668
450.0   60.0   16.666666666666668
450.0   30.0   16.666666666666668
450.0   30.0   0.0
400.0   30.0   16.666666666666668
450.0   60.0   16.666666666666668
450.0   30.0   0.0
400.0   60.0   0.0
400.0   30.0   16.666666666666668
450.0   30.0   16.666666666666668
400.0   60.0   16.666666666666668
400.0   30.0   33.333333333333336
450.0   30.0   16.666666666666668
450.0   60.0   16.666666666666668
400.0   60.0   16.666666666666668
450.0   60.0   33.333333333333336
400.0   30.0   33.333333333333336
400.0   60.0   33.333333333333336
450.0   60.0   33.333333333333336
400.0   60.0   16.666666666666668
400.0   30.0   33.333333333333336
450.0   60.0   33.333333333333336
450.0   30.0   33.333333333333336
450.0   30.0   16.666666666666668
400.0   30.0   33.333333333333336
450.0   60.0   33.333333333333336
450.0   30.0   16.666666666666668
400.0   60.0   16.666666666666668
400.0   30.0   33.333333333333336
450.0   30.0   33.333333333333336
400.0   60.0   33.333333333333336
400.0   30.0   50.0
450.0   30.0   33.333333333333336
450.0   60.0   33.333333333333336
400.0   60.0   33.333333333333336
450.0   60.0   50.0
400.0   30.0   50.0
400.0   60.0   50.0
450.0   60.0   50.0
400.0   60.0   33.333333333333336
400.0   30.0   50.0
450.0   60.0   50.0
450.0   30.0   50.0
450.0   30.0   33.333333333333336
400.0   30.0   50.0
450.0   60.0   50.0
450.0   30.0   33.333333333333336
400.0   60.0   33.333333333333336
400.0   60.0   0.0
450.0   60.0   0.0
400.0   90.0   0.0
400.0   60.0   16.666666666666668
450.0   60.0   0.0
450.0   90.0   0.0
400.0   90.0   0.0
450.0   90.0   16.666666666666668
400.0   60.0   16.666666666666668
400.0   90.0   16.666666666666668
450.0   90.0   16.666666666666668
400.0   90.0   0.0
400.0   60.0   16.666666666666668
450.0   90.0   16.666666666666668
450.0   60.0   16.666666666666668
450.0   60.0   0.0
400.0   60.0   16.666666666666668
450.0   90.0   16.666666666666668
450.0   60.0   0.0
400.0   90.0   0.0
400.0   60.0   16.666666666666668
450.0   60.0   16.666666666666668
400.0   90.0   16.666666666666668
400.0   60.0   33.333333333333336
450.0   60.0   16.666666666666668
450.0   90.0   16.666666666666668
400.0   90.0   16.666666666666668
450.0   90.0   33.333333333333336
400.0   60.0   33.333333333333336
400.0   90.0   33.333333333333336
450.0   90.0   33.333333333333336
400.0   90.0   16.666666666666668
400.0   60.0   33.333333333333336
450.0   90.0   33.333333333333336
450.0   60.0   33.333333333333336
450.0   60.0   16.666666666666668
400.0   60.0   33.333333333333336
450.0   90.0   33.333333333333336
450.0   60.0   16.666666666666668
400.0   90.0   16.666666666666668
400.0   60.0   33.333333333333336
450.0   60.0   33.333333333333336
400.0   90.0   33.333333333333336
400.0   60.0   50.0
450.0   60.0   33.333333333333336
450.0   90.0   33.333333333333336
400.0   90.0   33.333333333333336
450.0   90.0   50.0
400.0   60.0   50.0
400.0   90.0   50.0
450.0   90.0   50.0
400.0   90.0   33.333333333333336
400.0   60.0   50.0
450.0   90.0   50.0
450.0   60.0   50.0
450.0   60.0   33.333333333333336
400.0   60.0   50.0
450.0   90.0   50.0
450.0   60.0   33.333333333333336
400.0   90.0   33.333333333333336
400.0   90.0   0.0
450.0   90.0   0.0
400.0   120.0   0.0
400.0   90.0   16.666666666666668
450.0   90.0   0.0
450.0   120.0   0.0
400.0   120.0   0.0
450.0   120.0   16.666666666666668
400.0   90.0   16.666666666666668
400.0   120.0   16.666666666666668
450.0   120.0   16.666666666666668
400.0   120.0   0.0
400.0   90.0   16.666666666666668
450.0   120.0   16.666666666666668
450.0   90.0   16.666666666666668
450.0   90.0   0.0
400.0   90.0   16.666666666666668
450.0   120.0   16.666666666666668
450.0   90.0   0.0
400.0   120.0   0.0
400.0   90.0   16.666666666666668
450.0   90.0   16.666666666666668
400.0   120.0   16.666666666666668
400.0   90.0   33.333333333333336
450.0   90.0   16.666666666666668
450.0   120.0   16.666666666666668
400.0   120.0   16.666666666666668
450.0   120.0   33.333333333333336
400.0   90.0   33.333333333333336
400.0   120.0   33.333333333333336
450.0   120.0   33.333333333333336
400.0   120.0   16.666666666666668
400.0   90.0   33.333333333333336
450.0   120.0   33.333333333333336
450.0   90.0   33.333333333333336
450.0   90.0   16.666666666666668
400.0   90.0   33.333333333333336
450.0   120.0   33.333333333333336
450.0   90.0   16.666666666666668
400.0   120.0   16.666666666666668
400.0   90.0   33.333333333333336
450.0   90.0   33.333333333333336
400.0   120.0   33.333333333333336
400.0   90.0   50.0
450.0   90.0   33.333333333333336
450.0   120.0   33.333333333333336
400.0   120.0   33.333333333333336
450.0   120.0   50.0
400.0   90.0   50.0
400.0   120.0   50.0
450.0   120.0   50.0
400.0   120.0   33.333333333333336
400.0   90.0   50.0
450.0   120.0   50.0
450.0   90.0   50.0
450.0   90.0   33.333333333333336
400.0   90.0   50.0
450.0   120.0   50.0
450.0   90.0   33.333333333333336
400.0   120.0   33.333333333333336
400.0   120.0   0.0
450.0   120.0   0.0
400.0   150.0   0.0
400.0   120.0   16.666666666666668
450.0   120.0   0.0
450.0   150.0   0.0
400.0   150.0   0.0
450.0   150.0   16.666666666666668
400.0   120.0   16.666666666666668
400.0   150.0   16.666666666666668
450.0   150.0   16.666666666666668
400.0   150.0   0.0
400.0   120.0   16.666666666666668
450.0   150.0   16.666666666666668
450.0   120.0   16.666666666666668
450.0   120.0   0.0
400.0   120.0   16.666666666666668
450.0   150.0   16.666666666666668
450.0   120.0   0.0
400.0   150.0   0.0
400.0   120.0   16.666666666666668
450.0   120.0   16.666666666666668
400.0   150.0   16.666666666666668
400.0   120.0   33.333333333333336
450.0   120.0   16.666666666666668
450.0   150.0   16.666666666666668
400.0   150.0   16.666666666666668
450.0   150.0   33.333333333333336
400.0   120.0   33.333333333333336
400.0   150.0   33.333333333333336
450.0   150.0   33.333333333333336
400.0   150.0   16.666666666666668
400.0   120.0   33.333333333333336
450.0   150.0   33.333333333333336
450.0   120.0   33.333333333333336
450.0   120.0   16.666666666666668
400.0   120.0   33.333333333333336
450.0   150.0   33.333333333333336
450.0   120.0   16.666666666666668
400.0   150.0   16.666666666666668
400.0   120.0   33.333333333333336
450.0   120.0   33.333333333333336
400.0   150.0   33.333333333333336
400.0   120.0   50.0
450.0   120.0   33.333333333333336
450.0   150.0   33.333333333333336
400.0   150.0   33.333333333333336
450.0   150.0   50.0
400.0   120.0   50.0
400.0   150.0   50.0
450.0   150.0   50.0
400.0   150.0   33.333333333333336
400.0   120.0   50.0
450.0   150.0   50.0
450.0   120.0   50.0
450.0   120.0   33.333333333333336
400.0   120.0   50.0
450.0   150.0   50.0
450.0   120.0   33.333333333333336
400.0   150.0   33.333333333333336
450.0   0.0   0.0
500.0   0.0   0.0
450.0   30.0   0.0
450.0   0.0   16.666666666666668
500.0   0.0   0.0
500.0   30.0   0.0
450.0   30.0   0.0
500.0   30.0   16.666666666666668
450.0   0.0   16.666666666666668
450.0   30.0   16.666666666666668
500.0   30.0   16.666666666666668
450.0   30.0   0.0
450.0   0.0   16.666666666666668
500.0   30.0   16.666666666666668
500.0   0.0   16.666666666666668
500.0   0.0   0.0
450.0   0.0   16.666666666666668
500.0   30.0   16.666666666666668
500.0   0.0   0.0
450.0   30.0   0.0
450.0   0.0   16.666666666666668
500.0   0.0   16.666666666666668
450.0   30.0   16.666666666666668
450.0   0.0   33.333333333333336
500.0   0.0   16.666666666666668
500.0   30.0   16.666666666666668
450.0   30.0   16.666666666666668
500.0   30.0   33.333333333333336
450.0   0.0   33.333333333333336
450.0   30.0   33.333333333333336
500.0   30.0   33.333333333333336
450.0   30.0   16.666666666666668
450.0   0.0   33.333333333333336
500.0   30.0   33.333333333333336
500.0   0.0   33.333333333333336
500.0   0.0   16.666666666666668
450.0   0.0   33.333333333333336
500.0   30.0   33.333333333333336
500.0   0.0   16.666666666666668
450.0   30.0   16.666666666666668
450.0   0.0   33.333333333333336
500.0   0.0   33.333333333333336
450.0   30.0   33.333333333333336
450.0   0.0   50.0
500.0   0.0   33.333333333333336
500.0   30.0   33.333333333333336
450.0   30.0   33.333333333333336
500.0   30.0   50.0
450.0   0.0   50.0
450.0   30.0   50.0
500.0   30.0   50.0
450.0   30.0   33.333333333333336
450.0   0.0   50.0
500.0   30.0   50.0
500.0   0.0   50.0
500.0   0.0   33.333333333333336
450.0   0.0   50.0
500.0   30.0   50.0
500.0   0.0   33.333333333333336
450.0   30.0   33.333333333333336
450.0   30.0   0.0
500.0   30.0   0.0
450.0   60.0   0.0
450.0   30.0   16.666666666666668
500.0   30.0   0.0
500.0   60.0   0.0
450.0   60.0   0.0
500.0   60.0   16.666666666666668
450.0   30.0   16.666666666666668
450.0   60.0   16.666666666666668
500.0   60.0   16.666666666666668
450.0   60.0   0.0
450.0   30.0   16.666666666666668
500.0   60.0   16.666666666666668
500.0   30.0   16.666666666666668
500.0   30.0   0.0
450.0   30.0   16.666666666666668
500.0   60.0   16.666666666666668
500.0   30.0   0.0
450.0   60.0   0.0
450.0   30.0   16.666666666666668
500.0   30.0   16.666666666666668
450.0   60.0   16.666666666666668
450.0   30.0   33.333333333333336
500.0   30.0   16.666666666666668
500.0   60.0   16.666666666666668
450.0   60.0   16.666666666666668
500.0   60.0   33.333333333333336
450.0   30.0   33.333333333333336
450.0   60.0   33.333333333333336
500.0   60.0   33.333333333333336
450.0   60.0   16.666666666666668
450.0   30.0   33.333333333333336
500.0   60.0   33.333333333333336
500.0   30.0   33.333333333333336
500.0   30.0   16.666666666666668
450.0   30.0   33.333333333333336
500.0   60.0   33.333333333333336
500.0   30.0   16.666666666666668
450.0   60.0   16.666666666666668
450.0   30.0   33.333333333333336
500.0   30.0   33.333333333333336
450.0   60.0   33.333333333333336
450.0   30.0   50.0
500.0   30.0   33.333333333333336
500.0   60.0   33.333333333333336
450.0   60.0   33.333333333333336
500.0   60.0   50.0
450.0   30.0   50.0
450.0   60.0   50.0
500.0   60.0   50.0
450.0   60.0   33.333333333333336
450.0   30.0   50.0
500.0   60.0   50.0
500.0   30.0   50.0
500.0   30.0   33.333333333333336
450.0   30.0   50.0
500.0   60.0   50.0
500.0   30.0   33.333333333333336
450.0   60.0   33.333333333333336
450.0   60.0   0.0
500.0   60.0   0.0
450.0   90.0   0.0
450.0   60.0   16.666666666666668
500.0   60.0   0.0
500.0   90.0   0.0
450.0   90.0   0.0
500.0   90.0   16.666666666666668
450.0   60.0   16.666666666666668
450.0   90.0   16.666666666666668
500.0   90.0   16.666666666666668
450.0   90.0   0.0
450.0   60.0   16.666666666666668
500.0   90.0   16.666666666666668
500.0   60.0   16.666666666666668
500.0   60.0   0.0
450.0   60.0   16.666666666666668
500.0   90.0   16.666666666666668
500.0   60.0   0.0
450.0   90.0   0.0
450.0   60.0   16.666666666666668
500.0   60.0   16.666666666666668
450.0   90.0   16.666666666666668
450.0   60.0   33.333333333333336
500.0   60.0   16.666666666666668
500.0   90.0   16.666666666666668
450.0   90.0   16.666666666666668
500.0   90.0   33.333333333333336
450.0   60.0   33.333333333333336
450.0   90.0   33.333333333333336
500.0   90.0   33.333333333333336
450.0   90.0   16.666666666666668
450.0   60.0   33.333333333333336
500.0   90.0   33.333333333333336
500.0   60.0   33.333333333333336
500.0   60.0   16.666666666666668
450.0   60.0   33.333333333333336
500.0   90.0   33.333333333333336
500.0   60.0   16.666666666666668
450.0   90.0   16.666666666666668
450.0   60.0   33.333333333333336
500.0   60.0   33.333333333333336
450.0   90.0   33.333333333333336
450.0   60.0   50.0
500.0   60.0   33.333333333333336
500.0   90.0   33.333333333333336
450.0   90.0   33.333333333333336
500.0   90.0   50.0
450.0   60.0   50.0
450.0   90.0   50.0
500.0   90.0   50.0
450.0   90.0   33.333333333333336
450.0   60.0   50.0
500.0   90.0   50.0
500.0   60.0   50.0
500.0   60.0   33.333333333333336
450.0   60.0   50.0
500.0   90.0   50.0
500.0   60.0   33.333333333333336
450.0   90.0   33.333333333333336
450.0   90.0   0.0
500.0   90.0   0.0
450.0   120.0   0.0
450.0   90.0   16.666666666666668
500.0   90.0   0.0
500.0   120.0   0.0
450.0   120.0   0.0
500.0   120.0   16.666666666666668
450.0   90.0   16.666666666666668
450.0   120.0   16.666666666666668
500.0   120.0   16.666666666666668
450.0   120.0   0.0
450.0   90.0   16.666666666666668
500.0   120.0   16.666666666666668
500.0   90.0   16.666666666666668
500.0   90.0   0.0
450.0   90.0   16.666666666666668
500.0   120.0   16.666666666666668
500.0   90.0   0.0
450.0   120.0   0.0
450.0   90.0   16.666666666666668
500.0   90.0   16.666666666666668
450.0   120.0   16.666666666666668
450.0   90.0   33.333333333333336
500.0   90.0   16.666666666666668
500.0   120.0   16.666666666666668
450.0   120.0   16.666666666666668
500.0   120.0   33.333333333333336
450.0   90.0   33.333333333333336
450.0   120.0   33.333333333333336
500.0   120.0   33.333333333333336
450.0   120.0   16.666666666666668
450.0   90.0   33.333333333333336
500.0   120.0   33.333333333333336
500.0   90.0   33.333333333333336
500.0   90.0   16.666666666666668
450.0   90.0   33.333333333333336
500.0   120.0   33.333333333333336
500.0   90.0   16.666666666666668
450.0   120.0   16.666666666666668
450.0   90.0   33.333333333333336
500.0   90.0   33.333333333333336
450.0   120.0   33.333333333333336
450.0   90.0   50.0
500.0   90.0   33.333333333333336
500.0   120.0   33.333333333333336
450.0   120.0   33.333333333333336
500.0   120.0   50.0
450.0   90.0   50.0
450.0   120.0   50.0
500.0   120.0   50.0
450.0   120.0   33.333333333333336
450.0   90.0   50.0
500.0   120.0   50.0
500.0   90.0   50.0
500.0   90.0   33.333333333333336
450.0   90.0   50.0
500.0   120.0   50.0
500.0   90.0   33.333333333333336
450.0   120.0   33.333333333333336
450.0   120.0   0.0
500.0   120.0   0.0
450.0   150.0   0.0
450.0   120.0   16.666666666666668
500.0   120.0   0.0
500.0   150.0   0.0
450.0   150.0   0.0
500.0   150.0   16.666666666666668
450.0   120.0   16.666666666666668
450.0   150.0   16.666666666666668
500.0   150.0   16.666666666666668
450.0   150.0   0.0
450.0   120.0   16.666666666666668
500.0   150.0   16.666666666666668
500.0   120.0   16.666666666666668
500.0   120.0   0.0
450.0   120.0   16.666666666666668
500.0   150.0   16.666666666666668
500.0   120.0   0.0
450.0   150.0   0.0
450.0   120.0   16.666666666666668
500.0   120.0   16.666666666666668
450.0   150.0   16.666666666666668
450.0   120.0   33.333333333333336
500.0   120.0   16.666666666666668
500.0   150.0   16.666666666666668
450.0   150.0   16.666666666666668
500.0   150.0   33.333333333333336
450.0   120.0   33.333333333333336
450.0   150.0   33.333333333333336
500.0   150.0   33.333333333333336
450.0   150.0   16.666666666666668
450.0   120.0   33.333333333333336
500.0   150.0   33.333333333333336
500.0   120.0   33.333333333333336
500.0   120.0   16.666666666666668
450.0   120.0   33.333333333333336
500.0   150.0   33.333333333333336
500.0   120.0   16.666666666666668
450.0   150.0   16.666666666666668
450.0   120.0   33.333333333333336
500.0   120.0   33.333333333333336
450.0   150.0   33.333333333333336
450.0   120.0   50.0
500.0   120.0   33.333333333333336
500.0   150.0   33.333333333333336
450.0   150.0   33.333333333333336
500.0   150.0   50.0
450.0   120.0   50.0
450.0   150.0   50.0
500.0   150.0   50.0
450.0   150.0   33.333333333333336
450.0   120.0   50.0
500.0   150.0   50.0
500.0   120.0   50.0
500.0   120.0   33.333333333333336
450.0   120.0   50.0
500.0   150.0   50.0
500.0   120.0   33.333333333333336
450.0   150.0   33.333333333333336
             </DataArray>   
          </Points>  
          <Cells>  
             <DataArray type="Int32" Name="connectivity" format="ascii">   
0   1   2   3
4   5   6   7
8   9   10   11
12   13   14   15
16   17   18   19
20   21   22   23
24   25   26   27
28   29   30   31
32   33   34   35
36   37   38   39
40   41   42   43
44   45   46   47
48   49   50   51
52   53   54   55
56   57   58   59
60   61   62   63
64   65   66   67
68   69   70   71
72   73   74   75
76   77   78   79
80   81   82   83
84   85   86   87
88   89   90   91
92   93   94   95
96   97   98   99
100   101   102   103
104   105   106   107
108   109   110   111
112   113   114   115
116   117   118   119
120   121   122   123
124   125   126   127
128   129   130   131
132   133   134   135
136   137   138   139
140   141   142   143
144   145   146   147
148   149   150   151
152   153   154   155
156   157   158   159
160   161   162   163
164   165   166   167
168   169   170   171
172   173   174   175
176   177   178   179
180   181   182   183
184   185   186   187
188   189   190   191
192   193   194   195
196   197   198   199
200   201   202   203
204   205   206   207
208   209   210   211
212   213   214   215
216   217   218   219
220   221   222   223
224   225   226   227
228   229   230   231
232   233   234   235
236   237   238   239
240   241   242   243
244   245   246   247
248   249   250   251
252   253   254   255
256   257   258   259
260   261   262   263
264   265   266   267
268   269   270   271
272   273   274   275
276   277   278   279
280   281   282   283
284   285   286   287
288   289   290   291
292   293   294   295
296   297   298   299
300   301   302   303
304   305   306   307
308   309   310   311
312   313   314   315
316   317   318   319
320   321   322   323
324   325   326   327
328   329   330   331
332   333   334   335
336   337   338   339
340   341   342   343
344   345   346   347
348   349   350   351
352   353   354   355
356   357   358   359
360   361   362   363
364   365   366   367
368   369   370   371
372   373   374   375
376   377   378   379
380   381   382   383
384   385   386   387
388   389   390   391
392   393   394   395
396   397   398   399
400   401   402   403
404   405   406   407
408   409   410   411
412   413   414   415
416   417   418   419
420   421   422   423
424   425   426   427
428   429   430   431
432   433   434   435
436   437   438   439
440   441   442   443
444   445   446   447
448   449   450   451
452   453   454   455
456   457   458   459
460   461   462   463
464   465   466   467
468   469   470   471
472   473   474   475
476   477   478   479
480   481   482   483
484   485   486   487
488   489   490   491
492   493   494   495
496   497   498   499
500   501   502   503
504   505   506   507
508   509   510   511
512   513   514   515
516   517   518   519
520   521   522   523
524   525   526   527
528   529   530   531
532   533   534   535
536   537   538   539
540   541   542   543
544   545   546   547
548   549   550   551
552   553   554   555
556   557   558   559
560   561   562   563
564   565   566   567
568   569   570   571
572   573   574   575
576   577   578   579
580   581   582   583
584   585   586   587
588   589   590   591
592   593   594   595
596   597   598   599
600   601   602   603
604   605   606   607
608   609   610   611
612   613   614   615
616   617   618   619
620   621   622   623
624   625   626   627
628   629   630   631
632   633   634   635
636   637   638   639
640   641   642   643
644   645   646   647
648   649   650   651
652   653   654   655
656   657   658   659
660   661   662   663
664   665   666   667
668   669   670   671
672   673   674   675
676   677   678   679
680   681   682   683
684   685   686   687
688   689   690   691
692   693   694   695
696   697   698   699
700   701   702   703
704   705   706   707
708   709   710   711
712   713   714   715
716   717   718   719
720   721   722   723
724   725   726   727
728   729   730   731
732   733   734   735
736   737   738   739
740   741   742   743
744   745   746   747
748   749   750   751
752   753   754   755
756   757   758   759
760   761   762   763
764   765   766   767
768   769   770   771
772   773   774   775
776   777   778   779
780   781   782   783
784   785   786   787
788   789   790   791
792   793   794   795
796   797   798   799
800   801   802   803
804   805   806   807
808   809   810   811
812   813   814   815
816   817   818   819
820   821   822   823
824   825   826   827
828   829   830   831
832   833   834   835
836   837   838   839
840   841   842   843
844   845   846   847
848   849   850   851
852   853   854   855
856   857   858   859
860   861   862   863
864   865   866   867
868   869   870   871
872   873   874   875
876   877   878   879
880   881   882   883
884   885   886   887
888   889   890   891
892   893   894   895
896   897   898   899
900   901   902   903
904   905   906   907
908   909   910   911
912   913   914   915
916   917   918   919
920   921   922   923
924   925   926   927
928   929   930   931
932   933   934   935
936   937   938   939
940   941   942   943
944   945   946   947
948   949   950   951
952   953   954   955
956   957   958   959
960   961   962   963
964   965   966   967
968   969   970   971
972   973   974   975
976   977   978   979
980   981   982   983
984   985   986   987
988   989   990   991
992   993   994   995
996   997   998   999
1000   1001   1002   1003
1004   1005   1006   1007
1008   1009   1010   1011
1012   1013   1014   1015
1016   1017   1018   1019
1020   1021   1022   1023
1024   1025   1026   1027
1028   1029   1030   1031
1032   1033   1034   1035
1036   1037   1038   1039
1040   1041   1042   1043
1044   1045   1046   1047
1048   1049   1050   1051
1052   1053   1054   1055
1056   1057   1058   1059
1060   1061   1062   1063
1064   1065   1066   1067
1068   1069   1070   1071
1072   1073   1074   1075
1076   1077   1078   1079
1080   1081   1082   1083
1084   1085   1086   1087
1088   1089   1090   1091
1092   1093   1094   1095
1096   1097   1098   1099
1100   1101   1102   1103
1104   1105   1106   1107
1108   1109   1110   1111
1112   1113   1114   1115
1116   1117   1118   1119
1120   1121   1122   1123
1124   1125   1126   1127
1128   1129   1130   1131
1132   1133   1134   1135
1136   1137   1138   1139
1140   1141   1142   1143
1144   1145   1146   1147
1148   1149   1150   1151
1152   1153   1154   1155
1156   1157   1158   1159
1160   1161   1162   1163
1164   1165   1166   1167
1168   1169   1170   1171
1172   1173   1174   1175
1176   1177   1178   1179
1180   1181   1182   1183
1184   1185   1186   1187
1188   1189   1190   1191
1192   1193   1194   1195
1196   1197   1198   1199
1200   1201   1202   1203
1204   1205   1206   1207
1208   1209   1210   1211
1212   1213   1214   1215
1216   1217   1218   1219
1220   1221   1222   1223
1224   1225   1226   1227
1228   1229   1230   1231
1232   1233   1234   1235
1236   1237   1238   1239
1240   1241   1242   1243
1244   1245   1246   1247
1248   1249   1250   1251
1252   1253   1254   1255
1256   1257   1258   1259
1260   1261   1262   1263
1264   1265   1266   1267
1268   1269   1270   1271
1272   1273   1274   1275
1276   1277   1278   1279
1280   1281   1282   1283
1284   1285   1286   1287
1288   1289   1290   1291
1292   1293   1294   1295
1296   1297   1298   1299
1300   1301   1302   1303
1304   1305   1306   1307
1308   1309   1310   1311
1312   1313   1314   1315
1316   1317   1318   1319
1320   1321   1322   1323
1324   1325   1326   1327
1328   1329   1330   1331
1332   1333   1334   1335
1336   1337   1338   1339
1340   1341   1342   1343
1344   1345   1346   1347
1348   1349   1350   1351
1352   1353   1354   1355
1356   1357   1358   1359
1360   1361   1362   1363
1364   1365   1366   1367
1368   1369   1370   1371
1372   1373   1374   1375
1376   1377   1378   1379
1380   1381   1382   1383
1384   1385   1386   1387
1388   1389   1390   1391
1392   1393   1394   1395
1396   1397   1398   1399
1400   1401   1402   1403
1404   1405   1406   1407
1408   1409   1410   1411
1412   1413   1414   1415
1416   1417   1418   1419
1420   1421   1422   1423
1424   1425   1426   1427
1428   1429   1430   1431
1432   1433   1434   1435
1436   1437   1438   1439
1440   1441   1442   1443
1444   1445   1446   1447
1448   1449   1450   1451
1452   1453   1454   1455
1456   1457   1458   1459
1460   1461   1462   1463
1464   1465   1466   1467
1468   1469   1470   1471
1472   1473   1474   1475
1476   1477   1478   1479
1480   1481   1482   1483
1484   1485   1486   1487
1488   1489   1490   1491
1492   1493   1494   1495
1496   1497   1498   1499
1500   1501   1502   1503
1504   1505   1506   1507
1508   1509   1510   1511
1512   1513   1514   1515
1516   1517   1518   1519
1520   1521   1522   1523
1524   1525   1526   1527
1528   1529   1530   1531
1532   1533   1534   1535
1536   1537   1538   1539
1540   1541   1542   1543
1544   1545   1546   1547
1548   1549   1550   1551
1552   1553   1554   1555
1556   1557   1558   1559
1560   1561   1562   1563
1564   1565   1566   1567
1568   1569   1570   1571
1572   1573   1574   1575
1576   1577   1578   1579
1580   1581   1582   1583
1584   1585   1586   1587
1588   1589   1590   1591
1592   1593   1594   1595
1596   1597   1598   1599
1600   1601   1602   1603
1604   1605   1606   1607
1608   1609   1610   1611
1612   1613   1614   1615
1616   1617   1618   1619
1620   1621   1622   1623
1624   1625   1626   1627
1628   1629   1630   1631
1632   1633   1634   1635
1636   1637   1638   1639
1640   1641   1642   1643
1644   1645   1646   1647
1648   1649   1650   1651
1652   1653   1654   1655
1656   1657   1658   1659
1660   1661   1662   1663
1664   1665   1666   1667
1668   1669   1670   1671
1672   1673   1674   1675
1676   1677   1678   1679
1680   1681   1682   1683
1684   1685   1686   1687
1688   1689   1690   1691
1692   1693   1694   1695
1696   1697   1698   1699
1700   1701   1702   1703
1704   1705   1706   1707
1708   1709   1710   1711
1712   1713   1714   1715
1716   1717   1718   1719
1720   1721   1722   1723
1724   1725   1726   1727
1728   1729   1730   1731
1732   1733   1734   1735
1736   1737   1738   1739
1740   1741   1742   1743
1744   1745   1746   1747
1748   1749   1750   1751
1752   1753   1754   1755
1756   1757   1758   1759
1760   1761   1762   1763
1764   1765   1766   1767
1768   1769   1770   1771
1772   1773   1774   1775
1776   1777   1778   1779
1780   1781   1782   1783
1784   1785   1786   1787
1788   1789   1790   1791
1792   1793   1794   1795
1796   1797   1798   1799
1800   1801   1802   1803
1804   1805   1806   1807
1808   1809   1810   1811
1812   1813   1814   1815
1816   1817   1818   1819
1820   1821   1822   1823
1824   1825   1826   1827
1828   1829   1830   1831
1832   1833   1834   1835
1836   1837   1838   1839
1840   1841   1842   1843
1844   1845   1846   1847
1848   1849   1850   1851
1852   1853   1854   1855
1856   1857   1858   1859
1860   1861   1862   1863
1864   1865   1866   1867
1868   1869   1870   1871
1872   1873   1874   1875
1876   1877   1878   1879
1880   1881   1882   1883
1884   1885   1886   1887
1888   1889   1890   1891
1892   1893   1894   1895
1896   1897   1898   1899
1900   1901   1902   1903
1904   1905   1906   1907
1908   1909   1910   1911
1912   1913   1914   1915
1916   1917   1918   1919
1920   1921   1922   1923
1924   1925   1926   1927
1928   1929   1930   1931
1932   1933   1934   1935
1936   1937   1938   1939
1940   1941   1942   1943
1944   1945   1946   1947
1948   1949   1950   1951
1952   1953   1954   1955
1956   1957   1958   1959
1960   1961   1962   1963
1964   1965   1966   1967
1968   1969   1970   1971
1972   1973   1974   1975
1976   1977   1978   1979
1980   1981   1982   1983
1984   1985   1986   1987
1988   1989   1990   1991
1992   1993   1994   1995
1996   1997   1998   1999
2000   2001   2002   2003
2004   2005   2006   2007
2008   2009   2010   2011
2012   2013   2014   2015
2016   2017   2018   2019
2020   2021   2022   2023
2024   2025   2026   2027
2028   2029   2030   2031
2032   2033   2034   2035
2036   2037   2038   2039
2040   2041   2042   2043
2044   2045   2046   2047
2048   2049   2050   2051
2052   2053   2054   2055
2056   2057   2058   2059
2060   2061   2062   2063
2064   2065   2066   2067
2068   2069   2070   2071
2072   2073   2074   2075
2076   2077   2078   2079
2080   2081   2082   2083
2084   2085   2086   2087
2088   2089   2090   2091
2092   2093   2094   2095
2096   2097   2098   2099
2100   2101   2102   2103
2104   2105   2106   2107
2108   2109   2110   2111
2112   2113   2114   2115
2116   2117   2118   2119
2120   2121   2122   2123
2124   2125   2126   2127
2128   2129   2130   2131
2132   2133   2134   2135
2136   2137   2138   2139
2140   2141   2142   2143
2144   2145   2146   2147
2148   2149   2150   2151
2152   2153   2154   2155
2156   2157   2158   2159
2160   2161   2162   2163
2164   2165   2166   2167
2168   2169   2170   2171
2172   2173   2174   2175
2176   2177   2178   2179
2180   2181   2182   2183
2184   2185   2186   2187
2188   2189   2190   2191
2192   2193   2194   2195
2196   2197   2198   2199
2200   2201   2202   2203
2204   2205   2206   2207
2208   2209   2210   2211
2212   2213   2214   2215
2216   2217   2218   2219
2220   2221   2222   2223
2224   2225   2226   2227
2228   2229   2230   2231
2232   2233   2234   2235
2236   2237   2238   2239
2240   2241   2242   2243
2244   2245   2246   2247
2248   2249   2250   2251
2252   2253   2254   2255
2256   2257   2258   2259
2260   2261   2262   2263
2264   2265   2266   2267
2268   2269   2270   2271
2272   2273   2274   2275
2276   2277   2278   2279
2280   2281   2282   2283
2284   2285   2286   2287
2288   2289   2290   2291
2292   2293   2294   2295
2296   2297   2298   2299
2300   2301   2302   2303
2304   2305   2306   2307
2308   2309   2310   2311
2312   2313   2314   2315
2316   2317   2318   2319
2320   2321   2322   2323
2324   2325   2326   2327
2328   2329   2330   2331
2332   2333   2334   2335
2336   2337   2338   2339
2340   2341   2342   2343
2344   2345   2346   2347
2348   2349   2350   2351
2352   2353   2354   2355
2356   2357   2358   2359
2360   2361   2362   2363
2364   2365   2366   2367
2368   2369   2370   2371
2372   2373   2374   2375
2376   2377   2378   2379
2380   2381   2382   2383
2384   2385   2386   2387
2388   2389   2390   2391
2392   2393   2394   2395
2396   2397   2398   2399
2400   2401   2402   2403
2404   2405   2406   2407
2408   2409   2410   2411
2412   2413   2414   2415
2416   2417   2418   2419
2420   2421   2422   2423
2424   2425   2426   2427
2428   2429   2430   2431
2432   2433   2434   2435
2436   2437   2438   2439
2440   2441   2442   2443
2444   2445   2446   2447
2448   2449   2450   2451
2452   2453   2454   2455
2456   2457   2458   2459
2460   2461   2462   2463
2464   2465   2466   2467
2468   2469   2470   2471
2472   2473   2474   2475
2476   2477   2478   2479
2480   2481   2482   2483
2484   2485   2486   2487
2488   2489   2490   2491
2492   2493   2494   2495
2496   2497   2498   2499
2500   2501   2502   2503
2504   2505   2506   2507
2508   2509   2510   2511
2512   2513   2514   2515
2516   2517   2518   2519
2520   2521   2522   2523
2524   2525   2526   2527
2528   2529   2530   2531
2532   2533   2534   2535
2536   2537   2538   2539
2540   2541   2542   2543
2544   2545   2546   2547
2548   2549   2550   2551
2552   2553   2554   2555
2556   2557   2558   2559
2560   2561   2562   2563
2564   2565   2566   2567
2568   2569   2570   2571
2572   2573   2574   2575
2576   2577   2578   2579
2580   2581   2582   2583
2584   2585   2586   2587
2588   2589   2590   2591
2592   2593   2594   2595
2596   2597   2598   2599
2600   2601   2602   2603
2604   2605   2606   2607
2608   2609   2610   2611
2612   2613   2614   2615
2616   2617   2618   2619
2620   2621   2622   2623
2624   2625   2626   2627
2628   2629   2630   2631
2632   2633   2634   2635
2636   2637   2638   2639
2640   2641   2642   2643
2644   2645   2646   2647
2648   2649   2650   2651
2652   2653   2654   2655
2656   2657   2658   2659
2660   2661   2662   2663
2664   2665   2666   2667
2668   2669   2670   2671
2672   2673   2674   2675
2676   2677   2678   2679
2680   2681   2682   2683
2684   2685   2686   2687
2688   2689   2690   2691
2692   2693   2694   2695
2696   2697   2698   2699
2700   2701   2702   2703
2704   2705   2706   2707
2708   2709   2710   2711
2712   2713   2714   2715
2716   2717   2718   2719
2720   2721   2722   2723
2724   2725   2726   2727
2728   2729   2730   2731
2732   2733   2734   2735
2736   2737   2738   2739
2740   2741   2742   2743
2744   2745   2746   2747
2748   2749   2750   2751
2752   2753   2754   2755
2756   2757   2758   2759
2760   2761   2762   2763
2764   2765   2766   2767
2768   2769   2770   2771
2772   2773   2774   2775
2776   2777   2778   2779
2780   2781   2782   2783
2784   2785   2786   2787
2788   2789   2790   2791
2792   2793   2794   2795
2796   2797   2798   2799
2800   2801   2802   2803
2804   2805   2806   2807
2808   2809   2810   2811
2812   2813   2814   2815
2816   2817   2818   2819
2820   2821   2822   2823
2824   2825   2826   2827
2828   2829   2830   2831
2832   2833   2834   2835
2836   2837   2838   2839
2840   2841   2842   2843
2844   2845   2846   2847
2848   2849   2850   2851
2852   2853   2854   2855
2856   2857   2858   2859
2860   2861   2862   2863
2864   2865   2866   2867
2868   2869   2870   2871
2872   2873   2874   2875
2876   2877   2878   2879
2880   2881   2882   2883
2884   2885   2886   2887
2888   2889   2890   2891
2892   2893   2894   2895
2896   2897   2898   2899
2900   2901   2902   2903
2904   2905   2906   2907
2908   2909   2910   2911
2912   2913   2914   2915
2916   2917   2918   2919
2920   2921   2922   2923
2924   2925   2926   2927
2928   2929   2930   2931
2932   2933   2934   2935
2936   2937   2938   2939
2940   2941   2942   2943
2944   2945   2946   2947
2948   2949   2950   2951
2952   2953   2954   2955
2956   2957   2958   2959
2960   2961   2962   2963
2964   2965   2966   2967
2968   2969   2970   2971
2972   2973   2974   2975
2976   2977   2978   2979
2980   2981   2982   2983
2984   2985   2986   2987
2988   2989   2990   2991
2992   2993   2994   2995
2996   2997   2998   2999
3000   3001   3002   3003
3004   3005   3006   3007
3008   3009   3010   3011
3012   3013   3014   3015
3016   3017   3018   3019
3020   3021   3022   3023
3024   3025   3026   3027
3028   3029   3030   3031
3032   3033   3034   3035
3036   3037   3038   3039
3040   3041   3042   3043
3044   3045   3046   3047
3048   3049   3050   3051
3052   3053   3054   3055
3056   3057   3058   3059
3060   3061   3062   3063
3064   3065   3066   3067
3068   3069   3070   3071
3072   3073   3074   3075
3076   3077   3078   3079
3080   3081   3082   3083
3084   3085   3086   3087
3088   3089   3090   3091
3092   3093   3094   3095
3096   3097   3098   3099
3100   3101   3102   3103
3104   3105   3106   3107
3108   3109   3110   3111
3112   3113   3114   3115
3116   3117   3118   3119
3120   3121   3122   3123
3124   3125   3126   3127
3128   3129   3130   3131
3132   3133   3134   3135
3136   3137   3138   3139
3140   3141   3142   3143
3144   3145   3146   3147
3148   3149   3150   3151
3152   3153   3154   3155
3156   3157   3158   3159
3160   3161   3162   3163
3164   3165   3166   3167
3168   3169   3170   3171
3172   3173   3174   3175
3176   3177   3178   3179
3180   3181   3182   3183
3184   3185   3186   3187
3188   3189   3190   3191
3192   3193   3194   3195
3196   3197   3198   3199
3200   3201   3202   3203
3204   3205   3206   3207
3208   3209   3210   3211
3212   3213   3214   3215
3216   3217   3218   3219
3220   3221   3222   3223
3224   3225   3226   3227
3228   3229   3230   3231
3232   3233   3234   3235
3236   3237   3238   3239
3240   3241   3242   3243
3244   3245   3246   3247
3248   3249   3250   3251
3252   3253   3254   3255
3256   3257   3258   3259
3260   3261   3262   3263
3264   3265   3266   3267
3268   3269   3270   3271
3272   3273   3274   3275
3276   3277   3278   3279
3280   3281   3282   3283
3284   3285   3286   3287
3288   3289   3290   3291
3292   3293   3294   3295
3296   3297   3298   3299
3300   3301   3302   3303
3304   3305   3306   3307
3308   3309   3310   3311
3312   3313   3314   3315
3316   3317   3318   3319
3320   3321   3322   3323
3324   3325   3326   3327
3328   3329   3330   3331
3332   3333   3334   3335
3336   3337   3338   3339
3340   3341   3342   3343
3344   3345   3346   3347
3348   3349   3350   3351
3352   3353   3354   3355
3356   3357   3358   3359
3360   3361   3362   3363
3364   3365   3366   3367
3368   3369   3370   3371
3372   3373   3374   3375
3376   3377   3378   3379
3380   3381   3382   3383
3384   3385   3386   3387
3388   3389   3390   3391
3392   3393   3394   3395
3396   3397   3398   3399
3400   3401   3402   3403
3404   3405   3406   3407
3408   3409   3410   3411
3412   3413   3414   3415
3416   3417   3418   3419
3420   3421   3422   3423
3424   3425   3426   3427
3428   3429   3430   3431
3432   3433   3434   3435
3436   3437   3438   3439
3440   3441   3442   3443
3444   3445   3446   3447
3448   3449   3450   3451
3452   3453   3454   3455
3456   3457   3458   3459
3460   3461   3462   3463
3464   3465   3466   3467
3468   3469   3470   3471
3472   3473   3474   3475
3476   3477   3478   3479
3480   3481   3482   3483
3484   3485   3486   3487
3488   3489   3490   3491
3492   3493   3494   3495
3496   3497   3498   3499
3500   3501   3502   3503
3504   3505   3506   3507
3508   3509   3510   3511
3512   3513   3514   3515
3516   3517   3518   3519
3520   3521   3522   3523
3524   3525   3526   3527
3528   3529   3530   3531
3532   3533   3534   3535
3536   3537   3538   3539
3540   3541   3542   3543
3544   3545   3546   3547
3548   3549   3550   3551
3552   3553   3554   3555
3556   3557   3558   3559
3560   3561   3562   3563
3564   3565   3566   3567
3568   3569   3570   3571
3572   3573   3574   3575
3576   3577   3578   3579
3580   3581   3582   3583
3584   3585   3586   3587
3588   3589   3590   3591
3592   3593   3594   3595
3596   3597   3598   3599
3600   3601   3602   3603
3604   3605   3606   3607
3608   3609   3610   3611
3612   3613   3614   3615
3616   3617   3618   3619
3620   3621   3622   3623
3624   3625   3626   3627
3628   3629   3630   3631
3632   3633   3634   3635
3636   3637   3638   3639
3640   3641   3642   3643
3644   3645   3646   3647
3648   3649   3650   3651
3652   3653   3654   3655
3656   3657   3658   3659
3660   3661   3662   3663
3664   3665   3666   3667
3668   3669   3670   3671
3672   3673   3674   3675
3676   3677   3678   3679
3680   3681   3682   3683
3684   3685   3686   3687
3688   3689   3690   3691
3692   3693   3694   3695
3696   3697   3698   3699
3700   3701   3702   3703
3704   3705   3706   3707
3708   3709   3710   3711
3712   3713   3714   3715
3716   3717   3718   3719
3720   3721   3722   3723
3724   3725   3726   3727
3728   3729   3730   3731
3732   3733   3734   3735
3736   3737   3738   3739
3740   3741   3742   3743
3744   3745   3746   3747
3748   3749   3750   3751
3752   3753   3754   3755
3756   3757   3758   3759
3760   3761   3762   3763
3764   3765   3766   3767
3768   3769   3770   3771
3772   3773   3774   3775
3776   3777   3778   3779
3780   3781   3782   3783
3784   3785   3786   3787
3788   3789   3790   3791
3792   3793   3794   3795
3796   3797   3798   3799
3800   3801   3802   3803
3804   3805   3806   3807
3808   3809   3810   3811
3812   3813   3814   3815
3816   3817   3818   3819
3820   3821   3822   3823
3824   3825   3826   3827
3828   3829   3830   3831
3832   3833   3834   3835
3836   3837   3838   3839
3840   3841   3842   3843
3844   3845   3846   3847
3848   3849   3850   3851
3852   3853   3854   3855
3856   3857   3858   3859
3860   3861   3862   3863
3864   3865   3866   3867
3868   3869   3870   3871
3872   3873   3874   3875
3876   3877   3878   3879
3880   3881   3882   3883
3884   3885   3886   3887
3888   3889   3890   3891
3892   3893   3894   3895
3896   3897   3898   3899
3900   3901   3902   3903
3904   3905   3906   3907
3908   3909   3910   3911
3912   3913   3914   3915
3916   3917   3918   3919
3920   3921   3922   3923
3924   3925   3926   3927
3928   3929   3930   3931
3932   3933   3934   3935
3936   3937   3938   3939
3940   3941   3942   3943
3944   3945   3946   3947
3948   3949   3950   3951
3952   3953   3954   3955
3956   3957   3958   3959
3960   3961   3962   3963
3964   3965   3966   3967
3968   3969   3970   3971
3972   3973   3974   3975
3976   3977   3978   3979
3980   3981   3982   3983
3984   3985   3986   3987
3988   3989   3990   3991
3992   3993   3994   3995
3996   3997   3998   3999
4000   4001   4002   4003
4004   4005   4006   4007
4008   4009   4010   4011
4012   4013   4014   4015
4016   4017   4018   4019
4020   4021   4022   4023
4024   4025   4026   4027
4028   4029   4030   4031
4032   4033   4034   4035
4036   4037   4038   4039
4040   4041   4042   4043
4044   4045   4046   4047
4048   4049   4050   4051
4052   4053   4054   4055
4056   4057   4058   4059
4060   4061   4062   4063
4064   4065   4066   4067
4068   4069   4070   4071
4072   4073   4074   4075
4076   4077   4078   4079
4080   4081   4082   4083
4084   4085   4086   4087
4088   4089   4090   4091
4092   4093   4094   4095
4096   4097   4098   4099
4100   4101   4102   4103
4104   4105   4106   4107
4108   4109   4110   4111
4112   4113   4114   4115
4116   4117   4118   4119
4120   4121   4122   4123
4124   4125   4126   4127
4128   4129   4130   4131
4132   4133   4134   4135
4136   4137   4138   4139
4140   4141   4142   4143
4144   4145   4146   4147
4148   4149   4150   4151
4152   4153   4154   4155
4156   4157   4158   4159
4160   4161   4162   4163
4164   4165   4166   4167
4168   4169   4170   4171
4172   4173   4174   4175
4176   4177   4178   4179
4180   4181   4182   4183
4184   4185   4186   4187
4188   4189   4190   4191
4192   4193   4194   4195
4196   4197   4198   4199
4200   4201   4202   4203
4204   4205   4206   4207
4208   4209   4210   4211
4212   4213   4214   4215
4216   4217   4218   4219
4220   4221   4222   4223
4224   4225   4226   4227
4228   4229   4230   4231
4232   4233   4234   4235
4236   4237   4238   4239
4240   4241   4242   4243
4244   4245   4246   4247
4248   4249   4250   4251
4252   4253   4254   4255
4256   4257   4258   4259
4260   4261   4262   4263
4264   4265   4266   4267
4268   4269   4270   4271
4272   4273   4274   4275
4276   4277   4278   4279
4280   4281   4282   4283
4284   4285   4286   4287
4288   4289   4290   4291
4292   4293   4294   4295
4296   4297   4298   4299
4300   4301   4302   4303
4304   4305   4306   4307
4308   4309   4310   4311
4312   4313   4314   4315
4316   4317   4318   4319
4320   4321   4322   4323
4324   4325   4326   4327
4328   4329   4330   4331
4332   4333   4334   4335
4336   4337   4338   4339
4340   4341   4342   4343
4344   4345   4346   4347
4348   4349   4350   4351
4352   4353   4354   4355
4356   4357   4358   4359
4360   4361   4362   4363
4364   4365   4366   4367
4368   4369   4370   4371
4372   4373   4374   4375
4376   4377   4378   4379
4380   4381   4382   4383
4384   4385   4386   4387
4388   4389   4390   4391
4392   4393   4394   4395
4396   4397   4398   4399
4400   4401   4402   4403
4404   4405   4406   4407
4408   4409   4410   4411
4412   4413   4414   4415
4416   4417   4418   4419
4420   4421   4422   4423
4424   4425   4426   4427
4428   4429   4430   4431
4432   4433   4434   4435
4436   4437   4438   4439
4440   4441   4442   4443
4444   4445   4446   4447
4448   4449   4450   4451
4452   4453   4454   4455
4456   4457   4458   4459
4460   4461   4462   4463
4464   4465   4466   4467
4468   4469   4470   4471
4472   4473   4474   4475
4476   4477   4478   4479
4480   4481   4482   4483
4484   4485   4486   4487
4488   4489   4490   4491
4492   4493   4494   4495
4496   4497   4498   4499
4500   4501   4502   4503
4504   4505   4506   4507
4508   4509   4510   4511
4512   4513   4514   4515
4516   4517   4518   4519
4520   4521   4522   4523
4524   4525   4526   4527
4528   4529   4530   4531
4532   4533   4534   4535
4536   4537   4538   4539
4540   4541   4542   4543
4544   4545   4546   4547
4548   4549   4550   4551
4552   4553   4554   4555
4556   4557   4558   4559
4560   4561   4562   4563
4564   4565   4566   4567
4568   4569   4570   4571
4572   4573   4574   4575
4576   4577   4578   4579
4580   4581   4582   4583
4584   4585   4586   4587
4588   4589   4590   4591
4592   4593   4594   4595
4596   4597   4598   4599
4600   4601   4602   4603
4604   4605   4606   4607
4608   4609   4610   4611
4612   4613   4614   4615
4616   4617   4618   4619
4620   4621   4622   4623
4624   4625   4626   4627
4628   4629   4630   4631
4632   4633   4634   4635
4636   4637   4638   4639
4640   4641   4642   4643
4644   4645   4646   4647
4648   4649   4650   4651
4652   4653   4654   4655
4656   4657   4658   4659
4660   4661   4662   4663
4664   4665   4666   4667
4668   4669   4670   4671
4672   4673   4674   4675
4676   4677   4678   4679
4680   4681   4682   4683
4684   4685   4686   4687
4688   4689   4690   4691
4692   4693   4694   4695
4696   4697   4698   4699
4700   4701   4702   4703
4704   4705   4706   4707
4708   4709   4710   4711
4712   4713   4714   4715
4716   4717   4718   4719
4720   4721   4722   4723
4724   4725   4726   4727
4728   4729   4730   4731
4732   4733   4734   4735
4736   4737   4738   4739
4740   4741   4742   4743
4744   4745   4746   4747
4748   4749   4750   4751
4752   4753   4754   4755
4756   4757   4758   4759
4760   4761   4762   4763
4764   4765   4766   4767
4768   4769   4770   4771
4772   4773   4774   4775
4776   4777   4778   4779
4780   4781   4782   4783
4784   4785   4786   4787
4788   4789   4790   4791
4792   4793   4794   4795
4796   4797   4798   4799
4800   4801   4802   4803
4804   4805   4806   4807
4808   4809   4810   4811
4812   4813   4814   4815
4816   4817   4818   4819
4820   4821   4822   4823
4824   4825   4826   4827
4828   4829   4830   4831
4832   4833   4834   4835
4836   4837   4838   4839
4840   4841   4842   4843
4844   4845   4846   4847
4848   4849   4850   4851
4852   4853   4854   4855
4856   4857   4858   4859
4860   4861   4862   4863
4864   4865   4866   4867
4868   4869   4870   4871
4872   4873   4874   4875
4876   4877   4878   4879
4880   4881   4882   4883
4884   4885   4886   4887
4888   4889   4890   4891
4892   4893   4894   4895
4896   4897   4898   4899
4900   4901   4902   4903
4904   4905   4906   4907
4908   4909   4910   4911
4912   4913   4914   4915
4916   4917   4918   4919
4920   4921   4922   4923
4924   4925   4926   4927
4928   4929   4930   4931
4932   4933   4934   4935
4936   4937   4938   4939
4940   4941   4942   4943
4944   4945   4946   4947
4948   4949   4950   4951
4952   4953   4954   4955
4956   4957   4958   4959
4960   4961   4962   4963
4964   4965   4966   4967
4968   4969   4970   4971
4972   4973   4974   4975
4976   4977   4978   4979
4980   4981   4982   4983
4984   4985   4986   4987
4988   4989   4990   4991
4992   4993   4994   4995
4996   4997   4998   4999
5000   5001   5002   5003
5004   5005   5006   5007
5008   5009   5010   5011
5012   5013   5014   5015
5016   5017   5018   5019
5020   5021   5022   5023
5024   5025   5026   5027
5028   5029   5030   5031
5032   5033   5034   5035
5036   5037   5038   5039
5040   5041   5042   5043
5044   5045   5046   5047
5048   5049   5050   5051
5052   5053   5054   5055
5056   5057   5058   5059
5060   5061   5062   5063
5064   5065   5066   5067
5068   5069   5070   5071
5072   5073   5074   5075
5076   5077   5078   5079
5080   5081   5082   5083
5084   5085   5086   5087
5088   5089   5090   5091
5092   5093   5094   5095
5096   5097   5098   5099
5100   5101   5102   5103
5104   5105   5106   5107
5108   5109   5110   5111
5112   5113   5114   5115
5116   5117   5118   5119
5120   5121   5122   5123
5124   5125   5126   5127
5128   5129   5130   5131
5132   5133   5134   5135
5136   5137   5138   5139
5140   5141   5142   5143
5144   5145   5146   5147
5148   5149   5150   5151
5152   5153   5154   5155
5156   5157   5158   5159
5160   5161   5162   5163
5164   5165   5166   5167
5168   5169   5170   5171
5172   5173   5174   5175
5176   5177   5178   5179
5180   5181   5182   5183
5184   5185   5186   5187
5188   5189   5190   5191
5192   5193   5194   5195
5196   5197   5198   5199
5200   5201   5202   5203
5204   5205   5206   5207
5208   5209   5210   5211
5212   5213   5214   5215
5216   5217   5218   5219
5220   5221   5222   5223
5224   5225   5226   5227
5228   5229   5230   5231
5232   5233   5234   5235
5236   5237   5238   5239
5240   5241   5242   5243
5244   5245   5246   5247
5248   5249   5250   5251
5252   5253   5254   5255
5256   5257   5258   5259
5260   5261   5262   5263
5264   5265   5266   5267
5268   5269   5270   5271
5272   5273   5274   5275
5276   5277   5278   5279
5280   5281   5282   5283
5284   5285   5286   5287
5288   5289   5290   5291
5292   5293   5294   5295
5296   5297   5298   5299
5300   5301   5302   5303
5304   5305   5306   5307
5308   5309   5310   5311
5312   5313   5314   5315
5316   5317   5318   5319
5320   5321   5322   5323
5324   5325   5326   5327
5328   5329   5330   5331
5332   5333   5334   5335
5336   5337   5338   5339
5340   5341   5342   5343
5344   5345   5346   5347
5348   5349   5350   5351
5352   5353   5354   5355
5356   5357   5358   5359
5360   5361   5362   5363
5364   5365   5366   5367
5368   5369   5370   5371
5372   5373   5374   5375
5376   5377   5378   5379
5380   5381   5382   5383
5384   5385   5386   5387
5388   5389   5390   5391
5392   5393   5394   5395
5396   5397   5398   5399
5400   5401   5402   5403
5404   5405   5406   5407
5408   5409   5410   5411
5412   5413   5414   5415
5416   5417   5418   5419
5420   5421   5422   5423
5424   5425   5426   5427
5428   5429   5430   5431
5432   5433   5434   5435
5436   5437   5438   5439
5440   5441   5442   5443
5444   5445   5446   5447
5448   5449   5450   5451
5452   5453   5454   5455
5456   5457   5458   5459
5460   5461   5462   5463
5464   5465   5466   5467
5468   5469   5470   5471
5472   5473   5474   5475
5476   5477   5478   5479
5480   5481   5482   5483
5484   5485   5486   5487
5488   5489   5490   5491
5492   5493   5494   5495
5496   5497   5498   5499
5500   5501   5502   5503
5504   5505   5506   5507
5508   5509   5510   5511
5512   5513   5514   5515
5516   5517   5518   5519
5520   5521   5522   5523
5524   5525   5526   5527
5528   5529   5530   5531
5532   5533   5534   5535
5536   5537   5538   5539
5540   5541   5542   5543
5544   5545   5546   5547
5548   5549   5550   5551
5552   5553   5554   5555
5556   5557   5558   5559
5560   5561   5562   5563
5564   5565   5566   5567
5568   5569   5570   5571
5572   5573   5574   5575
5576   5577   5578   5579
5580   5581   5582   5583
5584   5585   5586   5587
5588   5589   5590   5591
5592   5593   5594   5595
5596   5597   5598   5599
5600   5601   5602   5603
5604   5605   5606   5607
5608   5609   5610   5611
5612   5613   5614   5615
5616   5617   5618   5619
5620   5621   5622   5623
5624   5625   5626   5627
5628   5629   5630   5631
5632   5633   5634   5635
5636   5637   5638   5639
5640   5641   5642   5643
5644   5645   5646   5647
5648   5649   5650   5651
5652   5653   5654   5655
5656   5657   5658   5659
5660   5661   5662   5663
5664   5665   5666   5667
5668   5669   5670   5671
5672   5673   5674   5675
5676   5677   5678   5679
5680   5681   5682   5683
5684   5685   5686   5687
5688   5689   5690   5691
5692   5693   5694   5695
5696   5697   5698   5699
5700   5701   5702   5703
5704   5705   5706   5707
5708   5709   5710   5711
5712   5713   5714   5715
5716   5717   5718   5719
5720   5721   5722   5723
5724   5725   5726   5727
5728   5729   5730   5731
5732   5733   5734   5735
5736   5737   5738   5739
5740   5741   5742   5743
5744   5745   5746   5747
5748   5749   5750   5751
5752   5753   5754   5755
5756   5757   5758   5759
5760   5761   5762   5763
5764   5765   5766   5767
5768   5769   5770   5771
5772   5773   5774   5775
5776   5777   5778   5779
5780   5781   5782   5783
5784   5785   5786   5787
5788   5789   5790   5791
5792   5793   5794   5795
5796   5797   5798   5799
5800   5801   5802   5803
5804   5805   5806   5807
5808   5809   5810   5811
5812   5813   5814   5815
5816   5817   5818   5819
5820   5821   5822   5823
5824   5825   5826   5827
5828   5829   5830   5831
5832   5833   5834   5835
5836   5837   5838   5839
5840   5841   5842   5843
5844   5845   5846   5847
5848   5849   5850   5851
5852   5853   5854   5855
5856   5857   5858   5859
5860   5861   5862   5863
5864   5865   5866   5867
5868   5869   5870   5871
5872   5873   5874   5875
5876   5877   5878   5879
5880   5881   5882   5883
5884   5885   5886   5887
5888   5889   5890   5891
5892   5893   5894   5895
5896   5897   5898   5899
5900   5901   5902   5903
5904   5905   5906   5907
5908   5909   5910   5911
5912   5913   5914   5915
5916   5917   5918   5919
5920   5921   5922   5923
5924   5925   5926   5927
5928   5929   5930   5931
5932   5933   5934   5935
5936   5937   5938   5939
5940   5941   5942   5943
5944   5945   5946   5947
5948   5949   5950   5951
5952   5953   5954   5955
5956   5957   5958   5959
5960   5961   5962   5963
5964   5965   5966   5967
5968   5969   5970   5971
5972   5973   5974   5975
5976   5977   5978   5979
5980   5981   5982   5983
5984   5985   5986   5987
5988   5989   5990   5991
5992   5993   5994   5995
5996   5997   5998   5999
              </DataArray>   
              <DataArray type="Int32" Name="offsets" format="ascii">   
4
8
12
16
20
24
28
32
36
40
44
48
52
56
60
64
68
72
76
80
84
88
92
96
100
104
108
112
116
120
124
128
132
136
140
144
148
152
156
160
164
168
172
176
180
184
188
192
196
200
204
208
212
216
220
224
228
232
236
240
244
248
252
256
260
264
268
272
276
280
284
288
292
296
300
304
308
312
316
320
324
328
332
336
340
344
348
352
356
360
364
368
372
376
380
384
388
392
396
400
404
408
412
416
420
424
428
432
436
440
444
448
452
456
460
464
468
472
476
480
484
488
492
496
500
504
508
512
516
520
524
528
532
536
540
544
548
552
556
560
564
568
572
576
580
584
588
592
596
600
604
608
612
616
620
624
628
632
636
640
644
648
652
656
660
664
668
672
676
680
684
688
692
696
700
704
708
712
716
720
724
728
732
736
740
744
748
752
756
760
764
768
772
776
780
784
788
792
796
800
804
808
812
816
820
824
828
832
836
840
844
848
852
856
860
864
868
872
876
880
884
888
892
896
900
904
908
912
916
920
924
928
932
936
940
944
948
952
956
960
964
968
972
976
980
984
988
992
996
1000
1004
1008
1012
1016
1020
1024
1028
1032
1036
1040
1044
1048
1052
1056
1060
1064
1068
1072
1076
1080
1084
1088
1092
1096
1100
1104
1108
1112
1116
1120
1124
1128
1132
1136
1140
1144
1148
1152
1156
1160
1164
1168
1172
1176
1180
1184
1188
1192
1196
1200
1204
1208
1212
1216
1220
1224
1228
1232
1236
1240
1244
1248
1252
1256
1260
1264
1268
1272
1276
1280
1284
1288
1292
1296
1300
1304
1308
1312
1316
1320
1324
1328
1332
1336
1340
1344
1348
1352
1356
1360
1364
1368
1372
1376
1380
1384
1388
1392
1396
1400
1404
1408
1412
1416
1420
1424
1428
1432
1436
1440
1444
1448
1452
1456
1460
1464
1468
1472
1476
1480
1484
1488
1492
1496
1500
1504
1508
1512
1516
1520
1524
1528
1532
1536
1540
1544
1548
1552
1556
1560
1564
1568
1572
1576
1580
1584
1588
1592
1596
1600
1604
1608
1612
1616
1620
1624
1628
1632
1636
1640
1644
1648
1652
1656
1660
1664
1668
1672
1676
1680
1684
1688
1692
1696
1700
1704
1708
1712
1716
1720
1724
1728
1732
1736
1740
1744
1748
1752
1756
1760
1764
1768
1772
1776
1780
1784
1788
1792
1796
1800
1804
1808
1812
1816
1820
1824
1828
1832
1836
1840
1844
1848
1852
1856
1860
1864
1868
1872
1876
1880
1884
1888
1892
1896
1900
1904
1908
1912
1916
1920
1924
1928
1932
1936
1940
1944
1948
1952
1956
1960
1964
1968
1972
1976
1980
1984
1988
1992
1996
2000
2004
2008
2012
2016
2020
2024
2028
2032
2036
2040
2044
2048
2052
2056
2060
2064
2068
2072
2076
2080
2084
2088
2092
2096
2100
2104
2108
2112
2116
2120
2124
2128
2132
2136
2140
2144
2148
2152
2156
2160
2164
2168
2172
2176
2180
2184
2188
2192
2196
2200
2204
2208
2212
2216
2220
2224
2228
2232
2236
2240
2244
2248
2252
2256
2260
2264
2268
2272
2276
2280
2284
2288
2292
2296
2300
2304
2308
2312
2316
2320
2324
2328
2332
2336
2340
2344
2348
2352
2356
2360
2364
2368
2372
2376
2380
2384
2388
2392
2396
2400
2404
2408
2412
2416
2420
2424
2428
2432
2436
2440
2444
2448
2452
2456
2460
2464
2468
2472
2476
2480
2484
2488
2492
2496
2500
2504
2508
2512
2516
2520
2524
2528
2532
2536
2540
2544
2548
2552
2556
2560
2564
2568
2572
2576
2580
2584
2588
2592
2596
2600
2604
2608
2612
2616
2620
2624
2628
2632
2636
2640
2644
2648
2652
2656
2660
2664
2668
2672
2676
2680
2684
2688
2692
2696
2700
2704
2708
2712
2716
2720
2724
2728
2732
2736
2740
2744
2748
2752
2756
2760
2764
2768
2772
2776
2780
2784
2788
2792
2796
2800
2804
2808
2812
2816
2820
2824
2828
2832
2836
2840
2844
2848
2852
2856
2860
2864
2868
2872
2876
2880
2884
2888
2892
2896
2900
2904
2908
2912
2916
2920
2924
2928
2932
2936
2940
2944
2948
2952
2956
2960
2964
2968
2972
2976
2980
2984
2988
2992
2996
3000
3004
3008
3012
3016
3020
3024
3028
3032
3036
3040
3044
3048
3052
3056
3060
3064
3068
3072
3076
3080
3084
3088
3092
3096
3100
3104
3108
3112
3116
3120
3124
3128
3132
3136
3140
3144
3148
3152
3156
3160
3164
3168
3172
3176
3180
3184
3188
3192
3196
3200
3204
3208
3212
3216
3220
3224
3228
3232
3236
3240
3244
3248
3252
3256
3260
3264
3268
3272
3276
3280
3284
3288
3292
3296
3300
3304
3308
3312
3316
3320
3324
3328
3332
3336
3340
3344
3348
3352
3356
3360
3364
3368
3372
3376
3380
3384
3388
3392
3396
3400
3404
3408
3412
3416
3420
3424
3428
3432
3436
3440
3444
3448
3452
3456
3460
3464
3468
3472
3476
3480
3484
3488
3492
3496
3500
3504
3508
3512
3516
3520
3524
3528
3532
3536
3540
3544
3548
3552
3556
3560
3564
3568
3572
3576
3580
3584
3588
3592
3596
3600
3604
3608
3612
3616
3620
3624
3628
3632
3636
3640
3644
3648
3652
3656
3660
3664
3668
3672
3676
3680
3684
3688
3692
3696
3700
3704
3708
3712
3716
3720
3724
3728
3732
3736
3740
3744
3748
3752
3756
3760
3764
3768
3772
3776
3780
3784
3788
3792
3796
3800
3804
3808
3812
3816
3820
3824
3828
3832
3836
3840
3844
3848
3852
3856
3860
3864
3868
3872
3876
3880
3884
3888
3892
3896
3900
3904
3908
3912
3916
3920
3924
3928
3932
3936
3940
3944
3948
3952
3956
3960
3964
3968
3972
3976
3980
3984
3988
3992
3996
4000
4004
4008
4012
4016
4020
4024
4028
4032
4036
4040
4044
4048
4052
4056
4060
4064
4068
4072
4076
4080
4084
4088
4092
4096
4100
4104
4108
4112
4116
4120
4124
4128
4132
4136
4140
4144
4148
4152
4156
4160
4164
4168
4172
4176
4180
4184
4188
4192
4196
4200
4204
4208
4212
4216
4220
4224
4228
4232
4236
4240
4244
4248
4252
4256
4260
4264
4268
4272
4276
4280
4284
4288
4292
4296
4300
4304
4308
4312
4316
4320
4324
4328
4332
4336
4340
4344
4348
4352
4356
4360
4364
4368
4372
4376
4380
4384
4388
4392
4396
4400
4404
4408
4412
4416
4420
4424
4428
4432
4436
4440
4444
4448
4452
4456
4460
4464
4468
4472
4476
4480
4484
4488
4492
4496
4500
4504
4508
4512
4516
4520
4524
4528
4532
4536
4540
4544
4548
4552
4556
4560
4564
4568
4572
4576
4580
4584
4588
4592
4596
4600
4604
4608
4612
4616
4620
4624
4628
4632
4636
4640
4644
4648
4652
4656
4660
4664
4668
4672
4676
4680
4684
4688
4692
4696
4700
4704
4708
4712
4716
4720
4724
4728
4732
4736
4740
4744
4748
4752
4756
4760
4764
4768
4772
4776
4780
4784
4788
4792
4796
4800
4804
4808
4812
4816
4820
4824
4828
4832
4836
4840
4844
4848
4852
4856
4860
4864
4868
4872
4876
4880
4884
4888
4892
4896
4900
4904
4908
4912
4916
4920
4924
4928
4932
4936
4940
4944
4948
4952
4956
4960
4964
4968
4972
4976
4980
4984
4988
4992
4996
5000
5004
5008
5012
5016
5020
5024
5028
5032
5036
5040
5044
5048
5052
5056
5060
5064
5068
5072
5076
5080
5084
5088
5092
5096
5100
5104
5108
5112
5116
5120
5124
5128
5132
5136
5140
5144
5148
5152
5156
5160
5164
5168
5172
5176
5180
5184
5188
5192
5196
5200
5204
5208
5212
5216
5220
5224
5228
5232
5236
5240
5244
5248
5252
5256
5260
5264
5268
5272
5276
5280
5284
5288
5292
5296
5300
5304
5308
5312
5316
5320
5324
5328
5332
5336
5340
5344
5348
5352
5356
5360
5364
5368
5372
5376
5380
5384
5388
5392
5396
5400
5404
5408
5412
5416
5420
5424
5428
5432
5436
5440
5444
5448
5452
5456
5460
5464
5468
5472
5476
5480
5484
5488
5492
5496
5500
5504
5508
5512
5516
5520
5524
5528
5532
5536
5540
5544
5548
5552
5556
5560
5564
5568
5572
5576
5580
5584
5588
5592
5596
5600
5604
5608
5612
5616
5620
5624
5628
5632
5636
5640
5644
5648
5652
5656
5660
5664
5668
5672
5676
5680
5684
5688
5692
5696
5700
5704
5708
5712
5716
5720
5724
5728
5732
5736
5740
5744
5748
5752
5756
5760
5764
5768
5772
5776
5780
5784
5788
5792
5796
5800
5804
5808
5812
5816
5820
5824
5828
5832
5836
5840
5844
5848
5852
5856
5860
5864
5868
5872
5876
5880
5884
5888
5892
5896
5900
5904
5908
5912
5916
5920
5924
5928
5932
5936
5940
5944
5948
5952
5956
5960
5964
5968
5972
5976
5980
5984
5988
5992
5996
6000
              </DataArray>   
              <DataArray type="UInt8" Name="types" format="ascii">   
10
10
10
10
10
10
10
10
10
10
10
10
10
10
10
10
10
10
10
10
10
10
10
10
10
10
10
10
10
10
10
10
10
10
10
10
10
10
10
10
10
10
10
10
10
10
10
10
10
10
10
10
10
10
10
10
10
10
10
10
10
10
10
10
10
10
10
10
10
10
10
10
10
10
10
10
10
10
10
10
10
10
10
10
10
10
10
10
10
10
10
10
10
10
10
10
10
10
10
10
10
10
10
10
10
10
10
10
10
10
10
10
10
10
10
10
10
10
10
10
10
10
10
10
10
10
10
10
10
10
10
10
10
10
10
10
10
10
10
10
10
10
10
10
10
10
10
10
10
10
10
10
10
10
10
10
10
10
10
10
10
10
10
10
10
10
10
10
10
10
10
10
10
10
10
10
10
10
10
10
10
10
10
10
10
10
10
10
10
10
10
10
10
10
10
10
10
10
10
10
10
10
10
10
10
10
10
10
10
10
10
10
10
10
10
10
10
10
10
10
10
10
10
10
10
10
10
10
10
10
10
10
10
10
10
10
10
10
10
10
10
10
10
10
10
10
10
10
10
10
10
10
10
10
10
10
10
10
10
10
10
10
10
10
10
10
10
10
10
10
10
10
10
10
10
10
10
10
10
10
10
10
10
10
10
10
10
10
10
10
10
10
10
10
10
10
10
10
10
10
10
10
10
10
10
10
10
10
10
10
10
10
10
10
10
10
10
10
10
10
10
10
10
10
10
10
10
10
10
10
10
10
10
10
10
10
10
10
10
10
10
10
10
10
10
10
10
10
10
10
10
10
10
10
10
10
10
10
10
10
10
10
10
10
10
10
10
10
10
10
10
10
10
10
10
10
10
10
10
10
10
10
10
10
10
10
10
10
10
10
10
10
10
10
10
10
10
10
10
10
10
10
10
10
10
10
10
10
10
10
10
10
10
10
10
10
10
10
10
10
10
10
10
10
10
10
10
10
10
10
10
10
10
10
10
10
10
10
10
10
10
10
10
10
10
10
10
10
10
10
10
10
10
10
10
10
10
10
10
10
10
10
10
10
10
10
10
10
10
10
10
10
10
10
10
10
10
10
10
10
10
10
10
10
10
10
10
10
10
10
10
10
10
10
10
10
10
10
10
10
10
10
10
10
10
10
10
10
10
10
10
10
10
10
10
10
10
10
10
10
10
10
10
10
10
10
10
10
10
10
10
10
10
10
10
10
10
10
10
10
10
10
10
10
10
10
10
10
10
10
10
10
10
10
10
10
10
10
10
10
10
10
10
10
10
10
10
10
10
10
10
10
10
10
10
10
10
10
10
10
10
10
10
10
10
10
10
10
10
10
10
10
10
10
10
10
10
10
10
10
10
10
10
10
10
10
10
10
10
10
10
10
10
10
10
10
10
10
10
10
10
10
10
10
10
10
10
10
10
10
10
10
10
10
10
10
10
10
10
10
10
10
10
10
10
10
10
10
10
10
10
10
10
10
10
10
10
10
10
10
10
10
10
10
10
10
10
10
10
10
10
10
10
10
10
10
10
10
10
10
10
10
10
10
10
10
10
10
10
10
10
10
10
10
10
10
10
10
10
10
10
10
10
10
10
10
10
10
10
10
10
10
10
10
10
10
10
10
10
10
10
10
10
10
10
10
10
10
10
10
10
10
10
10
10
10
10
10
10
10
10
10
10
10
10
10
10
10
10
10
10
10
10
10
10
10
10
10
10
10
10
10
10
10
10
10
10
10
10
10
10
10
10
10
10
10
10
10
10
10
10
10
10
10
10
10
10
10
10
10
10
10
10
10
10
10
10
10
10
10
10
10
10
10
10
10
10
10
10
10
10
10
10
10
10
10
10
10
10
10
10
10
10
10
10
10
10
10
10
10
10
10
10
10
10
10
10
10
10
10
10
10
10
10
10
10
10
10
10
10
10
10
10
10
10
10
10
10
10
10
10
10
10
10
10
10
10
10
10
10
10
10
10
10
10
10
10
10
10
10
10
10
10
10
10
10
10
10
10
10
10
10
10
10
10
10
10
10
10
10
10
10
10
10
10
10
10
10
10
10
10
10
10
10
10
10
10
10
10
10
10
10
10
10
10
10
10
10
10
10
10
10
10
10
10
10
10
10
10
10
10
10
10
10
10
10
10
10
10
10
10
10
10
10
10
10
10
10
10
10
10
10
10
10
10
10
10
10
10
10
10
10
10
10
10
10
10
10
10
10
10
10
10
10
10
10
10
10
10
10
10
10
10
10
10
10
10
10
10
10
10
10
10
10
10
10
10
10
10
10
10
10
10
10
10
10
10
10
10
10
10
10
10
10
10
10
10
10
10
10
10
10
10
10
10
10
10
10
10
10
10
10
10
10
10
10
10
10
10
10
10
10
10
10
10
10
10
10
10
10
10
10
10
10
10
10
10
10
10
10
10
10
10
10
10
10
10
10
10
10
10
10
10
10
10
10
10
10
10
10
10
10
10
10
10
10
10
10
10
10
10
10
10
10
10
10
10
10
10
10
10
10
10
10
10
10
10
10
10
10
10
10
10
10
10
10
10
10
10
10
10
10
10
10
10
10
10
10
10
10
10
10
10
10
10
10
10
10
10
10
10
10
10
10
10
10
10
10
10
10
10
10
10
10
10
10
10
10
10
10
10
10
10
10
10
10
10
10
10
10
10
10
10
10
10
10
10
10
10
10
10
10
10
10
10
10
10
10
10
10
10
10
10
10
10
10
10
10
10
10
10
10
10
10
10
10
10
10
10
10
10
10
10
10
10
10
10
10
10
10
10
10
10
10
10
10
10
10
10
10
10
10
10
10
10
10
10
10
10
10
10
10
10
10
10
10
10
10
10
10
10
10
10
10
10
10
10
10
10
10
10
10
10
10
10
10
10
10
10
10
10
10
10
10
10
10
10
10
10
10
10
10
10
10
10
10
10
10
10
10
10
10
10
10
10
10
10
10
10
10
10
10
10
10
10
10
10
10
10
10
10
10
10
10
10
10
10
10
10
10
10
10
10
10
10
10
10
10
10
10
10
10
10
10
10
10
10
10
10
10
10
10
10
10
10
10
10
10
10
10
10
10
10
10
10
10
10
10
10
10
10
10
10
10
10
10
10
10
10
10
10
10
10
10
10
10
10
10
10
10
10
10
10
10
10
10
10
10
10
10
10
10
10
10
10
10
10
10
10
10
10
10
10
10
10
10
10
10
10
10
10
10
10
10
10
10
10
10
10
10
10
10
10
10
10
10
10
10
10
10
10
10
10
10
10
10
10
10
10
10
10
10
10
10
10
10
10
10
10
10
10
10
10
10
10
10
10
10
10
10
10
10
10
10
10
10
10
10
10
10
10
10
10
10
10
10
10
10
10
10
10
10
10
10
10
10
10
10
10
10
              </DataArray>   
          </Cells>  
          <PointData>  
             <DataArray type="Float64" NumberOfComponents="3" Name="Strains" format="ascii">   
-2.552875863857162e-05   0.0   -1.6945770546445228e-05
-2.552875863857162e-05   0.0   -1.6945770546445228e-05
-2.552875863857162e-05   0.0   -1.6945770546445228e-05
-2.552875863857162e-05   0.0   -1.6945770546445228e-05
-1.6225530274966527e-05   2.802726497520093e-06   2.4124595807528383e-07
-1.6225530274966527e-05   2.802726497520093e-06   2.4124595807528383e-07
-1.6225530274966527e-05   2.802726497520093e-06   2.4124595807528383e-07
-1.6225530274966527e-05   2.802726497520093e-06   2.4124595807528383e-07
-1.589160342922191e-05   0.0   -1.601864617048386e-05
-1.589160342922191e-05   0.0   -1.601864617048386e-05
-1.589160342922191e-05   0.0   -1.601864617048386e-05
-1.589160342922191e-05   0.0   -1.601864617048386e-05
-2.6700930800831046e-05   3.37551919011249e-06   -2.8412065202726802e-08
-2.6700930800831046e-05   3.37551919011249e-06   -2.8412065202726802e-08
-2.6700930800831046e-05   3.37551919011249e-06   -2.8412065202726802e-08
-2.6700930800831046e-05   3.37551919011249e-06   -2.8412065202726802e-08
-2.071018103389673e-05   7.726036466344725e-07   -8.451245684006435e-06
-2.071018103389673e-05   7.726036466344725e-07   -8.451245684006435e-06
-2.071018103389673e-05   7.726036466344725e-07   -8.451245684006435e-06
-2.071018103389673e-05   7.726036466344725e-07   -8.451245684006435e-06
-2.6700930800831094e-05   0.0   -1.8043957684551358e-05
-2.6700930800831094e-05   0.0   -1.8043957684551358e-05
-2.6700930800831094e-05   0.0   -1.8043957684551358e-05
-2.6700930800831094e-05   0.0   -1.8043957684551358e-05
-1.589160342922191e-05   3.3755191901124966e-06   1.996899448864773e-06
-1.589160342922191e-05   3.3755191901124966e-06   1.996899448864773e-06
-1.589160342922191e-05   3.3755191901124966e-06   1.996899448864773e-06
-1.589160342922191e-05   3.3755191901124966e-06   1.996899448864773e-06
-1.592232181139661e-05   0.0   -1.640693150301849e-05
-1.592232181139661e-05   0.0   -1.640693150301849e-05
-1.592232181139661e-05   0.0   -1.640693150301849e-05
-1.592232181139661e-05   0.0   -1.640693150301849e-05
-2.7517663368397937e-05   3.619657017501599e-06   7.468435481494998e-07
-2.7517663368397937e-05   3.619657017501599e-06   7.468435481494998e-07
-2.7517663368397937e-05   3.619657017501599e-06   7.468435481494998e-07
-2.7517663368397937e-05   3.619657017501599e-06   7.468435481494998e-07
-2.1311626306113816e-05   1.3641884846107223e-06   -8.243270435922836e-06
-2.1311626306113816e-05   1.3641884846107223e-06   -8.243270435922836e-06
-2.1311626306113816e-05   1.3641884846107223e-06   -8.243270435922836e-06
-2.1311626306113816e-05   1.3641884846107223e-06   -8.243270435922836e-06
-2.7517663368397984e-05   0.0   -1.8578725713519454e-05
-2.7517663368397984e-05   0.0   -1.8578725713519454e-05
-2.7517663368397984e-05   0.0   -1.8578725713519454e-05
-2.7517663368397984e-05   0.0   -1.8578725713519454e-05
-1.592232181139661e-05   3.619657017501609e-06   2.9186377586504606e-06
-1.592232181139661e-05   3.619657017501609e-06   2.9186377586504606e-06
-1.592232181139661e-05   3.619657017501609e-06   2.9186377586504606e-06
-1.592232181139661e-05   3.619657017501609e-06   2.9186377586504606e-06
-1.5898059456591003e-05   0.0   -1.650892857290256e-05
-1.5898059456591003e-05   0.0   -1.650892857290256e-05
-1.5898059456591003e-05   0.0   -1.650892857290256e-05
-1.5898059456591003e-05   0.0   -1.650892857290256e-05
-2.9291121793443333e-05   4.133826614414944e-06   3.3325460198690973e-06
-2.9291121793443333e-05   4.133826614414944e-06   3.3325460198690973e-06
-2.9291121793443333e-05   4.133826614414944e-06   3.3325460198690973e-06
-2.9291121793443333e-05   4.133826614414944e-06   3.3325460198690973e-06
-2.1707861412494457e-05   1.7248309505140777e-06   -7.860823883371837e-06
-2.1707861412494457e-05   1.7248309505140777e-06   -7.860823883371837e-06
-2.1707861412494457e-05   1.7248309505140777e-06   -7.860823883371837e-06
-2.1707861412494457e-05   1.7248309505140777e-06   -7.860823883371837e-06
-1.6225530274966554e-05   0.0   -1.5264134647933172e-05
-1.6225530274966554e-05   0.0   -1.5264134647933172e-05
-1.6225530274966554e-05   0.0   -1.5264134647933172e-05
-1.6225530274966554e-05   0.0   -1.5264134647933172e-05
-7.405498406541236e-06   1.0230348251086072e-06   4.973936117418013e-08
-7.405498406541236e-06   1.0230348251086072e-06   4.973936117418013e-08
-7.405498406541236e-06   1.0230348251086072e-06   4.973936117418013e-08
-7.405498406541236e-06   1.0230348251086072e-06   4.973936117418013e-08
-7.108762416088863e-06   0.0   -1.5139740745717235e-05
-7.108762416088863e-06   0.0   -1.5139740745717235e-05
-7.108762416088863e-06   0.0   -1.5139740745717235e-05
-7.108762416088863e-06   0.0   -1.5139740745717235e-05
-1.589160342922191e-05   1.4648423746110425e-06   -1.380577815262119e-06
-1.589160342922191e-05   1.4648423746110425e-06   -1.380577815262119e-06
-1.589160342922191e-05   1.4648423746110425e-06   -1.380577815262119e-06
-1.589160342922191e-05   1.4648423746110425e-06   -1.380577815262119e-06
-1.1667146345527688e-05   1.0366158517994733e-07   -7.604631147760442e-06
-1.1667146345527688e-05   1.0366158517994733e-07   -7.604631147760442e-06
-1.1667146345527688e-05   1.0366158517994733e-07   -7.604631147760442e-06
-1.1667146345527688e-05   1.0366158517994733e-07   -7.604631147760442e-06
-1.5891603429221895e-05   0.0   -1.6018646170483848e-05
-1.5891603429221895e-05   0.0   -1.6018646170483848e-05
-1.5891603429221895e-05   0.0   -1.6018646170483848e-05
-1.5891603429221895e-05   0.0   -1.6018646170483848e-05
-7.108762416088863e-06   1.4648423746110425e-06   -5.016723904954929e-07
-7.108762416088863e-06   1.4648423746110425e-06   -5.016723904954929e-07
-7.108762416088863e-06   1.4648423746110425e-06   -5.016723904954929e-07
-7.108762416088863e-06   1.4648423746110425e-06   -5.016723904954929e-07
-6.9363431323878455e-06   0.0   -1.5326869693171295e-05
-6.9363431323878455e-06   0.0   -1.5326869693171295e-05
-6.9363431323878455e-06   0.0   -1.5326869693171295e-05
-6.9363431323878455e-06   0.0   -1.5326869693171295e-05
-1.592232181139661e-05   1.80010301641199e-06   -1.4303003713372168e-06
-1.592232181139661e-05   1.80010301641199e-06   -1.4303003713372168e-06
-1.592232181139661e-05   1.80010301641199e-06   -1.4303003713372168e-06
-1.592232181139661e-05   1.80010301641199e-06   -1.4303003713372168e-06
-1.1413973280804855e-05   5.764803977604707e-07   -8.210041017799164e-06
-1.1413973280804855e-05   5.764803977604707e-07   -8.210041017799164e-06
-1.1413973280804855e-05   5.764803977604707e-07   -8.210041017799164e-06
-1.1413973280804855e-05   5.764803977604707e-07   -8.210041017799164e-06
-1.592232181139661e-05   0.0   -1.640693150301849e-05
-1.592232181139661e-05   0.0   -1.640693150301849e-05
-1.592232181139661e-05   0.0   -1.640693150301849e-05
-1.592232181139661e-05   0.0   -1.640693150301849e-05
-6.9363431323878455e-06   1.80010301641199e-06   -3.502385614900222e-07
-6.9363431323878455e-06   1.80010301641199e-06   -3.502385614900222e-07
-6.9363431323878455e-06   1.80010301641199e-06   -3.502385614900222e-07
-6.9363431323878455e-06   1.80010301641199e-06   -3.502385614900222e-07
-6.777012834806885e-06   0.0   -1.5250144078620026e-05
-6.777012834806885e-06   0.0   -1.5250144078620026e-05
-6.777012834806885e-06   0.0   -1.5250144078620026e-05
-6.777012834806885e-06   0.0   -1.5250144078620026e-05
-1.5898059456590963e-05   2.0979741571375254e-06   -1.3071842032623536e-06
-1.5898059456590963e-05   2.0979741571375254e-06   -1.3071842032623536e-06
-1.5898059456590963e-05   2.0979741571375254e-06   -1.3071842032623536e-06
-1.5898059456590963e-05   2.0979741571375254e-06   -1.3071842032623536e-06
-1.1349667323101743e-05   9.639895203320408e-07   -8.207446976994484e-06
-1.1349667323101743e-05   9.639895203320408e-07   -8.207446976994484e-06
-1.1349667323101743e-05   9.639895203320408e-07   -8.207446976994484e-06
-1.1349667323101743e-05   9.639895203320408e-07   -8.207446976994484e-06
-7.405498406541249e-06   0.0   -1.4650313752868005e-05
-7.405498406541249e-06   0.0   -1.4650313752868005e-05
-7.405498406541249e-06   0.0   -1.4650313752868005e-05
-7.405498406541249e-06   0.0   -1.4650313752868005e-05
9.157255546273753e-07   -1.347500497905184e-07   -8.624571807945964e-07
9.157255546273753e-07   -1.347500497905184e-07   -8.624571807945964e-07
9.157255546273753e-07   -1.347500497905184e-07   -8.624571807945964e-07
9.157255546273753e-07   -1.347500497905184e-07   -8.624571807945964e-07
1.1116672078371127e-06   0.0   -1.4982953037877e-05
1.1116672078371127e-06   0.0   -1.4982953037877e-05
1.1116672078371127e-06   0.0   -1.4982953037877e-05
1.1116672078371127e-06   0.0   -1.4982953037877e-05
-7.108762416088851e-06   2.6131284640030497e-07   -1.4390247058406017e-06
-7.108762416088851e-06   2.6131284640030497e-07   -1.4390247058406017e-06
-7.108762416088851e-06   2.6131284640030497e-07   -1.4390247058406017e-06
-7.108762416088851e-06   2.6131284640030497e-07   -1.4390247058406017e-06
-3.1469155993520555e-06   -2.771994041742055e-07   -7.718995383390525e-06
-3.1469155993520555e-06   -2.771994041742055e-07   -7.718995383390525e-06
-3.1469155993520555e-06   -2.771994041742055e-07   -7.718995383390525e-06
-3.1469155993520555e-06   -2.771994041742055e-07   -7.718995383390525e-06
-7.108762416088863e-06   0.0   -1.5139740745717235e-05
-7.108762416088863e-06   0.0   -1.5139740745717235e-05
-7.108762416088863e-06   0.0   -1.5139740745717235e-05
-7.108762416088863e-06   0.0   -1.5139740745717235e-05
1.1116672078371146e-06   2.6131284640030497e-07   -1.2822369980004194e-06
1.1116672078371146e-06   2.6131284640030497e-07   -1.2822369980004194e-06
1.1116672078371146e-06   2.6131284640030497e-07   -1.2822369980004194e-06
1.1116672078371146e-06   2.6131284640030497e-07   -1.2822369980004194e-06
1.2681802743197784e-06   0.0   -1.4960434973859786e-05
1.2681802743197784e-06   0.0   -1.4960434973859786e-05
1.2681802743197784e-06   0.0   -1.4960434973859786e-05
1.2681802743197784e-06   0.0   -1.4960434973859786e-05
-6.936343132387822e-06   6.10724532185803e-07   -1.6526640153252487e-06
-6.936343132387822e-06   6.10724532185803e-07   -1.6526640153252487e-06
-6.936343132387822e-06   6.10724532185803e-07   -1.6526640153252487e-06
-6.936343132387822e-06   6.10724532185803e-07   -1.6526640153252487e-06
-2.920291070884536e-06   1.4942147654785263e-07   -8.069302284447968e-06
-2.920291070884536e-06   1.4942147654785263e-07   -8.069302284447968e-06
-2.920291070884536e-06   1.4942147654785263e-07   -8.069302284447968e-06
-2.920291070884536e-06   1.4942147654785263e-07   -8.069302284447968e-06
-6.9363431323878455e-06   0.0   -1.5326869693171295e-05
-6.9363431323878455e-06   0.0   -1.5326869693171295e-05
-6.9363431323878455e-06   0.0   -1.5326869693171295e-05
-6.9363431323878455e-06   0.0   -1.5326869693171295e-05
1.2681802743197808e-06   6.107245321858064e-07   -1.2862292960137703e-06
1.2681802743197808e-06   6.107245321858064e-07   -1.2862292960137703e-06
1.2681802743197808e-06   6.107245321858064e-07   -1.2862292960137703e-06
1.2681802743197808e-06   6.107245321858064e-07   -1.2862292960137703e-06
1.474089186378015e-06   0.0   -1.4641387646053155e-05
1.474089186378015e-06   0.0   -1.4641387646053155e-05
1.474089186378015e-06   0.0   -1.4641387646053155e-05
1.474089186378015e-06   0.0   -1.4641387646053155e-05
-6.777012834806867e-06   1.0145940542780972e-06   -1.498307376645192e-06
-6.777012834806867e-06   1.0145940542780972e-06   -1.498307376645192e-06
-6.777012834806867e-06   1.0145940542780972e-06   -1.498307376645192e-06
-6.777012834806867e-06   1.0145940542780972e-06   -1.498307376645192e-06
-2.7311269730049093e-06   5.712350392650962e-07   -7.975435070640665e-06
-2.7311269730049093e-06   5.712350392650962e-07   -7.975435070640665e-06
-2.7311269730049093e-06   5.712350392650962e-07   -7.975435070640665e-06
-2.7311269730049093e-06   5.712350392650962e-07   -7.975435070640665e-06
9.157255546273769e-07   0.0   -1.4731163782742317e-05
9.157255546273769e-07   0.0   -1.4731163782742317e-05
9.157255546273769e-07   0.0   -1.4731163782742317e-05
9.157255546273769e-07   0.0   -1.4731163782742317e-05
9.960283126515067e-06   -1.1683137618330702e-06   -3.578894200293325e-07
9.960283126515067e-06   -1.1683137618330702e-06   -3.578894200293325e-07
9.960283126515067e-06   -1.1683137618330702e-06   -3.578894200293325e-07
9.960283126515067e-06   -1.1683137618330702e-06   -3.578894200293325e-07
9.99555269065783e-06   0.0   -1.550902100300075e-05
9.99555269065783e-06   0.0   -1.550902100300075e-05
9.99555269065783e-06   0.0   -1.550902100300075e-05
9.99555269065783e-06   0.0   -1.550902100300075e-05
1.1116672078371166e-06   -8.767799418728283e-07   -1.7647723317586715e-07
1.1116672078371166e-06   -8.767799418728283e-07   -1.7647723317586715e-07
1.1116672078371166e-06   -8.767799418728283e-07   -1.7647723317586715e-07
1.1116672078371166e-06   -8.767799418728283e-07   -1.7647723317586715e-07
5.455639122642603e-06   -6.482143502153604e-07   -7.553569779512819e-06
5.455639122642603e-06   -6.482143502153604e-07   -7.553569779512819e-06
5.455639122642603e-06   -6.482143502153604e-07   -7.553569779512819e-06
5.455639122642603e-06   -6.482143502153604e-07   -7.553569779512819e-06
1.1116672078371166e-06   0.0   -1.4982953037877052e-05
1.1116672078371166e-06   0.0   -1.4982953037877052e-05
1.1116672078371166e-06   0.0   -1.4982953037877052e-05
1.1116672078371166e-06   0.0   -1.4982953037877052e-05
9.99555269065783e-06   -8.767799418728283e-07   -7.025451982995662e-07
9.99555269065783e-06   -8.767799418728283e-07   -7.025451982995662e-07
9.99555269065783e-06   -8.767799418728283e-07   -7.025451982995662e-07
9.99555269065783e-06   -8.767799418728283e-07   -7.025451982995662e-07
9.967874774132864e-06   0.0   -1.52876838303146e-05
9.967874774132864e-06   0.0   -1.52876838303146e-05
9.967874774132864e-06   0.0   -1.52876838303146e-05
9.967874774132864e-06   0.0   -1.52876838303146e-05
1.2681802743197808e-06   -5.454147607579844e-07   -4.609441408380086e-07
1.2681802743197808e-06   -5.454147607579844e-07   -4.609441408380086e-07
1.2681802743197808e-06   -5.454147607579844e-07   -4.609441408380086e-07
1.2681802743197808e-06   -5.454147607579844e-07   -4.609441408380086e-07
5.53977099098499e-06   -2.539423270312904e-07   -7.755145462182697e-06
5.53977099098499e-06   -2.539423270312904e-07   -7.755145462182697e-06
5.53977099098499e-06   -2.539423270312904e-07   -7.755145462182697e-06
5.53977099098499e-06   -2.539423270312904e-07   -7.755145462182697e-06
1.2681802743197795e-06   0.0   -1.4960434973859798e-05
1.2681802743197795e-06   0.0   -1.4960434973859798e-05
1.2681802743197795e-06   0.0   -1.4960434973859798e-05
1.2681802743197795e-06   0.0   -1.4960434973859798e-05
9.967874774132864e-06   -5.454147607579844e-07   -7.881929972927992e-07
9.967874774132864e-06   -5.454147607579844e-07   -7.881929972927992e-07
9.967874774132864e-06   -5.454147607579844e-07   -7.881929972927992e-07
9.967874774132864e-06   -5.454147607579844e-07   -7.881929972927992e-07
1.0175461959669397e-05   0.0   -1.470202126999486e-05
1.0175461959669397e-05   0.0   -1.470202126999486e-05
1.0175461959669397e-05   0.0   -1.470202126999486e-05
1.0175461959669397e-05   0.0   -1.470202126999486e-05
1.4740891863780178e-06   -1.0105603990280166e-07   -1.3909969056755147e-07
1.4740891863780178e-06   -1.0105603990280166e-07   -1.3909969056755147e-07
1.4740891863780178e-06   -1.0105603990280166e-07   -1.3909969056755147e-07
1.4740891863780178e-06   -1.0105603990280166e-07   -1.3909969056755147e-07
5.721821116994584e-06   2.1534475322079386e-07   -7.408493384135978e-06
5.721821116994584e-06   2.1534475322079386e-07   -7.408493384135978e-06
5.721821116994584e-06   2.1534475322079386e-07   -7.408493384135978e-06
5.721821116994584e-06   2.1534475322079386e-07   -7.408493384135978e-06
9.960283126515067e-06   0.0   -1.543215203984216e-05
9.960283126515067e-06   0.0   -1.543215203984216e-05
9.960283126515067e-06   0.0   -1.543215203984216e-05
9.960283126515067e-06   0.0   -1.543215203984216e-05
2.2579600095543354e-05   -2.973482273202185e-06   3.815953544617137e-06
2.2579600095543354e-05   -2.973482273202185e-06   3.815953544617137e-06
2.2579600095543354e-05   -2.973482273202185e-06   3.815953544617137e-06
2.2579600095543354e-05   -2.973482273202185e-06   3.815953544617137e-06
2.122869557556834e-05   0.0   -1.702143278798088e-05
2.122869557556834e-05   0.0   -1.702143278798088e-05
2.122869557556834e-05   0.0   -1.702143278798088e-05
2.122869557556834e-05   0.0   -1.702143278798088e-05
9.99555269065783e-06   -2.520686308300219e-06   3.2128838051834324e-06
9.99555269065783e-06   -2.520686308300219e-06   3.2128838051834324e-06
9.99555269065783e-06   -2.520686308300219e-06   3.2128838051834324e-06
9.99555269065783e-06   -2.520686308300219e-06   3.2128838051834324e-06
1.5594489351041703e-05   -1.3244006234489366e-06   -6.83644870636712e-06
1.5594489351041703e-05   -1.3244006234489366e-06   -6.83644870636712e-06
1.5594489351041703e-05   -1.3244006234489366e-06   -6.83644870636712e-06
1.5594489351041703e-05   -1.3244006234489366e-06   -6.83644870636712e-06
9.995552690657819e-06   0.0   -1.5509021003000737e-05
9.995552690657819e-06   0.0   -1.5509021003000737e-05
9.995552690657819e-06   0.0   -1.5509021003000737e-05
9.995552690657819e-06   0.0   -1.5509021003000737e-05
2.1228695575568265e-05   -2.520686308300209e-06   1.7004720202032928e-06
2.1228695575568265e-05   -2.520686308300209e-06   1.7004720202032928e-06
2.1228695575568265e-05   -2.520686308300209e-06   1.7004720202032928e-06
2.1228695575568265e-05   -2.520686308300209e-06   1.7004720202032928e-06
2.061257427058542e-05   0.0   -1.6667713757683597e-05
2.061257427058542e-05   0.0   -1.6667713757683597e-05
2.061257427058542e-05   0.0   -1.6667713757683597e-05
2.061257427058542e-05   0.0   -1.6667713757683597e-05
9.967874774132864e-06   -2.3000498789483244e-06   2.4534819971063222e-06
9.967874774132864e-06   -2.3000498789483244e-06   2.4534819971063222e-06
9.967874774132864e-06   -2.3000498789483244e-06   2.4534819971063222e-06
9.967874774132864e-06   -2.3000498789483244e-06   2.4534819971063222e-06
1.5304063480621616e-05   -9.655772955690402e-07   -7.240849397069167e-06
1.5304063480621616e-05   -9.655772955690402e-07   -7.240849397069167e-06
1.5304063480621616e-05   -9.655772955690402e-07   -7.240849397069167e-06
1.5304063480621616e-05   -9.655772955690402e-07   -7.240849397069167e-06
9.967874774132864e-06   0.0   -1.52876838303146e-05
9.967874774132864e-06   0.0   -1.52876838303146e-05
9.967874774132864e-06   0.0   -1.52876838303146e-05
9.967874774132864e-06   0.0   -1.52876838303146e-05
2.0612574270585348e-05   -2.3000498789483176e-06   1.073452069737318e-06
2.0612574270585348e-05   -2.3000498789483176e-06   1.073452069737318e-06
2.0612574270585348e-05   -2.3000498789483176e-06   1.073452069737318e-06
2.0612574270585348e-05   -2.3000498789483176e-06   1.073452069737318e-06
1.9684766826099018e-05   0.0   -1.576807343409386e-05
1.9684766826099018e-05   0.0   -1.576807343409386e-05
1.9684766826099018e-05   0.0   -1.576807343409386e-05
1.9684766826099018e-05   0.0   -1.576807343409386e-05
1.0175461959669397e-05   -1.7767536068317145e-06   1.1468201740545662e-06
1.0175461959669397e-05   -1.7767536068317145e-06   1.1468201740545662e-06
1.0175461959669397e-05   -1.7767536068317145e-06   1.1468201740545662e-06
1.0175461959669397e-05   -1.7767536068317145e-06   1.1468201740545662e-06
1.4826320800115957e-05   -4.0032466981607286e-07   -7.430468588899081e-06
1.4826320800115957e-05   -4.0032466981607286e-07   -7.430468588899081e-06
1.4826320800115957e-05   -4.0032466981607286e-07   -7.430468588899081e-06
1.4826320800115957e-05   -4.0032466981607286e-07   -7.430468588899081e-06
-2.2008279084304732e-05   2.8027264975200894e-06   -1.4567431128886776e-05
-2.2008279084304732e-05   2.8027264975200894e-06   -1.4567431128886776e-05
-2.2008279084304732e-05   2.8027264975200894e-06   -1.4567431128886776e-05
-2.2008279084304732e-05   2.8027264975200894e-06   -1.4567431128886776e-05
-1.4108850907942493e-05   2.5118739622347254e-06   -1.5762290227875982e-06
-1.4108850907942493e-05   2.5118739622347254e-06   -1.5762290227875982e-06
-1.4108850907942493e-05   2.5118739622347254e-06   -1.5762290227875982e-06
-1.4108850907942493e-05   2.5118739622347254e-06   -1.5762290227875982e-06
-1.4456268758818008e-05   3.3755191901124865e-06   -1.2246370620178201e-05
-1.4456268758818008e-05   3.3755191901124865e-06   -1.2246370620178201e-05
-1.4456268758818008e-05   3.3755191901124865e-06   -1.2246370620178201e-05
-1.4456268758818008e-05   3.3755191901124865e-06   -1.2246370620178201e-05
-2.2230673912571962e-05   3.022617823486692e-06   9.227121227205762e-07
-2.2230673912571962e-05   3.022617823486692e-06   9.227121227205762e-07
-2.2230673912571962e-05   3.022617823486692e-06   9.227121227205762e-07
-2.2230673912571962e-05   3.022617823486692e-06   9.227121227205762e-07
-1.7479224417559344e-05   2.9315357566232794e-06   -6.9417211288491805e-06
-1.7479224417559344e-05   2.9315357566232794e-06   -6.9417211288491805e-06
-1.7479224417559344e-05   2.9315357566232794e-06   -6.9417211288491805e-06
-1.7479224417559344e-05   2.9315357566232794e-06   -6.9417211288491805e-06
-2.2230673912571962e-05   3.3755191901124865e-06   -1.203462980020272e-05
-2.2230673912571962e-05   3.3755191901124865e-06   -1.203462980020272e-05
-2.2230673912571962e-05   3.3755191901124865e-06   -1.203462980020272e-05
-2.2230673912571962e-05   3.3755191901124865e-06   -1.203462980020272e-05
-1.4456268758818059e-05   3.022617823486692e-06   7.109713027451009e-07
-1.4456268758818059e-05   3.022617823486692e-06   7.109713027451009e-07
-1.4456268758818059e-05   3.022617823486692e-06   7.109713027451009e-07
-1.4456268758818059e-05   3.022617823486692e-06   7.109713027451009e-07
-1.452105677071849e-05   3.6196570175015922e-06   -1.1018966079220238e-05
-1.452105677071849e-05   3.6196570175015922e-06   -1.1018966079220238e-05
-1.452105677071849e-05   3.6196570175015922e-06   -1.1018966079220238e-05
-1.452105677071849e-05   3.6196570175015922e-06   -1.1018966079220238e-05
-2.2373446075058206e-05   3.253432207778062e-06   2.2880843138466513e-06
-2.2373446075058206e-05   3.253432207778062e-06   2.2880843138466513e-06
-2.2373446075058206e-05   3.253432207778062e-06   2.2880843138466513e-06
-2.2373446075058206e-05   3.253432207778062e-06   2.2880843138466513e-06
-1.798285824894917e-05   3.252288169358881e-06   -5.028875639950163e-06
-1.798285824894917e-05   3.252288169358881e-06   -5.028875639950163e-06
-1.798285824894917e-05   3.252288169358881e-06   -5.028875639950163e-06
-1.798285824894917e-05   3.252288169358881e-06   -5.028875639950163e-06
-2.2373446075058175e-05   3.6196570175015922e-06   -1.079923119338612e-05
-2.2373446075058175e-05   3.6196570175015922e-06   -1.079923119338612e-05
-2.2373446075058175e-05   3.6196570175015922e-06   -1.079923119338612e-05
-2.2373446075058175e-05   3.6196570175015922e-06   -1.079923119338612e-05
-1.4521056770718516e-05   3.253432207778062e-06   2.0683494280125474e-06
-1.4521056770718516e-05   3.253432207778062e-06   2.0683494280125474e-06
-1.4521056770718516e-05   3.253432207778062e-06   2.0683494280125474e-06
-1.4521056770718516e-05   3.253432207778062e-06   2.0683494280125474e-06
-1.442970754956402e-05   4.133826614414937e-06   -8.168545271211396e-06
-1.442970754956402e-05   4.133826614414937e-06   -8.168545271211396e-06
-1.442970754956402e-05   4.133826614414937e-06   -8.168545271211396e-06
-1.442970754956402e-05   4.133826614414937e-06   -8.168545271211396e-06
-2.1733060120678506e-05   3.4411539831083108e-06   4.419312592763333e-06
-2.1733060120678506e-05   3.4411539831083108e-06   4.419312592763333e-06
-2.1733060120678506e-05   3.4411539831083108e-06   4.419312592763333e-06
-2.1733060120678506e-05   3.4411539831083108e-06   4.419312592763333e-06
-1.7502716422385625e-05   3.572145667977496e-06   -2.709855248646301e-06
-1.7502716422385625e-05   3.572145667977496e-06   -2.709855248646301e-06
-1.7502716422385625e-05   3.572145667977496e-06   -2.709855248646301e-06
-1.7502716422385625e-05   3.572145667977496e-06   -2.709855248646301e-06
-1.4108850907942493e-05   1.0230348251086072e-06   -1.554727014202428e-05
-1.4108850907942493e-05   1.0230348251086072e-06   -1.554727014202428e-05
-1.4108850907942493e-05   1.0230348251086072e-06   -1.554727014202428e-05
-1.4108850907942493e-05   1.0230348251086072e-06   -1.554727014202428e-05
-6.708287158591622e-06   1.1690825842926913e-06   -3.1253685709290248e-06
-6.708287158591622e-06   1.1690825842926913e-06   -3.1253685709290248e-06
-6.708287158591622e-06   1.1690825842926913e-06   -3.1253685709290248e-06
-6.708287158591622e-06   1.1690825842926913e-06   -3.1253685709290248e-06
-6.860500670245875e-06   1.4648423746110425e-06   -1.551961653467108e-05
-6.860500670245875e-06   1.4648423746110425e-06   -1.551961653467108e-05
-6.860500670245875e-06   1.4648423746110425e-06   -1.551961653467108e-05
-6.860500670245875e-06   1.4648423746110425e-06   -1.551961653467108e-05
-1.4456268758818008e-05   1.638561290667726e-06   -2.9642344033515e-06
-1.4456268758818008e-05   1.638561290667726e-06   -2.9642344033515e-06
-1.4456268758818008e-05   1.638561290667726e-06   -2.9642344033515e-06
-1.4456268758818008e-05   1.638561290667726e-06   -2.9642344033515e-06
-1.050327121674033e-05   1.3186372383378384e-06   -9.360609208749777e-06
-1.050327121674033e-05   1.3186372383378384e-06   -9.360609208749777e-06
-1.050327121674033e-05   1.3186372383378384e-06   -9.360609208749777e-06
-1.050327121674033e-05   1.3186372383378384e-06   -9.360609208749777e-06
-1.4456268758817994e-05   1.4648423746110425e-06   -1.562384788430506e-05
-1.4456268758817994e-05   1.4648423746110425e-06   -1.562384788430506e-05
-1.4456268758817994e-05   1.4648423746110425e-06   -1.562384788430506e-05
-1.4456268758817994e-05   1.4648423746110425e-06   -1.562384788430506e-05
-6.860500670245886e-06   1.638561290667726e-06   -2.8600030537174993e-06
-6.860500670245886e-06   1.638561290667726e-06   -2.8600030537174993e-06
-6.860500670245886e-06   1.638561290667726e-06   -2.8600030537174993e-06
-6.860500670245886e-06   1.638561290667726e-06   -2.8600030537174993e-06
-6.902286237261347e-06   1.8001030164119865e-06   -1.52310968293313e-05
-6.902286237261347e-06   1.8001030164119865e-06   -1.52310968293313e-05
-6.902286237261347e-06   1.8001030164119865e-06   -1.52310968293313e-05
-6.902286237261347e-06   1.8001030164119865e-06   -1.52310968293313e-05
-1.452105677071849e-05   2.028115316206333e-06   -2.6699533201126816e-06
-1.452105677071849e-05   2.028115316206333e-06   -2.6699533201126816e-06
-1.452105677071849e-05   2.028115316206333e-06   -2.6699533201126816e-06
-1.452105677071849e-05   2.028115316206333e-06   -2.6699533201126816e-06
-1.057770866510183e-05   1.6776295942734149e-06   -9.031908729647333e-06
-1.057770866510183e-05   1.6776295942734149e-06   -9.031908729647333e-06
-1.057770866510183e-05   1.6776295942734149e-06   -9.031908729647333e-06
-1.057770866510183e-05   1.6776295942734149e-06   -9.031908729647333e-06
-1.452105677071849e-05   1.8001030164119865e-06   -1.536790420920791e-05
-1.452105677071849e-05   1.8001030164119865e-06   -1.536790420920791e-05
-1.452105677071849e-05   1.8001030164119865e-06   -1.536790420920791e-05
-1.452105677071849e-05   1.8001030164119865e-06   -1.536790420920791e-05
-6.9022862372613706e-06   2.028115316206333e-06   -2.5331459402360856e-06
-6.9022862372613706e-06   2.028115316206333e-06   -2.5331459402360856e-06
-6.9022862372613706e-06   2.028115316206333e-06   -2.5331459402360856e-06
-6.9022862372613706e-06   2.028115316206333e-06   -2.5331459402360856e-06
-6.8772890086992275e-06   2.0979741571375254e-06   -1.5078518296589207e-05
-6.8772890086992275e-06   2.0979741571375254e-06   -1.5078518296589207e-05
-6.8772890086992275e-06   2.0979741571375254e-06   -1.5078518296589207e-05
-6.8772890086992275e-06   2.0979741571375254e-06   -1.5078518296589207e-05
-1.4429707549564006e-05   2.448062767808489e-06   -2.7012072282171505e-06
-1.4429707549564006e-05   2.448062767808489e-06   -2.7012072282171505e-06
-1.4429707549564006e-05   2.448062767808489e-06   -2.7012072282171505e-06
-1.4429707549564006e-05   2.448062767808489e-06   -2.7012072282171505e-06
-1.0631638918321196e-05   2.0025991489912225e-06   -8.764043442331525e-06
-1.0631638918321196e-05   2.0025991489912225e-06   -8.764043442331525e-06
-1.0631638918321196e-05   2.0025991489912225e-06   -8.764043442331525e-06
-1.0631638918321196e-05   2.0025991489912225e-06   -8.764043442331525e-06
-6.708287158591609e-06   -1.347500497905184e-07   -1.629098799860829e-05
-6.708287158591609e-06   -1.347500497905184e-07   -1.629098799860829e-05
-6.708287158591609e-06   -1.347500497905184e-07   -1.629098799860829e-05
-6.708287158591609e-06   -1.347500497905184e-07   -1.629098799860829e-05
5.975427821231914e-07   -3.708348124603145e-08   -4.056004822956921e-06
5.975427821231914e-07   -3.708348124603145e-08   -4.056004822956921e-06
5.975427821231914e-07   -3.708348124603145e-08   -4.056004822956921e-06
5.975427821231914e-07   -3.708348124603145e-08   -4.056004822956921e-06
5.752816430086093e-07   2.6131284640030497e-07   -1.6376211064309903e-05
5.752816430086093e-07   2.6131284640030497e-07   -1.6376211064309903e-05
5.752816430086093e-07   2.6131284640030497e-07   -1.6376211064309903e-05
5.752816430086093e-07   2.6131284640030497e-07   -1.6376211064309903e-05
-6.860500670245875e-06   3.9590915591081893e-07   -4.063998327925351e-06
-6.860500670245875e-06   3.9590915591081893e-07   -4.063998327925351e-06
-6.860500670245875e-06   3.9590915591081893e-07   -4.063998327925351e-06
-6.860500670245875e-06   3.9590915591081893e-07   -4.063998327925351e-06
-3.1168999264128236e-06   1.3225431194612686e-07   -1.014513999460165e-05
-3.1168999264128236e-06   1.3225431194612686e-07   -1.014513999460165e-05
-3.1168999264128236e-06   1.3225431194612686e-07   -1.014513999460165e-05
-3.1168999264128236e-06   1.3225431194612686e-07   -1.014513999460165e-05
-6.860500670245875e-06   2.613128464003016e-07   -1.645696885001619e-05
-6.860500670245875e-06   2.613128464003016e-07   -1.645696885001619e-05
-6.860500670245875e-06   2.613128464003016e-07   -1.645696885001619e-05
-6.860500670245875e-06   2.613128464003016e-07   -1.645696885001619e-05
5.752816430086093e-07   3.9590915591081893e-07   -3.983240542219046e-06
5.752816430086093e-07   3.9590915591081893e-07   -3.983240542219046e-06
5.752816430086093e-07   3.9590915591081893e-07   -3.983240542219046e-06
5.752816430086093e-07   3.9590915591081893e-07   -3.983240542219046e-06
5.428561913531297e-07   6.10724532185803e-07   -1.6408403034666245e-05
5.428561913531297e-07   6.10724532185803e-07   -1.6408403034666245e-05
5.428561913531297e-07   6.10724532185803e-07   -1.6408403034666245e-05
5.428561913531297e-07   6.10724532185803e-07   -1.6408403034666245e-05
-6.902286237261347e-06   8.192566130196181e-07   -4.124951568809083e-06
-6.902286237261347e-06   8.192566130196181e-07   -4.124951568809083e-06
-6.902286237261347e-06   8.192566130196181e-07   -4.124951568809083e-06
-6.902286237261347e-06   8.192566130196181e-07   -4.124951568809083e-06
-3.166775348055549e-06   4.985821704435269e-07   -1.0158398385273053e-05
-3.166775348055549e-06   4.985821704435269e-07   -1.0158398385273053e-05
-3.166775348055549e-06   4.985821704435269e-07   -1.0158398385273053e-05
-3.166775348055549e-06   4.985821704435269e-07   -1.0158398385273053e-05
-6.902286237261347e-06   6.10724532185803e-07   -1.653352228316653e-05
-6.902286237261347e-06   6.10724532185803e-07   -1.653352228316653e-05
-6.902286237261347e-06   6.10724532185803e-07   -1.653352228316653e-05
-6.902286237261347e-06   6.10724532185803e-07   -1.653352228316653e-05
5.428561913531307e-07   8.192566130196046e-07   -3.999832320308798e-06
5.428561913531307e-07   8.192566130196046e-07   -3.999832320308798e-06
5.428561913531307e-07   8.192566130196046e-07   -3.999832320308798e-06
5.428561913531307e-07   8.192566130196046e-07   -3.999832320308798e-06
4.6837887467908395e-07   1.0145940542780972e-06   -1.6381176061431724e-05
4.6837887467908395e-07   1.0145940542780972e-06   -1.6381176061431724e-05
4.6837887467908395e-07   1.0145940542780972e-06   -1.6381176061431724e-05
4.6837887467908395e-07   1.0145940542780972e-06   -1.6381176061431724e-05
-6.8772890086992335e-06   1.2600105589828447e-06   -4.2856461586240575e-06
-6.8772890086992335e-06   1.2600105589828447e-06   -4.2856461586240575e-06
-6.8772890086992335e-06   1.2600105589828447e-06   -4.2856461586240575e-06
-6.8772890086992335e-06   1.2600105589828447e-06   -4.2856461586240575e-06
-3.193664374052491e-06   8.749219579036222e-07   -1.0193967389054412e-05
-3.193664374052491e-06   8.749219579036222e-07   -1.0193967389054412e-05
-3.193664374052491e-06   8.749219579036222e-07   -1.0193967389054412e-05
-3.193664374052491e-06   8.749219579036222e-07   -1.0193967389054412e-05
5.975427821231914e-07   -1.1683137618330668e-06   -1.5026832039616494e-05
5.975427821231914e-07   -1.1683137618330668e-06   -1.5026832039616494e-05
5.975427821231914e-07   -1.1683137618330668e-06   -1.5026832039616494e-05
5.975427821231914e-07   -1.1683137618330668e-06   -1.5026832039616494e-05
8.125926848634943e-06   -1.200452800012534e-06   -2.49880868500459e-06
8.125926848634943e-06   -1.200452800012534e-06   -2.49880868500459e-06
8.125926848634943e-06   -1.200452800012534e-06   -2.49880868500459e-06
8.125926848634943e-06   -1.200452800012534e-06   -2.49880868500459e-06
8.201957655680596e-06   -8.767799418728249e-07   -1.5227658279429102e-05
8.201957655680596e-06   -8.767799418728249e-07   -1.5227658279429102e-05
8.201957655680596e-06   -8.767799418728249e-07   -1.5227658279429102e-05
8.201957655680596e-06   -8.767799418728249e-07   -1.5227658279429102e-05
5.752816430086093e-07   -8.054582417791608e-07   -2.5593246116986254e-06
5.752816430086093e-07   -8.054582417791608e-07   -2.5593246116986254e-06
5.752816430086093e-07   -8.054582417791608e-07   -2.5593246116986254e-06
5.752816430086093e-07   -8.054582417791608e-07   -2.5593246116986254e-06
4.319414174368413e-06   -9.667463724371254e-07   -8.702772618903546e-06
4.319414174368413e-06   -9.667463724371254e-07   -8.702772618903546e-06
4.319414174368413e-06   -9.667463724371254e-07   -8.702772618903546e-06
4.319414174368413e-06   -9.667463724371254e-07   -8.702772618903546e-06
5.752816430086082e-07   -8.767799418728249e-07   -1.5270451299485332e-05
5.752816430086082e-07   -8.767799418728249e-07   -1.5270451299485332e-05
5.752816430086082e-07   -8.767799418728249e-07   -1.5270451299485332e-05
5.752816430086082e-07   -8.767799418728249e-07   -1.5270451299485332e-05
8.201957655680613e-06   -8.054582417791608e-07   -2.516531591642424e-06
8.201957655680613e-06   -8.054582417791608e-07   -2.516531591642424e-06
8.201957655680613e-06   -8.054582417791608e-07   -2.516531591642424e-06
8.201957655680613e-06   -8.054582417791608e-07   -2.516531591642424e-06
8.171306146393034e-06   -5.454147607579811e-07   -1.5507585864810308e-05
8.171306146393034e-06   -5.454147607579811e-07   -1.5507585864810308e-05
8.171306146393034e-06   -5.454147607579811e-07   -1.5507585864810308e-05
8.171306146393034e-06   -5.454147607579811e-07   -1.5507585864810308e-05
5.428561913531297e-07   -4.1952806962440223e-07   -2.8690346210906343e-06
5.428561913531297e-07   -4.1952806962440223e-07   -2.8690346210906343e-06
5.428561913531297e-07   -4.1952806962440223e-07   -2.8690346210906343e-06
5.428561913531297e-07   -4.1952806962440223e-07   -2.8690346210906343e-06
4.281198403197015e-06   -6.528886793533993e-07   -8.959588608326347e-06
4.281198403197015e-06   -6.528886793533993e-07   -8.959588608326347e-06
4.281198403197015e-06   -6.528886793533993e-07   -8.959588608326347e-06
4.281198403197015e-06   -6.528886793533993e-07   -8.959588608326347e-06
5.428561913531292e-07   -5.454147607579777e-07   -1.558311787949046e-05
5.428561913531292e-07   -5.454147607579777e-07   -1.558311787949046e-05
5.428561913531292e-07   -5.454147607579777e-07   -1.558311787949046e-05
5.428561913531292e-07   -5.454147607579777e-07   -1.558311787949046e-05
8.171306146393062e-06   -4.195280696243887e-07   -2.7935026064104823e-06
8.171306146393062e-06   -4.195280696243887e-07   -2.7935026064104823e-06
8.171306146393062e-06   -4.195280696243887e-07   -2.7935026064104823e-06
8.171306146393062e-06   -4.195280696243887e-07   -2.7935026064104823e-06
7.93963649156977e-06   -1.0105603990279827e-07   -1.5536138260974313e-05
7.93963649156977e-06   -1.0105603990279827e-07   -1.5536138260974313e-05
7.93963649156977e-06   -1.0105603990279827e-07   -1.5536138260974313e-05
7.93963649156977e-06   -1.0105603990279827e-07   -1.5536138260974313e-05
4.6837887467908395e-07   5.658820500819325e-08   -3.1786287797697855e-06
4.6837887467908395e-07   5.658820500819325e-08   -3.1786287797697855e-06
4.6837887467908395e-07   5.658820500819325e-08   -3.1786287797697855e-06
4.6837887467908395e-07   5.658820500819325e-08   -3.1786287797697855e-06
4.242085478200604e-06   -2.864166536201311e-07   -9.262336870461973e-06
4.242085478200604e-06   -2.864166536201311e-07   -9.262336870461973e-06
4.242085478200604e-06   -2.864166536201311e-07   -9.262336870461973e-06
4.242085478200604e-06   -2.864166536201311e-07   -9.262336870461973e-06
8.125926848634943e-06   -2.973482273202185e-06   -9.088183133956403e-06
8.125926848634943e-06   -2.973482273202185e-06   -9.088183133956403e-06
8.125926848634943e-06   -2.973482273202185e-06   -9.088183133956403e-06
8.125926848634943e-06   -2.973482273202185e-06   -9.088183133956403e-06
1.5538850324348314e-05   -2.2237473078025766e-06   3.7165303048056322e-06
1.5538850324348314e-05   -2.2237473078025766e-06   3.7165303048056322e-06
1.5538850324348314e-05   -2.2237473078025766e-06   3.7165303048056322e-06
1.5538850324348314e-05   -2.2237473078025766e-06   3.7165303048056322e-06
1.6152339969942515e-05   -2.520686308300219e-06   -1.1005779630070018e-05
1.6152339969942515e-05   -2.520686308300219e-06   -1.1005779630070018e-05
1.6152339969942515e-05   -2.520686308300219e-06   -1.1005779630070018e-05
1.6152339969942515e-05   -2.520686308300219e-06   -1.1005779630070018e-05
8.201957655680626e-06   -2.0099368985066526e-06   1.9384079144903707e-06
8.201957655680626e-06   -2.0099368985066526e-06   1.9384079144903707e-06
8.201957655680626e-06   -2.0099368985066526e-06   1.9384079144903707e-06
8.201957655680626e-06   -2.0099368985066526e-06   1.9384079144903707e-06
1.1446046367229807e-05   -2.4198395873488614e-06   -3.222464991452966e-06
1.1446046367229807e-05   -2.4198395873488614e-06   -3.222464991452966e-06
1.1446046367229807e-05   -2.4198395873488614e-06   -3.222464991452966e-06
1.1446046367229807e-05   -2.4198395873488614e-06   -3.222464991452966e-06
8.201957655680604e-06   -2.5206863083002124e-06   -1.1312229275946122e-05
8.201957655680604e-06   -2.5206863083002124e-06   -1.1312229275946122e-05
8.201957655680604e-06   -2.5206863083002124e-06   -1.1312229275946122e-05
8.201957655680604e-06   -2.5206863083002124e-06   -1.1312229275946122e-05
1.6152339969942515e-05   -2.0099368985066526e-06   2.24485756036651e-06
1.6152339969942515e-05   -2.0099368985066526e-06   2.24485756036651e-06
1.6152339969942515e-05   -2.0099368985066526e-06   2.24485756036651e-06
1.6152339969942515e-05   -2.0099368985066526e-06   2.24485756036651e-06
1.610619594824747e-05   -2.3000498789483244e-06   -1.1958709776815745e-05
1.610619594824747e-05   -2.3000498789483244e-06   -1.1958709776815745e-05
1.610619594824747e-05   -2.3000498789483244e-06   -1.1958709776815745e-05
1.610619594824747e-05   -2.3000498789483244e-06   -1.1958709776815745e-05
8.171306146393062e-06   -1.788048056289163e-06   9.589054660127592e-07
8.171306146393062e-06   -1.788048056289163e-06   9.589054660127592e-07
8.171306146393062e-06   -1.788048056289163e-06   9.589054660127592e-07
8.171306146393062e-06   -1.788048056289163e-06   9.589054660127592e-07
1.1859855107735057e-05   -2.131819360379523e-06   -4.9824133537696704e-06
1.1859855107735057e-05   -2.131819360379523e-06   -4.9824133537696704e-06
1.1859855107735057e-05   -2.131819360379523e-06   -4.9824133537696704e-06
1.1859855107735057e-05   -2.131819360379523e-06   -4.9824133537696704e-06
8.17130614639305e-06   -2.300049878948321e-06   -1.226591087041122e-05
8.17130614639305e-06   -2.300049878948321e-06   -1.226591087041122e-05
8.17130614639305e-06   -2.300049878948321e-06   -1.226591087041122e-05
8.17130614639305e-06   -2.300049878948321e-06   -1.226591087041122e-05
1.610619594824747e-05   -1.788048056289163e-06   1.2661065596082622e-06
1.610619594824747e-05   -1.788048056289163e-06   1.2661065596082622e-06
1.610619594824747e-05   -1.788048056289163e-06   1.2661065596082622e-06
1.610619594824747e-05   -1.788048056289163e-06   1.2661065596082622e-06
1.60254177625345e-05   -1.776753606831711e-06   -1.3910270221673392e-05
1.60254177625345e-05   -1.776753606831711e-06   -1.3910270221673392e-05
1.60254177625345e-05   -1.776753606831711e-06   -1.3910270221673392e-05
1.60254177625345e-05   -1.776753606831711e-06   -1.3910270221673392e-05
7.939636491569799e-06   -1.311229355603074e-06   -7.132826541360805e-07
7.939636491569799e-06   -1.311229355603074e-06   -7.132826541360805e-07
7.939636491569799e-06   -1.311229355603074e-06   -7.132826541360805e-07
7.939636491569799e-06   -1.311229355603074e-06   -7.132826541360805e-07
1.153066463945233e-05   -1.8317642161322267e-06   -6.386008650956134e-06
1.153066463945233e-05   -1.8317642161322267e-06   -6.386008650956134e-06
1.153066463945233e-05   -1.8317642161322267e-06   -6.386008650956134e-06
1.153066463945233e-05   -1.8317642161322267e-06   -6.386008650956134e-06
-1.7415154047272756e-05   2.5118739622347254e-06   -1.2107725339459161e-05
-1.7415154047272756e-05   2.5118739622347254e-06   -1.2107725339459161e-05
-1.7415154047272756e-05   2.5118739622347254e-06   -1.2107725339459161e-05
-1.7415154047272756e-05   2.5118739622347254e-06   -1.2107725339459161e-05
-1.1445343789293538e-05   1.909223187908772e-06   -2.51963204075604e-06
-1.1445343789293538e-05   1.909223187908772e-06   -2.51963204075604e-06
-1.1445343789293538e-05   1.909223187908772e-06   -2.51963204075604e-06
-1.1445343789293538e-05   1.909223187908772e-06   -2.51963204075604e-06
-1.14961753048056e-05   3.022617823486692e-06   -1.0058296013638234e-05
-1.14961753048056e-05   3.022617823486692e-06   -1.0058296013638234e-05
-1.14961753048056e-05   3.022617823486692e-06   -1.0058296013638234e-05
-1.14961753048056e-05   3.022617823486692e-06   -1.0058296013638234e-05
-1.7138098462467445e-05   2.315083990708615e-06   -2.305704512016324e-07
-1.7138098462467445e-05   2.315083990708615e-06   -2.305704512016324e-07
-1.7138098462467445e-05   2.315083990708615e-06   -2.305704512016324e-07
-1.7138098462467445e-05   2.315083990708615e-06   -2.305704512016324e-07
-1.3765126683341285e-05   2.5569425735506174e-06   -5.997305232783822e-06
-1.3765126683341285e-05   2.5569425735506174e-06   -5.997305232783822e-06
-1.3765126683341285e-05   2.5569425735506174e-06   -5.997305232783822e-06
-1.3765126683341285e-05   2.5569425735506174e-06   -5.997305232783822e-06
-1.7138098462467445e-05   3.022617823486692e-06   -9.63377571397139e-06
-1.7138098462467445e-05   3.022617823486692e-06   -9.63377571397139e-06
-1.7138098462467445e-05   3.022617823486692e-06   -9.63377571397139e-06
-1.7138098462467445e-05   3.022617823486692e-06   -9.63377571397139e-06
-1.14961753048056e-05   2.315083990708615e-06   -6.550907508684523e-07
-1.14961753048056e-05   2.315083990708615e-06   -6.550907508684523e-07
-1.14961753048056e-05   2.315083990708615e-06   -6.550907508684523e-07
-1.14961753048056e-05   2.315083990708615e-06   -6.550907508684523e-07
-1.147974111312517e-05   3.253432207778062e-06   -8.608841977227803e-06
-1.147974111312517e-05   3.253432207778062e-06   -8.608841977227803e-06
-1.147974111312517e-05   3.253432207778062e-06   -8.608841977227803e-06
-1.147974111312517e-05   3.253432207778062e-06   -8.608841977227803e-06
-1.6870568881816497e-05   2.4943560166715403e-06   8.313166852549436e-07
-1.6870568881816497e-05   2.4943560166715403e-06   8.313166852549436e-07
-1.6870568881816497e-05   2.4943560166715403e-06   8.313166852549436e-07
-1.6870568881816497e-05   2.4943560166715403e-06   8.313166852549436e-07
-1.3876920619807356e-05   2.792138774060558e-06   -4.33676673919356e-06
-1.3876920619807356e-05   2.792138774060558e-06   -4.33676673919356e-06
-1.3876920619807356e-05   2.792138774060558e-06   -4.33676673919356e-06
-1.3876920619807356e-05   2.792138774060558e-06   -4.33676673919356e-06
-1.6870568881816497e-05   3.253432207778062e-06   -8.15339626256388e-06
-1.6870568881816497e-05   3.253432207778062e-06   -8.15339626256388e-06
-1.6870568881816497e-05   3.253432207778062e-06   -8.15339626256388e-06
-1.6870568881816497e-05   3.253432207778062e-06   -8.15339626256388e-06
-1.1479741113125194e-05   2.4943560166715674e-06   3.758709705911193e-07
-1.1479741113125194e-05   2.4943560166715674e-06   3.758709705911193e-07
-1.1479741113125194e-05   2.4943560166715674e-06   3.758709705911193e-07
-1.1479741113125194e-05   2.4943560166715674e-06   3.758709705911193e-07
-1.1487907642340522e-05   3.4411539831083108e-06   -6.586933012811536e-06
-1.1487907642340522e-05   3.4411539831083108e-06   -6.586933012811536e-06
-1.1487907642340522e-05   3.4411539831083108e-06   -6.586933012811536e-06
-1.1487907642340522e-05   3.4411539831083108e-06   -6.586933012811536e-06
-1.652480218042798e-05   2.6739491406892408e-06   2.2682141227855823e-06
-1.652480218042798e-05   2.6739491406892408e-06   2.2682141227855823e-06
-1.652480218042798e-05   2.6739491406892408e-06   2.2682141227855823e-06
-1.652480218042798e-05   2.6739491406892408e-06   2.2682141227855823e-06
-1.3554896238765622e-05   2.918395738812205e-06   -2.8282970721918996e-06
-1.3554896238765622e-05   2.918395738812205e-06   -2.8282970721918996e-06
-1.3554896238765622e-05   2.918395738812205e-06   -2.8282970721918996e-06
-1.3554896238765622e-05   2.918395738812205e-06   -2.8282970721918996e-06
-1.1445343789293538e-05   1.1690825842926777e-06   -1.4106084007706597e-05
-1.1445343789293538e-05   1.1690825842926777e-06   -1.4106084007706597e-05
-1.1445343789293538e-05   1.1690825842926777e-06   -1.4106084007706597e-05
-1.1445343789293538e-05   1.1690825842926777e-06   -1.4106084007706597e-05
-5.855831491907647e-06   9.55816899484086e-07   -4.918189589615277e-06
-5.855831491907647e-06   9.55816899484086e-07   -4.918189589615277e-06
-5.855831491907647e-06   9.55816899484086e-07   -4.918189589615277e-06
-5.855831491907647e-06   9.55816899484086e-07   -4.918189589615277e-06
-5.923255507459661e-06   1.638561290667726e-06   -1.3903163554409157e-05
-5.923255507459661e-06   1.638561290667726e-06   -1.3903163554409157e-05
-5.923255507459661e-06   1.638561290667726e-06   -1.3903163554409157e-05
-5.923255507459661e-06   1.638561290667726e-06   -1.3903163554409157e-05
-1.1496175304805584e-05   1.3557915662105037e-06   -4.445302057491597e-06
-1.1496175304805584e-05   1.3557915662105037e-06   -4.445302057491597e-06
-1.1496175304805584e-05   1.3557915662105037e-06   -4.445302057491597e-06
-1.1496175304805584e-05   1.3557915662105037e-06   -4.445302057491597e-06
-8.605292906412103e-06   1.353459143104476e-06   -9.262039934283792e-06
-8.605292906412103e-06   1.353459143104476e-06   -9.262039934283792e-06
-8.605292906412103e-06   1.353459143104476e-06   -9.262039934283792e-06
-8.605292906412103e-06   1.353459143104476e-06   -9.262039934283792e-06
-1.149617530480559e-05   1.638561290667726e-06   -1.3733501719734787e-05
-1.149617530480559e-05   1.638561290667726e-06   -1.3733501719734787e-05
-1.149617530480559e-05   1.638561290667726e-06   -1.3733501719734787e-05
-1.149617530480559e-05   1.638561290667726e-06   -1.3733501719734787e-05
-5.92325550745967e-06   1.3557915662105308e-06   -4.614963892165903e-06
-5.92325550745967e-06   1.3557915662105308e-06   -4.614963892165903e-06
-5.92325550745967e-06   1.3557915662105308e-06   -4.614963892165903e-06
-5.92325550745967e-06   1.3557915662105308e-06   -4.614963892165903e-06
-5.9657027949749104e-06   2.028115316206333e-06   -1.3536607162455865e-05
-5.9657027949749104e-06   2.028115316206333e-06   -1.3536607162455865e-05
-5.9657027949749104e-06   2.028115316206333e-06   -1.3536607162455865e-05
-5.9657027949749104e-06   2.028115316206333e-06   -1.3536607162455865e-05
-1.147974111312517e-05   1.7123445877015395e-06   -4.157080861769315e-06
-1.147974111312517e-05   1.7123445877015395e-06   -4.157080861769315e-06
-1.147974111312517e-05   1.7123445877015395e-06   -4.157080861769315e-06
-1.147974111312517e-05   1.7123445877015395e-06   -4.157080861769315e-06
-8.617868994509888e-06   1.6833336140018658e-06   -8.909461141908132e-06
-8.617868994509888e-06   1.6833336140018658e-06   -8.909461141908132e-06
-8.617868994509888e-06   1.6833336140018658e-06   -8.909461141908132e-06
-8.617868994509888e-06   1.6833336140018658e-06   -8.909461141908132e-06
-1.147974111312517e-05   2.0281153162063467e-06   -1.3347144725353026e-05
-1.147974111312517e-05   2.0281153162063467e-06   -1.3347144725353026e-05
-1.147974111312517e-05   2.0281153162063467e-06   -1.3347144725353026e-05
-1.147974111312517e-05   2.0281153162063467e-06   -1.3347144725353026e-05
-5.965702794974931e-06   1.7123445877015395e-06   -4.34654329887212e-06
-5.965702794974931e-06   1.7123445877015395e-06   -4.34654329887212e-06
-5.965702794974931e-06   1.7123445877015395e-06   -4.34654329887212e-06
-5.965702794974931e-06   1.7123445877015395e-06   -4.34654329887212e-06
-6.0220015403287735e-06   2.448062767808489e-06   -1.3504942548101998e-05
-6.0220015403287735e-06   2.448062767808489e-06   -1.3504942548101998e-05
-6.0220015403287735e-06   2.448062767808489e-06   -1.3504942548101998e-05
-6.0220015403287735e-06   2.448062767808489e-06   -1.3504942548101998e-05
-1.1487907642340505e-05   2.0929072793185476e-06   -4.182005751655142e-06
-1.1487907642340505e-05   2.0929072793185476e-06   -4.182005751655142e-06
-1.1487907642340505e-05   2.0929072793185476e-06   -4.182005751655142e-06
-1.1487907642340505e-05   2.0929072793185476e-06   -4.182005751655142e-06
-8.716513351635465e-06   2.01115203668472e-06   -8.751943090583151e-06
-8.716513351635465e-06   2.01115203668472e-06   -8.751943090583151e-06
-8.716513351635465e-06   2.01115203668472e-06   -8.751943090583151e-06
-8.716513351635465e-06   2.01115203668472e-06   -8.751943090583151e-06
-5.855831491907637e-06   -3.70834812460179e-08   -1.5223279611746354e-05
-5.855831491907637e-06   -3.70834812460179e-08   -1.5223279611746354e-05
-5.855831491907637e-06   -3.70834812460179e-08   -1.5223279611746354e-05
-5.855831491907637e-06   -3.70834812460179e-08   -1.5223279611746354e-05
-3.248827958657549e-07   5.163696079724762e-08   -5.951799519783906e-06
-3.248827958657549e-07   5.163696079724762e-08   -5.951799519783906e-06
-3.248827958657549e-07   5.163696079724762e-08   -5.951799519783906e-06
-3.248827958657549e-07   5.163696079724762e-08   -5.951799519783906e-06
-3.785140746586762e-07   3.959091559108325e-07   -1.5076827070625897e-05
-3.785140746586762e-07   3.959091559108325e-07   -1.5076827070625897e-05
-3.785140746586762e-07   3.959091559108325e-07   -1.5076827070625897e-05
-3.785140746586762e-07   3.959091559108325e-07   -1.5076827070625897e-05
-5.923255507459661e-06   4.464620858959706e-07   -5.865923107282039e-06
-5.923255507459661e-06   4.464620858959706e-07   -5.865923107282039e-06
-5.923255507459661e-06   4.464620858959706e-07   -5.865923107282039e-06
-5.923255507459661e-06   4.464620858959706e-07   -5.865923107282039e-06
-3.1025937656346397e-06   2.609593503535531e-07   -1.0455724368998283e-05
-3.1025937656346397e-06   2.609593503535531e-07   -1.0455724368998283e-05
-3.1025937656346397e-06   2.609593503535531e-07   -1.0455724368998283e-05
-3.1025937656346397e-06   2.609593503535531e-07   -1.0455724368998283e-05
-5.923255507459661e-06   3.9590915591081893e-07   -1.5107158828617023e-05
-5.923255507459661e-06   3.9590915591081893e-07   -1.5107158828617023e-05
-5.923255507459661e-06   3.9590915591081893e-07   -1.5107158828617023e-05
-5.923255507459661e-06   3.9590915591081893e-07   -1.5107158828617023e-05
-3.7851407465867704e-07   4.464620858959977e-07   -5.83559134929092e-06
-3.7851407465867704e-07   4.464620858959977e-07   -5.83559134929092e-06
-3.7851407465867704e-07   4.464620858959977e-07   -5.83559134929092e-06
-3.7851407465867704e-07   4.464620858959977e-07   -5.83559134929092e-06
-4.1597996300512833e-07   8.192566130196181e-07   -1.5115832261265201e-05
-4.1597996300512833e-07   8.192566130196181e-07   -1.5115832261265201e-05
-4.1597996300512833e-07   8.192566130196181e-07   -1.5115832261265201e-05
-4.1597996300512833e-07   8.192566130196181e-07   -1.5115832261265201e-05
-5.965702794974921e-06   8.402241626257433e-07   -5.878874737745942e-06
-5.965702794974921e-06   8.402241626257433e-07   -5.878874737745942e-06
-5.965702794974921e-06   8.402241626257433e-07   -5.878874737745942e-06
-5.965702794974921e-06   8.402241626257433e-07   -5.878874737745942e-06
-3.172890786161575e-06   6.09446832061742e-07   -1.0395095020763025e-05
-3.172890786161575e-06   6.09446832061742e-07   -1.0395095020763025e-05
-3.172890786161575e-06   6.09446832061742e-07   -1.0395095020763025e-05
-3.172890786161575e-06   6.09446832061742e-07   -1.0395095020763025e-05
-5.965702794974921e-06   8.192566130196046e-07   -1.51284127910289e-05
-5.965702794974921e-06   8.192566130196046e-07   -1.51284127910289e-05
-5.965702794974921e-06   8.192566130196046e-07   -1.51284127910289e-05
-5.965702794974921e-06   8.192566130196046e-07   -1.51284127910289e-05
-4.1597996300512896e-07   8.402241626257433e-07   -5.866294207982203e-06
-4.1597996300512896e-07   8.402241626257433e-07   -5.866294207982203e-06
-4.1597996300512896e-07   8.402241626257433e-07   -5.866294207982203e-06
-4.1597996300512896e-07   8.402241626257433e-07   -5.866294207982203e-06
-4.769547920127467e-07   1.2600105589828447e-06   -1.5309630650366292e-05
-4.769547920127467e-07   1.2600105589828447e-06   -1.5309630650366292e-05
-4.769547920127467e-07   1.2600105589828447e-06   -1.5309630650366292e-05
-4.769547920127467e-07   1.2600105589828447e-06   -1.5309630650366292e-05
-6.022001540328768e-06   1.243017216558069e-06   -6.057690064384798e-06
-6.022001540328768e-06   1.243017216558069e-06   -6.057690064384798e-06
-6.022001540328768e-06   1.243017216558069e-06   -6.057690064384798e-06
-6.022001540328768e-06   1.243017216558069e-06   -6.057690064384798e-06
-3.247776758873273e-06   9.620852737185557e-07   -1.051283886777349e-05
-3.247776758873273e-06   9.620852737185557e-07   -1.051283886777349e-05
-3.247776758873273e-06   9.620852737185557e-07   -1.051283886777349e-05
-3.247776758873273e-06   9.620852737185557e-07   -1.051283886777349e-05
-3.2488279586575556e-07   -1.2004528000125476e-06   -1.3593567785660356e-05
-3.2488279586575556e-07   -1.2004528000125476e-06   -1.3593567785660356e-05
-3.2488279586575556e-07   -1.2004528000125476e-06   -1.3593567785660356e-05
-3.2488279586575556e-07   -1.2004528000125476e-06   -1.3593567785660356e-05
5.170879140066118e-06   -7.98390208785573e-07   -4.1927270043710816e-06
5.170879140066118e-06   -7.98390208785573e-07   -4.1927270043710816e-06
5.170879140066118e-06   -7.98390208785573e-07   -4.1927270043710816e-06
5.170879140066118e-06   -7.98390208785573e-07   -4.1927270043710816e-06
5.170590564669781e-06   -8.054582417791608e-07   -1.3430580948332984e-05
5.170590564669781e-06   -8.054582417791608e-07   -1.3430580948332984e-05
5.170590564669781e-06   -8.054582417791608e-07   -1.3430580948332984e-05
5.170590564669781e-06   -8.054582417791608e-07   -1.3430580948332984e-05
-3.7851407465867704e-07   -4.349079221582482e-07   -4.404403407891422e-06
-3.7851407465867704e-07   -4.349079221582482e-07   -4.404403407891422e-06
-3.7851407465867704e-07   -4.349079221582482e-07   -4.404403407891422e-06
-3.7851407465867704e-07   -4.349079221582482e-07   -4.404403407891422e-06
2.3916638129486455e-06   -7.804940690858849e-07   -8.814014865747041e-06
2.3916638129486455e-06   -7.804940690858849e-07   -8.814014865747041e-06
2.3916638129486455e-06   -7.804940690858849e-07   -8.814014865747041e-06
2.3916638129486455e-06   -7.804940690858849e-07   -8.814014865747041e-06
-3.7851407465867704e-07   -8.054582417791608e-07   -1.3652911140105507e-05
-3.7851407465867704e-07   -8.054582417791608e-07   -1.3652911140105507e-05
-3.7851407465867704e-07   -8.054582417791608e-07   -1.3652911140105507e-05
-3.7851407465867704e-07   -8.054582417791608e-07   -1.3652911140105507e-05
5.170590564669781e-06   -4.349079221582482e-07   -4.182073216118845e-06
5.170590564669781e-06   -4.349079221582482e-07   -4.182073216118845e-06
5.170590564669781e-06   -4.349079221582482e-07   -4.182073216118845e-06
5.170590564669781e-06   -4.349079221582482e-07   -4.182073216118845e-06
5.2005358467657434e-06   -4.1952806962440223e-07   -1.3780769621952506e-05
5.2005358467657434e-06   -4.1952806962440223e-07   -1.3780769621952506e-05
5.2005358467657434e-06   -4.1952806962440223e-07   -1.3780769621952506e-05
5.2005358467657434e-06   -4.1952806962440223e-07   -1.3780769621952506e-05
-4.159799630051298e-07   -7.90865028000914e-08   -4.62417487909567e-06
-4.159799630051298e-07   -7.90865028000914e-08   -4.62417487909567e-06
-4.159799630051298e-07   -7.90865028000914e-08   -4.62417487909567e-06
-4.159799630051298e-07   -7.90865028000914e-08   -4.62417487909567e-06
2.3198023657336718e-06   -4.656848896857123e-07   -8.951853061528907e-06
2.3198023657336718e-06   -4.656848896857123e-07   -8.951853061528907e-06
2.3198023657336718e-06   -4.656848896857123e-07   -8.951853061528907e-06
2.3198023657336718e-06   -4.656848896857123e-07   -8.951853061528907e-06
-4.1597996300512875e-07   -4.195280696243887e-07   -1.3985034562047013e-05
-4.1597996300512875e-07   -4.195280696243887e-07   -1.3985034562047013e-05
-4.1597996300512875e-07   -4.195280696243887e-07   -1.3985034562047013e-05
-4.1597996300512875e-07   -4.195280696243887e-07   -1.3985034562047013e-05
5.2005358467657434e-06   -7.90865028000914e-08   -4.419909939001033e-06
5.2005358467657434e-06   -7.90865028000914e-08   -4.419909939001033e-06
5.2005358467657434e-06   -7.90865028000914e-08   -4.419909939001033e-06
5.2005358467657434e-06   -7.90865028000914e-08   -4.419909939001033e-06
5.164818844872974e-06   5.65882050082068e-08   -1.4182493004868362e-05
5.164818844872974e-06   5.65882050082068e-08   -1.4182493004868362e-05
5.164818844872974e-06   5.65882050082068e-08   -1.4182493004868362e-05
5.164818844872974e-06   5.65882050082068e-08   -1.4182493004868362e-05
-4.769547920127476e-07   3.355384874524799e-07   -4.946907112858752e-06
-4.769547920127476e-07   3.355384874524799e-07   -4.946907112858752e-06
-4.769547920127476e-07   3.355384874524799e-07   -4.946907112858752e-06
-4.769547920127476e-07   3.355384874524799e-07   -4.946907112858752e-06
2.2966624085984503e-06   -1.3002687817171297e-07   -9.29026322783617e-06
2.2966624085984503e-06   -1.3002687817171297e-07   -9.29026322783617e-06
2.2966624085984503e-06   -1.3002687817171297e-07   -9.29026322783617e-06
2.2966624085984503e-06   -1.3002687817171297e-07   -9.29026322783617e-06
5.170879140066108e-06   -2.2237473078025766e-06   -7.5868322203537315e-06
5.170879140066108e-06   -2.2237473078025766e-06   -7.5868322203537315e-06
5.170879140066108e-06   -2.2237473078025766e-06   -7.5868322203537315e-06
5.170879140066108e-06   -2.2237473078025766e-06   -7.5868322203537315e-06
1.0287566734951942e-05   -1.4379669575671512e-06   1.4124486479306073e-06
1.0287566734951942e-05   -1.4379669575671512e-06   1.4124486479306073e-06
1.0287566734951942e-05   -1.4379669575671512e-06   1.4124486479306073e-06
1.0287566734951942e-05   -1.4379669575671512e-06   1.4124486479306073e-06
1.0648962627263475e-05   -2.009936898506639e-06   -8.505294330323068e-06
1.0648962627263475e-05   -2.009936898506639e-06   -8.505294330323068e-06
1.0648962627263475e-05   -2.009936898506639e-06   -8.505294330323068e-06
1.0648962627263475e-05   -2.009936898506639e-06   -8.505294330323068e-06
5.170590564669771e-06   -1.2260250453781298e-06   1.5497866212268774e-07
5.170590564669771e-06   -1.2260250453781298e-06   1.5497866212268774e-07
5.170590564669771e-06   -1.2260250453781298e-06   1.5497866212268774e-07
5.170590564669771e-06   -1.2260250453781298e-06   1.5497866212268774e-07
7.485563260880126e-06   -1.7034560203938712e-06   -3.41685057988514e-06
7.485563260880126e-06   -1.7034560203938712e-06   -3.41685057988514e-06
7.485563260880126e-06   -1.7034560203938712e-06   -3.41685057988514e-06
7.485563260880126e-06   -1.7034560203938712e-06   -3.41685057988514e-06
5.170590564669768e-06   -2.009936898506639e-06   -8.975641442200145e-06
5.170590564669768e-06   -2.009936898506639e-06   -8.975641442200145e-06
5.170590564669768e-06   -2.009936898506639e-06   -8.975641442200145e-06
5.170590564669768e-06   -2.009936898506639e-06   -8.975641442200145e-06
1.0648962627263475e-05   -1.2260250453781298e-06   6.25325773999819e-07
1.0648962627263475e-05   -1.2260250453781298e-06   6.25325773999819e-07
1.0648962627263475e-05   -1.2260250453781298e-06   6.25325773999819e-07
1.0648962627263475e-05   -1.2260250453781298e-06   6.25325773999819e-07
1.0929545252254801e-05   -1.788048056289163e-06   -9.583797236223926e-06
1.0929545252254801e-05   -1.788048056289163e-06   -9.583797236223926e-06
1.0929545252254801e-05   -1.788048056289163e-06   -9.583797236223926e-06
1.0929545252254801e-05   -1.788048056289163e-06   -9.583797236223926e-06
5.200535846765723e-06   -1.0471075341136448e-06   -4.800125403808318e-07
5.200535846765723e-06   -1.0471075341136448e-06   -4.800125403808318e-07
5.200535846765723e-06   -1.0471075341136448e-06   -4.800125403808318e-07
5.200535846765723e-06   -1.0471075341136448e-06   -4.800125403808318e-07
7.748099958029546e-06   -1.5669891101045223e-06   -4.414023780225966e-06
7.748099958029546e-06   -1.5669891101045223e-06   -4.414023780225966e-06
7.748099958029546e-06   -1.5669891101045223e-06   -4.414023780225966e-06
7.748099958029546e-06   -1.5669891101045223e-06   -4.414023780225966e-06
5.200535846765733e-06   -1.788048056289163e-06   -1.0028361549529234e-05
5.200535846765733e-06   -1.788048056289163e-06   -1.0028361549529234e-05
5.200535846765733e-06   -1.788048056289163e-06   -1.0028361549529234e-05
5.200535846765733e-06   -1.788048056289163e-06   -1.0028361549529234e-05
1.0929545252254774e-05   -1.0471075341136448e-06   -3.544822707547343e-08
1.0929545252254774e-05   -1.0471075341136448e-06   -3.544822707547343e-08
1.0929545252254774e-05   -1.0471075341136448e-06   -3.544822707547343e-08
1.0929545252254774e-05   -1.0471075341136448e-06   -3.544822707547343e-08
1.123093722329125e-05   -1.311229355603074e-06   -1.1425325754901874e-05
1.123093722329125e-05   -1.311229355603074e-06   -1.1425325754901874e-05
1.123093722329125e-05   -1.311229355603074e-06   -1.1425325754901874e-05
1.123093722329125e-05   -1.311229355603074e-06   -1.1425325754901874e-05
5.164818844872953e-06   -6.672165701374869e-07   -1.7015361288174642e-06
5.164818844872953e-06   -6.672165701374869e-07   -1.7015361288174642e-06
5.164818844872953e-06   -6.672165701374869e-07   -1.7015361288174642e-06
5.164818844872953e-06   -6.672165701374869e-07   -1.7015361288174642e-06
7.723484954572189e-06   -1.346410042489082e-06   -5.558463561571856e-06
7.723484954572189e-06   -1.346410042489082e-06   -5.558463561571856e-06
7.723484954572189e-06   -1.346410042489082e-06   -5.558463561571856e-06
7.723484954572189e-06   -1.346410042489082e-06   -5.558463561571856e-06
-1.2415305506089321e-05   1.909223187908772e-06   -9.51010520763329e-06
-1.2415305506089321e-05   1.909223187908772e-06   -9.51010520763329e-06
-1.2415305506089321e-05   1.909223187908772e-06   -9.51010520763329e-06
-1.2415305506089321e-05   1.909223187908772e-06   -9.51010520763329e-06
-8.492295479210177e-06   1.205013833162859e-06   -3.39428077568225e-06
-8.492295479210177e-06   1.205013833162859e-06   -3.39428077568225e-06
-8.492295479210177e-06   1.205013833162859e-06   -3.39428077568225e-06
-8.492295479210177e-06   1.205013833162859e-06   -3.39428077568225e-06
-8.460620176551285e-06   2.315083990708615e-06   -8.081097147365923e-06
-8.460620176551285e-06   2.315083990708615e-06   -8.081097147365923e-06
-8.460620176551285e-06   2.315083990708615e-06   -8.081097147365923e-06
-8.460620176551285e-06   2.315083990708615e-06   -8.081097147365923e-06
-1.2034715898768435e-05   1.5388013881193147e-06   -1.6585013821170612e-06
-1.2034715898768435e-05   1.5388013881193147e-06   -1.6585013821170612e-06
-1.2034715898768435e-05   1.5388013881193147e-06   -1.6585013821170612e-06
-1.2034715898768435e-05   1.5388013881193147e-06   -1.6585013821170612e-06
-9.911368398781072e-06   1.8402312991447367e-06   -5.378271828711275e-06
-9.911368398781072e-06   1.8402312991447367e-06   -5.378271828711275e-06
-9.911368398781072e-06   1.8402312991447367e-06   -5.378271828711275e-06
-9.911368398781072e-06   1.8402312991447367e-06   -5.378271828711275e-06
-1.2034715898768435e-05   2.315083990708615e-06   -7.615327585812332e-06
-1.2034715898768435e-05   2.315083990708615e-06   -7.615327585812332e-06
-1.2034715898768435e-05   2.315083990708615e-06   -7.615327585812332e-06
-1.2034715898768435e-05   2.315083990708615e-06   -7.615327585812332e-06
-8.460620176551298e-06   1.5388013881193147e-06   -2.12427094367067e-06
-8.460620176551298e-06   1.5388013881193147e-06   -2.12427094367067e-06
-8.460620176551298e-06   1.5388013881193147e-06   -2.12427094367067e-06
-8.460620176551298e-06   1.5388013881193147e-06   -2.12427094367067e-06
-8.395941479796383e-06   2.4943560166715403e-06   -7.047376139488685e-06
-8.395941479796383e-06   2.4943560166715403e-06   -7.047376139488685e-06
-8.395941479796383e-06   2.4943560166715403e-06   -7.047376139488685e-06
-8.395941479796383e-06   2.4943560166715403e-06   -7.047376139488685e-06
-1.1751846113339741e-05   1.6956607257212497e-06   -9.749845756795792e-07
-1.1751846113339741e-05   1.6956607257212497e-06   -9.749845756795792e-07
-1.1751846113339741e-05   1.6956607257212497e-06   -9.749845756795792e-07
-1.1751846113339741e-05   1.6956607257212497e-06   -9.749845756795792e-07
-9.908877215778733e-06   2.0267587825606524e-06   -4.2452582390516e-06
-9.908877215778733e-06   2.0267587825606524e-06   -4.2452582390516e-06
-9.908877215778733e-06   2.0267587825606524e-06   -4.2452582390516e-06
-9.908877215778733e-06   2.0267587825606524e-06   -4.2452582390516e-06
-1.1751846113339741e-05   2.4943560166715403e-06   -6.5681589649185215e-06
-1.1751846113339741e-05   2.4943560166715403e-06   -6.5681589649185215e-06
-1.1751846113339741e-05   2.4943560166715403e-06   -6.5681589649185215e-06
-1.1751846113339741e-05   2.4943560166715403e-06   -6.5681589649185215e-06
-8.39594147979639e-06   1.6956607257212497e-06   -1.4542017502497445e-06
-8.39594147979639e-06   1.6956607257212497e-06   -1.4542017502497445e-06
-8.39594147979639e-06   1.6956607257212497e-06   -1.4542017502497445e-06
-8.39594147979639e-06   1.6956607257212497e-06   -1.4542017502497445e-06
-8.371115608658705e-06   2.6739491406892408e-06   -5.621433520669591e-06
-8.371115608658705e-06   2.6739491406892408e-06   -5.621433520669591e-06
-8.371115608658705e-06   2.6739491406892408e-06   -5.621433520669591e-06
-8.371115608658705e-06   2.6739491406892408e-06   -5.621433520669591e-06
-1.1383630518831884e-05   1.8949665383910497e-06   -1.331857756686728e-07
-1.1383630518831884e-05   1.8949665383910497e-06   -1.331857756686728e-07
-1.1383630518831884e-05   1.8949665383910497e-06   -1.331857756686728e-07
-1.1383630518831884e-05   1.8949665383910497e-06   -1.331857756686728e-07
-9.614105452988287e-06   2.1303809821907906e-06   -3.2236428850212118e-06
-9.614105452988287e-06   2.1303809821907906e-06   -3.2236428850212118e-06
-9.614105452988287e-06   2.1303809821907906e-06   -3.2236428850212118e-06
-9.614105452988287e-06   2.1303809821907906e-06   -3.2236428850212118e-06
-8.492295479210163e-06   9.55816899484086e-07   -1.2203228958454902e-05
-8.492295479210163e-06   9.55816899484086e-07   -1.2203228958454902e-05
-8.492295479210163e-06   9.55816899484086e-07   -1.2203228958454902e-05
-8.492295479210163e-06   9.55816899484086e-07   -1.2203228958454902e-05
-4.924394346008741e-06   6.293591301481292e-07   -6.452601731387433e-06
-4.924394346008741e-06   6.293591301481292e-07   -6.452601731387433e-06
-4.924394346008741e-06   6.293591301481292e-07   -6.452601731387433e-06
-4.924394346008741e-06   6.293591301481292e-07   -6.452601731387433e-06
-4.927160481582608e-06   1.3557915662105037e-06   -1.2095182744954313e-05
-4.927160481582608e-06   1.3557915662105037e-06   -1.2095182744954313e-05
-4.927160481582608e-06   1.3557915662105037e-06   -1.2095182744954313e-05
-4.927160481582608e-06   1.3557915662105037e-06   -1.2095182744954313e-05
-8.460620176551285e-06   9.826677479350557e-07   -5.982208962374569e-06
-8.460620176551285e-06   9.826677479350557e-07   -5.982208962374569e-06
-8.460620176551285e-06   9.826677479350557e-07   -5.982208962374569e-06
-8.460620176551285e-06   9.826677479350557e-07   -5.982208962374569e-06
-6.639017488451876e-06   1.0494247109185705e-06   -9.058267620330377e-06
-6.639017488451876e-06   1.0494247109185705e-06   -9.058267620330377e-06
-6.639017488451876e-06   1.0494247109185705e-06   -9.058267620330377e-06
-6.639017488451876e-06   1.0494247109185705e-06   -9.058267620330377e-06
-8.460620176551278e-06   1.3557915662105037e-06   -1.187130845398899e-05
-8.460620176551278e-06   1.3557915662105037e-06   -1.187130845398899e-05
-8.460620176551278e-06   1.3557915662105037e-06   -1.187130845398899e-05
-8.460620176551278e-06   1.3557915662105037e-06   -1.187130845398899e-05
-4.927160481582608e-06   9.826677479350557e-07   -6.206083253339838e-06
-4.927160481582608e-06   9.826677479350557e-07   -6.206083253339838e-06
-4.927160481582608e-06   9.826677479350557e-07   -6.206083253339838e-06
-4.927160481582608e-06   9.826677479350557e-07   -6.206083253339838e-06
-4.924067674419141e-06   1.7123445877015666e-06   -1.1824438873801816e-05
-4.924067674419141e-06   1.7123445877015666e-06   -1.1824438873801816e-05
-4.924067674419141e-06   1.7123445877015666e-06   -1.1824438873801816e-05
-4.924067674419141e-06   1.7123445877015666e-06   -1.1824438873801816e-05
-8.395941479796383e-06   1.3054930844469729e-06   -5.793871629553639e-06
-8.395941479796383e-06   1.3054930844469729e-06   -5.793871629553639e-06
-8.395941479796383e-06   1.3054930844469729e-06   -5.793871629553639e-06
-8.395941479796383e-06   1.3054930844469729e-06   -5.793871629553639e-06
-6.608714609702682e-06   1.3408224054939225e-06   -8.793780672337913e-06
-6.608714609702682e-06   1.3408224054939225e-06   -8.793780672337913e-06
-6.608714609702682e-06   1.3408224054939225e-06   -8.793780672337913e-06
-6.608714609702682e-06   1.3408224054939225e-06   -8.793780672337913e-06
-8.395941479796383e-06   1.7123445877015666e-06   -1.1580327971849041e-05
-8.395941479796383e-06   1.7123445877015666e-06   -1.1580327971849041e-05
-8.395941479796383e-06   1.7123445877015666e-06   -1.1580327971849041e-05
-8.395941479796383e-06   1.7123445877015666e-06   -1.1580327971849041e-05
-4.924067674419151e-06   1.3054930844469729e-06   -6.037982531506381e-06
-4.924067674419151e-06   1.3054930844469729e-06   -6.037982531506381e-06
-4.924067674419151e-06   1.3054930844469729e-06   -6.037982531506381e-06
-4.924067674419151e-06   1.3054930844469729e-06   -6.037982531506381e-06
-4.928821690597793e-06   2.0929072793185476e-06   -1.1872564757083503e-05
-4.928821690597793e-06   2.0929072793185476e-06   -1.1872564757083503e-05
-4.928821690597793e-06   2.0929072793185476e-06   -1.1872564757083503e-05
-4.928821690597793e-06   2.0929072793185476e-06   -1.1872564757083503e-05
-8.371115608658712e-06   1.6575168336108897e-06   -5.874173959557349e-06
-8.371115608658712e-06   1.6575168336108897e-06   -5.874173959557349e-06
-8.371115608658712e-06   1.6575168336108897e-06   -5.874173959557349e-06
-8.371115608658712e-06   1.6575168336108897e-06   -5.874173959557349e-06
-6.652089718174825e-06   1.63050675964176e-06   -8.723011065982323e-06
-6.652089718174825e-06   1.63050675964176e-06   -8.723011065982323e-06
-6.652089718174825e-06   1.63050675964176e-06   -8.723011065982323e-06
-6.652089718174825e-06   1.63050675964176e-06   -8.723011065982323e-06
-4.924394346008731e-06   5.163696079724762e-08   -1.3485945815451089e-05
-4.924394346008731e-06   5.163696079724762e-08   -1.3485945815451089e-05
-4.924394346008731e-06   5.163696079724762e-08   -1.3485945815451089e-05
-4.924394346008731e-06   5.163696079724762e-08   -1.3485945815451089e-05
-1.4002166247805168e-06   1.1231904597526878e-07   -7.575907028963948e-06
-1.4002166247805168e-06   1.1231904597526878e-07   -7.575907028963948e-06
-1.4002166247805168e-06   1.1231904597526878e-07   -7.575907028963948e-06
-1.4002166247805168e-06   1.1231904597526878e-07   -7.575907028963948e-06
-1.4035064075571508e-06   4.464620858959706e-07   -1.3332652878388654e-05
-1.4035064075571508e-06   4.464620858959706e-07   -1.3332652878388654e-05
-1.4035064075571508e-06   4.464620858959706e-07   -1.3332652878388654e-05
-1.4035064075571508e-06   4.464620858959706e-07   -1.3332652878388654e-05
-4.927160481582601e-06   4.689438886989138e-07   -7.473385170028021e-06
-4.927160481582601e-06   4.689438886989138e-07   -7.473385170028021e-06
-4.927160481582601e-06   4.689438886989138e-07   -7.473385170028021e-06
-4.927160481582601e-06   4.689438886989138e-07   -7.473385170028021e-06
-3.142474990754872e-06   3.171397874873619e-07   -1.0356778527347272e-05
-3.142474990754872e-06   3.171397874873619e-07   -1.0356778527347272e-05
-3.142474990754872e-06   3.171397874873619e-07   -1.0356778527347272e-05
-3.142474990754872e-06   3.171397874873619e-07   -1.0356778527347272e-05
-4.927160481582601e-06   4.464620858959706e-07   -1.3346141960070425e-05
-4.927160481582601e-06   4.464620858959706e-07   -1.3346141960070425e-05
-4.927160481582601e-06   4.464620858959706e-07   -1.3346141960070425e-05
-4.927160481582601e-06   4.464620858959706e-07   -1.3346141960070425e-05
-1.4035064075571508e-06   4.689438886989138e-07   -7.45989608834625e-06
-1.4035064075571508e-06   4.689438886989138e-07   -7.45989608834625e-06
-1.4035064075571508e-06   4.689438886989138e-07   -7.45989608834625e-06
-1.4035064075571508e-06   4.689438886989138e-07   -7.45989608834625e-06
-1.399268951511006e-06   8.402241626257433e-07   -1.3364866305989729e-05
-1.399268951511006e-06   8.402241626257433e-07   -1.3364866305989729e-05
-1.399268951511006e-06   8.402241626257433e-07   -1.3364866305989729e-05
-1.399268951511006e-06   8.402241626257433e-07   -1.3364866305989729e-05
-4.924067674419141e-06   8.267308404354742e-07   -7.482105774495364e-06
-4.924067674419141e-06   8.267308404354742e-07   -7.482105774495364e-06
-4.924067674419141e-06   8.267308404354742e-07   -7.482105774495364e-06
-4.924067674419141e-06   8.267308404354742e-07   -7.482105774495364e-06
-3.1639970678915807e-06   6.299127008413744e-07   -1.0297465901618161e-05
-3.1639970678915807e-06   6.299127008413744e-07   -1.0297465901618161e-05
-3.1639970678915807e-06   6.299127008413744e-07   -1.0297465901618161e-05
-3.1639970678915807e-06   6.299127008413744e-07   -1.0297465901618161e-05
-4.924067674419141e-06   8.402241626257433e-07   -1.335677031267557e-05
-4.924067674419141e-06   8.402241626257433e-07   -1.335677031267557e-05
-4.924067674419141e-06   8.402241626257433e-07   -1.335677031267557e-05
-4.924067674419141e-06   8.402241626257433e-07   -1.335677031267557e-05
-1.3992689515110086e-06   8.267308404354742e-07   -7.490201767809489e-06
-1.3992689515110086e-06   8.267308404354742e-07   -7.490201767809489e-06
-1.3992689515110086e-06   8.267308404354742e-07   -7.490201767809489e-06
-1.3992689515110086e-06   8.267308404354742e-07   -7.490201767809489e-06
-1.401682229312212e-06   1.243017216558096e-06   -1.356650257940653e-05
-1.401682229312212e-06   1.243017216558096e-06   -1.356650257940653e-05
-1.401682229312212e-06   1.243017216558096e-06   -1.356650257940653e-05
-1.401682229312212e-06   1.243017216558096e-06   -1.356650257940653e-05
-4.92882169059779e-06   1.1907725454126045e-06   -7.656590007909854e-06
-4.92882169059779e-06   1.1907725454126045e-06   -7.656590007909854e-06
-4.92882169059779e-06   1.1907725454126045e-06   -7.656590007909854e-06
-4.92882169059779e-06   1.1907725454126045e-06   -7.656590007909854e-06
-3.1916609590719993e-06   9.468049317781465e-07   -1.0405477325605527e-05
-3.1916609590719993e-06   9.468049317781465e-07   -1.0405477325605527e-05
-3.1916609590719993e-06   9.468049317781465e-07   -1.0405477325605527e-05
-3.1916609590719993e-06   9.468049317781465e-07   -1.0405477325605527e-05
-1.4002166247805145e-06   -7.983902087855459e-07   -1.1931701603667638e-05
-1.4002166247805145e-06   -7.983902087855459e-07   -1.1931701603667638e-05
-1.4002166247805145e-06   -7.983902087855459e-07   -1.1931701603667638e-05
-1.4002166247805145e-06   -7.983902087855459e-07   -1.1931701603667638e-05
2.0636145607453148e-06   -3.5942478804218566e-07   -5.895270375345251e-06
2.0636145607453148e-06   -3.5942478804218566e-07   -5.895270375345251e-06
2.0636145607453148e-06   -3.5942478804218566e-07   -5.895270375345251e-06
2.0636145607453148e-06   -3.5942478804218566e-07   -5.895270375345251e-06
2.0915713284291236e-06   -4.349079221582482e-07   -1.1653783793126842e-05
2.0915713284291236e-06   -4.349079221582482e-07   -1.1653783793126842e-05
2.0915713284291236e-06   -4.349079221582482e-07   -1.1653783793126842e-05
2.0915713284291236e-06   -4.349079221582482e-07   -1.1653783793126842e-05
-1.4035064075571508e-06   -2.2106015721098287e-08   -6.076335377012009e-06
-1.4035064075571508e-06   -2.2106015721098287e-08   -6.076335377012009e-06
-1.4035064075571508e-06   -2.2106015721098287e-08   -6.076335377012009e-06
-1.4035064075571508e-06   -2.2106015721098287e-08   -6.076335377012009e-06
3.4115863206923656e-07   -3.724988907016205e-07   -8.773874718067678e-06
3.4115863206923656e-07   -3.724988907016205e-07   -8.773874718067678e-06
3.4115863206923656e-07   -3.724988907016205e-07   -8.773874718067678e-06
3.4115863206923656e-07   -3.724988907016205e-07   -8.773874718067678e-06
-1.4035064075571508e-06   -4.349079221582482e-07   -1.190146493698913e-05
-1.4035064075571508e-06   -4.349079221582482e-07   -1.190146493698913e-05
-1.4035064075571508e-06   -4.349079221582482e-07   -1.190146493698913e-05
-1.4035064075571508e-06   -4.349079221582482e-07   -1.190146493698913e-05
2.0915713284291304e-06   -2.2106015721098287e-08   -5.82865423314971e-06
2.0915713284291304e-06   -2.2106015721098287e-08   -5.82865423314971e-06
2.0915713284291304e-06   -2.2106015721098287e-08   -5.82865423314971e-06
2.0915713284291304e-06   -2.2106015721098287e-08   -5.82865423314971e-06
2.159740187887356e-06   -7.908650280011851e-08   -1.1894636182299337e-05
2.159740187887356e-06   -7.908650280011851e-08   -1.1894636182299337e-05
2.159740187887356e-06   -7.908650280011851e-08   -1.1894636182299337e-05
2.159740187887356e-06   -7.908650280011851e-08   -1.1894636182299337e-05
-1.3992689515110086e-06   3.010981552061811e-07   -6.191065078105834e-06
-1.3992689515110086e-06   3.010981552061811e-07   -6.191065078105834e-06
-1.3992689515110086e-06   3.010981552061811e-07   -6.191065078105834e-06
-1.3992689515110086e-06   3.010981552061811e-07   -6.191065078105834e-06
3.206139550664549e-07   -9.15762082970284e-08   -8.821931970966379e-06
3.206139550664549e-07   -9.15762082970284e-08   -8.821931970966379e-06
3.206139550664549e-07   -9.15762082970284e-08   -8.821931970966379e-06
3.206139550664549e-07   -9.15762082970284e-08   -8.821931970966379e-06
-1.3992689515110074e-06   -7.908650280011851e-08   -1.2122746977103087e-05
-1.3992689515110074e-06   -7.908650280011851e-08   -1.2122746977103087e-05
-1.3992689515110074e-06   -7.908650280011851e-08   -1.2122746977103087e-05
-1.3992689515110074e-06   -7.908650280011851e-08   -1.2122746977103087e-05
2.1597401878873628e-06   3.010981552061811e-07   -5.962954283302046e-06
2.1597401878873628e-06   3.010981552061811e-07   -5.962954283302046e-06
2.1597401878873628e-06   3.010981552061811e-07   -5.962954283302046e-06
2.1597401878873628e-06   3.010981552061811e-07   -5.962954283302046e-06
2.1936831286054893e-06   3.355384874524528e-07   -1.2244803811041165e-05
2.1936831286054893e-06   3.355384874524528e-07   -1.2244803811041165e-05
2.1936831286054893e-06   3.355384874524528e-07   -1.2244803811041165e-05
2.1936831286054893e-06   3.355384874524528e-07   -1.2244803811041165e-05
-1.4016822293122094e-06   6.700715064264636e-07   -6.453248025896039e-06
-1.4016822293122094e-06   6.700715064264636e-07   -6.453248025896039e-06
-1.4016822293122094e-06   6.700715064264636e-07   -6.453248025896039e-06
-1.4016822293122094e-06   6.700715064264636e-07   -6.453248025896039e-06
3.3207896976919497e-07   2.0742340509457462e-07   -9.0652611635659e-06
3.3207896976919497e-07   2.0742340509457462e-07   -9.0652611635659e-06
3.3207896976919497e-07   2.0742340509457462e-07   -9.0652611635659e-06
3.3207896976919497e-07   2.0742340509457462e-07   -9.0652611635659e-06
2.0636145607453114e-06   -1.4379669575671512e-06   -6.534614909061199e-06
2.0636145607453114e-06   -1.4379669575671512e-06   -6.534614909061199e-06
2.0636145607453114e-06   -1.4379669575671512e-06   -6.534614909061199e-06
2.0636145607453114e-06   -1.4379669575671512e-06   -6.534614909061199e-06
5.106011997126039e-06   -6.523783747506597e-07   -9.925993654033983e-07
5.106011997126039e-06   -6.523783747506597e-07   -9.925993654033983e-07
5.106011997126039e-06   -6.523783747506597e-07   -9.925993654033983e-07
5.106011997126039e-06   -6.523783747506597e-07   -9.925993654033983e-07
5.479480572562762e-06   -1.2260250453781298e-06   -6.834362757568602e-06
5.479480572562762e-06   -1.2260250453781298e-06   -6.834362757568602e-06
5.479480572562762e-06   -1.2260250453781298e-06   -6.834362757568602e-06
5.479480572562762e-06   -1.2260250453781298e-06   -6.834362757568602e-06
2.091571328429127e-06   -4.2207644985030606e-07   -1.670216507995901e-06
2.091571328429127e-06   -4.2207644985030606e-07   -1.670216507995901e-06
2.091571328429127e-06   -4.2207644985030606e-07   -1.670216507995901e-06
2.091571328429127e-06   -4.2207644985030606e-07   -1.670216507995901e-06
3.528032177723306e-06   -9.053542393101322e-07   -3.774351249810306e-06
3.528032177723306e-06   -9.053542393101322e-07   -3.774351249810306e-06
3.528032177723306e-06   -9.053542393101322e-07   -3.774351249810306e-06
3.528032177723306e-06   -9.053542393101322e-07   -3.774351249810306e-06
2.0915713284291236e-06   -1.2260250453781298e-06   -7.316731914885235e-06
2.0915713284291236e-06   -1.2260250453781298e-06   -7.316731914885235e-06
2.0915713284291236e-06   -1.2260250453781298e-06   -7.316731914885235e-06
2.0915713284291236e-06   -1.2260250453781298e-06   -7.316731914885235e-06
5.479480572562742e-06   -4.2207644985033316e-07   -1.1878473506791933e-06
5.479480572562742e-06   -4.2207644985033316e-07   -1.1878473506791933e-06
5.479480572562742e-06   -4.2207644985033316e-07   -1.1878473506791933e-06
5.479480572562742e-06   -4.2207644985033316e-07   -1.1878473506791933e-06
5.768420609145518e-06   -1.0471075341136448e-06   -7.485302091785845e-06
5.768420609145518e-06   -1.0471075341136448e-06   -7.485302091785845e-06
5.768420609145518e-06   -1.0471075341136448e-06   -7.485302091785845e-06
5.768420609145518e-06   -1.0471075341136448e-06   -7.485302091785845e-06
2.1597401878873628e-06   -2.6471304762483395e-07   -1.940271414915518e-06
2.1597401878873628e-06   -2.6471304762483395e-07   -1.940271414915518e-06
2.1597401878873628e-06   -2.6471304762483395e-07   -1.940271414915518e-06
2.1597401878873628e-06   -2.6471304762483395e-07   -1.940271414915518e-06
3.7533466898022507e-06   -7.863489955378612e-07   -4.283300682692489e-06
3.7533466898022507e-06   -7.863489955378612e-07   -4.283300682692489e-06
3.7533466898022507e-06   -7.863489955378612e-07   -4.283300682692489e-06
3.7533466898022507e-06   -7.863489955378612e-07   -4.283300682692489e-06
2.1597401878873594e-06   -1.0471075341136448e-06   -7.954738783679115e-06
2.1597401878873594e-06   -1.0471075341136448e-06   -7.954738783679115e-06
2.1597401878873594e-06   -1.0471075341136448e-06   -7.954738783679115e-06
2.1597401878873594e-06   -1.0471075341136448e-06   -7.954738783679115e-06
5.768420609145504e-06   -2.6471304762486106e-07   -1.4708347230222001e-06
5.768420609145504e-06   -2.6471304762486106e-07   -1.4708347230222001e-06
5.768420609145504e-06   -2.6471304762486106e-07   -1.4708347230222001e-06
5.768420609145504e-06   -2.6471304762486106e-07   -1.4708347230222001e-06
6.154496806854596e-06   -6.672165701374869e-07   -8.741541982789604e-06
6.154496806854596e-06   -6.672165701374869e-07   -8.741541982789604e-06
6.154496806854596e-06   -6.672165701374869e-07   -8.741541982789604e-06
6.154496806854596e-06   -6.672165701374869e-07   -8.741541982789604e-06
2.1936831286054927e-06   4.155178599064618e-08   -2.565446866051256e-06
2.1936831286054927e-06   4.155178599064618e-08   -2.565446866051256e-06
2.1936831286054927e-06   4.155178599064618e-08   -2.565446866051256e-06
2.1936831286054927e-06   4.155178599064618e-08   -2.565446866051256e-06
3.8334214033792855e-06   -6.136727902962688e-07   -4.905209244902134e-06
3.8334214033792855e-06   -6.136727902962688e-07   -4.905209244902134e-06
3.8334214033792855e-06   -6.136727902962688e-07   -4.905209244902134e-06
3.8334214033792855e-06   -6.136727902962688e-07   -4.905209244902134e-06
-7.42714667604381e-06   1.205013833162859e-06   -7.019298936624324e-06
-7.42714667604381e-06   1.205013833162859e-06   -7.019298936624324e-06
-7.42714667604381e-06   1.205013833162859e-06   -7.019298936624324e-06
-7.42714667604381e-06   1.205013833162859e-06   -7.019298936624324e-06
-5.536007438152398e-06   4.822809664570228e-07   -4.301039926828775e-06
-5.536007438152398e-06   4.822809664570228e-07   -4.301039926828775e-06
-5.536007438152398e-06   4.822809664570228e-07   -4.301039926828775e-06
-5.536007438152398e-06   4.822809664570228e-07   -4.301039926828775e-06
-5.457467124299418e-06   1.5388013881193147e-06   -6.19262558030579e-06
-5.457467124299418e-06   1.5388013881193147e-06   -6.19262558030579e-06
-5.457467124299418e-06   1.5388013881193147e-06   -6.19262558030579e-06
-5.457467124299418e-06   1.5388013881193147e-06   -6.19262558030579e-06
-7.0171668279849295e-06   7.581680204097143e-07   -3.12474605353749e-06
-7.0171668279849295e-06   7.581680204097143e-07   -3.12474605353749e-06
-7.0171668279849295e-06   7.581680204097143e-07   -3.12474605353749e-06
-7.0171668279849295e-06   7.581680204097143e-07   -3.12474605353749e-06
-6.090169609963401e-06   1.0826429347723845e-06   -4.864426365524537e-06
-6.090169609963401e-06   1.0826429347723845e-06   -4.864426365524537e-06
-6.090169609963401e-06   1.0826429347723845e-06   -4.864426365524537e-06
-6.090169609963401e-06   1.0826429347723845e-06   -4.864426365524537e-06
-7.0171668279849295e-06   1.5388013881193147e-06   -5.72424555968004e-06
-7.0171668279849295e-06   1.5388013881193147e-06   -5.72424555968004e-06
-7.0171668279849295e-06   1.5388013881193147e-06   -5.72424555968004e-06
-7.0171668279849295e-06   1.5388013881193147e-06   -5.72424555968004e-06
-5.457467124299432e-06   7.581680204097143e-07   -3.593126074163219e-06
-5.457467124299432e-06   7.581680204097143e-07   -3.593126074163219e-06
-5.457467124299432e-06   7.581680204097143e-07   -3.593126074163219e-06
-5.457467124299432e-06   7.581680204097143e-07   -3.593126074163219e-06
-5.3444859219304076e-06   1.6956607257212497e-06   -5.528462829568269e-06
-5.3444859219304076e-06   1.6956607257212497e-06   -5.528462829568269e-06
-5.3444859219304076e-06   1.6956607257212497e-06   -5.528462829568269e-06
-5.3444859219304076e-06   1.6956607257212497e-06   -5.528462829568269e-06
-6.692725575246949e-06   8.991837696945091e-07   -2.8035105670912435e-06
-6.692725575246949e-06   8.991837696945091e-07   -2.8035105670912435e-06
-6.692725575246949e-06   8.991837696945091e-07   -2.8035105670912435e-06
-6.692725575246949e-06   8.991837696945091e-07   -2.8035105670912435e-06
-5.983470445790881e-06   1.2321724176612482e-06   -4.185395638298125e-06
-5.983470445790881e-06   1.2321724176612482e-06   -4.185395638298125e-06
-5.983470445790881e-06   1.2321724176612482e-06   -4.185395638298125e-06
-5.983470445790881e-06   1.2321724176612482e-06   -4.185395638298125e-06
-6.692725575246935e-06   1.6956607257212497e-06   -5.050576655952197e-06
-6.692725575246935e-06   1.6956607257212497e-06   -5.050576655952197e-06
-6.692725575246935e-06   1.6956607257212497e-06   -5.050576655952197e-06
-6.692725575246935e-06   1.6956607257212497e-06   -5.050576655952197e-06
-5.344485921930414e-06   8.991837696945091e-07   -3.2813967407073556e-06
-5.344485921930414e-06   8.991837696945091e-07   -3.2813967407073556e-06
-5.344485921930414e-06   8.991837696945091e-07   -3.2813967407073556e-06
-5.344485921930414e-06   8.991837696945091e-07   -3.2813967407073556e-06
-5.269835886173558e-06   1.8949665383910497e-06   -4.679938827944368e-06
-5.269835886173558e-06   1.8949665383910497e-06   -4.679938827944368e-06
-5.269835886173558e-06   1.8949665383910497e-06   -4.679938827944368e-06
-5.269835886173558e-06   1.8949665383910497e-06   -4.679938827944368e-06
-6.280227011306753e-06   1.1233577073240571e-06   -2.5329883207488035e-06
-6.280227011306753e-06   1.1233577073240571e-06   -2.5329883207488035e-06
-6.280227011306753e-06   1.1233577073240571e-06   -2.5329883207488035e-06
-6.280227011306753e-06   1.1233577073240571e-06   -2.5329883207488035e-06
-5.7056001843844105e-06   1.3383991933796661e-06   -3.6197245905862153e-06
-5.7056001843844105e-06   1.3383991933796661e-06   -3.6197245905862153e-06
-5.7056001843844105e-06   1.3383991933796661e-06   -3.6197245905862153e-06
-5.7056001843844105e-06   1.3383991933796661e-06   -3.6197245905862153e-06
-5.536007438152398e-06   6.293591301481292e-07   -1.0315384950751423e-05
-5.536007438152398e-06   6.293591301481292e-07   -1.0315384950751423e-05
-5.536007438152398e-06   6.293591301481292e-07   -1.0315384950751423e-05
-5.536007438152398e-06   6.293591301481292e-07   -1.0315384950751423e-05
-3.993058550957174e-06   2.8564660068801937e-07   -7.950030989768792e-06
-3.993058550957174e-06   2.8564660068801937e-07   -7.950030989768792e-06
-3.993058550957174e-06   2.8564660068801937e-07   -7.950030989768792e-06
-3.993058550957174e-06   2.8564660068801937e-07   -7.950030989768792e-06
-3.943620045177653e-06   9.826677479350557e-07   -1.0278435538596466e-05
-3.943620045177653e-06   9.826677479350557e-07   -1.0278435538596466e-05
-3.943620045177653e-06   9.826677479350557e-07   -1.0278435538596466e-05
-3.943620045177653e-06   9.826677479350557e-07   -1.0278435538596466e-05
-5.457467124299432e-06   6.02881181957038e-07   -7.5274851338066325e-06
-5.457467124299432e-06   6.02881181957038e-07   -7.5274851338066325e-06
-5.457467124299432e-06   6.02881181957038e-07   -7.5274851338066325e-06
-5.457467124299432e-06   6.02881181957038e-07   -7.5274851338066325e-06
-4.686323968836887e-06   6.882219135367993e-07   -8.863928165192287e-06
-4.686323968836887e-06   6.882219135367993e-07   -8.863928165192287e-06
-4.686323968836887e-06   6.882219135367993e-07   -8.863928165192287e-06
-4.686323968836887e-06   6.882219135367993e-07   -8.863928165192287e-06
-5.457467124299411e-06   9.826677479350557e-07   -1.0050563599009585e-05
-5.457467124299411e-06   9.826677479350557e-07   -1.0050563599009585e-05
-5.457467124299411e-06   9.826677479350557e-07   -1.0050563599009585e-05
-5.457467124299411e-06   9.826677479350557e-07   -1.0050563599009585e-05
-3.943620045177653e-06   6.02881181957038e-07   -7.755357073393473e-06
-3.943620045177653e-06   6.02881181957038e-07   -7.755357073393473e-06
-3.943620045177653e-06   6.02881181957038e-07   -7.755357073393473e-06
-3.943620045177653e-06   6.02881181957038e-07   -7.755357073393473e-06
-3.888748100661287e-06   1.3054930844469729e-06   -1.011189463325673e-05
-3.888748100661287e-06   1.3054930844469729e-06   -1.011189463325673e-05
-3.888748100661287e-06   1.3054930844469729e-06   -1.011189463325673e-05
-3.888748100661287e-06   1.3054930844469729e-06   -1.011189463325673e-05
-5.344485921930428e-06   8.992232104727349e-07   -7.44190300675692e-06
-5.344485921930428e-06   8.992232104727349e-07   -7.44190300675692e-06
-5.344485921930428e-06   8.992232104727349e-07   -7.44190300675692e-06
-5.344485921930428e-06   8.992232104727349e-07   -7.44190300675692e-06
-4.620271241493557e-06   9.462035237996344e-07   -8.677115662147732e-06
-4.620271241493557e-06   9.462035237996344e-07   -8.677115662147732e-06
-4.620271241493557e-06   9.462035237996344e-07   -8.677115662147732e-06
-4.620271241493557e-06   9.462035237996344e-07   -8.677115662147732e-06
-5.3444859219304076e-06   1.3054930844469729e-06   -9.868132708872138e-06
-5.3444859219304076e-06   1.3054930844469729e-06   -9.868132708872138e-06
-5.3444859219304076e-06   1.3054930844469729e-06   -9.868132708872138e-06
-5.3444859219304076e-06   1.3054930844469729e-06   -9.868132708872138e-06
-3.8887481006612804e-06   8.992232104726807e-07   -7.685664931141443e-06
-3.8887481006612804e-06   8.992232104726807e-07   -7.685664931141443e-06
-3.8887481006612804e-06   8.992232104726807e-07   -7.685664931141443e-06
-3.8887481006612804e-06   8.992232104726807e-07   -7.685664931141443e-06
-3.840723672050372e-06   1.6575168336108897e-06   -1.0210140563525445e-05
-3.840723672050372e-06   1.6575168336108897e-06   -1.0210140563525445e-05
-3.840723672050372e-06   1.6575168336108897e-06   -1.0210140563525445e-05
-3.840723672050372e-06   1.6575168336108897e-06   -1.0210140563525445e-05
-5.269835886173571e-06   1.2298449784920134e-06   -7.571683760248683e-06
-5.269835886173571e-06   1.2298449784920134e-06   -7.571683760248683e-06
-5.269835886173571e-06   1.2298449784920134e-06   -7.571683760248683e-06
-5.269835886173571e-06   1.2298449784920134e-06   -7.571683760248683e-06
-4.597102873626295e-06   1.208993070806407e-06   -8.68039430321625e-06
-4.597102873626295e-06   1.208993070806407e-06   -8.68039430321625e-06
-4.597102873626295e-06   1.208993070806407e-06   -8.68039430321625e-06
-4.597102873626295e-06   1.208993070806407e-06   -8.68039430321625e-06
-3.9930585509571605e-06   1.1231904597524167e-07   -1.1681327017110777e-05
-3.9930585509571605e-06   1.1231904597524167e-07   -1.1681327017110777e-05
-3.9930585509571605e-06   1.1231904597524167e-07   -1.1681327017110777e-05
-3.9930585509571605e-06   1.1231904597524167e-07   -1.1681327017110777e-05
-2.484106916419839e-06   1.6951859841638503e-07   -9.132087894750607e-06
-2.484106916419839e-06   1.6951859841638503e-07   -9.132087894750607e-06
-2.484106916419839e-06   1.6951859841638503e-07   -9.132087894750607e-06
-2.484106916419839e-06   1.6951859841638503e-07   -9.132087894750607e-06
-2.4364009471683967e-06   4.689438886989138e-07   -1.1530608699365427e-05
-2.4364009471683967e-06   4.689438886989138e-07   -1.1530608699365427e-05
-2.4364009471683967e-06   4.689438886989138e-07   -1.1530608699365427e-05
-2.4364009471683967e-06   4.689438886989138e-07   -1.1530608699365427e-05
-3.943620045177653e-06   4.941584818976075e-07   -9.033705625269152e-06
-3.943620045177653e-06   4.941584818976075e-07   -9.033705625269152e-06
-3.943620045177653e-06   4.941584818976075e-07   -9.033705625269152e-06
-3.943620045177653e-06   4.941584818976075e-07   -9.033705625269152e-06
-3.1935161866361015e-06   3.5730350316171347e-07   -1.0201765735597047e-05
-3.1935161866361015e-06   3.5730350316171347e-07   -1.0201765735597047e-05
-3.1935161866361015e-06   3.5730350316171347e-07   -1.0201765735597047e-05
-3.1935161866361015e-06   3.5730350316171347e-07   -1.0201765735597047e-05
-3.9436200451776495e-06   4.689438886988867e-07   -1.1545737455284649e-05
-3.9436200451776495e-06   4.689438886988867e-07   -1.1545737455284649e-05
-3.9436200451776495e-06   4.689438886988867e-07   -1.1545737455284649e-05
-3.9436200451776495e-06   4.689438886988867e-07   -1.1545737455284649e-05
-2.4364009471683967e-06   4.941584818976617e-07   -9.018576869349965e-06
-2.4364009471683967e-06   4.941584818976617e-07   -9.018576869349965e-06
-2.4364009471683967e-06   4.941584818976617e-07   -9.018576869349965e-06
-2.4364009471683967e-06   4.941584818976617e-07   -9.018576869349965e-06
-2.3818645348210035e-06   8.267308404354471e-07   -1.1559112998853834e-05
-2.3818645348210035e-06   8.267308404354471e-07   -1.1559112998853834e-05
-2.3818645348210035e-06   8.267308404354471e-07   -1.1559112998853834e-05
-2.3818645348210035e-06   8.267308404354471e-07   -1.1559112998853834e-05
-3.8887481006612804e-06   8.215723027551786e-07   -9.044545266511803e-06
-3.8887481006612804e-06   8.215723027551786e-07   -9.044545266511803e-06
-3.8887481006612804e-06   8.215723027551786e-07   -9.044545266511803e-06
-3.8887481006612804e-06   8.215723027551786e-07   -9.044545266511803e-06
-3.162952316902763e-06   6.372744863246751e-07   -1.0143626216251055e-05
-3.162952316902763e-06   6.372744863246751e-07   -1.0143626216251055e-05
-3.162952316902763e-06   6.372744863246751e-07   -1.0143626216251055e-05
-3.162952316902763e-06   6.372744863246751e-07   -1.0143626216251055e-05
-3.888748100661277e-06   8.267308404354471e-07   -1.1556017876245646e-05
-3.888748100661277e-06   8.267308404354471e-07   -1.1556017876245646e-05
-3.888748100661277e-06   8.267308404354471e-07   -1.1556017876245646e-05
-3.888748100661277e-06   8.267308404354471e-07   -1.1556017876245646e-05
-2.3818645348210078e-06   8.215723027551244e-07   -9.047640389120025e-06
-2.3818645348210078e-06   8.215723027551244e-07   -9.047640389120025e-06
-2.3818645348210078e-06   8.215723027551244e-07   -9.047640389120025e-06
-2.3818645348210078e-06   8.215723027551244e-07   -9.047640389120025e-06
-2.333116650103126e-06   1.1907725454126045e-06   -1.1753380727589898e-05
-2.333116650103126e-06   1.1907725454126045e-06   -1.1753380727589898e-05
-2.333116650103126e-06   1.1907725454126045e-06   -1.1753380727589898e-05
-2.333116650103126e-06   1.1907725454126045e-06   -1.1753380727589898e-05
-3.840723672050372e-06   1.1540085735184781e-06   -9.218643974541219e-06
-3.840723672050372e-06   1.1540085735184781e-06   -9.218643974541219e-06
-3.840723672050372e-06   1.1540085735184781e-06   -9.218643974541219e-06
-3.840723672050372e-06   1.1540085735184781e-06   -9.218643974541219e-06
-3.1385480133998013e-06   9.209927557415573e-07   -1.0249127248292811e-05
-3.1385480133998013e-06   9.209927557415573e-07   -1.0249127248292811e-05
-3.1385480133998013e-06   9.209927557415573e-07   -1.0249127248292811e-05
-3.1385480133998013e-06   9.209927557415573e-07   -1.0249127248292811e-05
-2.48410691641983e-06   -3.5942478804218566e-07   -1.0229749884473445e-05
-2.48410691641983e-06   -3.5942478804218566e-07   -1.0229749884473445e-05
-2.48410691641983e-06   -3.5942478804218566e-07   -1.0229749884473445e-05
-2.48410691641983e-06   -3.5942478804218566e-07   -1.0229749884473445e-05
-1.0312955533690345e-06   8.290475783759603e-08   -7.542999885194312e-06
-1.0312955533690345e-06   8.290475783759603e-08   -7.542999885194312e-06
-1.0312955533690345e-06   8.290475783759603e-08   -7.542999885194312e-06
-1.0312955533690345e-06   8.290475783759603e-08   -7.542999885194312e-06
-9.57944987525525e-07   -2.2106015721098287e-08   -9.894651314819932e-06
-9.57944987525525e-07   -2.2106015721098287e-08   -9.894651314819932e-06
-9.57944987525525e-07   -2.2106015721098287e-08   -9.894651314819932e-06
-9.57944987525525e-07   -2.2106015721098287e-08   -9.894651314819932e-06
-2.436400947168392e-06   3.9855510629765783e-07   -7.68295472195966e-06
-2.436400947168392e-06   3.9855510629765783e-07   -7.68295472195966e-06
-2.436400947168392e-06   3.9855510629765783e-07   -7.68295472195966e-06
-2.436400947168392e-06   3.9855510629765783e-07   -7.68295472195966e-06
-1.7099213964975233e-06   5.7637418731759475e-08   -8.689203360538422e-06
-1.7099213964975233e-06   5.7637418731759475e-08   -8.689203360538422e-06
-1.7099213964975233e-06   5.7637418731759475e-08   -8.689203360538422e-06
-1.7099213964975233e-06   5.7637418731759475e-08   -8.689203360538422e-06
-2.4364009471683883e-06   -2.2106015721098287e-08   -1.0147047988031148e-05
-2.4364009471683883e-06   -2.2106015721098287e-08   -1.0147047988031148e-05
-2.4364009471683883e-06   -2.2106015721098287e-08   -1.0147047988031148e-05
-2.4364009471683883e-06   -2.2106015721098287e-08   -1.0147047988031148e-05
-9.57944987525525e-07   3.985551062976036e-07   -7.430558048748462e-06
-9.57944987525525e-07   3.985551062976036e-07   -7.430558048748462e-06
-9.57944987525525e-07   3.985551062976036e-07   -7.430558048748462e-06
-9.57944987525525e-07   3.985551062976036e-07   -7.430558048748462e-06
-8.456770754005163e-07   3.010981552061811e-07   -1.0023733864263665e-05
-8.456770754005163e-07   3.010981552061811e-07   -1.0023733864263665e-05
-8.456770754005163e-07   3.010981552061811e-07   -1.0023733864263665e-05
-8.456770754005163e-07   3.010981552061811e-07   -1.0023733864263665e-05
-2.3818645348210035e-06   6.948355633503117e-07   -7.699663876782627e-06
-2.3818645348210035e-06   6.948355633503117e-07   -7.699663876782627e-06
-2.3818645348210035e-06   6.948355633503117e-07   -7.699663876782627e-06
-2.3818645348210035e-06   6.948355633503117e-07   -7.699663876782627e-06
-1.6665762446770585e-06   3.1319459897267326e-07   -8.662826448396012e-06
-1.6665762446770585e-06   3.1319459897267326e-07   -8.662826448396012e-06
-1.6665762446770585e-06   3.1319459897267326e-07   -8.662826448396012e-06
-1.6665762446770585e-06   3.1319459897267326e-07   -8.662826448396012e-06
-2.381864534820997e-06   3.010981552061811e-07   -1.02599763091501e-05
-2.381864534820997e-06   3.010981552061811e-07   -1.02599763091501e-05
-2.381864534820997e-06   3.010981552061811e-07   -1.02599763091501e-05
-2.381864534820997e-06   3.010981552061811e-07   -1.02599763091501e-05
-8.456770754005197e-07   6.948355633503659e-07   -7.463421431896168e-06
-8.456770754005197e-07   6.948355633503659e-07   -7.463421431896168e-06
-8.456770754005197e-07   6.948355633503659e-07   -7.463421431896168e-06
-8.456770754005197e-07   6.948355633503659e-07   -7.463421431896168e-06
-7.67862661767654e-07   6.700715064264636e-07   -1.030372129735767e-05
-7.67862661767654e-07   6.700715064264636e-07   -1.030372129735767e-05
-7.67862661767654e-07   6.700715064264636e-07   -1.030372129735767e-05
-7.67862661767654e-07   6.700715064264636e-07   -1.030372129735767e-05
-2.333116650103126e-06   1.028355915644861e-06   -7.909935295662928e-06
-2.333116650103126e-06   1.028355915644861e-06   -7.909935295662928e-06
-2.333116650103126e-06   1.028355915644861e-06   -7.909935295662928e-06
-2.333116650103126e-06   1.028355915644861e-06   -7.909935295662928e-06
-1.6218136078127105e-06   5.795473670832546e-07   -8.82615523700992e-06
-1.6218136078127105e-06   5.795473670832546e-07   -8.82615523700992e-06
-1.6218136078127105e-06   5.795473670832546e-07   -8.82615523700992e-06
-1.6218136078127105e-06   5.795473670832546e-07   -8.82615523700992e-06
-1.0312955533690311e-06   -6.523783747506597e-07   -5.533034296693662e-06
-1.0312955533690311e-06   -6.523783747506597e-07   -5.533034296693662e-06
-1.0312955533690311e-06   -6.523783747506597e-07   -5.533034296693662e-06
-1.0312955533690311e-06   -6.523783747506597e-07   -5.533034296693662e-06
2.568580037453825e-10   1.26633160528434e-07   -3.346373356571562e-06
2.568580037453825e-10   1.26633160528434e-07   -3.346373356571562e-06
2.568580037453825e-10   1.26633160528434e-07   -3.346373356571562e-06
2.568580037453825e-10   1.26633160528434e-07   -3.346373356571562e-06
4.0910397895549367e-07   -4.2207644985030606e-07   -5.256410843673052e-06
4.0910397895549367e-07   -4.2207644985030606e-07   -5.256410843673052e-06
4.0910397895549367e-07   -4.2207644985030606e-07   -5.256410843673052e-06
4.0910397895549367e-07   -4.2207644985030606e-07   -5.256410843673052e-06
-9.57944987525525e-07   3.7759479347150137e-07   -3.457798645531013e-06
-9.57944987525525e-07   3.7759479347150137e-07   -3.457798645531013e-06
-9.57944987525525e-07   3.7759479347150137e-07   -3.457798645531013e-06
-9.57944987525525e-07   3.7759479347150137e-07   -3.457798645531013e-06
-3.8185527226104884e-07   -1.1015374296605498e-07   -4.125299049109388e-06
-3.8185527226104884e-07   -1.1015374296605498e-07   -4.125299049109388e-06
-3.8185527226104884e-07   -1.1015374296605498e-07   -4.125299049109388e-06
-3.8185527226104884e-07   -1.1015374296605498e-07   -4.125299049109388e-06
-9.579449875255217e-07   -4.2207644985030606e-07   -5.736213589666055e-06
-9.579449875255217e-07   -4.2207644985030606e-07   -5.736213589666055e-06
-9.579449875255217e-07   -4.2207644985030606e-07   -5.736213589666055e-06
-9.579449875255217e-07   -4.2207644985030606e-07   -5.736213589666055e-06
4.0910397895550045e-07   3.7759479347150137e-07   -2.9779958995379758e-06
4.0910397895550045e-07   3.7759479347150137e-07   -2.9779958995379758e-06
4.0910397895550045e-07   3.7759479347150137e-07   -2.9779958995379758e-06
4.0910397895550045e-07   3.7759479347150137e-07   -2.9779958995379758e-06
7.324329386923959e-07   -2.6471304762486106e-07   -5.531439959188776e-06
7.324329386923959e-07   -2.6471304762486106e-07   -5.531439959188776e-06
7.324329386923959e-07   -2.6471304762486106e-07   -5.531439959188776e-06
7.324329386923959e-07   -2.6471304762486106e-07   -5.531439959188776e-06
-8.456770754005163e-07   5.179720135224685e-07   -3.370867639055562e-06
-8.456770754005163e-07   5.179720135224685e-07   -3.370867639055562e-06
-8.456770754005163e-07   5.179720135224685e-07   -3.370867639055562e-06
-8.456770754005163e-07   5.179720135224685e-07   -3.370867639055562e-06
-1.7901971483937454e-07   1.1315750056807919e-08   -4.177969481911428e-06
-1.7901971483937454e-07   1.1315750056807919e-08   -4.177969481911428e-06
-1.7901971483937454e-07   1.1315750056807919e-08   -4.177969481911428e-06
-1.7901971483937454e-07   1.1315750056807919e-08   -4.177969481911428e-06
-8.456770754005163e-07   -2.6471304762483395e-07   -6.001050995877116e-06
-8.456770754005163e-07   -2.6471304762483395e-07   -6.001050995877116e-06
-8.456770754005163e-07   -2.6471304762483395e-07   -6.001050995877116e-06
-8.456770754005163e-07   -2.6471304762483395e-07   -6.001050995877116e-06
7.324329386923891e-07   5.179720135224143e-07   -2.9012566023671807e-06
7.324329386923891e-07   5.179720135224143e-07   -2.9012566023671807e-06
7.324329386923891e-07   5.179720135224143e-07   -2.9012566023671807e-06
7.324329386923891e-07   5.179720135224143e-07   -2.9012566023671807e-06
1.1434910197012567e-06   4.1551785990619075e-08   -6.183560755324531e-06
1.1434910197012567e-06   4.1551785990619075e-08   -6.183560755324531e-06
1.1434910197012567e-06   4.1551785990619075e-08   -6.183560755324531e-06
1.1434910197012567e-06   4.1551785990619075e-08   -6.183560755324531e-06
-7.678626617676573e-07   7.633504419452984e-07   -3.4310504797823634e-06
-7.678626617676573e-07   7.633504419452984e-07   -3.4310504797823634e-06
-7.678626617676573e-07   7.633504419452984e-07   -3.4310504797823634e-06
-7.678626617676573e-07   7.633504419452984e-07   -3.4310504797823634e-06
1.2765066541470282e-09   1.4641252935504489e-07   -4.342786346264653e-06
1.2765066541470282e-09   1.4641252935504489e-07   -4.342786346264653e-06
1.2765066541470282e-09   1.4641252935504489e-07   -4.342786346264653e-06
1.2765066541470282e-09   1.4641252935504489e-07   -4.342786346264653e-06
-2.493306752124669e-06   4.822809664570228e-07   -4.606714307384309e-06
-2.493306752124669e-06   4.822809664570228e-07   -4.606714307384309e-06
-2.493306752124669e-06   4.822809664570228e-07   -4.606714307384309e-06
-2.493306752124669e-06   4.822809664570228e-07   -4.606714307384309e-06
-2.6175232636604885e-06   -2.3811007760616253e-07   -5.245976453048594e-06
-2.6175232636604885e-06   -2.3811007760616253e-07   -5.245976453048594e-06
-2.6175232636604885e-06   -2.3811007760616253e-07   -5.245976453048594e-06
-2.6175232636604885e-06   -2.3811007760616253e-07   -5.245976453048594e-06
-2.491695687545698e-06   7.581680204097143e-07   -4.330573309022686e-06
-2.491695687545698e-06   7.581680204097143e-07   -4.330573309022686e-06
-2.491695687545698e-06   7.581680204097143e-07   -4.330573309022686e-06
-2.491695687545698e-06   7.581680204097143e-07   -4.330573309022686e-06
-2.0417677734662666e-06   -1.67116663597755e-08   -4.615525353760056e-06
-2.0417677734662666e-06   -1.67116663597755e-08   -4.615525353760056e-06
-2.0417677734662666e-06   -1.67116663597755e-08   -4.615525353760056e-06
-2.0417677734662666e-06   -1.67116663597755e-08   -4.615525353760056e-06
-2.3060836967299137e-06   3.3251553899769134e-07   -4.384535138201971e-06
-2.3060836967299137e-06   3.3251553899769134e-07   -4.384535138201971e-06
-2.3060836967299137e-06   3.3251553899769134e-07   -4.384535138201971e-06
-2.3060836967299137e-06   3.3251553899769134e-07   -4.384535138201971e-06
-2.041767773466253e-06   7.581680204097143e-07   -3.865645496961009e-06
-2.041767773466253e-06   7.581680204097143e-07   -3.865645496961009e-06
-2.041767773466253e-06   7.581680204097143e-07   -3.865645496961009e-06
-2.041767773466253e-06   7.581680204097143e-07   -3.865645496961009e-06
-2.4916956875457047e-06   -1.67116663597755e-08   -5.080453165821815e-06
-2.4916956875457047e-06   -1.67116663597755e-08   -5.080453165821815e-06
-2.4916956875457047e-06   -1.67116663597755e-08   -5.080453165821815e-06
-2.4916956875457047e-06   -1.67116663597755e-08   -5.080453165821815e-06
-2.331875714269737e-06   8.991837696944549e-07   -4.017972991315921e-06
-2.331875714269737e-06   8.991837696944549e-07   -4.017972991315921e-06
-2.331875714269737e-06   8.991837696944549e-07   -4.017972991315921e-06
-2.331875714269737e-06   8.991837696944549e-07   -4.017972991315921e-06
-1.6714389019336956e-06   1.1040217577244554e-07   -4.645432055522768e-06
-1.6714389019336956e-06   1.1040217577244554e-07   -4.645432055522768e-06
-1.6714389019336956e-06   1.1040217577244554e-07   -4.645432055522768e-06
-1.6714389019336956e-06   1.1040217577244554e-07   -4.645432055522768e-06
-2.0951958398856963e-06   4.4721991647206794e-07   -4.141261136689353e-06
-2.0951958398856963e-06   4.4721991647206794e-07   -4.141261136689353e-06
-2.0951958398856963e-06   4.4721991647206794e-07   -4.141261136689353e-06
-2.0951958398856963e-06   4.4721991647206794e-07   -4.141261136689353e-06
-1.671438901933682e-06   8.991837696944549e-07   -3.544704034962753e-06
-1.671438901933682e-06   8.991837696944549e-07   -3.544704034962753e-06
-1.671438901933682e-06   8.991837696944549e-07   -3.544704034962753e-06
-1.671438901933682e-06   8.991837696944549e-07   -3.544704034962753e-06
-2.331875714269744e-06   1.1040217577249975e-07   -5.118701011875976e-06
-2.331875714269744e-06   1.1040217577249975e-07   -5.118701011875976e-06
-2.331875714269744e-06   1.1040217577249975e-07   -5.118701011875976e-06
-2.331875714269744e-06   1.1040217577249975e-07   -5.118701011875976e-06
-2.209765806860707e-06   1.1233577073240571e-06   -3.730966574850723e-06
-2.209765806860707e-06   1.1233577073240571e-06   -3.730966574850723e-06
-2.209765806860707e-06   1.1233577073240571e-06   -3.730966574850723e-06
-2.209765806860707e-06   1.1233577073240571e-06   -3.730966574850723e-06
-1.214197553634576e-06   3.632733050190477e-07   -4.934196355511254e-06
-1.214197553634576e-06   3.632733050190477e-07   -4.934196355511254e-06
-1.214197553634576e-06   3.632733050190477e-07   -4.934196355511254e-06
-1.214197553634576e-06   3.632733050190477e-07   -4.934196355511254e-06
-1.8338460721630212e-06   5.595067268410626e-07   -4.0191888777237e-06
-1.8338460721630212e-06   5.595067268410626e-07   -4.0191888777237e-06
-1.8338460721630212e-06   5.595067268410626e-07   -4.0191888777237e-06
-1.8338460721630212e-06   5.595067268410626e-07   -4.0191888777237e-06
-2.617523263660475e-06   2.8564660068801937e-07   -8.481712479086134e-06
-2.617523263660475e-06   2.8564660068801937e-07   -8.481712479086134e-06
-2.617523263660475e-06   2.8564660068801937e-07   -8.481712479086134e-06
-2.617523263660475e-06   2.8564660068801937e-07   -8.481712479086134e-06
-3.086173842101505e-06   -4.5468179962196084e-08   -9.461465644877985e-06
-3.086173842101505e-06   -4.5468179962196084e-08   -9.461465644877985e-06
-3.086173842101505e-06   -4.5468179962196084e-08   -9.461465644877985e-06
-3.086173842101505e-06   -4.5468179962196084e-08   -9.461465644877985e-06
-2.9865336081592338e-06   6.02881181957038e-07   -8.485601713711759e-06
-2.9865336081592338e-06   6.02881181957038e-07   -8.485601713711759e-06
-2.9865336081592338e-06   6.02881181957038e-07   -8.485601713711759e-06
-2.9865336081592338e-06   6.02881181957038e-07   -8.485601713711759e-06
-2.4916956875457115e-06   2.3509894021432522e-07   -9.08966223635536e-06
-2.4916956875457115e-06   2.3509894021432522e-07   -9.08966223635536e-06
-2.4916956875457115e-06   2.3509894021432522e-07   -9.08966223635536e-06
-2.4916956875457115e-06   2.3509894021432522e-07   -9.08966223635536e-06
-2.763089567118449e-06   3.3285933804708774e-07   -8.695995342433946e-06
-2.763089567118449e-06   3.3285933804708774e-07   -8.695995342433946e-06
-2.763089567118449e-06   3.3285933804708774e-07   -8.695995342433946e-06
-2.763089567118449e-06   3.3285933804708774e-07   -8.695995342433946e-06
-2.4916956875457047e-06   6.02881181957038e-07   -8.264932368666093e-06
-2.4916956875457047e-06   6.02881181957038e-07   -8.264932368666093e-06
-2.4916956875457047e-06   6.02881181957038e-07   -8.264932368666093e-06
-2.4916956875457047e-06   6.02881181957038e-07   -8.264932368666093e-06
-2.9865336081592304e-06   2.3509894021437943e-07   -9.310331581401012e-06
-2.9865336081592304e-06   2.3509894021437943e-07   -9.310331581401012e-06
-2.9865336081592304e-06   2.3509894021437943e-07   -9.310331581401012e-06
-2.9865336081592304e-06   2.3509894021437943e-07   -9.310331581401012e-06
-2.8827244844555282e-06   8.992232104727349e-07   -8.414139083983308e-06
-2.8827244844555282e-06   8.992232104727349e-07   -8.414139083983308e-06
-2.8827244844555282e-06   8.992232104727349e-07   -8.414139083983308e-06
-2.8827244844555282e-06   8.992232104727349e-07   -8.414139083983308e-06
-2.3318757142697506e-06   5.064568327763585e-07   -9.096560541008435e-06
-2.3318757142697506e-06   5.064568327763585e-07   -9.096560541008435e-06
-2.3318757142697506e-06   5.064568327763585e-07   -9.096560541008435e-06
-2.3318757142697506e-06   5.064568327763585e-07   -9.096560541008435e-06
-2.6634283439401293e-06   5.606528721712909e-07   -8.576490448528151e-06
-2.6634283439401293e-06   5.606528721712909e-07   -8.576490448528151e-06
-2.6634283439401293e-06   5.606528721712909e-07   -8.576490448528151e-06
-2.6634283439401293e-06   5.606528721712909e-07   -8.576490448528151e-06
-2.331875714269737e-06   8.992232104727349e-07   -8.178479257365444e-06
-2.331875714269737e-06   8.992232104727349e-07   -8.178479257365444e-06
-2.331875714269737e-06   8.992232104727349e-07   -8.178479257365444e-06
-2.331875714269737e-06   8.992232104727349e-07   -8.178479257365444e-06
-2.882724484455518e-06   5.064568327763585e-07   -9.33222036762619e-06
-2.882724484455518e-06   5.064568327763585e-07   -9.33222036762619e-06
-2.882724484455518e-06   5.064568327763585e-07   -9.33222036762619e-06
-2.882724484455518e-06   5.064568327763585e-07   -9.33222036762619e-06
-2.785662991348722e-06   1.2298449784920134e-06   -8.554051551981786e-06
-2.785662991348722e-06   1.2298449784920134e-06   -8.554051551981786e-06
-2.785662991348722e-06   1.2298449784920134e-06   -8.554051551981786e-06
-2.785662991348722e-06   1.2298449784920134e-06   -8.554051551981786e-06
-2.2097658068607136e-06   8.175869180396841e-07   -9.266525356523735e-06
-2.2097658068607136e-06   8.175869180396841e-07   -9.266525356523735e-06
-2.2097658068607136e-06   8.175869180396841e-07   -9.266525356523735e-06
-2.2097658068607136e-06   8.175869180396841e-07   -9.266525356523735e-06
-2.5765802330181034e-06   8.010318495489666e-07   -8.645234938500318e-06
-2.5765802330181034e-06   8.010318495489666e-07   -8.645234938500318e-06
-2.5765802330181034e-06   8.010318495489666e-07   -8.645234938500318e-06
-2.5765802330181034e-06   8.010318495489666e-07   -8.645234938500318e-06
-3.086173842101495e-06   1.6951859841638503e-07   -9.896757983922767e-06
-3.086173842101495e-06   1.6951859841638503e-07   -9.896757983922767e-06
-3.086173842101495e-06   1.6951859841638503e-07   -9.896757983922767e-06
-3.086173842101495e-06   1.6951859841638503e-07   -9.896757983922767e-06
-3.5700921370644826e-06   2.4115942182632594e-07   -1.0660303981481787e-05
-3.5700921370644826e-06   2.4115942182632594e-07   -1.0660303981481787e-05
-3.5700921370644826e-06   2.4115942182632594e-07   -1.0660303981481787e-05
-3.5700921370644826e-06   2.4115942182632594e-07   -1.0660303981481787e-05
-3.472648088161801e-06   4.941584818976617e-07   -9.740800346765666e-06
-3.472648088161801e-06   4.941584818976617e-07   -9.740800346765666e-06
-3.472648088161801e-06   4.941584818976617e-07   -9.740800346765666e-06
-3.472648088161801e-06   4.941584818976617e-07   -9.740800346765666e-06
-2.9865336081592304e-06   5.327416799339683e-07   -1.0574141065591734e-05
-2.9865336081592304e-06   5.327416799339683e-07   -1.0574141065591734e-05
-2.9865336081592304e-06   5.327416799339683e-07   -1.0574141065591734e-05
-2.9865336081592304e-06   5.327416799339683e-07   -1.0574141065591734e-05
-3.259063670969002e-06   4.0528297622484345e-07   -1.0043449072016781e-05
-3.259063670969002e-06   4.0528297622484345e-07   -1.0043449072016781e-05
-3.259063670969002e-06   4.0528297622484345e-07   -1.0043449072016781e-05
-3.259063670969002e-06   4.0528297622484345e-07   -1.0043449072016781e-05
-2.9865336081592236e-06   4.941584818976617e-07   -9.763950265587472e-06
-2.9865336081592236e-06   4.941584818976617e-07   -9.763950265587472e-06
-2.9865336081592236e-06   4.941584818976617e-07   -9.763950265587472e-06
-2.9865336081592236e-06   4.941584818976617e-07   -9.763950265587472e-06
-3.4726480881618065e-06   5.327416799339683e-07   -1.0550991146770003e-05
-3.4726480881618065e-06   5.327416799339683e-07   -1.0550991146770003e-05
-3.4726480881618065e-06   5.327416799339683e-07   -1.0550991146770003e-05
-3.4726480881618065e-06   5.327416799339683e-07   -1.0550991146770003e-05
-3.369436203321203e-06   8.215723027551244e-07   -9.767674039216711e-06
-3.369436203321203e-06   8.215723027551244e-07   -9.767674039216711e-06
-3.369436203321203e-06   8.215723027551244e-07   -9.767674039216711e-06
-3.369436203321203e-06   8.215723027551244e-07   -9.767674039216711e-06
-2.8827244844555282e-06   8.304812696501127e-07   -1.0584205617463105e-05
-2.8827244844555282e-06   8.304812696501127e-07   -1.0584205617463105e-05
-2.8827244844555282e-06   8.304812696501127e-07   -1.0584205617463105e-05
-2.8827244844555282e-06   8.304812696501127e-07   -1.0584205617463105e-05
-3.178362698728145e-06   6.558116726016481e-07   -9.986673502113179e-06
-3.178362698728145e-06   6.558116726016481e-07   -9.986673502113179e-06
-3.178362698728145e-06   6.558116726016481e-07   -9.986673502113179e-06
-3.178362698728145e-06   6.558116726016481e-07   -9.986673502113179e-06
-2.882724484455518e-06   8.215723027551786e-07   -9.77301941935366e-06
-2.882724484455518e-06   8.215723027551786e-07   -9.77301941935366e-06
-2.882724484455518e-06   8.215723027551786e-07   -9.77301941935366e-06
-2.882724484455518e-06   8.215723027551786e-07   -9.77301941935366e-06
-3.369436203321203e-06   8.304812696501127e-07   -1.0578860237326135e-05
-3.369436203321203e-06   8.304812696501127e-07   -1.0578860237326135e-05
-3.369436203321203e-06   8.304812696501127e-07   -1.0578860237326135e-05
-3.369436203321203e-06   8.304812696501127e-07   -1.0578860237326135e-05
-3.2722820366478206e-06   1.154008573518424e-06   -9.957335429295125e-06
-3.2722820366478206e-06   1.154008573518424e-06   -9.957335429295125e-06
-3.2722820366478206e-06   1.154008573518424e-06   -9.957335429295125e-06
-3.2722820366478206e-06   1.154008573518424e-06   -9.957335429295125e-06
-2.7856629913487256e-06   1.1324639466982677e-06   -1.0755440395368164e-05
-2.7856629913487256e-06   1.1324639466982677e-06   -1.0755440395368164e-05
-2.7856629913487256e-06   1.1324639466982677e-06   -1.0755440395368164e-05
-2.7856629913487256e-06   1.1324639466982677e-06   -1.0755440395368164e-05
-3.104757170515791e-06   9.098990686414767e-07   -1.0090077836588974e-05
-3.104757170515791e-06   9.098990686414767e-07   -1.0090077836588974e-05
-3.104757170515791e-06   9.098990686414767e-07   -1.0090077836588974e-05
-3.104757170515791e-06   9.098990686414767e-07   -1.0090077836588974e-05
-3.5700921370644703e-06   8.290475783754182e-08   -8.530083207848328e-06
-3.5700921370644703e-06   8.290475783754182e-08   -8.530083207848328e-06
-3.5700921370644703e-06   8.290475783754182e-08   -8.530083207848328e-06
-3.5700921370644703e-06   8.290475783754182e-08   -8.530083207848328e-06
-4.087838281387502e-06   5.32600858452702e-07   -9.123175788017674e-06
-4.087838281387502e-06   5.32600858452702e-07   -9.123175788017674e-06
-4.087838281387502e-06   5.32600858452702e-07   -9.123175788017674e-06
-4.087838281387502e-06   5.32600858452702e-07   -9.123175788017674e-06
-3.968517133100519e-06   3.985551062976036e-07   -8.148705284198615e-06
-3.968517133100519e-06   3.985551062976036e-07   -8.148705284198615e-06
-3.968517133100519e-06   3.985551062976036e-07   -8.148705284198615e-06
-3.968517133100519e-06   3.985551062976036e-07   -8.148705284198615e-06
-3.472648088161801e-06   8.260099649257439e-07   -9.231626607606563e-06
-3.472648088161801e-06   8.260099649257439e-07   -9.231626607606563e-06
-3.472648088161801e-06   8.260099649257439e-07   -9.231626607606563e-06
-3.472648088161801e-06   8.260099649257439e-07   -9.231626607606563e-06
-3.745377781311311e-06   4.920813857444382e-07   -8.576719971515465e-06
-3.745377781311311e-06   4.920813857444382e-07   -8.576719971515465e-06
-3.745377781311311e-06   4.920813857444382e-07   -8.576719971515465e-06
-3.745377781311311e-06   4.920813857444382e-07   -8.576719971515465e-06
-3.4726480881617943e-06   3.985551062976036e-07   -8.405178199375407e-06
-3.4726480881617943e-06   3.985551062976036e-07   -8.405178199375407e-06
-3.4726480881617943e-06   3.985551062976036e-07   -8.405178199375407e-06
-3.4726480881617943e-06   3.985551062976036e-07   -8.405178199375407e-06
-3.968517133100519e-06   8.260099649257439e-07   -8.975153692429783e-06
-3.968517133100519e-06   8.260099649257439e-07   -8.975153692429783e-06
-3.968517133100519e-06   8.260099649257439e-07   -8.975153692429783e-06
-3.968517133100519e-06   8.260099649257439e-07   -8.975153692429783e-06
-3.8110657076273016e-06   6.948355633503117e-07   -8.179200572696612e-06
-3.8110657076273016e-06   6.948355633503117e-07   -8.179200572696612e-06
-3.8110657076273016e-06   6.948355633503117e-07   -8.179200572696612e-06
-3.8110657076273016e-06   6.948355633503117e-07   -8.179200572696612e-06
-3.369436203321197e-06   1.0956638203215218e-06   -9.155746700722792e-06
-3.369436203321197e-06   1.0956638203215218e-06   -9.155746700722792e-06
-3.369436203321197e-06   1.0956638203215218e-06   -9.155746700722792e-06
-3.369436203321197e-06   1.0956638203215218e-06   -9.155746700722792e-06
-3.6385283813983455e-06   7.257641445667187e-07   -8.485319931808108e-06
-3.6385283813983455e-06   7.257641445667187e-07   -8.485319931808108e-06
-3.6385283813983455e-06   7.257641445667187e-07   -8.485319931808108e-06
-3.6385283813983455e-06   7.257641445667187e-07   -8.485319931808108e-06
-3.369436203321189e-06   6.948355633503117e-07   -8.419697526879262e-06
-3.369436203321189e-06   6.948355633503117e-07   -8.419697526879262e-06
-3.369436203321189e-06   6.948355633503117e-07   -8.419697526879262e-06
-3.369436203321189e-06   6.948355633503117e-07   -8.419697526879262e-06
-3.811065707627305e-06   1.095663820321576e-06   -8.915249746540118e-06
-3.811065707627305e-06   1.095663820321576e-06   -8.915249746540118e-06
-3.811065707627305e-06   1.095663820321576e-06   -8.915249746540118e-06
-3.811065707627305e-06   1.095663820321576e-06   -8.915249746540118e-06
-3.688197062322968e-06   1.0283559156449153e-06   -8.405827189415744e-06
-3.688197062322968e-06   1.0283559156449153e-06   -8.405827189415744e-06
-3.688197062322968e-06   1.0283559156449153e-06   -8.405827189415744e-06
-3.688197062322968e-06   1.0283559156449153e-06   -8.405827189415744e-06
-3.2722820366478206e-06   1.396257878752557e-06   -9.319760076738838e-06
-3.2722820366478206e-06   1.396257878752557e-06   -9.319760076738838e-06
-3.2722820366478206e-06   1.396257878752557e-06   -9.319760076738838e-06
-3.2722820366478206e-06   1.396257878752557e-06   -9.319760076738838e-06
-3.5612333778829706e-06   9.632008681086427e-07   -8.578340301627167e-06
-3.5612333778829706e-06   9.632008681086427e-07   -8.578340301627167e-06
-3.5612333778829706e-06   9.632008681086427e-07   -8.578340301627167e-06
-3.5612333778829706e-06   9.632008681086427e-07   -8.578340301627167e-06
-4.087838281387488e-06   1.26633160528434e-07   -4.531045940024003e-06
-4.087838281387488e-06   1.26633160528434e-07   -4.531045940024003e-06
-4.087838281387488e-06   1.26633160528434e-07   -4.531045940024003e-06
-4.087838281387488e-06   1.26633160528434e-07   -4.531045940024003e-06
-5.011442148460663e-06   9.012941650788351e-07   -5.605589115749128e-06
-5.011442148460663e-06   9.012941650788351e-07   -5.605589115749128e-06
-5.011442148460663e-06   9.012941650788351e-07   -5.605589115749128e-06
-5.011442148460663e-06   9.012941650788351e-07   -5.605589115749128e-06
-4.566750867050716e-06   3.7759479347144716e-07   -3.701276669600882e-06
-4.566750867050716e-06   3.7759479347144716e-07   -3.701276669600882e-06
-4.566750867050716e-06   3.7759479347144716e-07   -3.701276669600882e-06
-4.566750867050716e-06   3.7759479347144716e-07   -3.701276669600882e-06
-3.968517133100512e-06   1.168710145771953e-06   -5.173002104231448e-06
-3.968517133100512e-06   1.168710145771953e-06   -5.173002104231448e-06
-3.968517133100512e-06   1.168710145771953e-06   -5.173002104231448e-06
-3.968517133100512e-06   1.168710145771953e-06   -5.173002104231448e-06
-4.2303057817192645e-06   6.741750565195602e-07   -4.439966636315536e-06
-4.2303057817192645e-06   6.741750565195602e-07   -4.439966636315536e-06
-4.2303057817192645e-06   6.741750565195602e-07   -4.439966636315536e-06
-4.2303057817192645e-06   6.741750565195602e-07   -4.439966636315536e-06
-3.968517133100502e-06   3.7759479347150137e-07   -4.175945880981104e-06
-3.968517133100502e-06   3.7759479347150137e-07   -4.175945880981104e-06
-3.968517133100502e-06   3.7759479347150137e-07   -4.175945880981104e-06
-3.968517133100502e-06   3.7759479347150137e-07   -4.175945880981104e-06
-4.566750867050702e-06   1.168710145771953e-06   -4.698332892851171e-06
-4.566750867050702e-06   1.168710145771953e-06   -4.698332892851171e-06
-4.566750867050702e-06   1.168710145771953e-06   -4.698332892851171e-06
-4.566750867050702e-06   1.168710145771953e-06   -4.698332892851171e-06
-4.205058995324493e-06   5.179720135224143e-07   -3.622815990539461e-06
-4.205058995324493e-06   5.179720135224143e-07   -3.622815990539461e-06
-4.205058995324493e-06   5.179720135224143e-07   -3.622815990539461e-06
-4.205058995324493e-06   5.179720135224143e-07   -3.622815990539461e-06
-3.8110657076273016e-06   1.2910233290500616e-06   -4.743302259351308e-06
-3.8110657076273016e-06   1.2910233290500616e-06   -4.743302259351308e-06
-3.8110657076273016e-06   1.2910233290500616e-06   -4.743302259351308e-06
-3.8110657076273016e-06   1.2910233290500616e-06   -4.743302259351308e-06
-4.047521230829369e-06   7.996504416894453e-07   -4.054385988264868e-06
-4.047521230829369e-06   7.996504416894453e-07   -4.054385988264868e-06
-4.047521230829369e-06   7.996504416894453e-07   -4.054385988264868e-06
-4.047521230829369e-06   7.996504416894453e-07   -4.054385988264868e-06
-3.8110657076272915e-06   5.179720135224143e-07   -4.086646779856033e-06
-3.8110657076272915e-06   5.179720135224143e-07   -4.086646779856033e-06
-3.8110657076272915e-06   5.179720135224143e-07   -4.086646779856033e-06
-3.8110657076272915e-06   5.179720135224143e-07   -4.086646779856033e-06
-4.205058995324493e-06   1.2910233290500616e-06   -4.279471470034716e-06
-4.205058995324493e-06   1.2910233290500616e-06   -4.279471470034716e-06
-4.205058995324493e-06   1.2910233290500616e-06   -4.279471470034716e-06
-4.205058995324493e-06   1.2910233290500616e-06   -4.279471470034716e-06
-3.7591662627084306e-06   7.633504419452984e-07   -3.713945608534451e-06
-3.7591662627084306e-06   7.633504419452984e-07   -3.713945608534451e-06
-3.7591662627084306e-06   7.633504419452984e-07   -3.713945608534451e-06
-3.7591662627084306e-06   7.633504419452984e-07   -3.713945608534451e-06
-3.688197062322961e-06   1.4766294594983432e-06   -4.260195019708644e-06
-3.688197062322961e-06   1.4766294594983432e-06   -4.260195019708644e-06
-3.688197062322961e-06   1.4766294594983432e-06   -4.260195019708644e-06
-3.688197062322961e-06   1.4766294594983432e-06   -4.260195019708644e-06
-3.7661246169760833e-06   8.984917366357758e-07   -3.7834331282359554e-06
-3.7661246169760833e-06   8.984917366357758e-07   -3.7834331282359554e-06
-3.7661246169760833e-06   8.984917366357758e-07   -3.7834331282359554e-06
-3.7661246169760833e-06   8.984917366357758e-07   -3.7834331282359554e-06
2.426020463155889e-06   -2.3811007760616253e-07   -2.2480328223123825e-06
2.426020463155889e-06   -2.3811007760616253e-07   -2.2480328223123825e-06
2.426020463155889e-06   -2.3811007760616253e-07   -2.2480328223123825e-06
2.426020463155889e-06   -2.3811007760616253e-07   -2.2480328223123825e-06
2.6564143779258896e-07   -9.629642089868727e-07   -6.283577010079603e-06
2.6564143779258896e-07   -9.629642089868727e-07   -6.283577010079603e-06
2.6564143779258896e-07   -9.629642089868727e-07   -6.283577010079603e-06
2.6564143779258896e-07   -9.629642089868727e-07   -6.283577010079603e-06
4.3689013376730057e-07   -1.67116663597755e-08   -2.5034845979086755e-06
4.3689013376730057e-07   -1.67116663597755e-08   -2.5034845979086755e-06
4.3689013376730057e-07   -1.67116663597755e-08   -2.5034845979086755e-06
4.3689013376730057e-07   -1.67116663597755e-08   -2.5034845979086755e-06
2.9216871055792287e-06   -7.935846585275554e-07   -6.178689088961233e-06
2.9216871055792287e-06   -7.935846585275554e-07   -6.178689088961233e-06
2.9216871055792287e-06   -7.935846585275554e-07   -6.178689088961233e-06
2.9216871055792287e-06   -7.935846585275554e-07   -6.178689088961233e-06
1.455017120295052e-06   -4.057368567394505e-07   -3.966947794560414e-06
1.455017120295052e-06   -4.057368567394505e-07   -3.966947794560414e-06
1.455017120295052e-06   -4.057368567394505e-07   -3.966947794560414e-06
1.455017120295052e-06   -4.057368567394505e-07   -3.966947794560414e-06
2.9216871055792287e-06   -1.67116663597755e-08   -2.037360802608013e-06
2.9216871055792287e-06   -1.67116663597755e-08   -2.037360802608013e-06
2.9216871055792287e-06   -1.67116663597755e-08   -2.037360802608013e-06
2.9216871055792287e-06   -1.67116663597755e-08   -2.037360802608013e-06
4.368901337672938e-07   -7.935846585275011e-07   -6.644812884261923e-06
4.368901337672938e-07   -7.935846585275011e-07   -6.644812884261923e-06
4.368901337672938e-07   -7.935846585275011e-07   -6.644812884261923e-06
4.368901337672938e-07   -7.935846585275011e-07   -6.644812884261923e-06
6.39734240122822e-07   1.1040217577244554e-07   -2.52929431412475e-06
6.39734240122822e-07   1.1040217577244554e-07   -2.52929431412475e-06
6.39734240122822e-07   1.1040217577244554e-07   -2.52929431412475e-06
6.39734240122822e-07   1.1040217577244554e-07   -2.52929431412475e-06
3.3374187647516336e-06   -6.784901349069948e-07   -6.552099802098471e-06
3.3374187647516336e-06   -6.784901349069948e-07   -6.552099802098471e-06
3.3374187647516336e-06   -6.784901349069948e-07   -6.552099802098471e-06
3.3374187647516336e-06   -6.784901349069948e-07   -6.552099802098471e-06
1.7670821277050224e-06   -3.2524226837449136e-07   -4.146820793607124e-06
1.7670821277050224e-06   -3.2524226837449136e-07   -4.146820793607124e-06
1.7670821277050224e-06   -3.2524226837449136e-07   -4.146820793607124e-06
1.7670821277050224e-06   -3.2524226837449136e-07   -4.146820793607124e-06
3.337418764751647e-06   1.1040217577244554e-07   -2.0559589277171185e-06
3.337418764751647e-06   1.1040217577244554e-07   -2.0559589277171185e-06
3.337418764751647e-06   1.1040217577244554e-07   -2.0559589277171185e-06
3.337418764751647e-06   1.1040217577244554e-07   -2.0559589277171185e-06
6.397342401228152e-07   -6.784901349069948e-07   -7.025435188506184e-06
6.397342401228152e-07   -6.784901349069948e-07   -7.025435188506184e-06
6.397342401228152e-07   -6.784901349069948e-07   -7.025435188506184e-06
6.397342401228152e-07   -6.784901349069948e-07   -7.025435188506184e-06
8.042214087102757e-07   3.632733050190477e-07   -2.7890242134100346e-06
8.042214087102757e-07   3.632733050190477e-07   -2.7890242134100346e-06
8.042214087102757e-07   3.632733050190477e-07   -2.7890242134100346e-06
8.042214087102757e-07   3.632733050190477e-07   -2.7890242134100346e-06
3.83709669506474e-06   -3.906008733902842e-07   -7.39149185028859e-06
3.83709669506474e-06   -3.906008733902842e-07   -7.39149185028859e-06
3.83709669506474e-06   -3.906008733902842e-07   -7.39149185028859e-06
3.83709669506474e-06   -3.906008733902842e-07   -7.39149185028859e-06
2.0100106485200866e-06   -2.051348915406751e-07   -4.457628028490827e-06
2.0100106485200866e-06   -2.051348915406751e-07   -4.457628028490827e-06
2.0100106485200866e-06   -2.051348915406751e-07   -4.457628028490827e-06
2.0100106485200866e-06   -2.051348915406751e-07   -4.457628028490827e-06
2.6564143779258896e-07   -4.5468179962141874e-08   -6.699765624580022e-06
2.6564143779258896e-07   -4.5468179962141874e-08   -6.699765624580022e-06
2.6564143779258896e-07   -4.5468179962141874e-08   -6.699765624580022e-06
2.6564143779258896e-07   -4.5468179962141874e-08   -6.699765624580022e-06
-2.2152838466532994e-06   -3.71967875995049e-07   -1.1030540916276242e-05
-2.2152838466532994e-06   -3.71967875995049e-07   -1.1030540916276242e-05
-2.2152838466532994e-06   -3.71967875995049e-07   -1.1030540916276242e-05
-2.2152838466532994e-06   -3.71967875995049e-07   -1.1030540916276242e-05
-2.0669424839679754e-06   2.3509894021437943e-07   -6.736177560165597e-06
-2.0669424839679754e-06   2.3509894021437943e-07   -6.736177560165597e-06
-2.0669424839679754e-06   2.3509894021437943e-07   -6.736177560165597e-06
-2.0669424839679754e-06   2.3509894021437943e-07   -6.736177560165597e-06
4.368901337672938e-07   -1.373742126578657e-07   -1.0685748031334327e-05
4.368901337672938e-07   -1.373742126578657e-07   -1.0685748031334327e-05
4.368901337672938e-07   -1.373742126578657e-07   -1.0685748031334327e-05
4.368901337672938e-07   -1.373742126578657e-07   -1.0685748031334327e-05
-8.748053253825339e-07   -7.320115376157309e-09   -8.57762139112029e-06
-8.748053253825339e-07   -7.320115376157309e-09   -8.57762139112029e-06
-8.748053253825339e-07   -7.320115376157309e-09   -8.57762139112029e-06
-8.748053253825339e-07   -7.320115376157309e-09   -8.57762139112029e-06
4.3689013376730057e-07   2.3509894021432522e-07   -6.51269366844218e-06
4.3689013376730057e-07   2.3509894021432522e-07   -6.51269366844218e-06
4.3689013376730057e-07   2.3509894021432522e-07   -6.51269366844218e-06
4.3689013376730057e-07   2.3509894021432522e-07   -6.51269366844218e-06
-2.0669424839679754e-06   -1.3737421265791992e-07   -1.0909231923057744e-05
-2.0669424839679754e-06   -1.3737421265791992e-07   -1.0909231923057744e-05
-2.0669424839679754e-06   -1.3737421265791992e-07   -1.0909231923057744e-05
-2.0669424839679754e-06   -1.3737421265791992e-07   -1.0909231923057744e-05
-1.917676287721525e-06   5.064568327763585e-07   -6.747449420370312e-06
-1.917676287721525e-06   5.064568327763585e-07   -6.747449420370312e-06
-1.917676287721525e-06   5.064568327763585e-07   -6.747449420370312e-06
-1.917676287721525e-06   5.064568327763585e-07   -6.747449420370312e-06
6.39734240122822e-07   1.0596420425449749e-07   -1.0769504722997776e-05
6.39734240122822e-07   1.0596420425449749e-07   -1.0769504722997776e-05
6.39734240122822e-07   1.0596420425449749e-07   -1.0769504722997776e-05
6.39734240122822e-07   1.0596420425449749e-07   -1.0769504722997776e-05
-7.446167597027527e-07   1.868805452374749e-07   -8.510802861211647e-06
-7.446167597027527e-07   1.868805452374749e-07   -8.510802861211647e-06
-7.446167597027527e-07   1.868805452374749e-07   -8.510802861211647e-06
-7.446167597027527e-07   1.868805452374749e-07   -8.510802861211647e-06
6.39734240122822e-07   5.064568327763585e-07   -6.507153843257195e-06
6.39734240122822e-07   5.064568327763585e-07   -6.507153843257195e-06
6.39734240122822e-07   5.064568327763585e-07   -6.507153843257195e-06
6.39734240122822e-07   5.064568327763585e-07   -6.507153843257195e-06
-1.917676287721525e-06   1.0596420425449749e-07   -1.1009800300110933e-05
-1.917676287721525e-06   1.0596420425449749e-07   -1.1009800300110933e-05
-1.917676287721525e-06   1.0596420425449749e-07   -1.1009800300110933e-05
-1.917676287721525e-06   1.0596420425449749e-07   -1.1009800300110933e-05
-1.7757150066552446e-06   8.175869180396841e-07   -6.918667305088699e-06
-1.7757150066552446e-06   8.175869180396841e-07   -6.918667305088699e-06
-1.7757150066552446e-06   8.175869180396841e-07   -6.918667305088699e-06
-1.7757150066552446e-06   8.175869180396841e-07   -6.918667305088699e-06
8.042214087102757e-07   3.953123646244401e-07   -1.0965196598648793e-05
8.042214087102757e-07   3.953123646244401e-07   -1.0965196598648793e-05
8.042214087102757e-07   3.953123646244401e-07   -1.0965196598648793e-05
8.042214087102757e-07   3.953123646244401e-07   -1.0965196598648793e-05
-5.983254706262023e-07   4.0335812210369774e-07   -8.632445920909052e-06
-5.983254706262023e-07   4.0335812210369774e-07   -8.632445920909052e-06
-5.983254706262023e-07   4.0335812210369774e-07   -8.632445920909052e-06
-5.983254706262023e-07   4.0335812210369774e-07   -8.632445920909052e-06
-2.2152838466532994e-06   2.4115942182632594e-07   -8.137488272849528e-06
-2.2152838466532994e-06   2.4115942182632594e-07   -8.137488272849528e-06
-2.2152838466532994e-06   2.4115942182632594e-07   -8.137488272849528e-06
-2.2152838466532994e-06   2.4115942182632594e-07   -8.137488272849528e-06
-4.671212195506648e-06   3.0345165640476793e-07   -1.219332684685806e-05
-4.671212195506648e-06   3.0345165640476793e-07   -1.219332684685806e-05
-4.671212195506648e-06   3.0345165640476793e-07   -1.219332684685806e-05
-4.671212195506648e-06   3.0345165640476793e-07   -1.219332684685806e-05
-4.52223759714713e-06   5.327416799339683e-07   -7.987722105883487e-06
-4.52223759714713e-06   5.327416799339683e-07   -7.987722105883487e-06
-4.52223759714713e-06   5.327416799339683e-07   -7.987722105883487e-06
-4.52223759714713e-06   5.327416799339683e-07   -7.987722105883487e-06
-2.0669424839679754e-06   5.531832440554339e-07   -1.209214556632165e-05
-2.0669424839679754e-06   5.531832440554339e-07   -1.209214556632165e-05
-2.0669424839679754e-06   5.531832440554339e-07   -1.209214556632165e-05
-2.0669424839679754e-06   5.531832440554339e-07   -1.209214556632165e-05
-3.349511520257367e-06   4.582856854550574e-07   -9.897591970679063e-06
-3.349511520257367e-06   4.582856854550574e-07   -9.897591970679063e-06
-3.349511520257367e-06   4.582856854550574e-07   -9.897591970679063e-06
-3.349511520257367e-06   4.582856854550574e-07   -9.897591970679063e-06
-2.0669424839679754e-06   5.327416799340225e-07   -7.999987044356394e-06
-2.0669424839679754e-06   5.327416799340225e-07   -7.999987044356394e-06
-2.0669424839679754e-06   5.327416799340225e-07   -7.999987044356394e-06
-2.0669424839679754e-06   5.327416799340225e-07   -7.999987044356394e-06
-4.52223759714713e-06   5.531832440554881e-07   -1.207988062784879e-05
-4.52223759714713e-06   5.531832440554881e-07   -1.207988062784879e-05
-4.52223759714713e-06   5.531832440554881e-07   -1.207988062784879e-05
-4.52223759714713e-06   5.531832440554881e-07   -1.207988062784879e-05
-4.3702711385791414e-06   8.304812696501127e-07   -8.007592820643845e-06
-4.3702711385791414e-06   8.304812696501127e-07   -8.007592820643845e-06
-4.3702711385791414e-06   8.304812696501127e-07   -8.007592820643845e-06
-4.3702711385791414e-06   8.304812696501127e-07   -8.007592820643845e-06
-1.917676287721532e-06   8.168843522557054e-07   -1.2087092754969905e-05
-1.917676287721532e-06   8.168843522557054e-07   -1.2087092754969905e-05
-1.917676287721532e-06   8.168843522557054e-07   -1.2087092754969905e-05
-1.917676287721532e-06   8.168843522557054e-07   -1.2087092754969905e-05
-3.219283223693036e-06   6.771522512730925e-07   -9.83390860109459e-06
-3.219283223693036e-06   6.771522512730925e-07   -9.83390860109459e-06
-3.219283223693036e-06   6.771522512730925e-07   -9.83390860109459e-06
-3.219283223693036e-06   6.771522512730925e-07   -9.83390860109459e-06
-1.917676287721532e-06   8.304812696501127e-07   -7.999434670207206e-06
-1.917676287721532e-06   8.304812696501127e-07   -7.999434670207206e-06
-1.917676287721532e-06   8.304812696501127e-07   -7.999434670207206e-06
-1.917676287721532e-06   8.304812696501127e-07   -7.999434670207206e-06
-4.370271138579135e-06   8.168843522557054e-07   -1.209525090540653e-05
-4.370271138579135e-06   8.168843522557054e-07   -1.209525090540653e-05
-4.370271138579135e-06   8.168843522557054e-07   -1.209525090540653e-05
-4.370271138579135e-06   8.168843522557054e-07   -1.209525090540653e-05
-4.225476065889548e-06   1.1324639466982677e-06   -8.1885730194025e-06
-4.225476065889548e-06   1.1324639466982677e-06   -8.1885730194025e-06
-4.225476065889548e-06   1.1324639466982677e-06   -8.1885730194025e-06
-4.225476065889548e-06   1.1324639466982677e-06   -8.1885730194025e-06
-1.7757150066552446e-06   1.0852214271302738e-06   -1.2243162606385575e-05
-1.7757150066552446e-06   1.0852214271302738e-06   -1.2243162606385575e-05
-1.7757150066552446e-06   1.0852214271302738e-06   -1.2243162606385575e-05
-1.7757150066552446e-06   1.0852214271302738e-06   -1.2243162606385575e-05
-3.098783749986367e-06   8.994339093467731e-07   -9.926575523497118e-06
-3.098783749986367e-06   8.994339093467731e-07   -9.926575523497118e-06
-3.098783749986367e-06   8.994339093467731e-07   -9.926575523497118e-06
-3.098783749986367e-06   8.994339093467731e-07   -9.926575523497118e-06
-4.671212195506656e-06   5.326008584526478e-07   -6.832802399007418e-06
-4.671212195506656e-06   5.326008584526478e-07   -6.832802399007418e-06
-4.671212195506656e-06   5.326008584526478e-07   -6.832802399007418e-06
-4.671212195506656e-06   5.326008584526478e-07   -6.832802399007418e-06
-7.111289511372575e-06   9.628829093649444e-07   -1.0641428694903234e-05
-7.111289511372575e-06   9.628829093649444e-07   -1.0641428694903234e-05
-7.111289511372575e-06   9.628829093649444e-07   -1.0641428694903234e-05
-7.111289511372575e-06   9.628829093649444e-07   -1.0641428694903234e-05
-6.940019817213132e-06   8.260099649257439e-07   -6.426222121828874e-06
-6.940019817213132e-06   8.260099649257439e-07   -6.426222121828874e-06
-6.940019817213132e-06   8.260099649257439e-07   -6.426222121828874e-06
-6.940019817213132e-06   8.260099649257439e-07   -6.426222121828874e-06
-4.52223759714713e-06   1.2295690397445217e-06   -1.0697994600163438e-05
-4.52223759714713e-06   1.2295690397445217e-06   -1.0697994600163438e-05
-4.52223759714713e-06   1.2295690397445217e-06   -1.0697994600163438e-05
-4.52223759714713e-06   1.2295690397445217e-06   -1.0697994600163438e-05
-5.770750602896548e-06   9.21273966384274e-07   -8.43216254656497e-06
-5.770750602896548e-06   9.21273966384274e-07   -8.43216254656497e-06
-5.770750602896548e-06   9.21273966384274e-07   -8.43216254656497e-06
-5.770750602896548e-06   9.21273966384274e-07   -8.43216254656497e-06
-4.5222375971471385e-06   8.260099649256896e-07   -6.6683575667201135e-06
-4.5222375971471385e-06   8.260099649256896e-07   -6.6683575667201135e-06
-4.5222375971471385e-06   8.260099649256896e-07   -6.6683575667201135e-06
-4.5222375971471385e-06   8.260099649256896e-07   -6.6683575667201135e-06
-6.9400198172131455e-06   1.2295690397444675e-06   -1.0455859155272243e-05
-6.9400198172131455e-06   1.2295690397444675e-06   -1.0455859155272243e-05
-6.9400198172131455e-06   1.2295690397444675e-06   -1.0455859155272243e-05
-6.9400198172131455e-06   1.2295690397444675e-06   -1.0455859155272243e-05
-6.732011966774816e-06   1.095663820321576e-06   -6.360497544948343e-06
-6.732011966774816e-06   1.095663820321576e-06   -6.360497544948343e-06
-6.732011966774816e-06   1.095663820321576e-06   -6.360497544948343e-06
-6.732011966774816e-06   1.095663820321576e-06   -6.360497544948343e-06
-4.3702711385791414e-06   1.4689667188084315e-06   -1.0520713997699944e-05
-4.3702711385791414e-06   1.4689667188084315e-06   -1.0520713997699944e-05
-4.3702711385791414e-06   1.4689667188084315e-06   -1.0520713997699944e-05
-4.3702711385791414e-06   1.4689667188084315e-06   -1.0520713997699944e-05
-5.596676495148469e-06   1.1328083362873798e-06   -8.275010040571887e-06
-5.596676495148469e-06   1.1328083362873798e-06   -8.275010040571887e-06
-5.596676495148469e-06   1.1328083362873798e-06   -8.275010040571887e-06
-5.596676495148469e-06   1.1328083362873798e-06   -8.275010040571887e-06
-4.370271138579138e-06   1.095663820321576e-06   -6.584479284040478e-06
-4.370271138579138e-06   1.095663820321576e-06   -6.584479284040478e-06
-4.370271138579138e-06   1.095663820321576e-06   -6.584479284040478e-06
-4.370271138579138e-06   1.095663820321576e-06   -6.584479284040478e-06
-6.732011966774816e-06   1.4689667188084315e-06   -1.0296732258607887e-05
-6.732011966774816e-06   1.4689667188084315e-06   -1.0296732258607887e-05
-6.732011966774816e-06   1.4689667188084315e-06   -1.0296732258607887e-05
-6.732011966774816e-06   1.4689667188084315e-06   -1.0296732258607887e-05
-6.559473179583741e-06   1.396257878752557e-06   -6.536704737483126e-06
-6.559473179583741e-06   1.396257878752557e-06   -6.536704737483126e-06
-6.559473179583741e-06   1.396257878752557e-06   -6.536704737483126e-06
-6.559473179583741e-06   1.396257878752557e-06   -6.536704737483126e-06
-4.225476065889548e-06   1.7350265240825683e-06   -1.062996111417146e-05
-4.225476065889548e-06   1.7350265240825683e-06   -1.062996111417146e-05
-4.225476065889548e-06   1.7350265240825683e-06   -1.062996111417146e-05
-4.225476065889548e-06   1.7350265240825683e-06   -1.062996111417146e-05
-5.484431664826849e-06   1.3401049320718858e-06   -8.29474882740289e-06
-5.484431664826849e-06   1.3401049320718858e-06   -8.29474882740289e-06
-5.484431664826849e-06   1.3401049320718858e-06   -8.29474882740289e-06
-5.484431664826849e-06   1.3401049320718858e-06   -8.29474882740289e-06
-7.111289511372575e-06   9.012941650788351e-07   -3.5218430989217135e-06
-7.111289511372575e-06   9.012941650788351e-07   -3.5218430989217135e-06
-7.111289511372575e-06   9.012941650788351e-07   -3.5218430989217135e-06
-7.111289511372575e-06   9.012941650788351e-07   -3.5218430989217135e-06
-9.906826159892406e-06   1.6579820486959046e-06   -7.727058116284587e-06
-9.906826159892406e-06   1.6579820486959046e-06   -7.727058116284587e-06
-9.906826159892406e-06   1.6579820486959046e-06   -7.727058116284587e-06
-9.906826159892406e-06   1.6579820486959046e-06   -7.727058116284587e-06
-9.4177578424346e-06   1.1687101457720072e-06   -2.163505844741053e-06
-9.4177578424346e-06   1.1687101457720072e-06   -2.163505844741053e-06
-9.4177578424346e-06   1.1687101457720072e-06   -2.163505844741053e-06
-9.4177578424346e-06   1.1687101457720072e-06   -2.163505844741053e-06
-6.940019817213132e-06   1.9363179605878886e-06   -6.753633908999695e-06
-6.940019817213132e-06   1.9363179605878886e-06   -6.753633908999695e-06
-6.940019817213132e-06   1.9363179605878886e-06   -6.753633908999695e-06
-6.940019817213132e-06   1.9363179605878886e-06   -6.753633908999695e-06
-8.00484981784226e-06   1.4456335920722376e-06   -4.684506620175117e-06
-8.00484981784226e-06   1.4456335920722376e-06   -4.684506620175117e-06
-8.00484981784226e-06   1.4456335920722376e-06   -4.684506620175117e-06
-8.00484981784226e-06   1.4456335920722376e-06   -4.684506620175117e-06
-6.940019817213137e-06   1.1687101457720072e-06   -2.6240705336305387e-06
-6.940019817213137e-06   1.1687101457720072e-06   -2.6240705336305387e-06
-6.940019817213137e-06   1.1687101457720072e-06   -2.6240705336305387e-06
-6.940019817213137e-06   1.1687101457720072e-06   -2.6240705336305387e-06
-9.417757842434574e-06   1.9363179605878886e-06   -6.29306922011021e-06
-9.417757842434574e-06   1.9363179605878886e-06   -6.29306922011021e-06
-9.417757842434574e-06   1.9363179605878886e-06   -6.29306922011021e-06
-9.417757842434574e-06   1.9363179605878886e-06   -6.29306922011021e-06
-9.013660395065093e-06   1.2910233290500616e-06   -1.7412469461622587e-06
-9.013660395065093e-06   1.2910233290500616e-06   -1.7412469461622587e-06
-9.013660395065093e-06   1.2910233290500616e-06   -1.7412469461622587e-06
-9.013660395065093e-06   1.2910233290500616e-06   -1.7412469461622587e-06
-6.732011966774804e-06   2.0365285150456577e-06   -5.991297438243429e-06
-6.732011966774804e-06   2.0365285150456577e-06   -5.991297438243429e-06
-6.732011966774804e-06   2.0365285150456577e-06   -5.991297438243429e-06
-6.732011966774804e-06   2.0365285150456577e-06   -5.991297438243429e-06
-7.83545304962947e-06   1.5728112366631092e-06   -3.873998599789497e-06
-7.83545304962947e-06   1.5728112366631092e-06   -3.873998599789497e-06
-7.83545304962947e-06   1.5728112366631092e-06   -3.873998599789497e-06
-7.83545304962947e-06   1.5728112366631092e-06   -3.873998599789497e-06
-6.732011966774816e-06   1.2910233290500616e-06   -2.1885500577596218e-06
-6.732011966774816e-06   1.2910233290500616e-06   -2.1885500577596218e-06
-6.732011966774816e-06   1.2910233290500616e-06   -2.1885500577596218e-06
-6.732011966774816e-06   1.2910233290500616e-06   -2.1885500577596218e-06
-9.01366039506508e-06   2.0365285150456577e-06   -5.543994326646083e-06
-9.01366039506508e-06   2.0365285150456577e-06   -5.543994326646083e-06
-9.01366039506508e-06   2.0365285150456577e-06   -5.543994326646083e-06
-9.01366039506508e-06   2.0365285150456577e-06   -5.543994326646083e-06
-8.531951418781165e-06   1.4766294594983432e-06   -1.2882354686285689e-06
-8.531951418781165e-06   1.4766294594983432e-06   -1.2882354686285689e-06
-8.531951418781165e-06   1.4766294594983432e-06   -1.2882354686285689e-06
-8.531951418781165e-06   1.4766294594983432e-06   -1.2882354686285689e-06
-6.559473179583741e-06   2.159371775646568e-06   -4.9853445903132105e-06
-6.559473179583741e-06   2.159371775646568e-06   -4.9853445903132105e-06
-6.559473179583741e-06   2.159371775646568e-06   -4.9853445903132105e-06
-6.559473179583741e-06   2.159371775646568e-06   -4.9853445903132105e-06
-7.451478280930331e-06   1.6326901856397605e-06   -3.1826604673982045e-06
-7.451478280930331e-06   1.6326901856397605e-06   -3.1826604673982045e-06
-7.451478280930331e-06   1.6326901856397605e-06   -3.1826604673982045e-06
-7.451478280930331e-06   1.6326901856397605e-06   -3.1826604673982045e-06
7.386849578715064e-06   -9.629642089868727e-07   8.923611321312022e-08
7.386849578715064e-06   -9.629642089868727e-07   8.923611321312022e-08
7.386849578715064e-06   -9.629642089868727e-07   8.923611321312022e-08
7.386849578715064e-06   -9.629642089868727e-07   8.923611321312022e-08
3.1228571174209648e-06   -1.7178114611637093e-06   -7.47032634024978e-06
3.1228571174209648e-06   -1.7178114611637093e-06   -7.47032634024978e-06
3.1228571174209648e-06   -1.7178114611637093e-06   -7.47032634024978e-06
3.1228571174209648e-06   -1.7178114611637093e-06   -7.47032634024978e-06
3.3307996870412943e-06   -7.935846585275554e-07   -6.849015010285944e-07
3.3307996870412943e-06   -7.935846585275554e-07   -6.849015010285944e-07
3.3307996870412943e-06   -7.935846585275554e-07   -6.849015010285944e-07
3.3307996870412943e-06   -7.935846585275554e-07   -6.849015010285944e-07
7.922779604735555e-06   -1.5997832722437462e-06   -7.854482195622633e-06
7.922779604735555e-06   -1.5997832722437462e-06   -7.854482195622633e-06
7.922779604735555e-06   -1.5997832722437462e-06   -7.854482195622633e-06
7.922779604735555e-06   -1.5997832722437462e-06   -7.854482195622633e-06
5.220177481487309e-06   -1.1382581362062326e-06   -3.6270604051647274e-06
5.220177481487309e-06   -1.1382581362062326e-06   -3.6270604051647274e-06
5.220177481487309e-06   -1.1382581362062326e-06   -3.6270604051647274e-06
5.220177481487309e-06   -1.1382581362062326e-06   -3.6270604051647274e-06
7.922779604735568e-06   -7.935846585275554e-07   -2.011823327988907e-07
7.922779604735568e-06   -7.935846585275554e-07   -2.011823327988907e-07
7.922779604735568e-06   -7.935846585275554e-07   -2.011823327988907e-07
7.922779604735568e-06   -7.935846585275554e-07   -2.011823327988907e-07
3.3307996870412943e-06   -1.5997832722437462e-06   -8.338201363852364e-06
3.3307996870412943e-06   -1.5997832722437462e-06   -8.338201363852364e-06
3.3307996870412943e-06   -1.5997832722437462e-06   -8.338201363852364e-06
3.3307996870412943e-06   -1.5997832722437462e-06   -8.338201363852364e-06
3.561875411818585e-06   -6.784901349069948e-07   -1.0282158183228798e-06
3.561875411818585e-06   -6.784901349069948e-07   -1.0282158183228798e-06
3.561875411818585e-06   -6.784901349069948e-07   -1.0282158183228798e-06
3.561875411818585e-06   -6.784901349069948e-07   -1.0282158183228798e-06
8.370079822774546e-06   -1.4955880546675812e-06   -8.551631084726394e-06
8.370079822774546e-06   -1.4955880546675812e-06   -8.551631084726394e-06
8.370079822774546e-06   -1.4955880546675812e-06   -8.551631084726394e-06
8.370079822774546e-06   -1.4955880546675812e-06   -8.551631084726394e-06
5.622255186722625e-06   -1.0916977414471328e-06   -4.214257545905471e-06
5.622255186722625e-06   -1.0916977414471328e-06   -4.214257545905471e-06
5.622255186722625e-06   -1.0916977414471328e-06   -4.214257545905471e-06
5.622255186722625e-06   -1.0916977414471328e-06   -4.214257545905471e-06
8.370079822774546e-06   -6.784901349069948e-07   -5.379570664664412e-07
8.370079822774546e-06   -6.784901349069948e-07   -5.379570664664412e-07
8.370079822774546e-06   -6.784901349069948e-07   -5.379570664664412e-07
8.370079822774546e-06   -6.784901349069948e-07   -5.379570664664412e-07
3.561875411818578e-06   -1.4955880546676896e-06   -9.041889836582833e-06
3.561875411818578e-06   -1.4955880546676896e-06   -9.041889836582833e-06
3.561875411818578e-06   -1.4955880546676896e-06   -9.041889836582833e-06
3.561875411818578e-06   -1.4955880546676896e-06   -9.041889836582833e-06
3.750595380910192e-06   -3.906008733902842e-07   -1.8115251214442666e-06
3.750595380910192e-06   -3.906008733902842e-07   -1.8115251214442666e-06
3.750595380910192e-06   -3.906008733902842e-07   -1.8115251214442666e-06
3.750595380910192e-06   -3.906008733902842e-07   -1.8115251214442666e-06
8.88985923621266e-06   -1.1691823060503304e-06   -9.90981602068565e-06
8.88985923621266e-06   -1.1691823060503304e-06   -9.90981602068565e-06
8.88985923621266e-06   -1.1691823060503304e-06   -9.90981602068565e-06
8.88985923621266e-06   -1.1691823060503304e-06   -9.90981602068565e-06
5.831932782768668e-06   -9.613943858700512e-07   -4.937944683720732e-06
5.831932782768668e-06   -9.613943858700512e-07   -4.937944683720732e-06
5.831932782768668e-06   -9.613943858700512e-07   -4.937944683720732e-06
5.831932782768668e-06   -9.613943858700512e-07   -4.937944683720732e-06
3.1228571174209715e-06   -3.71967875995049e-07   -4.9147363266698984e-06
3.1228571174209715e-06   -3.71967875995049e-07   -4.9147363266698984e-06
3.1228571174209715e-06   -3.71967875995049e-07   -4.9147363266698984e-06
3.1228571174209715e-06   -3.71967875995049e-07   -4.9147363266698984e-06
-1.363752921632783e-06   -7.901182429732173e-07   -1.2643309945279709e-05
-1.363752921632783e-06   -7.901182429732173e-07   -1.2643309945279709e-05
-1.363752921632783e-06   -7.901182429732173e-07   -1.2643309945279709e-05
-1.363752921632783e-06   -7.901182429732173e-07   -1.2643309945279709e-05
-1.1719100452613432e-06   -1.373742126578657e-07   -5.016460844993345e-06
-1.1719100452613432e-06   -1.373742126578657e-07   -5.016460844993345e-06
-1.1719100452613432e-06   -1.373742126578657e-07   -5.016460844993345e-06
-1.1719100452613432e-06   -1.373742126578657e-07   -5.016460844993345e-06
3.3307996870412943e-06   -6.217478741450113e-07   -1.2230352868605399e-05
3.3307996870412943e-06   -6.217478741450113e-07   -1.2230352868605399e-05
3.3307996870412943e-06   -6.217478741450113e-07   -1.2230352868605399e-05
3.3307996870412943e-06   -6.217478741450113e-07   -1.2230352868605399e-05
9.898650671402831e-07   -3.794179514306304e-07   -8.474193122399027e-06
9.898650671402831e-07   -3.794179514306304e-07   -8.474193122399027e-06
9.898650671402831e-07   -3.794179514306304e-07   -8.474193122399027e-06
9.898650671402831e-07   -3.794179514306304e-07   -8.474193122399027e-06
3.3307996870412943e-06   -1.373742126578657e-07   -4.7258366481010795e-06
3.3307996870412943e-06   -1.373742126578657e-07   -4.7258366481010795e-06
3.3307996870412943e-06   -1.373742126578657e-07   -4.7258366481010795e-06
3.3307996870412943e-06   -1.373742126578657e-07   -4.7258366481010795e-06
-1.1719100452613364e-06   -6.217478741450113e-07   -1.2520977065497678e-05
-1.1719100452613364e-06   -6.217478741450113e-07   -1.2520977065497678e-05
-1.1719100452613364e-06   -6.217478741450113e-07   -1.2520977065497678e-05
-1.1719100452613364e-06   -6.217478741450113e-07   -1.2520977065497678e-05
-9.887988322433735e-07   1.0596420425449749e-07   -5.085674728805322e-06
-9.887988322433735e-07   1.0596420425449749e-07   -5.085674728805322e-06
-9.887988322433735e-07   1.0596420425449749e-07   -5.085674728805322e-06
-9.887988322433735e-07   1.0596420425449749e-07   -5.085674728805322e-06
3.561875411818578e-06   -4.163514223969782e-07   -1.2356742426251053e-05
3.561875411818578e-06   -4.163514223969782e-07   -1.2356742426251053e-05
3.561875411818578e-06   -4.163514223969782e-07   -1.2356742426251053e-05
3.561875411818578e-06   -4.163514223969782e-07   -1.2356742426251053e-05
1.1399877896187844e-06   -2.294238553991572e-07   -8.432419596116536e-06
1.1399877896187844e-06   -2.294238553991572e-07   -8.432419596116536e-06
1.1399877896187844e-06   -2.294238553991572e-07   -8.432419596116536e-06
1.1399877896187844e-06   -2.294238553991572e-07   -8.432419596116536e-06
3.561875411818585e-06   1.0596420425449749e-07   -4.772285352814512e-06
3.561875411818585e-06   1.0596420425449749e-07   -4.772285352814512e-06
3.561875411818585e-06   1.0596420425449749e-07   -4.772285352814512e-06
3.561875411818585e-06   1.0596420425449749e-07   -4.772285352814512e-06
-9.887988322433735e-07   -4.163514223968698e-07   -1.2670131802241944e-05
-9.887988322433735e-07   -4.163514223968698e-07   -1.2670131802241944e-05
-9.887988322433735e-07   -4.163514223968698e-07   -1.2670131802241944e-05
-9.887988322433735e-07   -4.163514223968698e-07   -1.2670131802241944e-05
-8.173935986013594e-07   3.953123646244401e-07   -5.264270484875541e-06
-8.173935986013594e-07   3.953123646244401e-07   -5.264270484875541e-06
-8.173935986013594e-07   3.953123646244401e-07   -5.264270484875541e-06
-8.173935986013594e-07   3.953123646244401e-07   -5.264270484875541e-06
3.750595380910192e-06   -1.569628389035127e-07   -1.2546220328611379e-05
3.750595380910192e-06   -1.569628389035127e-07   -1.2546220328611379e-05
3.750595380910192e-06   -1.569628389035127e-07   -1.2546220328611379e-05
3.750595380910192e-06   -1.569628389035127e-07   -1.2546220328611379e-05
1.3306428754880318e-06   -4.3799239165653175e-08   -8.580864312750686e-06
1.3306428754880318e-06   -4.3799239165653175e-08   -8.580864312750686e-06
1.3306428754880318e-06   -4.3799239165653175e-08   -8.580864312750686e-06
1.3306428754880318e-06   -4.3799239165653175e-08   -8.580864312750686e-06
-1.3637529216327897e-06   3.0345165640476793e-07   -6.365787818185672e-06
-1.3637529216327897e-06   3.0345165640476793e-07   -6.365787818185672e-06
-1.3637529216327897e-06   3.0345165640476793e-07   -6.365787818185672e-06
-1.3637529216327897e-06   3.0345165640476793e-07   -6.365787818185672e-06
-5.77122618749504e-06   1.7214804360927028e-07   -1.3790358762300048e-05
-5.77122618749504e-06   1.7214804360927028e-07   -1.3790358762300048e-05
-5.77122618749504e-06   1.7214804360927028e-07   -1.3790358762300048e-05
-5.77122618749504e-06   1.7214804360927028e-07   -1.3790358762300048e-05
-5.564948791244191e-06   5.531832440554339e-07   -6.3138870535524435e-06
-5.564948791244191e-06   5.531832440554339e-07   -6.3138870535524435e-06
-5.564948791244191e-06   5.531832440554339e-07   -6.3138870535524435e-06
-5.564948791244191e-06   5.531832440554339e-07   -6.3138870535524435e-06
-1.1719100452613364e-06   3.6232896856349794e-07   -1.3521105731562016e-05
-1.1719100452613364e-06   3.6232896856349794e-07   -1.3521105731562016e-05
-1.1719100452613364e-06   3.6232896856349794e-07   -1.3521105731562016e-05
-1.1719100452613364e-06   3.6232896856349794e-07   -1.3521105731562016e-05
-3.444785036958538e-06   4.1721858886907114e-07   -9.765914517583337e-06
-3.444785036958538e-06   4.1721858886907114e-07   -9.765914517583337e-06
-3.444785036958538e-06   4.1721858886907114e-07   -9.765914517583337e-06
-3.444785036958538e-06   4.1721858886907114e-07   -9.765914517583337e-06
-1.1719100452613432e-06   5.531832440554339e-07   -6.199374488257217e-06
-1.1719100452613432e-06   5.531832440554339e-07   -6.199374488257217e-06
-1.1719100452613432e-06   5.531832440554339e-07   -6.199374488257217e-06
-1.1719100452613432e-06   5.531832440554339e-07   -6.199374488257217e-06
-5.564948791244191e-06   3.6232896856349794e-07   -1.3635618296857195e-05
-5.564948791244191e-06   3.6232896856349794e-07   -1.3635618296857195e-05
-5.564948791244191e-06   3.6232896856349794e-07   -1.3635618296857195e-05
-5.564948791244191e-06   3.6232896856349794e-07   -1.3635618296857195e-05
-5.365614708511442e-06   8.168843522557054e-07   -6.304503475671418e-06
-5.365614708511442e-06   8.168843522557054e-07   -6.304503475671418e-06
-5.365614708511442e-06   8.168843522557054e-07   -6.304503475671418e-06
-5.365614708511442e-06   8.168843522557054e-07   -6.304503475671418e-06
-9.887988322433735e-07   5.80990532243926e-07   -1.3457660310777725e-05
-9.887988322433735e-07   5.80990532243926e-07   -1.3457660310777725e-05
-9.887988322433735e-07   5.80990532243926e-07   -1.3457660310777725e-05
-9.887988322433735e-07   5.80990532243926e-07   -1.3457660310777725e-05
-3.2680886581450945e-06   5.955548676957797e-07   -9.66758253554602e-06
-3.2680886581450945e-06   5.955548676957797e-07   -9.66758253554602e-06
-3.2680886581450945e-06   5.955548676957797e-07   -9.66758253554602e-06
-3.2680886581450945e-06   5.955548676957797e-07   -9.66758253554602e-06
-9.887988322433735e-07   8.168843522557054e-07   -6.162967183664253e-06
-9.887988322433735e-07   8.168843522557054e-07   -6.162967183664253e-06
-9.887988322433735e-07   8.168843522557054e-07   -6.162967183664253e-06
-9.887988322433735e-07   8.168843522557054e-07   -6.162967183664253e-06
-5.365614708511442e-06   5.809905322438176e-07   -1.3599196602784931e-05
-5.365614708511442e-06   5.809905322438176e-07   -1.3599196602784931e-05
-5.365614708511442e-06   5.809905322438176e-07   -1.3599196602784931e-05
-5.365614708511442e-06   5.809905322438176e-07   -1.3599196602784931e-05
-5.181483732606378e-06   1.085221427130328e-06   -6.456001181961437e-06
-5.181483732606378e-06   1.085221427130328e-06   -6.456001181961437e-06
-5.181483732606378e-06   1.085221427130328e-06   -6.456001181961437e-06
-5.181483732606378e-06   1.085221427130328e-06   -6.456001181961437e-06
-8.173935986013661e-07   8.066723914666209e-07   -1.3562355317238255e-05
-8.173935986013661e-07   8.066723914666209e-07   -1.3562355317238255e-05
-8.173935986013661e-07   8.066723914666209e-07   -1.3562355317238255e-05
-8.173935986013661e-07   8.066723914666209e-07   -1.3562355317238255e-05
-3.1109319597940465e-06   7.784986615817519e-07   -9.72288714398635e-06
-3.1109319597940465e-06   7.784986615817519e-07   -9.72288714398635e-06
-3.1109319597940465e-06   7.784986615817519e-07   -9.72288714398635e-06
-3.1109319597940465e-06   7.784986615817519e-07   -9.72288714398635e-06
-5.771226187495052e-06   9.628829093649444e-07   -5.150841064455538e-06
-5.771226187495052e-06   9.628829093649444e-07   -5.150841064455538e-06
-5.771226187495052e-06   9.628829093649444e-07   -5.150841064455538e-06
-5.771226187495052e-06   9.628829093649444e-07   -5.150841064455538e-06
-1.0113400211478913e-05   1.1694133835411314e-06   -1.2263879486589663e-05
-1.0113400211478913e-05   1.1694133835411314e-06   -1.2263879486589663e-05
-1.0113400211478913e-05   1.1694133835411314e-06   -1.2263879486589663e-05
-1.0113400211478913e-05   1.1694133835411314e-06   -1.2263879486589663e-05
-9.863738642914442e-06   1.2295690397445217e-06   -4.824370949768739e-06
-9.863738642914442e-06   1.2295690397445217e-06   -4.824370949768739e-06
-9.863738642914442e-06   1.2295690397445217e-06   -4.824370949768739e-06
-9.863738642914442e-06   1.2295690397445217e-06   -4.824370949768739e-06
-5.564948791244199e-06   1.4089524999085336e-06   -1.2096650778650977e-05
-5.564948791244199e-06   1.4089524999085336e-06   -1.2096650778650977e-05
-5.564948791244199e-06   1.4089524999085336e-06   -1.2096650778650977e-05
-5.564948791244199e-06   1.4089524999085336e-06   -1.2096650778650977e-05
-7.771469463841456e-06   1.240470649673431e-06   -8.318027214181128e-06
-7.771469463841456e-06   1.240470649673431e-06   -8.318027214181128e-06
-7.771469463841456e-06   1.240470649673431e-06   -8.318027214181128e-06
-7.771469463841456e-06   1.240470649673431e-06   -8.318027214181128e-06
-5.564948791244199e-06   1.2295690397445217e-06   -4.932001025867243e-06
-5.564948791244199e-06   1.2295690397445217e-06   -4.932001025867243e-06
-5.564948791244199e-06   1.2295690397445217e-06   -4.932001025867243e-06
-5.564948791244199e-06   1.2295690397445217e-06   -4.932001025867243e-06
-9.863738642914459e-06   1.4089524999085336e-06   -1.198902070255253e-05
-9.863738642914459e-06   1.4089524999085336e-06   -1.198902070255253e-05
-9.863738642914459e-06   1.4089524999085336e-06   -1.198902070255253e-05
-9.863738642914459e-06   1.4089524999085336e-06   -1.198902070255253e-05
-9.58519846897647e-06   1.4689667188084315e-06   -4.6423799532818505e-06
-9.58519846897647e-06   1.4689667188084315e-06   -4.6423799532818505e-06
-9.58519846897647e-06   1.4689667188084315e-06   -4.6423799532818505e-06
-9.58519846897647e-06   1.4689667188084315e-06   -4.6423799532818505e-06
-5.365614708511452e-06   1.6149444099467728e-06   -1.1762606168739918e-05
-5.365614708511452e-06   1.6149444099467728e-06   -1.1762606168739918e-05
-5.365614708511452e-06   1.6149444099467728e-06   -1.1762606168739918e-05
-5.365614708511452e-06   1.6149444099467728e-06   -1.1762606168739918e-05
-7.5166046473626595e-06   1.428204932131744e-06   -8.06557925063224e-06
-7.5166046473626595e-06   1.428204932131744e-06   -8.06557925063224e-06
-7.5166046473626595e-06   1.428204932131744e-06   -8.06557925063224e-06
-7.5166046473626595e-06   1.428204932131744e-06   -8.06557925063224e-06
-5.365614708511447e-06   1.4689667188084315e-06   -4.729966567964909e-06
-5.365614708511447e-06   1.4689667188084315e-06   -4.729966567964909e-06
-5.365614708511447e-06   1.4689667188084315e-06   -4.729966567964909e-06
-5.365614708511447e-06   1.4689667188084315e-06   -4.729966567964909e-06
-9.58519846897647e-06   1.6149444099467728e-06   -1.167501955405694e-05
-9.58519846897647e-06   1.6149444099467728e-06   -1.167501955405694e-05
-9.58519846897647e-06   1.6149444099467728e-06   -1.167501955405694e-05
-9.58519846897647e-06   1.6149444099467728e-06   -1.167501955405694e-05
-9.350431433406677e-06   1.7350265240825683e-06   -4.75070650903512e-06
-9.350431433406677e-06   1.7350265240825683e-06   -4.75070650903512e-06
-9.350431433406677e-06   1.7350265240825683e-06   -4.75070650903512e-06
-9.350431433406677e-06   1.7350265240825683e-06   -4.75070650903512e-06
-5.181483732606387e-06   1.8412726390348681e-06   -1.176270034600699e-05
-5.181483732606387e-06   1.8412726390348681e-06   -1.176270034600699e-05
-5.181483732606387e-06   1.8412726390348681e-06   -1.176270034600699e-05
-5.181483732606387e-06   1.8412726390348681e-06   -1.176270034600699e-05
-7.3637107194537275e-06   1.600512360816356e-06   -7.98119920099701e-06
-7.3637107194537275e-06   1.600512360816356e-06   -7.98119920099701e-06
-7.3637107194537275e-06   1.600512360816356e-06   -7.98119920099701e-06
-7.3637107194537275e-06   1.600512360816356e-06   -7.98119920099701e-06
-1.0113400211478913e-05   1.6579820486959046e-06   -2.566564931501497e-06
-1.0113400211478913e-05   1.6579820486959046e-06   -2.566564931501497e-06
-1.0113400211478913e-05   1.6579820486959046e-06   -2.566564931501497e-06
-1.0113400211478913e-05   1.6579820486959046e-06   -2.566564931501497e-06
-1.4709460291314932e-05   2.2754576872577098e-06   -9.856179681424397e-06
-1.4709460291314932e-05   2.2754576872577098e-06   -9.856179681424397e-06
-1.4709460291314932e-05   2.2754576872577098e-06   -9.856179681424397e-06
-1.4709460291314932e-05   2.2754576872577098e-06   -9.856179681424397e-06
-1.4120101027937295e-05   1.9363179605878886e-06   -7.275235495103399e-07
-1.4120101027937295e-05   1.9363179605878886e-06   -7.275235495103399e-07
-1.4120101027937295e-05   1.9363179605878886e-06   -7.275235495103399e-07
-1.4120101027937295e-05   1.9363179605878886e-06   -7.275235495103399e-07
-9.863738642914442e-06   2.5940215505643616e-06   -8.216083011867675e-06
-9.863738642914442e-06   2.5940215505643616e-06   -8.216083011867675e-06
-9.863738642914442e-06   2.5940215505643616e-06   -8.216083011867675e-06
-9.863738642914442e-06   2.5940215505643616e-06   -8.216083011867675e-06
-1.1698177448997562e-05   2.1669812376607376e-06   -4.902460813986946e-06
-1.1698177448997562e-05   2.1669812376607376e-06   -4.902460813986946e-06
-1.1698177448997562e-05   2.1669812376607376e-06   -4.902460813986946e-06
-1.1698177448997562e-05   2.1669812376607376e-06   -4.902460813986946e-06
-9.86373864291445e-06   1.9363179605878886e-06   -1.1221457034961912e-06
-9.86373864291445e-06   1.9363179605878886e-06   -1.1221457034961912e-06
-9.86373864291445e-06   1.9363179605878886e-06   -1.1221457034961912e-06
-9.86373864291445e-06   1.9363179605878886e-06   -1.1221457034961912e-06
-1.4120101027937271e-05   2.59402155056447e-06   -7.821460857881728e-06
-1.4120101027937271e-05   2.59402155056447e-06   -7.821460857881728e-06
-1.4120101027937271e-05   2.59402155056447e-06   -7.821460857881728e-06
-1.4120101027937271e-05   2.59402155056447e-06   -7.821460857881728e-06
-1.363544200382247e-05   2.0365285150456577e-06   4.836229241383938e-08
-1.363544200382247e-05   2.0365285150456577e-06   4.836229241383938e-08
-1.363544200382247e-05   2.0365285150456577e-06   4.836229241383938e-08
-1.363544200382247e-05   2.0365285150456577e-06   4.836229241383938e-08
-9.58519846897647e-06   2.6787075572646136e-06   -7.087351024327496e-06
-9.58519846897647e-06   2.6787075572646136e-06   -7.087351024327496e-06
-9.58519846897647e-06   2.6787075572646136e-06   -7.087351024327496e-06
-9.58519846897647e-06   2.6787075572646136e-06   -7.087351024327496e-06
-1.1510158468393237e-05   2.2967580816995667e-06   -3.649914673293722e-06
-1.1510158468393237e-05   2.2967580816995667e-06   -3.649914673293722e-06
-1.1510158468393237e-05   2.2967580816995667e-06   -3.649914673293722e-06
-1.1510158468393237e-05   2.2967580816995667e-06   -3.649914673293722e-06
-9.58519846897647e-06   2.0365285150456577e-06   -3.3694513291749077e-07
-9.58519846897647e-06   2.0365285150456577e-06   -3.3694513291749077e-07
-9.58519846897647e-06   2.0365285150456577e-06   -3.3694513291749077e-07
-9.58519846897647e-06   2.0365285150456577e-06   -3.3694513291749077e-07
-1.3635442003822422e-05   2.678707557264505e-06   -6.702043598996136e-06
-1.3635442003822422e-05   2.678707557264505e-06   -6.702043598996136e-06
-1.3635442003822422e-05   2.678707557264505e-06   -6.702043598996136e-06
-1.3635442003822422e-05   2.678707557264505e-06   -6.702043598996136e-06
-1.3108550505885378e-05   2.159371775646568e-06   1.0431451079271899e-06
-1.3108550505885378e-05   2.159371775646568e-06   1.0431451079271899e-06
-1.3108550505885378e-05   2.159371775646568e-06   1.0431451079271899e-06
-1.3108550505885378e-05   2.159371775646568e-06   1.0431451079271899e-06
-9.350431433406677e-06   2.74686557615012e-06   -5.572882959839407e-06
-9.350431433406677e-06   2.74686557615012e-06   -5.572882959839407e-06
-9.350431433406677e-06   2.74686557615012e-06   -5.572882959839407e-06
-9.350431433406677e-06   2.74686557615012e-06   -5.572882959839407e-06
-1.101178598103684e-05   2.31722393939952e-06   -2.546173731738955e-06
-1.101178598103684e-05   2.31722393939952e-06   -2.546173731738955e-06
-1.101178598103684e-05   2.31722393939952e-06   -2.546173731738955e-06
-1.101178598103684e-05   2.31722393939952e-06   -2.546173731738955e-06
1.2379138971397823e-05   -1.7178114611637093e-06   2.5976144672072753e-06
1.2379138971397823e-05   -1.7178114611637093e-06   2.5976144672072753e-06
1.2379138971397823e-05   -1.7178114611637093e-06   2.5976144672072753e-06
1.2379138971397823e-05   -1.7178114611637093e-06   2.5976144672072753e-06
5.93359681139332e-06   -2.5218861327637497e-06   -8.627400602426974e-06
5.93359681139332e-06   -2.5218861327637497e-06   -8.627400602426974e-06
5.93359681139332e-06   -2.5218861327637497e-06   -8.627400602426974e-06
5.93359681139332e-06   -2.5218861327637497e-06   -8.627400602426974e-06
6.16316221408021e-06   -1.5997832722437462e-06   1.3281425239606084e-06
6.16316221408021e-06   -1.5997832722437462e-06   1.3281425239606084e-06
6.16316221408021e-06   -1.5997832722437462e-06   1.3281425239606084e-06
6.16316221408021e-06   -1.5997832722437462e-06   1.3281425239606084e-06
1.2924799240967381e-05   -2.4655468636392225e-06   -9.421794366014147e-06
1.2924799240967381e-05   -2.4655468636392225e-06   -9.421794366014147e-06
1.2924799240967381e-05   -2.4655468636392225e-06   -9.421794366014147e-06
1.2924799240967381e-05   -2.4655468636392225e-06   -9.421794366014147e-06
8.968509713148048e-06   -1.8760215427676176e-06   -3.1816936788380803e-06
8.968509713148048e-06   -1.8760215427676176e-06   -3.1816936788380803e-06
8.968509713148048e-06   -1.8760215427676176e-06   -3.1816936788380803e-06
8.968509713148048e-06   -1.8760215427676176e-06   -3.1816936788380803e-06
1.2924799240967408e-05   -1.5997832722437462e-06   1.847600678797905e-06
1.2924799240967408e-05   -1.5997832722437462e-06   1.847600678797905e-06
1.2924799240967408e-05   -1.5997832722437462e-06   1.847600678797905e-06
1.2924799240967408e-05   -1.5997832722437462e-06   1.847600678797905e-06
6.163162214080203e-06   -2.4655468636392225e-06   -9.941252520851362e-06
6.163162214080203e-06   -2.4655468636392225e-06   -9.941252520851362e-06
6.163162214080203e-06   -2.4655468636392225e-06   -9.941252520851362e-06
6.163162214080203e-06   -2.4655468636392225e-06   -9.941252520851362e-06
6.391875538869588e-06   -1.4955880546676896e-06   7.010835403440004e-07
6.391875538869588e-06   -1.4955880546676896e-06   7.010835403440004e-07
6.391875538869588e-06   -1.4955880546676896e-06   7.010835403440004e-07
6.391875538869588e-06   -1.4955880546676896e-06   7.010835403440004e-07
1.3341687983111812e-05   -2.3790896026632327e-06   -1.0351836271262386e-05
1.3341687983111812e-05   -2.3790896026632327e-06   -1.0351836271262386e-05
1.3341687983111812e-05   -2.3790896026632327e-06   -1.0351836271262386e-05
1.3341687983111812e-05   -2.3790896026632327e-06   -1.0351836271262386e-05
9.430152821733203e-06   -1.8692705894302487e-06   -4.138502410237755e-06
9.430152821733203e-06   -1.8692705894302487e-06   -4.138502410237755e-06
9.430152821733203e-06   -1.8692705894302487e-06   -4.138502410237755e-06
9.430152821733203e-06   -1.8692705894302487e-06   -4.138502410237755e-06
1.3341687983111812e-05   -1.4955880546676896e-06   1.2311844691413804e-06
1.3341687983111812e-05   -1.4955880546676896e-06   1.2311844691413804e-06
1.3341687983111812e-05   -1.4955880546676896e-06   1.2311844691413804e-06
1.3341687983111812e-05   -1.4955880546676896e-06   1.2311844691413804e-06
6.391875538869588e-06   -2.3790896026632327e-06   -1.0881937200059712e-05
6.391875538869588e-06   -2.3790896026632327e-06   -1.0881937200059712e-05
6.391875538869588e-06   -2.3790896026632327e-06   -1.0881937200059712e-05
6.391875538869588e-06   -2.3790896026632327e-06   -1.0881937200059712e-05
6.5450323876464715e-06   -1.1691823060503304e-06   -5.51822228060596e-07
6.5450323876464715e-06   -1.1691823060503304e-06   -5.51822228060596e-07
6.5450323876464715e-06   -1.1691823060503304e-06   -5.51822228060596e-07
6.5450323876464715e-06   -1.1691823060503304e-06   -5.51822228060596e-07
1.3783240381336262e-05   -2.044987438306017e-06   -1.2090019138190139e-05
1.3783240381336262e-05   -2.044987438306017e-06   -1.2090019138190139e-05
1.3783240381336262e-05   -2.044987438306017e-06   -1.2090019138190139e-05
1.3783240381336262e-05   -2.044987438306017e-06   -1.2090019138190139e-05
9.54942564413221e-06   -1.7239614801193952e-06   -5.2262768177622554e-06
9.54942564413221e-06   -1.7239614801193952e-06   -5.2262768177622554e-06
9.54942564413221e-06   -1.7239614801193952e-06   -5.2262768177622554e-06
9.54942564413221e-06   -1.7239614801193952e-06   -5.2262768177622554e-06
5.933596811393327e-06   -7.901182429732173e-07   -2.806923720595836e-06
5.933596811393327e-06   -7.901182429732173e-07   -2.806923720595836e-06
5.933596811393327e-06   -7.901182429732173e-07   -2.806923720595836e-06
5.933596811393327e-06   -7.901182429732173e-07   -2.806923720595836e-06
-4.167341084053419e-07   -1.5996361053863782e-06   -1.3876519304374852e-05
-4.167341084053419e-07   -1.5996361053863782e-06   -1.3876519304374852e-05
-4.167341084053419e-07   -1.5996361053863782e-06   -1.3876519304374852e-05
-4.167341084053419e-07   -1.5996361053863782e-06   -1.3876519304374852e-05
-1.8234367447680222e-07   -6.217478741450113e-07   -3.1018977482127745e-06
-1.8234367447680222e-07   -6.217478741450113e-07   -3.1018977482127745e-06
-1.8234367447680222e-07   -6.217478741450113e-07   -3.1018977482127745e-06
-1.8234367447680222e-07   -6.217478741450113e-07   -3.1018977482127745e-06
6.16316221408021e-06   -1.5182291531787946e-06   -1.313985212838757e-05
6.16316221408021e-06   -1.5182291531787946e-06   -1.313985212838757e-05
6.16316221408021e-06   -1.5182291531787946e-06   -1.313985212838757e-05
6.16316221408021e-06   -1.5182291531787946e-06   -1.313985212838757e-05
2.88196825289429e-06   -9.693605383400382e-07   -8.000516695314279e-06
2.88196825289429e-06   -9.693605383400382e-07   -8.000516695314279e-06
2.88196825289429e-06   -9.693605383400382e-07   -8.000516695314279e-06
2.88196825289429e-06   -9.693605383400382e-07   -8.000516695314279e-06
6.16316221408021e-06   -6.217478741450113e-07   -2.5640089807924395e-06
6.16316221408021e-06   -6.217478741450113e-07   -2.5640089807924395e-06
6.16316221408021e-06   -6.217478741450113e-07   -2.5640089807924395e-06
6.16316221408021e-06   -6.217478741450113e-07   -2.5640089807924395e-06
-1.8234367447680222e-07   -1.5182291531787946e-06   -1.3677740895807892e-05
-1.8234367447680222e-07   -1.5182291531787946e-06   -1.3677740895807892e-05
-1.8234367447680222e-07   -1.5182291531787946e-06   -1.3677740895807892e-05
-1.8234367447680222e-07   -1.5182291531787946e-06   -1.3677740895807892e-05
2.385172103892835e-08   -4.163514223968698e-07   -3.1860835506489498e-06
2.385172103892835e-08   -4.163514223968698e-07   -3.1860835506489498e-06
2.385172103892835e-08   -4.163514223968698e-07   -3.1860835506489498e-06
2.385172103892835e-08   -4.163514223968698e-07   -3.1860835506489498e-06
6.391875538869588e-06   -1.370208924604717e-06   -1.3227142079042068e-05
6.391875538869588e-06   -1.370208924604717e-06   -1.3227142079042068e-05
6.391875538869588e-06   -1.370208924604717e-06   -1.3227142079042068e-05
6.391875538869588e-06   -1.370208924604717e-06   -1.3227142079042068e-05
3.0385120738997293e-06   -8.846815296516567e-07   -7.929519407730556e-06
3.0385120738997293e-06   -8.846815296516567e-07   -7.929519407730556e-06
3.0385120738997293e-06   -8.846815296516567e-07   -7.929519407730556e-06
3.0385120738997293e-06   -8.846815296516567e-07   -7.929519407730556e-06
6.391875538869588e-06   -4.163514223968698e-07   -2.613769049324274e-06
6.391875538869588e-06   -4.163514223968698e-07   -2.613769049324274e-06
6.391875538869588e-06   -4.163514223968698e-07   -2.613769049324274e-06
6.391875538869588e-06   -4.163514223968698e-07   -2.613769049324274e-06
2.385172103892835e-08   -1.370208924604717e-06   -1.379945658036677e-05
2.385172103892835e-08   -1.370208924604717e-06   -1.379945658036677e-05
2.385172103892835e-08   -1.370208924604717e-06   -1.379945658036677e-05
2.385172103892835e-08   -1.370208924604717e-06   -1.379945658036677e-05
1.6956278149006152e-07   -1.569628389035127e-07   -3.32250062499165e-06
1.6956278149006152e-07   -1.569628389035127e-07   -3.32250062499165e-06
1.6956278149006152e-07   -1.569628389035127e-07   -3.32250062499165e-06
1.6956278149006152e-07   -1.569628389035127e-07   -3.32250062499165e-06
6.545032387646485e-06   -1.1593344199058641e-06   -1.3346860353317727e-05
6.545032387646485e-06   -1.1593344199058641e-06   -1.3346860353317727e-05
6.545032387646485e-06   -1.1593344199058641e-06   -1.3346860353317727e-05
6.545032387646485e-06   -1.1593344199058641e-06   -1.3346860353317727e-05
3.230463761334451e-06   -7.376684469139264e-07   -8.075578893259602e-06
3.230463761334451e-06   -7.376684469139264e-07   -8.075578893259602e-06
3.230463761334451e-06   -7.376684469139264e-07   -8.075578893259602e-06
3.230463761334451e-06   -7.376684469139264e-07   -8.075578893259602e-06
-4.167341084053419e-07   1.7214804360927028e-07   -4.360901087386746e-06
-4.167341084053419e-07   1.7214804360927028e-07   -4.360901087386746e-06
-4.167341084053419e-07   1.7214804360927028e-07   -4.360901087386746e-06
-4.167341084053419e-07   1.7214804360927028e-07   -4.360901087386746e-06
-6.673423855667187e-06   -7.861951115942147e-07   -1.5363723225945232e-05
-6.673423855667187e-06   -7.861951115942147e-07   -1.5363723225945232e-05
-6.673423855667187e-06   -7.861951115942147e-07   -1.5363723225945232e-05
-6.673423855667187e-06   -7.861951115942147e-07   -1.5363723225945232e-05
-6.391731924400723e-06   3.6232896856349794e-07   -4.7326831627179326e-06
-6.391731924400723e-06   3.6232896856349794e-07   -4.7326831627179326e-06
-6.391731924400723e-06   3.6232896856349794e-07   -4.7326831627179326e-06
-6.391731924400723e-06   3.6232896856349794e-07   -4.7326831627179326e-06
-1.8234367447680222e-07   -6.887656121713076e-07   -1.445100683081694e-05
-1.8234367447680222e-07   -6.887656121713076e-07   -1.445100683081694e-05
-1.8234367447680222e-07   -6.887656121713076e-07   -1.445100683081694e-05
-1.8234367447680222e-07   -6.887656121713076e-07   -1.445100683081694e-05
-3.3774499369833772e-06   -1.1697733285536208e-07   -9.46890269422888e-06
-3.3774499369833772e-06   -1.1697733285536208e-07   -9.46890269422888e-06
-3.3774499369833772e-06   -1.1697733285536208e-07   -9.46890269422888e-06
-3.3774499369833772e-06   -1.1697733285536208e-07   -9.46890269422888e-06
-1.8234367447680222e-07   3.623289685633895e-07   -4.102026414277093e-06
-1.8234367447680222e-07   3.623289685633895e-07   -4.102026414277093e-06
-1.8234367447680222e-07   3.623289685633895e-07   -4.102026414277093e-06
-1.8234367447680222e-07   3.623289685633895e-07   -4.102026414277093e-06
-6.391731924400723e-06   -6.887656121713076e-07   -1.5081663579257854e-05
-6.391731924400723e-06   -6.887656121713076e-07   -1.5081663579257854e-05
-6.391731924400723e-06   -6.887656121713076e-07   -1.5081663579257854e-05
-6.391731924400723e-06   -6.887656121713076e-07   -1.5081663579257854e-05
-6.133350609667676e-06   5.809905322438176e-07   -4.647520653104111e-06
-6.133350609667676e-06   5.809905322438176e-07   -4.647520653104111e-06
-6.133350609667676e-06   5.809905322438176e-07   -4.647520653104111e-06
-6.133350609667676e-06   5.809905322438176e-07   -4.647520653104111e-06
2.385172103892835e-08   -5.421904576216477e-07   -1.423561594369581e-05
2.385172103892835e-08   -5.421904576216477e-07   -1.423561594369581e-05
2.385172103892835e-08   -5.421904576216477e-07   -1.423561594369581e-05
2.385172103892835e-08   -5.421904576216477e-07   -1.423561594369581e-05
-3.1490619884735514e-06   -7.321986392953665e-09   -9.2683475105789e-06
-3.1490619884735514e-06   -7.321986392953665e-09   -9.2683475105789e-06
-3.1490619884735514e-06   -7.321986392953665e-09   -9.2683475105789e-06
-3.1490619884735514e-06   -7.321986392953665e-09   -9.2683475105789e-06
2.385172103892835e-08   5.809905322438176e-07   -3.973612059184799e-06
2.385172103892835e-08   5.809905322438176e-07   -3.973612059184799e-06
2.385172103892835e-08   5.809905322438176e-07   -3.973612059184799e-06
2.385172103892835e-08   5.809905322438176e-07   -3.973612059184799e-06
-6.133350609667686e-06   -5.421904576215393e-07   -1.4909524537615182e-05
-6.133350609667686e-06   -5.421904576215393e-07   -1.4909524537615182e-05
-6.133350609667686e-06   -5.421904576215393e-07   -1.4909524537615182e-05
-6.133350609667686e-06   -5.421904576215393e-07   -1.4909524537615182e-05
-5.959567426004388e-06   8.066723914667293e-07   -4.73275865751796e-06
-5.959567426004388e-06   8.066723914667293e-07   -4.73275865751796e-06
-5.959567426004388e-06   8.066723914667293e-07   -4.73275865751796e-06
-5.959567426004388e-06   8.066723914667293e-07   -4.73275865751796e-06
1.695627814900683e-07   -4.024745518935906e-07   -1.4222487503992565e-05
1.695627814900683e-07   -4.024745518935906e-07   -1.4222487503992565e-05
1.695627814900683e-07   -4.024745518935906e-07   -1.4222487503992565e-05
1.695627814900683e-07   -4.024745518935906e-07   -1.4222487503992565e-05
-2.9872856587203757e-06   1.1517542501519352e-07   -9.271663423120652e-06
-2.9872856587203757e-06   1.1517542501519352e-07   -9.271663423120652e-06
-2.9872856587203757e-06   1.1517542501519352e-07   -9.271663423120652e-06
-2.9872856587203757e-06   1.1517542501519352e-07   -9.271663423120652e-06
-6.673423855667177e-06   1.1694133835411314e-06   -3.5333459893040014e-06
-6.673423855667177e-06   1.1694133835411314e-06   -3.5333459893040014e-06
-6.673423855667177e-06   1.1694133835411314e-06   -3.5333459893040014e-06
-6.673423855667177e-06   1.1694133835411314e-06   -3.5333459893040014e-06
-1.3024465369154031e-05   3.1488383408270065e-07   -1.4631132908123773e-05
-1.3024465369154031e-05   3.1488383408270065e-07   -1.4631132908123773e-05
-1.3024465369154031e-05   3.1488383408270065e-07   -1.4631132908123773e-05
-1.3024465369154031e-05   3.1488383408270065e-07   -1.4631132908123773e-05
-1.2622874137706762e-05   1.4089524999085336e-06   -3.746355734571738e-06
-1.2622874137706762e-05   1.4089524999085336e-06   -3.746355734571738e-06
-1.2622874137706762e-05   1.4089524999085336e-06   -3.746355734571738e-06
-1.2622874137706762e-05   1.4089524999085336e-06   -3.746355734571738e-06
-6.391731924400713e-06   4.878856831418144e-07   -1.3578952666688427e-05
-6.391731924400713e-06   4.878856831418144e-07   -1.3578952666688427e-05
-6.391731924400713e-06   4.878856831418144e-07   -1.3578952666688427e-05
-6.391731924400713e-06   4.878856831418144e-07   -1.3578952666688427e-05
-9.580443959166869e-06   9.236052720014692e-07   -8.525864362060636e-06
-9.580443959166869e-06   9.236052720014692e-07   -8.525864362060636e-06
-9.580443959166869e-06   9.236052720014692e-07   -8.525864362060636e-06
-9.580443959166869e-06   9.236052720014692e-07   -8.525864362060636e-06
-6.391731924400713e-06   1.4089524999085336e-06   -3.193715644511663e-06
-6.391731924400713e-06   1.4089524999085336e-06   -3.193715644511663e-06
-6.391731924400713e-06   1.4089524999085336e-06   -3.193715644511663e-06
-6.391731924400713e-06   1.4089524999085336e-06   -3.193715644511663e-06
-1.2622874137706784e-05   4.878856831418144e-07   -1.4131592756748488e-05
-1.2622874137706784e-05   4.878856831418144e-07   -1.4131592756748488e-05
-1.2622874137706784e-05   4.878856831418144e-07   -1.4131592756748488e-05
-1.2622874137706784e-05   4.878856831418144e-07   -1.4131592756748488e-05
-1.223225204007773e-05   1.6149444099467728e-06   -3.3920581456330133e-06
-1.223225204007773e-05   1.6149444099467728e-06   -3.3920581456330133e-06
-1.223225204007773e-05   1.6149444099467728e-06   -3.3920581456330133e-06
-1.223225204007773e-05   1.6149444099467728e-06   -3.3920581456330133e-06
-6.133350609667686e-06   6.463978656569584e-07   -1.2975765936409251e-05
-6.133350609667686e-06   6.463978656569584e-07   -1.2975765936409251e-05
-6.133350609667686e-06   6.463978656569584e-07   -1.2975765936409251e-05
-6.133350609667686e-06   6.463978656569584e-07   -1.2975765936409251e-05
-9.213919953888925e-06   1.0742407363534831e-06   -8.098189418458379e-06
-9.213919953888925e-06   1.0742407363534831e-06   -8.098189418458379e-06
-9.213919953888925e-06   1.0742407363534831e-06   -8.098189418458379e-06
-9.213919953888925e-06   1.0742407363534831e-06   -8.098189418458379e-06
-6.1333506096676656e-06   1.6149444099467728e-06   -2.8109302190590705e-06
-6.1333506096676656e-06   1.6149444099467728e-06   -2.8109302190590705e-06
-6.1333506096676656e-06   1.6149444099467728e-06   -2.8109302190590705e-06
-6.1333506096676656e-06   1.6149444099467728e-06   -2.8109302190590705e-06
-1.223225204007775e-05   6.463978656569584e-07   -1.355689386298316e-05
-1.223225204007775e-05   6.463978656569584e-07   -1.355689386298316e-05
-1.223225204007775e-05   6.463978656569584e-07   -1.355689386298316e-05
-1.223225204007775e-05   6.463978656569584e-07   -1.355689386298316e-05
-1.1939435794420414e-05   1.8412726390347597e-06   -3.4034086106437688e-06
-1.1939435794420414e-05   1.8412726390347597e-06   -3.4034086106437688e-06
-1.1939435794420414e-05   1.8412726390347597e-06   -3.4034086106437688e-06
-1.1939435794420414e-05   1.8412726390347597e-06   -3.4034086106437688e-06
-5.959567426004397e-06   7.788820627760082e-07   -1.2732421545581868e-05
-5.959567426004397e-06   7.788820627760082e-07   -1.2732421545581868e-05
-5.959567426004397e-06   7.788820627760082e-07   -1.2732421545581868e-05
-5.959567426004397e-06   7.788820627760082e-07   -1.2732421545581868e-05
-9.016762820706339e-06   1.17984769445426e-06   -7.877675266752175e-06
-9.016762820706339e-06   1.17984769445426e-06   -7.877675266752175e-06
-9.016762820706339e-06   1.17984769445426e-06   -7.877675266752175e-06
-9.016762820706339e-06   1.17984769445426e-06   -7.877675266752175e-06
-1.3024465369154031e-05   2.2754576872577098e-06   -2.008849296950921e-06
-1.3024465369154031e-05   2.2754576872577098e-06   -2.008849296950921e-06
-1.3024465369154031e-05   2.2754576872577098e-06   -2.008849296950921e-06
-1.3024465369154031e-05   2.2754576872577098e-06   -2.008849296950921e-06
-1.9680690795287937e-05   2.170590532490544e-06   -1.3165478633367844e-05
-1.9680690795287937e-05   2.170590532490544e-06   -1.3165478633367844e-05
-1.9680690795287937e-05   2.170590532490544e-06   -1.3165478633367844e-05
-1.9680690795287937e-05   2.170590532490544e-06   -1.3165478633367844e-05
-1.8869229462067364e-05   2.59402155056447e-06   1.0049175052024347e-07
-1.8869229462067364e-05   2.59402155056447e-06   1.0049175052024347e-07
-1.8869229462067364e-05   2.59402155056447e-06   1.0049175052024347e-07
-1.8869229462067364e-05   2.59402155056447e-06   1.0049175052024347e-07
-1.262287413770674e-05   2.7172045412429463e-06   -1.0384010251154586e-05
-1.262287413770674e-05   2.7172045412429463e-06   -1.0384010251154586e-05
-1.262287413770674e-05   2.7172045412429463e-06   -1.0384010251154586e-05
-1.262287413770674e-05   2.7172045412429463e-06   -1.0384010251154586e-05
-1.535842539749357e-05   2.5580182192562343e-06   -5.729246358317859e-06
-1.535842539749357e-05   2.5580182192562343e-06   -5.729246358317859e-06
-1.535842539749357e-05   2.5580182192562343e-06   -5.729246358317859e-06
-1.535842539749357e-05   2.5580182192562343e-06   -5.729246358317859e-06
-1.2622874137706772e-05   2.5940215505643616e-06   2.6581956113157744e-08
-1.2622874137706772e-05   2.5940215505643616e-06   2.6581956113157744e-08
-1.2622874137706772e-05   2.5940215505643616e-06   2.6581956113157744e-08
-1.2622874137706772e-05   2.5940215505643616e-06   2.6581956113157744e-08
-1.8869229462067364e-05   2.7172045412429463e-06   -1.0310100456747441e-05
-1.8869229462067364e-05   2.7172045412429463e-06   -1.0310100456747441e-05
-1.8869229462067364e-05   2.7172045412429463e-06   -1.0310100456747441e-05
-1.8869229462067364e-05   2.7172045412429463e-06   -1.0310100456747441e-05
-1.8199113625245073e-05   2.6787075572646136e-06   1.2932484877617011e-06
-1.8199113625245073e-05   2.6787075572646136e-06   1.2932484877617011e-06
-1.8199113625245073e-05   2.6787075572646136e-06   1.2932484877617011e-06
-1.8199113625245073e-05   2.6787075572646136e-06   1.2932484877617011e-06
-1.223225204007773e-05   2.8414377300401035e-06   -8.749158924515812e-06
-1.223225204007773e-05   2.8414377300401035e-06   -8.749158924515812e-06
-1.223225204007773e-05   2.8414377300401035e-06   -8.749158924515812e-06
-1.223225204007773e-05   2.8414377300401035e-06   -8.749158924515812e-06
-1.506850260141225e-05   2.740555330111422e-06   -3.961545215667642e-06
-1.506850260141225e-05   2.740555330111422e-06   -3.961545215667642e-06
-1.506850260141225e-05   2.740555330111422e-06   -3.961545215667642e-06
-1.506850260141225e-05   2.740555330111422e-06   -3.961545215667642e-06
-1.223225204007775e-05   2.678707557264505e-06   1.1956103840964072e-06
-1.223225204007775e-05   2.678707557264505e-06   1.1956103840964072e-06
-1.223225204007775e-05   2.678707557264505e-06   1.1956103840964072e-06
-1.223225204007775e-05   2.678707557264505e-06   1.1956103840964072e-06
-1.8199113625245043e-05   2.841437730039995e-06   -8.651520820850567e-06
-1.8199113625245043e-05   2.841437730039995e-06   -8.651520820850567e-06
-1.8199113625245043e-05   2.841437730039995e-06   -8.651520820850567e-06
-1.8199113625245043e-05   2.841437730039995e-06   -8.651520820850567e-06
-1.7495185371853576e-05   2.74686557615012e-06   2.901920224449028e-06
-1.7495185371853576e-05   2.74686557615012e-06   2.901920224449028e-06
-1.7495185371853576e-05   2.74686557615012e-06   2.901920224449028e-06
-1.7495185371853576e-05   2.74686557615012e-06   2.901920224449028e-06
-1.1939435794420414e-05   3.0456307726444256e-06   -6.536921522502911e-06
-1.1939435794420414e-05   3.0456307726444256e-06   -6.536921522502911e-06
-1.1939435794420414e-05   3.0456307726444256e-06   -6.536921522502911e-06
-1.1939435794420414e-05   3.0456307726444256e-06   -6.536921522502911e-06
-1.4382567968387937e-05   2.7981816070628664e-06   -2.3165650665415277e-06
-1.4382567968387937e-05   2.7981816070628664e-06   -2.3165650665415277e-06
-1.4382567968387937e-05   2.7981816070628664e-06   -2.3165650665415277e-06
-1.4382567968387937e-05   2.7981816070628664e-06   -2.3165650665415277e-06
1.6896223985680144e-05   -2.5218861327637497e-06   5.877386005915543e-06
1.6896223985680144e-05   -2.5218861327637497e-06   5.877386005915543e-06
1.6896223985680144e-05   -2.5218861327637497e-06   5.877386005915543e-06
1.6896223985680144e-05   -2.5218861327637497e-06   5.877386005915543e-06
8.458651386273919e-06   -3.17238674260058e-06   -8.575535358996912e-06
8.458651386273919e-06   -3.17238674260058e-06   -8.575535358996912e-06
8.458651386273919e-06   -3.17238674260058e-06   -8.575535358996912e-06
8.458651386273919e-06   -3.17238674260058e-06   -8.575535358996912e-06
8.653882224418628e-06   -2.4655468636392225e-06   4.243668145319799e-06
8.653882224418628e-06   -2.4655468636392225e-06   4.243668145319799e-06
8.653882224418628e-06   -2.4655468636392225e-06   4.243668145319799e-06
8.653882224418628e-06   -2.4655468636392225e-06   4.243668145319799e-06
1.730242561338774e-05   -3.2518643016613957e-06   -9.698780373482008e-06
1.730242561338774e-05   -3.2518643016613957e-06   -9.698780373482008e-06
1.730242561338774e-05   -3.2518643016613957e-06   -9.698780373482008e-06
1.730242561338774e-05   -3.2518643016613957e-06   -9.698780373482008e-06
1.2314364792017083e-05   -2.5754582902749734e-06   -1.7911892780295396e-06
1.2314364792017083e-05   -2.5754582902749734e-06   -1.7911892780295396e-06
1.2314364792017083e-05   -2.5754582902749734e-06   -1.7911892780295396e-06
1.2314364792017083e-05   -2.5754582902749734e-06   -1.7911892780295396e-06
1.730242561338774e-05   -2.4655468636392225e-06   4.715458608133157e-06
1.730242561338774e-05   -2.4655468636392225e-06   4.715458608133157e-06
1.730242561338774e-05   -2.4655468636392225e-06   4.715458608133157e-06
1.730242561338774e-05   -2.4655468636392225e-06   4.715458608133157e-06
8.653882224418628e-06   -3.2518643016613957e-06   -1.017057083629538e-05
8.653882224418628e-06   -3.2518643016613957e-06   -1.017057083629538e-05
8.653882224418628e-06   -3.2518643016613957e-06   -1.017057083629538e-05
8.653882224418628e-06   -3.2518643016613957e-06   -1.017057083629538e-05
8.818631866588474e-06   -2.3790896026632327e-06   3.3631245699452215e-06
8.818631866588474e-06   -2.3790896026632327e-06   3.3631245699452215e-06
8.818631866588474e-06   -2.3790896026632327e-06   3.3631245699452215e-06
8.818631866588474e-06   -2.3790896026632327e-06   3.3631245699452215e-06
1.7554410196988743e-05   -3.2201721474737523e-06   -1.0691856453835623e-05
1.7554410196988743e-05   -3.2201721474737523e-06   -1.0691856453835623e-05
1.7554410196988743e-05   -3.2201721474737523e-06   -1.0691856453835623e-05
1.7554410196988743e-05   -3.2201721474737523e-06   -1.0691856453835623e-05
1.2738256463125299e-05   -2.6540624959111615e-06   -3.004599355000716e-06
1.2738256463125299e-05   -2.6540624959111615e-06   -3.004599355000716e-06
1.2738256463125299e-05   -2.6540624959111615e-06   -3.004599355000716e-06
1.2738256463125299e-05   -2.6540624959111615e-06   -3.004599355000716e-06
1.7554410196988743e-05   -2.3790896026632327e-06   3.867774096831512e-06
1.7554410196988743e-05   -2.3790896026632327e-06   3.867774096831512e-06
1.7554410196988743e-05   -2.3790896026632327e-06   3.867774096831512e-06
1.7554410196988743e-05   -2.3790896026632327e-06   3.867774096831512e-06
8.818631866588474e-06   -3.2201721474737523e-06   -1.1196505980721886e-05
8.818631866588474e-06   -3.2201721474737523e-06   -1.1196505980721886e-05
8.818631866588474e-06   -3.2201721474737523e-06   -1.1196505980721886e-05
8.818631866588474e-06   -3.2201721474737523e-06   -1.1196505980721886e-05
8.989075899666589e-06   -2.044987438306017e-06   1.6676470011068884e-06
8.989075899666589e-06   -2.044987438306017e-06   1.6676470011068884e-06
8.989075899666589e-06   -2.044987438306017e-06   1.6676470011068884e-06
8.989075899666589e-06   -2.044987438306017e-06   1.6676470011068884e-06
1.7802665423631503e-05   -3.0345441099807703e-06   -1.2427934869163089e-05
1.7802665423631503e-05   -3.0345441099807703e-06   -1.2427934869163089e-05
1.7802665423631503e-05   -3.0345441099807703e-06   -1.2427934869163089e-05
1.7802665423631503e-05   -3.0345441099807703e-06   -1.2427934869163089e-05
1.2733610732356935e-05   -2.550665778114315e-06   -4.269837382825457e-06
1.2733610732356935e-05   -2.550665778114315e-06   -4.269837382825457e-06
1.2733610732356935e-05   -2.550665778114315e-06   -4.269837382825457e-06
1.2733610732356935e-05   -2.550665778114315e-06   -4.269837382825457e-06
8.458651386273919e-06   -1.5996361053863782e-06   7.236776555135174e-07
8.458651386273919e-06   -1.5996361053863782e-06   7.236776555135174e-07
8.458651386273919e-06   -1.5996361053863782e-06   7.236776555135174e-07
8.458651386273919e-06   -1.5996361053863782e-06   7.236776555135174e-07
9.114906961033844e-07   -3.0995029014790378e-06   -1.2754843572426343e-05
9.114906961033844e-07   -3.0995029014790378e-06   -1.2754843572426343e-05
9.114906961033844e-07   -3.0995029014790378e-06   -1.2754843572426343e-05
9.114906961033844e-07   -3.0995029014790378e-06   -1.2754843572426343e-05
1.1379392688160445e-06   -1.518229153178903e-06   1.0851141870894246e-07
1.1379392688160445e-06   -1.518229153178903e-06   1.0851141870894246e-07
1.1379392688160445e-06   -1.518229153178903e-06   1.0851141870894246e-07
1.1379392688160445e-06   -1.518229153178903e-06   1.0851141870894246e-07
8.653882224418641e-06   -3.0791576849700233e-06   -1.1481503054887359e-05
8.653882224418641e-06   -3.0791576849700233e-06   -1.1481503054887359e-05
8.653882224418641e-06   -3.0791576849700233e-06   -1.1481503054887359e-05
8.653882224418641e-06   -3.0791576849700233e-06   -1.1481503054887359e-05
4.807049527601838e-06   -2.095888382333327e-06   -5.6600768084414126e-06
4.807049527601838e-06   -2.095888382333327e-06   -5.6600768084414126e-06
4.807049527601838e-06   -2.095888382333327e-06   -5.6600768084414126e-06
4.807049527601838e-06   -2.095888382333327e-06   -5.6600768084414126e-06
8.653882224418614e-06   -1.5182291531787946e-06   1.045068537783658e-06
8.653882224418614e-06   -1.5182291531787946e-06   1.045068537783658e-06
8.653882224418614e-06   -1.5182291531787946e-06   1.045068537783658e-06
8.653882224418614e-06   -1.5182291531787946e-06   1.045068537783658e-06
1.1379392688160445e-06   -3.0791576849700233e-06   -1.2418060173961993e-05
1.1379392688160445e-06   -3.0791576849700233e-06   -1.2418060173961993e-05
1.1379392688160445e-06   -3.0791576849700233e-06   -1.2418060173961993e-05
1.1379392688160445e-06   -3.0791576849700233e-06   -1.2418060173961993e-05
1.3422090909572169e-06   -1.3702089246048254e-06   2.094256911595524e-08
1.3422090909572169e-06   -1.3702089246048254e-06   2.094256911595524e-08
1.3422090909572169e-06   -1.3702089246048254e-06   2.094256911595524e-08
1.3422090909572169e-06   -1.3702089246048254e-06   2.094256911595524e-08
8.818631866588474e-06   -3.0318374610163517e-06   -1.1442784935089193e-05
8.818631866588474e-06   -3.0318374610163517e-06   -1.1442784935089193e-05
8.818631866588474e-06   -3.0318374610163517e-06   -1.1442784935089193e-05
8.818631866588474e-06   -3.0318374610163517e-06   -1.1442784935089193e-05
4.931791799391269e-06   -2.1136188508464205e-06   -5.5156493225289765e-06
4.931791799391269e-06   -2.1136188508464205e-06   -5.5156493225289765e-06
4.931791799391269e-06   -2.1136188508464205e-06   -5.5156493225289765e-06
4.931791799391269e-06   -2.1136188508464205e-06   -5.5156493225289765e-06
8.818631866588474e-06   -1.370208924604717e-06   1.017919690962947e-06
8.818631866588474e-06   -1.370208924604717e-06   1.017919690962947e-06
8.818631866588474e-06   -1.370208924604717e-06   1.017919690962947e-06
8.818631866588474e-06   -1.370208924604717e-06   1.017919690962947e-06
1.3422090909572169e-06   -3.0318374610163517e-06   -1.2439762056936157e-05
1.3422090909572169e-06   -3.0318374610163517e-06   -1.2439762056936157e-05
1.3422090909572169e-06   -3.0318374610163517e-06   -1.2439762056936157e-05
1.3422090909572169e-06   -3.0318374610163517e-06   -1.2439762056936157e-05
1.6479992655635237e-06   -1.1593344199057557e-06   -1.3281891001414546e-07
1.6479992655635237e-06   -1.1593344199057557e-06   -1.3281891001414546e-07
1.6479992655635237e-06   -1.1593344199057557e-06   -1.3281891001414546e-07
1.6479992655635237e-06   -1.1593344199057557e-06   -1.3281891001414546e-07
8.989075899666582e-06   -2.9411807121506586e-06   -1.129883885817235e-05
8.989075899666582e-06   -2.9411807121506586e-06   -1.129883885817235e-05
8.989075899666582e-06   -2.9411807121506586e-06   -1.129883885817235e-05
8.989075899666582e-06   -2.9411807121506586e-06   -1.129883885817235e-05
5.179337273067746e-06   -2.0737808036020095e-06   -5.469714425636703e-06
5.179337273067746e-06   -2.0737808036020095e-06   -5.469714425636703e-06
5.179337273067746e-06   -2.0737808036020095e-06   -5.469714425636703e-06
5.179337273067746e-06   -2.0737808036020095e-06   -5.469714425636703e-06
9.114906961033844e-07   -7.861951115942147e-07   -1.0884404505903883e-06
9.114906961033844e-07   -7.861951115942147e-07   -1.0884404505903883e-06
9.114906961033844e-07   -7.861951115942147e-07   -1.0884404505903883e-06
9.114906961033844e-07   -7.861951115942147e-07   -1.0884404505903883e-06
-6.553791656347613e-06   -3.6510283132471693e-06   -1.5249477625667264e-05
-6.553791656347613e-06   -3.6510283132471693e-06   -1.5249477625667264e-05
-6.553791656347613e-06   -3.6510283132471693e-06   -1.5249477625667264e-05
-6.553791656347613e-06   -3.6510283132471693e-06   -1.5249477625667264e-05
-6.200052147325217e-06   -6.887656121713076e-07   -2.486477050945787e-06
-6.200052147325217e-06   -6.887656121713076e-07   -2.486477050945787e-06
-6.200052147325217e-06   -6.887656121713076e-07   -2.486477050945787e-06
-6.200052147325217e-06   -6.887656121713076e-07   -2.486477050945787e-06
1.1379392688160445e-06   -3.7249698365807073e-06   -1.2894740209868933e-05
1.1379392688160445e-06   -3.7249698365807073e-06   -1.2894740209868933e-05
1.1379392688160445e-06   -3.7249698365807073e-06   -1.2894740209868933e-05
1.1379392688160445e-06   -3.7249698365807073e-06   -1.2894740209868933e-05
-2.593846897522304e-06   -2.0426048290918177e-06   -7.684515603798389e-06
-2.593846897522304e-06   -2.0426048290918177e-06   -7.684515603798389e-06
-2.593846897522304e-06   -2.0426048290918177e-06   -7.684515603798389e-06
-2.593846897522304e-06   -2.0426048290918177e-06   -7.684515603798389e-06
1.1379392688160445e-06   -6.887656121713076e-07   -6.647545163001255e-07
1.1379392688160445e-06   -6.887656121713076e-07   -6.647545163001255e-07
1.1379392688160445e-06   -6.887656121713076e-07   -6.647545163001255e-07
1.1379392688160445e-06   -6.887656121713076e-07   -6.647545163001255e-07
-6.2000521473252305e-06   -3.7249698365807073e-06   -1.4716462744514595e-05
-6.2000521473252305e-06   -3.7249698365807073e-06   -1.4716462744514595e-05
-6.2000521473252305e-06   -3.7249698365807073e-06   -1.4716462744514595e-05
-6.2000521473252305e-06   -3.7249698365807073e-06   -1.4716462744514595e-05
-5.894076962642119e-06   -5.421904576215393e-07   -2.309505087414311e-06
-5.894076962642119e-06   -5.421904576215393e-07   -2.309505087414311e-06
-5.894076962642119e-06   -5.421904576215393e-07   -2.309505087414311e-06
-5.894076962642119e-06   -5.421904576215393e-07   -2.309505087414311e-06
1.3422090909572169e-06   -3.699337612956817e-06   -1.247569355021201e-05
1.3422090909572169e-06   -3.699337612956817e-06   -1.247569355021201e-05
1.3422090909572169e-06   -3.699337612956817e-06   -1.247569355021201e-05
1.3422090909572169e-06   -3.699337612956817e-06   -1.247569355021201e-05
-2.3431907337056996e-06   -2.0829871586231126e-06   -7.3031707817074415e-06
-2.3431907337056996e-06   -2.0829871586231126e-06   -7.3031707817074415e-06
-2.3431907337056996e-06   -2.0829871586231126e-06   -7.3031707817074415e-06
-2.3431907337056996e-06   -2.0829871586231126e-06   -7.3031707817074415e-06
1.3422090909572169e-06   -5.421904576216477e-07   -4.152167942131444e-07
1.3422090909572169e-06   -5.421904576216477e-07   -4.152167942131444e-07
1.3422090909572169e-06   -5.421904576216477e-07   -4.152167942131444e-07
1.3422090909572169e-06   -5.421904576216477e-07   -4.152167942131444e-07
-5.894076962642139e-06   -3.699337612956817e-06   -1.4369981843413238e-05
-5.894076962642139e-06   -3.699337612956817e-06   -1.4369981843413238e-05
-5.894076962642139e-06   -3.699337612956817e-06   -1.4369981843413238e-05
-5.894076962642139e-06   -3.699337612956817e-06   -1.4369981843413238e-05
-5.36543744627493e-06   -4.0247455189369903e-07   -2.301542795596248e-06
-5.36543744627493e-06   -4.0247455189369903e-07   -2.301542795596248e-06
-5.36543744627493e-06   -4.0247455189369903e-07   -2.301542795596248e-06
-5.36543744627493e-06   -4.0247455189369903e-07   -2.301542795596248e-06
1.6479992655635237e-06   -3.560007357741369e-06   -1.209608429848507e-05
1.6479992655635237e-06   -3.560007357741369e-06   -1.209608429848507e-05
1.6479992655635237e-06   -3.560007357741369e-06   -1.209608429848507e-05
1.6479992655635237e-06   -3.560007357741369e-06   -1.209608429848507e-05
-2.0170059222904302e-06   -2.0292937708225184e-06   -6.906170470879754e-06
-2.0170059222904302e-06   -2.0292937708225184e-06   -6.906170470879754e-06
-2.0170059222904302e-06   -2.0292937708225184e-06   -6.906170470879754e-06
-2.0170059222904302e-06   -2.0292937708225184e-06   -6.906170470879754e-06
-6.553791656347603e-06   3.1488383408280907e-07   -1.5620323240858277e-06
-6.553791656347603e-06   3.1488383408280907e-07   -1.5620323240858277e-06
-6.553791656347603e-06   3.1488383408280907e-07   -1.5620323240858277e-06
-6.553791656347603e-06   3.1488383408280907e-07   -1.5620323240858277e-06
-1.4847178688184665e-05   -4.46629410781206e-06   -1.8253050808951098e-05
-1.4847178688184665e-05   -4.46629410781206e-06   -1.8253050808951098e-05
-1.4847178688184665e-05   -4.46629410781206e-06   -1.8253050808951098e-05
-1.4847178688184665e-05   -4.46629410781206e-06   -1.8253050808951098e-05
-1.441793770386867e-05   4.878856831418144e-07   -4.289798271598874e-06
-1.441793770386867e-05   4.878856831418144e-07   -4.289798271598874e-06
-1.441793770386867e-05   4.878856831418144e-07   -4.289798271598874e-06
-1.441793770386867e-05   4.878856831418144e-07   -4.289798271598874e-06
-6.200052147325217e-06   -5.022167872228956e-06   -1.4680242065948763e-05
-6.200052147325217e-06   -5.022167872228956e-06   -1.4680242065948763e-05
-6.200052147325217e-06   -5.022167872228956e-06   -1.4680242065948763e-05
-6.200052147325217e-06   -5.022167872228956e-06   -1.4680242065948763e-05
-1.0358209992497632e-05   -2.22634988545549e-06   -9.427469782725473e-06
-1.0358209992497632e-05   -2.22634988545549e-06   -9.427469782725473e-06
-1.0358209992497632e-05   -2.22634988545549e-06   -9.427469782725473e-06
-1.0358209992497632e-05   -2.22634988545549e-06   -9.427469782725473e-06
-6.200052147325217e-06   4.878856831418144e-07   -9.837661383764007e-07
-6.200052147325217e-06   4.878856831418144e-07   -9.837661383764007e-07
-6.200052147325217e-06   4.878856831418144e-07   -9.837661383764007e-07
-6.200052147325217e-06   4.878856831418144e-07   -9.837661383764007e-07
-1.441793770386867e-05   -5.022167872228956e-06   -1.798627419917129e-05
-1.441793770386867e-05   -5.022167872228956e-06   -1.798627419917129e-05
-1.441793770386867e-05   -5.022167872228956e-06   -1.798627419917129e-05
-1.441793770386867e-05   -5.022167872228956e-06   -1.798627419917129e-05
-1.4007227457846866e-05   6.463978656569584e-07   -3.7887152741758923e-06
-1.4007227457846866e-05   6.463978656569584e-07   -3.7887152741758923e-06
-1.4007227457846866e-05   6.463978656569584e-07   -3.7887152741758923e-06
-1.4007227457846866e-05   6.463978656569584e-07   -3.7887152741758923e-06
-5.894076962642126e-06   -5.041883447622249e-06   -1.389766397821628e-05
-5.894076962642126e-06   -5.041883447622249e-06   -1.389766397821628e-05
-5.894076962642126e-06   -5.041883447622249e-06   -1.389766397821628e-05
-5.894076962642126e-06   -5.041883447622249e-06   -1.389766397821628e-05
-9.939447382787748e-06   -2.226405893762098e-06   -8.844666476956291e-06
-9.939447382787748e-06   -2.226405893762098e-06   -8.844666476956291e-06
-9.939447382787748e-06   -2.226405893762098e-06   -8.844666476956291e-06
-9.939447382787748e-06   -2.226405893762098e-06   -8.844666476956291e-06
-5.894076962642122e-06   6.463978656569584e-07   -3.757464862084005e-07
-5.894076962642122e-06   6.463978656569584e-07   -3.757464862084005e-07
-5.894076962642122e-06   6.463978656569584e-07   -3.757464862084005e-07
-5.894076962642122e-06   6.463978656569584e-07   -3.757464862084005e-07
-1.4007227457846893e-05   -5.041883447622249e-06   -1.7310632766183833e-05
-1.4007227457846893e-05   -5.041883447622249e-06   -1.7310632766183833e-05
-1.4007227457846893e-05   -5.041883447622249e-06   -1.7310632766183833e-05
-1.4007227457846893e-05   -5.041883447622249e-06   -1.7310632766183833e-05
-1.3328790562956375e-05   7.788820627761166e-07   -3.2843782619662826e-06
-1.3328790562956375e-05   7.788820627761166e-07   -3.2843782619662826e-06
-1.3328790562956375e-05   7.788820627761166e-07   -3.2843782619662826e-06
-1.3328790562956375e-05   7.788820627761166e-07   -3.2843782619662826e-06
-5.36543744627495e-06   -4.551767255218768e-06   -1.3358243865638488e-05
-5.36543744627495e-06   -4.551767255218768e-06   -1.3358243865638488e-05
-5.36543744627495e-06   -4.551767255218768e-06   -1.3358243865638488e-05
-5.36543744627495e-06   -4.551767255218768e-06   -1.3358243865638488e-05
-9.532286850464525e-06   -1.9310723831781652e-06   -7.98591178187999e-06
-9.532286850464525e-06   -1.9310723831781652e-06   -7.98591178187999e-06
-9.532286850464525e-06   -1.9310723831781652e-06   -7.98591178187999e-06
-9.532286850464525e-06   -1.9310723831781652e-06   -7.98591178187999e-06
-1.4847178688184665e-05   2.170590532490544e-06   -2.9021645216065098e-06
-1.4847178688184665e-05   2.170590532490544e-06   -2.9021645216065098e-06
-1.4847178688184665e-05   2.170590532490544e-06   -2.9021645216065098e-06
-1.4847178688184665e-05   2.170590532490544e-06   -2.9021645216065098e-06
-2.5371505157210778e-05   0.0   -2.174506295614441e-05
-2.5371505157210778e-05   0.0   -2.174506295614441e-05
-2.5371505157210778e-05   0.0   -2.174506295614441e-05
-2.5371505157210778e-05   0.0   -2.174506295614441e-05
-2.4749669032197037e-05   2.7172045412429463e-06   -2.1725384907507884e-06
-2.4749669032197037e-05   2.7172045412429463e-06   -2.1725384907507884e-06
-2.4749669032197037e-05   2.7172045412429463e-06   -2.1725384907507884e-06
-2.4749669032197037e-05   2.7172045412429463e-06   -2.1725384907507884e-06
-1.4417937703868644e-05   0.0   -1.7761767979885606e-05
-1.4417937703868644e-05   0.0   -1.7761767979885606e-05
-1.4417937703868644e-05   0.0   -1.7761767979885606e-05
-1.4417937703868644e-05   0.0   -1.7761767979885606e-05
-1.9005066791187037e-05   8.481495931247961e-07   -1.0625442590229901e-05
-1.9005066791187037e-05   8.481495931247961e-07   -1.0625442590229901e-05
-1.9005066791187037e-05   8.481495931247961e-07   -1.0625442590229901e-05
-1.9005066791187037e-05   8.481495931247961e-07   -1.0625442590229901e-05
-1.4417937703868657e-05   2.7172045412429463e-06   -5.422157660050207e-07
-1.4417937703868657e-05   2.7172045412429463e-06   -5.422157660050207e-07
-1.4417937703868657e-05   2.7172045412429463e-06   -5.422157660050207e-07
-1.4417937703868657e-05   2.7172045412429463e-06   -5.422157660050207e-07
-2.4749669032196993e-05   0.0   -1.9392090704631435e-05
-2.4749669032196993e-05   0.0   -1.9392090704631435e-05
-2.4749669032196993e-05   0.0   -1.9392090704631435e-05
-2.4749669032196993e-05   0.0   -1.9392090704631435e-05
-2.421963261458844e-05   2.841437730039995e-06   -6.858429737325905e-07
-2.421963261458844e-05   2.841437730039995e-06   -6.858429737325905e-07
-2.421963261458844e-05   2.841437730039995e-06   -6.858429737325905e-07
-2.421963261458844e-05   2.841437730039995e-06   -6.858429737325905e-07
-1.4007227457846893e-05   0.0   -1.600165559694463e-05
-1.4007227457846893e-05   0.0   -1.600165559694463e-05
-1.4007227457846893e-05   0.0   -1.600165559694463e-05
-1.4007227457846893e-05   0.0   -1.600165559694463e-05
-1.883654700956822e-05   1.3200813801453196e-06   -8.744838505496031e-06
-1.883654700956822e-05   1.3200813801453196e-06   -8.744838505496031e-06
-1.883654700956822e-05   1.3200813801453196e-06   -8.744838505496031e-06
-1.883654700956822e-05   1.3200813801453196e-06   -8.744838505496031e-06
-1.4007227457846893e-05   2.841437730039995e-06   1.0190196642913523e-06
-1.4007227457846893e-05   2.841437730039995e-06   1.0190196642913523e-06
-1.4007227457846893e-05   2.841437730039995e-06   1.0190196642913523e-06
-1.4007227457846893e-05   2.841437730039995e-06   1.0190196642913523e-06
-2.42196326145884e-05   0.0   -1.7706518234968593e-05
-2.42196326145884e-05   0.0   -1.7706518234968593e-05
-2.42196326145884e-05   0.0   -1.7706518234968593e-05
-2.42196326145884e-05   0.0   -1.7706518234968593e-05
-2.3158024852256203e-05   3.0456307726444256e-06   1.7211776432813166e-06
-2.3158024852256203e-05   3.0456307726444256e-06   1.7211776432813166e-06
-2.3158024852256203e-05   3.0456307726444256e-06   1.7211776432813166e-06
-2.3158024852256203e-05   3.0456307726444256e-06   1.7211776432813166e-06
-1.3328790562956397e-05   0.0   -1.2833501041965083e-05
-1.3328790562956397e-05   0.0   -1.2833501041965083e-05
-1.3328790562956397e-05   0.0   -1.2833501041965083e-05
-1.3328790562956397e-05   0.0   -1.2833501041965083e-05
-1.7895919413606728e-05   1.6211471742648984e-06   -6.194307928773465e-06
-1.7895919413606728e-05   1.6211471742648984e-06   -6.194307928773465e-06
-1.7895919413606728e-05   1.6211471742648984e-06   -6.194307928773465e-06
-1.7895919413606728e-05   1.6211471742648984e-06   -6.194307928773465e-06
1.869006306590252e-05   -3.17238674260058e-06   1.1088654145128228e-05
1.869006306590252e-05   -3.17238674260058e-06   1.1088654145128228e-05
1.869006306590252e-05   -3.17238674260058e-06   1.1088654145128228e-05
1.869006306590252e-05   -3.17238674260058e-06   1.1088654145128228e-05
9.653156517352346e-06   -2.4784682921765062e-06   -3.5565056988676462e-06
9.653156517352346e-06   -2.4784682921765062e-06   -3.5565056988676462e-06
9.653156517352346e-06   -2.4784682921765062e-06   -3.5565056988676462e-06
9.653156517352346e-06   -2.4784682921765062e-06   -3.5565056988676462e-06
9.419259596541e-06   -3.2518643016613957e-06   9.753799061026588e-06
9.419259596541e-06   -3.2518643016613957e-06   9.753799061026588e-06
9.419259596541e-06   -3.2518643016613957e-06   9.753799061026588e-06
9.419259596541e-06   -3.2518643016613957e-06   9.753799061026588e-06
1.8502571173696868e-05   -2.7186476607564836e-06   -5.704983552109499e-06
1.8502571173696868e-05   -2.7186476607564836e-06   -5.704983552109499e-06
1.8502571173696868e-05   -2.7186476607564836e-06   -5.704983552109499e-06
1.8502571173696868e-05   -2.7186476607564836e-06   -5.704983552109499e-06
1.3488487623408013e-05   -2.7518000149551625e-06   2.671713777557854e-06
1.3488487623408013e-05   -2.7518000149551625e-06   2.671713777557854e-06
1.3488487623408013e-05   -2.7518000149551625e-06   2.671713777557854e-06
1.3488487623408013e-05   -2.7518000149551625e-06   2.671713777557854e-06
1.8502571173696868e-05   -3.2518643016613957e-06   9.433869076483619e-06
1.8502571173696868e-05   -3.2518643016613957e-06   9.433869076483619e-06
1.8502571173696868e-05   -3.2518643016613957e-06   9.433869076483619e-06
1.8502571173696868e-05   -3.2518643016613957e-06   9.433869076483619e-06
9.419259596541e-06   -2.7186476607564836e-06   -5.38505356756651e-06
9.419259596541e-06   -2.7186476607564836e-06   -5.38505356756651e-06
9.419259596541e-06   -2.7186476607564836e-06   -5.38505356756651e-06
9.419259596541e-06   -2.7186476607564836e-06   -5.38505356756651e-06
9.206831472284117e-06   -3.2201721474737523e-06   8.737277703150929e-06
9.206831472284117e-06   -3.2201721474737523e-06   8.737277703150929e-06
9.206831472284117e-06   -3.2201721474737523e-06   8.737277703150929e-06
9.206831472284117e-06   -3.2201721474737523e-06   8.737277703150929e-06
1.828250541244854e-05   -2.7381787980768893e-06   -6.6780415400944295e-06
1.828250541244854e-05   -2.7381787980768893e-06   -6.6780415400944295e-06
1.828250541244854e-05   -2.7381787980768893e-06   -6.6780415400944295e-06
1.828250541244854e-05   -2.7381787980768893e-06   -6.6780415400944295e-06
1.3488811575412106e-05   -2.8001506257381873e-06   1.3486312848962935e-06
1.3488811575412106e-05   -2.8001506257381873e-06   1.3486312848962935e-06
1.3488811575412106e-05   -2.8001506257381873e-06   1.3486312848962935e-06
1.3488811575412106e-05   -2.8001506257381873e-06   1.3486312848962935e-06
1.828250541244857e-05   -3.2201721474737523e-06   8.448081693512995e-06
1.828250541244857e-05   -3.2201721474737523e-06   8.448081693512995e-06
1.828250541244857e-05   -3.2201721474737523e-06   8.448081693512995e-06
1.828250541244857e-05   -3.2201721474737523e-06   8.448081693512995e-06
9.206831472284117e-06   -2.7381787980768893e-06   -6.388845530456381e-06
9.206831472284117e-06   -2.7381787980768893e-06   -6.388845530456381e-06
9.206831472284117e-06   -2.7381787980768893e-06   -6.388845530456381e-06
9.206831472284117e-06   -2.7381787980768893e-06   -6.388845530456381e-06
8.947210081792851e-06   -3.0345441099807703e-06   7.083384165566505e-06
8.947210081792851e-06   -3.0345441099807703e-06   7.083384165566505e-06
8.947210081792851e-06   -3.0345441099807703e-06   7.083384165566505e-06
8.947210081792851e-06   -3.0345441099807703e-06   7.083384165566505e-06
1.793740485968594e-05   -2.672306172570374e-06   -8.117616560034951e-06
1.793740485968594e-05   -2.672306172570374e-06   -8.117616560034951e-06
1.793740485968594e-05   -2.672306172570374e-06   -8.117616560034951e-06
1.793740485968594e-05   -2.672306172570374e-06   -8.117616560034951e-06
1.3037819834367651e-05   -2.661722977702059e-06   4.200856524116492e-08
1.3037819834367651e-05   -2.661722977702059e-06   4.200856524116492e-08
1.3037819834367651e-05   -2.661722977702059e-06   4.200856524116492e-08
1.3037819834367651e-05   -2.661722977702059e-06   4.200856524116492e-08
9.653156517352346e-06   -3.0995029014790378e-06   8.225617079608816e-06
9.653156517352346e-06   -3.0995029014790378e-06   8.225617079608816e-06
9.653156517352346e-06   -3.0995029014790378e-06   8.225617079608816e-06
9.653156517352346e-06   -3.0995029014790378e-06   8.225617079608816e-06
1.9320488205836853e-06   -1.493626471907642e-06   -3.679369890596156e-06
1.9320488205836853e-06   -1.493626471907642e-06   -3.679369890596156e-06
1.9320488205836853e-06   -1.493626471907642e-06   -3.679369890596156e-06
1.9320488205836853e-06   -1.493626471907642e-06   -3.679369890596156e-06
1.5620744913859494e-06   -3.0791576849700233e-06   9.341467257294384e-06
1.5620744913859494e-06   -3.0791576849700233e-06   9.341467257294384e-06
1.5620744913859494e-06   -3.0791576849700233e-06   9.341467257294384e-06
1.5620744913859494e-06   -3.0791576849700233e-06   9.341467257294384e-06
9.419259596541e-06   -1.5814903268704253e-06   -4.6524416661571e-06
9.419259596541e-06   -1.5814903268704253e-06   -4.6524416661571e-06
9.419259596541e-06   -1.5814903268704253e-06   -4.6524416661571e-06
9.419259596541e-06   -1.5814903268704253e-06   -4.6524416661571e-06
5.6319785717099795e-06   -2.2271303322111058e-06   2.0470773784323046e-06
5.6319785717099795e-06   -2.2271303322111058e-06   2.0470773784323046e-06
5.6319785717099795e-06   -2.2271303322111058e-06   2.0470773784323046e-06
5.6319785717099795e-06   -2.2271303322111058e-06   2.0470773784323046e-06
9.419259596541006e-06   -3.0791576849700233e-06   8.44286684243469e-06
9.419259596541006e-06   -3.0791576849700233e-06   8.44286684243469e-06
9.419259596541006e-06   -3.0791576849700233e-06   8.44286684243469e-06
9.419259596541006e-06   -3.0791576849700233e-06   8.44286684243469e-06
1.5620744913859494e-06   -1.5814903268704253e-06   -3.7538412512973587e-06
1.5620744913859494e-06   -1.5814903268704253e-06   -3.7538412512973587e-06
1.5620744913859494e-06   -1.5814903268704253e-06   -3.7538412512973587e-06
1.5620744913859494e-06   -1.5814903268704253e-06   -3.7538412512973587e-06
1.2968740761110602e-06   -3.0318374610163517e-06   9.339822274299784e-06
1.2968740761110602e-06   -3.0318374610163517e-06   9.339822274299784e-06
1.2968740761110602e-06   -3.0318374610163517e-06   9.339822274299784e-06
1.2968740761110602e-06   -3.0318374610163517e-06   9.339822274299784e-06
9.206831472284117e-06   -1.617131585156164e-06   -4.6922635781714435e-06
9.206831472284117e-06   -1.617131585156164e-06   -4.6922635781714435e-06
9.206831472284117e-06   -1.617131585156164e-06   -4.6922635781714435e-06
9.206831472284117e-06   -1.617131585156164e-06   -4.6922635781714435e-06
5.3115730680150325e-06   -2.178885356686109e-06   2.13688602519521e-06
5.3115730680150325e-06   -2.178885356686109e-06   2.13688602519521e-06
5.3115730680150325e-06   -2.178885356686109e-06   2.13688602519521e-06
5.3115730680150325e-06   -2.178885356686109e-06   2.13688602519521e-06
9.206831472284134e-06   -3.0318374610163517e-06   8.49099874878365e-06
9.206831472284134e-06   -3.0318374610163517e-06   8.49099874878365e-06
9.206831472284134e-06   -3.0318374610163517e-06   8.49099874878365e-06
9.206831472284134e-06   -3.0318374610163517e-06   8.49099874878365e-06
1.2968740761110602e-06   -1.617131585156164e-06   -3.8434400526552955e-06
1.2968740761110602e-06   -1.617131585156164e-06   -3.8434400526552955e-06
1.2968740761110602e-06   -1.617131585156164e-06   -3.8434400526552955e-06
1.2968740761110602e-06   -1.617131585156164e-06   -3.8434400526552955e-06
1.0024276930105594e-06   -2.9411807121506586e-06   9.626184719547539e-06
1.0024276930105594e-06   -2.9411807121506586e-06   9.626184719547539e-06
1.0024276930105594e-06   -2.9411807121506586e-06   9.626184719547539e-06
1.0024276930105594e-06   -2.9411807121506586e-06   9.626184719547539e-06
8.947210081792844e-06   -1.5745631455081534e-06   -4.435089801741768e-06
8.947210081792844e-06   -1.5745631455081534e-06   -4.435089801741768e-06
8.947210081792844e-06   -1.5745631455081534e-06   -4.435089801741768e-06
8.947210081792844e-06   -1.5745631455081534e-06   -4.435089801741768e-06
5.11832436040319e-06   -2.0785618269354277e-06   2.248785609430668e-06
5.11832436040319e-06   -2.0785618269354277e-06   2.248785609430668e-06
5.11832436040319e-06   -2.0785618269354277e-06   2.248785609430668e-06
5.11832436040319e-06   -2.0785618269354277e-06   2.248785609430668e-06
1.932048820583692e-06   -3.6510283132471693e-06   8.413408805102592e-06
1.932048820583692e-06   -3.6510283132471693e-06   8.413408805102592e-06
1.932048820583692e-06   -3.6510283132471693e-06   8.413408805102592e-06
1.932048820583692e-06   -3.6510283132471693e-06   8.413408805102592e-06
-5.493937786470589e-06   -5.680782865321492e-07   -2.11346552395883e-06
-5.493937786470589e-06   -5.680782865321492e-07   -2.11346552395883e-06
-5.493937786470589e-06   -5.680782865321492e-07   -2.11346552395883e-06
-5.493937786470589e-06   -5.680782865321492e-07   -2.11346552395883e-06
-6.068448794458675e-06   -3.7249698365807073e-06   1.074099697856006e-05
-6.068448794458675e-06   -3.7249698365807073e-06   1.074099697856006e-05
-6.068448794458675e-06   -3.7249698365807073e-06   1.074099697856006e-05
-6.068448794458675e-06   -3.7249698365807073e-06   1.074099697856006e-05
1.5620744913859494e-06   -5.97953574626455e-07   -3.8527515883535955e-06
1.5620744913859494e-06   -5.97953574626455e-07   -3.8527515883535955e-06
1.5620744913859494e-06   -5.97953574626455e-07   -3.8527515883535955e-06
1.5620744913859494e-06   -5.97953574626455e-07   -3.8527515883535955e-06
-1.9541206906940147e-06   -2.0652291977090852e-06   2.887939088962627e-06
-1.9541206906940147e-06   -2.0652291977090852e-06   2.887939088962627e-06
-1.9541206906940147e-06   -2.0652291977090852e-06   2.887939088962627e-06
-1.9541206906940147e-06   -2.0652291977090852e-06   2.887939088962627e-06
1.5620744913859494e-06   -3.7249698365807073e-06   8.864787221387498e-06
1.5620744913859494e-06   -3.7249698365807073e-06   8.864787221387498e-06
1.5620744913859494e-06   -3.7249698365807073e-06   8.864787221387498e-06
1.5620744913859494e-06   -3.7249698365807073e-06   8.864787221387498e-06
-6.068448794458665e-06   -5.97953574626455e-07   -1.9765418311809384e-06
-6.068448794458665e-06   -5.97953574626455e-07   -1.9765418311809384e-06
-6.068448794458665e-06   -5.97953574626455e-07   -1.9765418311809384e-06
-6.068448794458665e-06   -5.97953574626455e-07   -1.9765418311809384e-06
-6.4218632098076715e-06   -3.699337612956817e-06   1.1142210855026537e-05
-6.4218632098076715e-06   -3.699337612956817e-06   1.1142210855026537e-05
-6.4218632098076715e-06   -3.699337612956817e-06   1.1142210855026537e-05
-6.4218632098076715e-06   -3.699337612956817e-06   1.1142210855026537e-05
1.2968740761110602e-06   -6.354708229524804e-07   -3.5606713621739837e-06
1.2968740761110602e-06   -6.354708229524804e-07   -3.5606713621739837e-06
1.2968740761110602e-06   -6.354708229524804e-07   -3.5606713621739837e-06
1.2968740761110602e-06   -6.354708229524804e-07   -3.5606713621739837e-06
-2.344163564732559e-06   -2.05244179250926e-06   3.3579072876328017e-06
-2.344163564732559e-06   -2.05244179250926e-06   3.3579072876328017e-06
-2.344163564732559e-06   -2.05244179250926e-06   3.3579072876328017e-06
-2.344163564732559e-06   -2.05244179250926e-06   3.3579072876328017e-06
1.2968740761110602e-06   -3.6993376129569253e-06   9.30389078102387e-06
1.2968740761110602e-06   -3.6993376129569253e-06   9.30389078102387e-06
1.2968740761110602e-06   -3.6993376129569253e-06   9.30389078102387e-06
1.2968740761110602e-06   -3.6993376129569253e-06   9.30389078102387e-06
-6.421863209807668e-06   -6.354708229524804e-07   -1.7223512881713574e-06
-6.421863209807668e-06   -6.354708229524804e-07   -1.7223512881713574e-06
-6.421863209807668e-06   -6.354708229524804e-07   -1.7223512881713574e-06
-6.421863209807668e-06   -6.354708229524804e-07   -1.7223512881713574e-06
-6.8348302813150135e-06   -3.560007357741369e-06   1.1657967895892436e-05
-6.8348302813150135e-06   -3.560007357741369e-06   1.1657967895892436e-05
-6.8348302813150135e-06   -3.560007357741369e-06   1.1657967895892436e-05
-6.8348302813150135e-06   -3.560007357741369e-06   1.1657967895892436e-05
1.0024276930105594e-06   -6.268059555569489e-07   -3.1640495692941706e-06
1.0024276930105594e-06   -6.268059555569489e-07   -3.1640495692941706e-06
1.0024276930105594e-06   -6.268059555569489e-07   -3.1640495692941706e-06
1.0024276930105594e-06   -6.268059555569489e-07   -3.1640495692941706e-06
-2.6629451763530975e-06   -1.9624774625388993e-06   3.74630811716774e-06
-2.6629451763530975e-06   -1.9624774625388993e-06   3.74630811716774e-06
-2.6629451763530975e-06   -1.9624774625388993e-06   3.74630811716774e-06
-2.6629451763530975e-06   -1.9624774625388993e-06   3.74630811716774e-06
-5.493937786470599e-06   -4.46629410781206e-06   1.0128312402984756e-05
-5.493937786470599e-06   -4.46629410781206e-06   1.0128312402984756e-05
-5.493937786470599e-06   -4.46629410781206e-06   1.0128312402984756e-05
-5.493937786470599e-06   -4.46629410781206e-06   1.0128312402984756e-05
-1.3882798435085615e-05   7.823318171034776e-07   -7.039464564243111e-07
-1.3882798435085615e-05   7.823318171034776e-07   -7.039464564243111e-07
-1.3882798435085615e-05   7.823318171034776e-07   -7.039464564243111e-07
-1.3882798435085615e-05   7.823318171034776e-07   -7.039464564243111e-07
-1.4581632412425702e-05   -5.022167872228956e-06   1.4241237147354611e-05
-1.4581632412425702e-05   -5.022167872228956e-06   1.4241237147354611e-05
-1.4581632412425702e-05   -5.022167872228956e-06   1.4241237147354611e-05
-1.4581632412425702e-05   -5.022167872228956e-06   1.4241237147354611e-05
-6.068448794458665e-06   7.51197944818963e-07   -3.4114217061525064e-06
-6.068448794458665e-06   7.51197944818963e-07   -3.4114217061525064e-06
-6.068448794458665e-06   7.51197944818963e-07   -3.4114217061525064e-06
-6.068448794458665e-06   7.51197944818963e-07   -3.4114217061525064e-06
-9.872379674190853e-06   -1.7762532176492053e-06   4.44493379088198e-06
-9.872379674190853e-06   -1.7762532176492053e-06   4.44493379088198e-06
-9.872379674190853e-06   -1.7762532176492053e-06   4.44493379088198e-06
-9.872379674190853e-06   -1.7762532176492053e-06   4.44493379088198e-06
-6.068448794458675e-06   -5.022167872228956e-06   1.0777217657125839e-05
-6.068448794458675e-06   -5.022167872228956e-06   1.0777217657125839e-05
-6.068448794458675e-06   -5.022167872228956e-06   1.0777217657125839e-05
-6.068448794458675e-06   -5.022167872228956e-06   1.0777217657125839e-05
-1.4581632412425702e-05   7.51197944818963e-07   5.2597784076259795e-08
-1.4581632412425702e-05   7.51197944818963e-07   5.2597784076259795e-08
-1.4581632412425702e-05   7.51197944818963e-07   5.2597784076259795e-08
-1.4581632412425702e-05   7.51197944818963e-07   5.2597784076259795e-08
-1.5005897050828485e-05   -5.041883447622249e-06   1.5049458690069703e-05
-1.5005897050828485e-05   -5.041883447622249e-06   1.5049458690069703e-05
-1.5005897050828485e-05   -5.041883447622249e-06   1.5049458690069703e-05
-1.5005897050828485e-05   -5.041883447622249e-06   1.5049458690069703e-05
-6.421863209807668e-06   6.829998354548851e-07   -2.6921943481445933e-06
-6.421863209807668e-06   6.829998354548851e-07   -2.6921943481445933e-06
-6.421863209807668e-06   6.829998354548851e-07   -2.6921943481445933e-06
-6.421863209807668e-06   6.829998354548851e-07   -2.6921943481445933e-06
-1.0320612972175924e-05   -2.0733802171046594e-06   5.4595499540049735e-06
-1.0320612972175924e-05   -2.0733802171046594e-06   5.4595499540049735e-06
-1.0320612972175924e-05   -2.0733802171046594e-06   5.4595499540049735e-06
-1.0320612972175924e-05   -2.0733802171046594e-06   5.4595499540049735e-06
-6.421863209807658e-06   -5.041883447622249e-06   1.1614528720223433e-05
-6.421863209807658e-06   -5.041883447622249e-06   1.1614528720223433e-05
-6.421863209807658e-06   -5.041883447622249e-06   1.1614528720223433e-05
-6.421863209807658e-06   -5.041883447622249e-06   1.1614528720223433e-05
-1.5005897050828458e-05   6.829998354548851e-07   7.427356217017101e-07
-1.5005897050828458e-05   6.829998354548851e-07   7.427356217017101e-07
-1.5005897050828458e-05   6.829998354548851e-07   7.427356217017101e-07
-1.5005897050828458e-05   6.829998354548851e-07   7.427356217017101e-07
-1.5464964596243554e-05   -4.551767255218768e-06   1.5384016850213133e-05
-1.5464964596243554e-05   -4.551767255218768e-06   1.5384016850213133e-05
-1.5464964596243554e-05   -4.551767255218768e-06   1.5384016850213133e-05
-1.5464964596243554e-05   -4.551767255218768e-06   1.5384016850213133e-05
-6.83483028131499e-06   6.043808080572572e-07   -2.093229179299936e-06
-6.83483028131499e-06   6.043808080572572e-07   -2.093229179299936e-06
-6.83483028131499e-06   6.043808080572572e-07   -2.093229179299936e-06
-6.83483028131499e-06   6.043808080572572e-07   -2.093229179299936e-06
-1.0789368301429215e-05   -2.0834896919745246e-06   6.110389820909609e-06
-1.0789368301429215e-05   -2.0834896919745246e-06   6.110389820909609e-06
-1.0789368301429215e-05   -2.0834896919745246e-06   6.110389820909609e-06
-1.0789368301429215e-05   -2.0834896919745246e-06   6.110389820909609e-06
-1.3882798435085568e-05   0.0   1.1087830130234962e-05
-1.3882798435085568e-05   0.0   1.1087830130234962e-05
-1.3882798435085568e-05   0.0   1.1087830130234962e-05
-1.3882798435085568e-05   0.0   1.1087830130234962e-05
-2.425034115840087e-05   3.202728133460753e-06   -4.26977086188078e-06
-2.425034115840087e-05   3.202728133460753e-06   -4.26977086188078e-06
-2.425034115840087e-05   3.202728133460753e-06   -4.26977086188078e-06
-2.425034115840087e-05   3.202728133460753e-06   -4.26977086188078e-06
-2.519815556975798e-05   0.0   1.6331867096825673e-05
-2.519815556975798e-05   0.0   1.6331867096825673e-05
-2.519815556975798e-05   0.0   1.6331867096825673e-05
-2.519815556975798e-05   0.0   1.6331867096825673e-05
-1.4581632412425675e-05   3.1102062169759657e-06   -3.2284618955803946e-06
-1.4581632412425675e-05   3.1102062169759657e-06   -3.2284618955803946e-06
-1.4581632412425675e-05   3.1102062169759657e-06   -3.2284618955803946e-06
-1.4581632412425675e-05   3.1102062169759657e-06   -3.2284618955803946e-06
-1.8650822363069114e-05   1.898767918401571e-06   4.2803843346366595e-06
-1.8650822363069114e-05   1.898767918401571e-06   4.2803843346366595e-06
-1.8650822363069114e-05   1.898767918401571e-06   4.2803843346366595e-06
-1.8650822363069114e-05   1.898767918401571e-06   4.2803843346366595e-06
-1.4581632412425662e-05   0.0   1.446574336664018e-05
-1.4581632412425662e-05   0.0   1.446574336664018e-05
-1.4581632412425662e-05   0.0   1.446574336664018e-05
-1.4581632412425662e-05   0.0   1.446574336664018e-05
-2.5198155569758026e-05   3.1102062169759657e-06   -1.362338165394807e-06
-2.5198155569758026e-05   3.1102062169759657e-06   -1.362338165394807e-06
-2.5198155569758026e-05   3.1102062169759657e-06   -1.362338165394807e-06
-2.5198155569758026e-05   3.1102062169759657e-06   -1.362338165394807e-06
-2.567354456892716e-05   0.0   1.81809498302583e-05
-2.567354456892716e-05   0.0   1.81809498302583e-05
-2.567354456892716e-05   0.0   1.81809498302583e-05
-2.567354456892716e-05   0.0   1.81809498302583e-05
-1.5005897050828458e-05   3.0375232849157293e-06   -1.4209766708556777e-06
-1.5005897050828458e-05   3.0375232849157293e-06   -1.4209766708556777e-06
-1.5005897050828458e-05   3.0375232849157293e-06   -1.4209766708556777e-06
-1.5005897050828458e-05   3.0375232849157293e-06   -1.4209766708556777e-06
-1.9585687255222698e-05   1.590724176754794e-06   7.080086468031486e-06
-1.9585687255222698e-05   1.590724176754794e-06   7.080086468031486e-06
-1.9585687255222698e-05   1.590724176754794e-06   7.080086468031486e-06
-1.9585687255222698e-05   1.590724176754794e-06   7.080086468031486e-06
-1.5005897050828458e-05   0.0   1.6358435859308885e-05
-1.5005897050828458e-05   0.0   1.6358435859308885e-05
-1.5005897050828458e-05   0.0   1.6358435859308885e-05
-1.5005897050828458e-05   0.0   1.6358435859308885e-05
-2.5673544568927248e-05   3.0375232849157293e-06   4.0153730009371115e-07
-2.5673544568927248e-05   3.0375232849157293e-06   4.0153730009371115e-07
-2.5673544568927248e-05   3.0375232849157293e-06   4.0153730009371115e-07
-2.5673544568927248e-05   3.0375232849157293e-06   4.0153730009371115e-07
-2.6195411291029984e-05   0.0   2.064273966244178e-05
-2.6195411291029984e-05   0.0   2.064273966244178e-05
-2.6195411291029984e-05   0.0   2.064273966244178e-05
-2.6195411291029984e-05   0.0   2.064273966244178e-05
-1.5464964596243554e-05   2.559317329597346e-06   1.2230714400392396e-06
-1.5464964596243554e-05   2.559317329597346e-06   1.2230714400392396e-06
-1.5464964596243554e-05   2.559317329597346e-06   1.2230714400392396e-06
-1.5464964596243554e-05   2.559317329597346e-06   1.2230714400392396e-06
-1.9722361995763564e-05   1.1305526827060357e-06   9.175992560707337e-06
-1.9722361995763564e-05   1.1305526827060357e-06   9.175992560707337e-06
-1.9722361995763564e-05   1.1305526827060357e-06   9.175992560707337e-06
-1.9722361995763564e-05   1.1305526827060357e-06   9.175992560707337e-06
1.6586702725987454e-05   -2.4784682921765062e-06   1.1646273305405193e-05
1.6586702725987454e-05   -2.4784682921765062e-06   1.1646273305405193e-05
1.6586702725987454e-05   -2.4784682921765062e-06   1.1646273305405193e-05
1.6586702725987454e-05   -2.4784682921765062e-06   1.1646273305405193e-05
8.358052220054842e-06   -1.8970961740992281e-06   -1.719320933636127e-06
8.358052220054842e-06   -1.8970961740992281e-06   -1.719320933636127e-06
8.358052220054842e-06   -1.8970961740992281e-06   -1.719320933636127e-06
8.358052220054842e-06   -1.8970961740992281e-06   -1.719320933636127e-06
8.146111195095584e-06   -2.7186476607563752e-06   1.0136995870065719e-05
8.146111195095584e-06   -2.7186476607563752e-06   1.0136995870065719e-05
8.146111195095584e-06   -2.7186476607563752e-06   1.0136995870065719e-05
8.146111195095584e-06   -2.7186476607563752e-06   1.0136995870065719e-05
1.6212087729846218e-05   -2.1426906415104603e-06   -3.651872566066218e-06
1.6212087729846218e-05   -2.1426906415104603e-06   -3.651872566066218e-06
1.6212087729846218e-05   -2.1426906415104603e-06   -3.651872566066218e-06
1.6212087729846218e-05   -2.1426906415104603e-06   -3.651872566066218e-06
1.177703073842493e-05   -2.219133000036684e-06   3.7857545014182846e-06
1.177703073842493e-05   -2.219133000036684e-06   3.7857545014182846e-06
1.177703073842493e-05   -2.219133000036684e-06   3.7857545014182846e-06
1.177703073842493e-05   -2.219133000036684e-06   3.7857545014182846e-06
1.621208772984619e-05   -2.7186476607563752e-06   9.791421658518148e-06
1.621208772984619e-05   -2.7186476607563752e-06   9.791421658518148e-06
1.621208772984619e-05   -2.7186476607563752e-06   9.791421658518148e-06
1.621208772984619e-05   -2.7186476607563752e-06   9.791421658518148e-06
8.146111195095598e-06   -2.1426906415104603e-06   -3.3062983545186202e-06
8.146111195095598e-06   -2.1426906415104603e-06   -3.3062983545186202e-06
8.146111195095598e-06   -2.1426906415104603e-06   -3.3062983545186202e-06
8.146111195095598e-06   -2.1426906415104603e-06   -3.3062983545186202e-06
7.873180689293488e-06   -2.7381787980768893e-06   9.081470596110993e-06
7.873180689293488e-06   -2.7381787980768893e-06   9.081470596110993e-06
7.873180689293488e-06   -2.7381787980768893e-06   9.081470596110993e-06
7.873180689293488e-06   -2.7381787980768893e-06   9.081470596110993e-06
1.5831448777680787e-05   -2.177403447248716e-06   -4.518774761698159e-06
1.5831448777680787e-05   -2.177403447248716e-06   -4.518774761698159e-06
1.5831448777680787e-05   -2.177403447248716e-06   -4.518774761698159e-06
1.5831448777680787e-05   -2.177403447248716e-06   -4.518774761698159e-06
1.168056328048717e-05   -2.3142865339708177e-06   2.4814975856577955e-06
1.168056328048717e-05   -2.3142865339708177e-06   2.4814975856577955e-06
1.168056328048717e-05   -2.3142865339708177e-06   2.4814975856577955e-06
1.168056328048717e-05   -2.3142865339708177e-06   2.4814975856577955e-06
1.5831448777680787e-05   -2.7381787980768893e-06   8.745005385614045e-06
1.5831448777680787e-05   -2.7381787980768893e-06   8.745005385614045e-06
1.5831448777680787e-05   -2.7381787980768893e-06   8.745005385614045e-06
1.5831448777680787e-05   -2.7381787980768893e-06   8.745005385614045e-06
7.873180689293488e-06   -2.177403447248716e-06   -4.182309551201168e-06
7.873180689293488e-06   -2.177403447248716e-06   -4.182309551201168e-06
7.873180689293488e-06   -2.177403447248716e-06   -4.182309551201168e-06
7.873180689293488e-06   -2.177403447248716e-06   -4.182309551201168e-06
7.58617452553297e-06   -2.672306172570374e-06   7.509051112445167e-06
7.58617452553297e-06   -2.672306172570374e-06   7.509051112445167e-06
7.58617452553297e-06   -2.672306172570374e-06   7.509051112445167e-06
7.58617452553297e-06   -2.672306172570374e-06   7.509051112445167e-06
1.5354427257640728e-05   -2.155666813769886e-06   -5.7480203896814e-06
1.5354427257640728e-05   -2.155666813769886e-06   -5.7480203896814e-06
1.5354427257640728e-05   -2.155666813769886e-06   -5.7480203896814e-06
1.5354427257640728e-05   -2.155666813769886e-06   -5.7480203896814e-06
1.1174513319989523e-05   -2.2510423473604164e-06   1.2757281598918026e-06
1.1174513319989523e-05   -2.2510423473604164e-06   1.2757281598918026e-06
1.1174513319989523e-05   -2.2510423473604164e-06   1.2757281598918026e-06
1.1174513319989523e-05   -2.2510423473604164e-06   1.2757281598918026e-06
8.35805222005485e-06   -1.4936264719077504e-06   1.0908706526780235e-05
8.35805222005485e-06   -1.4936264719077504e-06   1.0908706526780235e-05
8.35805222005485e-06   -1.4936264719077504e-06   1.0908706526780235e-05
8.35805222005485e-06   -1.4936264719077504e-06   1.0908706526780235e-05
8.417368618987897e-07   -6.596691154025927e-07   -1.1181113229101849e-06
8.417368618987897e-07   -6.596691154025927e-07   -1.1181113229101849e-06
8.417368618987897e-07   -6.596691154025927e-07   -1.1181113229101849e-06
8.417368618987897e-07   -6.596691154025927e-07   -1.1181113229101849e-06
6.303220278444733e-07   -1.5814903268704253e-06   1.1344563904764184e-05
6.303220278444733e-07   -1.5814903268704253e-06   1.1344563904764184e-05
6.303220278444733e-07   -1.5814903268704253e-06   1.1344563904764184e-05
6.303220278444733e-07   -1.5814903268704253e-06   1.1344563904764184e-05
8.146111195095598e-06   -7.898967713888729e-07   -1.6567075072766816e-06
8.146111195095598e-06   -7.898967713888729e-07   -1.6567075072766816e-06
8.146111195095598e-06   -7.898967713888729e-07   -1.6567075072766816e-06
8.146111195095598e-06   -7.898967713888729e-07   -1.6567075072766816e-06
4.450511487097288e-06   -1.0530227042569772e-06   4.660500899108052e-06
4.450511487097288e-06   -1.0530227042569772e-06   4.660500899108052e-06
4.450511487097288e-06   -1.0530227042569772e-06   4.660500899108052e-06
4.450511487097288e-06   -1.0530227042569772e-06   4.660500899108052e-06
8.146111195095591e-06   -1.5814903268704253e-06   1.086960777147523e-05
8.146111195095591e-06   -1.5814903268704253e-06   1.086960777147523e-05
8.146111195095591e-06   -1.5814903268704253e-06   1.086960777147523e-05
8.146111195095591e-06   -1.5814903268704253e-06   1.086960777147523e-05
6.303220278444733e-07   -7.898967713888729e-07   -1.181751373987715e-06
6.303220278444733e-07   -7.898967713888729e-07   -1.181751373987715e-06
6.303220278444733e-07   -7.898967713888729e-07   -1.181751373987715e-06
6.303220278444733e-07   -7.898967713888729e-07   -1.181751373987715e-06
3.61386538690628e-07   -1.617131585156164e-06   1.1224599625290447e-05
3.61386538690628e-07   -1.617131585156164e-06   1.1224599625290447e-05
3.61386538690628e-07   -1.617131585156164e-06   1.1224599625290447e-05
3.61386538690628e-07   -1.617131585156164e-06   1.1224599625290447e-05
7.873180689293488e-06   -8.728864569985863e-07   -1.7416043692755005e-06
7.873180689293488e-06   -8.728864569985863e-07   -1.7416043692755005e-06
7.873180689293488e-06   -8.728864569985863e-07   -1.7416043692755005e-06
7.873180689293488e-06   -8.728864569985863e-07   -1.7416043692755005e-06
4.180868953073112e-06   -1.1010402061117572e-06   4.54914077389318e-06
4.180868953073112e-06   -1.1010402061117572e-06   4.54914077389318e-06
4.180868953073112e-06   -1.1010402061117572e-06   4.54914077389318e-06
4.180868953073112e-06   -1.1010402061117572e-06   4.54914077389318e-06
7.873180689293474e-06   -1.617131585156164e-06   1.0778052548395943e-05
7.873180689293474e-06   -1.617131585156164e-06   1.0778052548395943e-05
7.873180689293474e-06   -1.617131585156164e-06   1.0778052548395943e-05
7.873180689293474e-06   -1.617131585156164e-06   1.0778052548395943e-05
3.61386538690628e-07   -8.728864569985863e-07   -1.2950572923809702e-06
3.61386538690628e-07   -8.728864569985863e-07   -1.2950572923809702e-06
3.61386538690628e-07   -8.728864569985863e-07   -1.2950572923809702e-06
3.61386538690628e-07   -8.728864569985863e-07   -1.2950572923809702e-06
6.44040357068601e-08   -1.5745631455081534e-06   1.137601168763123e-05
6.44040357068601e-08   -1.5745631455081534e-06   1.137601168763123e-05
6.44040357068601e-08   -1.5745631455081534e-06   1.137601168763123e-05
6.44040357068601e-08   -1.5745631455081534e-06   1.137601168763123e-05
7.586174525532967e-06   -9.049355132761429e-07   -1.5620490414181327e-06
7.586174525532967e-06   -9.049355132761429e-07   -1.5620490414181327e-06
7.586174525532967e-06   -9.049355132761429e-07   -1.5620490414181327e-06
7.586174525532967e-06   -9.049355132761429e-07   -1.5620490414181327e-06
3.9650746439514e-06   -1.0872210866669707e-06   4.5824887719191694e-06
3.9650746439514e-06   -1.0872210866669707e-06   4.5824887719191694e-06
3.9650746439514e-06   -1.0872210866669707e-06   4.5824887719191694e-06
3.9650746439514e-06   -1.0872210866669707e-06   4.5824887719191694e-06
8.417368618987897e-07   -5.680782865320408e-07   1.1125215291291535e-05
8.417368618987897e-07   -5.680782865320408e-07   1.1125215291291535e-05
8.417368618987897e-07   -5.680782865320408e-07   1.1125215291291535e-05
8.417368618987897e-07   -5.680782865320408e-07   1.1125215291291535e-05
-6.447128657075297e-06   6.073551117750714e-07   -3.176338680142875e-07
-6.447128657075297e-06   6.073551117750714e-07   -3.176338680142875e-07
-6.447128657075297e-06   6.073551117750714e-07   -3.176338680142875e-07
-6.447128657075297e-06   6.073551117750714e-07   -3.176338680142875e-07
-6.68569057665577e-06   -5.97953574626455e-07   1.1910942412931343e-05
-6.68569057665577e-06   -5.97953574626455e-07   1.1910942412931343e-05
-6.68569057665577e-06   -5.97953574626455e-07   1.1910942412931343e-05
-6.68569057665577e-06   -5.97953574626455e-07   1.1910942412931343e-05
6.303220278444733e-07   5.108611674125609e-07   -9.477007731257357e-07
6.303220278444733e-07   5.108611674125609e-07   -9.477007731257357e-07
6.303220278444733e-07   5.108611674125609e-07   -9.477007731257357e-07
6.303220278444733e-07   5.108611674125609e-07   -9.477007731257357e-07
-2.9101659005301783e-06   3.8948457319791865e-08   5.236260066887637e-06
-2.9101659005301783e-06   3.8948457319791865e-08   5.236260066887637e-06
-2.9101659005301783e-06   3.8948457319791865e-08   5.236260066887637e-06
-2.9101659005301783e-06   3.8948457319791865e-08   5.236260066887637e-06
6.303220278444801e-07   -5.97953574626455e-07   1.1245653567707988e-05
6.303220278444801e-07   -5.97953574626455e-07   1.1245653567707988e-05
6.303220278444801e-07   -5.97953574626455e-07   1.1245653567707988e-05
6.303220278444801e-07   -5.97953574626455e-07   1.1245653567707988e-05
-6.68569057665577e-06   5.108611674124524e-07   -2.8241192790242784e-07
-6.68569057665577e-06   5.108611674124524e-07   -2.8241192790242784e-07
-6.68569057665577e-06   5.108611674124524e-07   -2.8241192790242784e-07
-6.68569057665577e-06   5.108611674124524e-07   -2.8241192790242784e-07
-7.0033879611758944e-06   -6.354708229524804e-07   1.2141288167838622e-05
-7.0033879611758944e-06   -6.354708229524804e-07   1.2141288167838622e-05
-7.0033879611758944e-06   -6.354708229524804e-07   1.2141288167838622e-05
-7.0033879611758944e-06   -6.354708229524804e-07   1.2141288167838622e-05
3.61386538690628e-07   4.210622638255125e-07   -7.672558506723553e-07
3.61386538690628e-07   4.210622638255125e-07   -7.672558506723553e-07
3.61386538690628e-07   4.210622638255125e-07   -7.672558506723553e-07
3.61386538690628e-07   4.210622638255125e-07   -7.672558506723553e-07
-3.1449091722244603e-06   1.4028316760398424e-08   5.320790702425149e-06
-3.1449091722244603e-06   1.4028316760398424e-08   5.320790702425149e-06
-3.1449091722244603e-06   1.4028316760398424e-08   5.320790702425149e-06
-3.1449091722244603e-06   1.4028316760398424e-08   5.320790702425149e-06
3.61386538690628e-07   -6.354708229524804e-07   1.150736831577188e-05
3.61386538690628e-07   -6.354708229524804e-07   1.150736831577188e-05
3.61386538690628e-07   -6.354708229524804e-07   1.150736831577188e-05
3.61386538690628e-07   -6.354708229524804e-07   1.150736831577188e-05
-7.003387961175881e-06   4.210622638255125e-07   -1.3333599860560017e-07
-7.003387961175881e-06   4.210622638255125e-07   -1.3333599860560017e-07
-7.003387961175881e-06   4.210622638255125e-07   -1.3333599860560017e-07
-7.003387961175881e-06   4.210622638255125e-07   -1.3333599860560017e-07
-7.341817573063493e-06   -6.268059555569489e-07   1.2417467180332858e-05
-7.341817573063493e-06   -6.268059555569489e-07   1.2417467180332858e-05
-7.341817573063493e-06   -6.268059555569489e-07   1.2417467180332858e-05
-7.341817573063493e-06   -6.268059555569489e-07   1.2417467180332858e-05
6.44040357068601e-08   3.5717037817541847e-07   -5.16621301190576e-07
6.44040357068601e-08   3.5717037817541847e-07   -5.16621301190576e-07
6.44040357068601e-08   3.5717037817541847e-07   -5.16621301190576e-07
6.44040357068601e-08   3.5717037817541847e-07   -5.16621301190576e-07
-3.443442935140972e-06   -2.6465078020775426e-09   5.545680448475914e-06
-3.443442935140972e-06   -2.6465078020775426e-09   5.545680448475914e-06
-3.443442935140972e-06   -2.6465078020775426e-09   5.545680448475914e-06
-3.443442935140972e-06   -2.6465078020775426e-09   5.545680448475914e-06
-6.44712865707527e-06   7.82331817103586e-07   1.0090818842860955e-05
-6.44712865707527e-06   7.82331817103586e-07   1.0090818842860955e-05
-6.44712865707527e-06   7.82331817103586e-07   1.0090818842860955e-05
-6.44712865707527e-06   7.82331817103586e-07   1.0090818842860955e-05
-1.3612413676065988e-05   1.9510698633846447e-06   -1.150080027688253e-06
-1.3612413676065988e-05   1.9510698633846447e-06   -1.150080027688253e-06
-1.3612413676065988e-05   1.9510698633846447e-06   -1.150080027688253e-06
-1.3612413676065988e-05   1.9510698633846447e-06   -1.150080027688253e-06
-1.3955332660576031e-05   7.51197944818963e-07   1.113900483696445e-05
-1.3955332660576031e-05   7.51197944818963e-07   1.113900483696445e-05
-1.3955332660576031e-05   7.51197944818963e-07   1.113900483696445e-05
-1.3955332660576031e-05   7.51197944818963e-07   1.113900483696445e-05
-6.68569057665575e-06   1.8561017764934327e-06   -1.6400076019073352e-06
-6.68569057665575e-06   1.8561017764934327e-06   -1.6400076019073352e-06
-6.68569057665575e-06   1.8561017764934327e-06   -1.6400076019073352e-06
-6.68569057665575e-06   1.8561017764934327e-06   -1.6400076019073352e-06
-1.0097986718244351e-05   1.3534644855439388e-06   4.348735008643406e-06
-1.0097986718244351e-05   1.3534644855439388e-06   4.348735008643406e-06
-1.0097986718244351e-05   1.3534644855439388e-06   4.348735008643406e-06
-1.0097986718244351e-05   1.3534644855439388e-06   4.348735008643406e-06
-6.685690576655757e-06   7.51197944818963e-07   1.0476062537959768e-05
-6.685690576655757e-06   7.51197944818963e-07   1.0476062537959768e-05
-6.685690576655757e-06   7.51197944818963e-07   1.0476062537959768e-05
-6.685690576655757e-06   7.51197944818963e-07   1.0476062537959768e-05
-1.3955332660576004e-05   1.8561017764934327e-06   -9.77065302902667e-07
-1.3955332660576004e-05   1.8561017764934327e-06   -9.77065302902667e-07
-1.3955332660576004e-05   1.8561017764934327e-06   -9.77065302902667e-07
-1.3955332660576004e-05   1.8561017764934327e-06   -9.77065302902667e-07
-1.4377136914402607e-05   6.829998354548851e-07   1.1821632580193923e-05
-1.4377136914402607e-05   6.829998354548851e-07   1.1821632580193923e-05
-1.4377136914402607e-05   6.829998354548851e-07   1.1821632580193923e-05
-1.4377136914402607e-05   6.829998354548851e-07   1.1821632580193923e-05
-7.003387961175881e-06   1.7666456226690923e-06   -1.1181364808458155e-06
-7.003387961175881e-06   1.7666456226690923e-06   -1.1181364808458155e-06
-7.003387961175881e-06   1.7666456226690923e-06   -1.1181364808458155e-06
-7.003387961175881e-06   1.7666456226690923e-06   -1.1181364808458155e-06
-1.0350278906588445e-05   1.3352549282743317e-06   4.718849511478596e-06
-1.0350278906588445e-05   1.3352549282743317e-06   4.718849511478596e-06
-1.0350278906588445e-05   1.3352549282743317e-06   4.718849511478596e-06
-1.0350278906588445e-05   1.3352549282743317e-06   4.718849511478596e-06
-7.003387961175881e-06   6.829998354548851e-07   1.1171445107865366e-05
-7.003387961175881e-06   6.829998354548851e-07   1.1171445107865366e-05
-7.003387961175881e-06   6.829998354548851e-07   1.1171445107865366e-05
-7.003387961175881e-06   6.829998354548851e-07   1.1171445107865366e-05
-1.4377136914402607e-05   1.7666456226690923e-06   -4.679490085173128e-07
-1.4377136914402607e-05   1.7666456226690923e-06   -4.679490085173128e-07
-1.4377136914402607e-05   1.7666456226690923e-06   -4.679490085173128e-07
-1.4377136914402607e-05   1.7666456226690923e-06   -4.679490085173128e-07
-1.4821691929456039e-05   6.043808080571488e-07   1.2352459098222363e-05
-1.4821691929456039e-05   6.043808080571488e-07   1.2352459098222363e-05
-1.4821691929456039e-05   6.043808080571488e-07   1.2352459098222363e-05
-1.4821691929456039e-05   6.043808080571488e-07   1.2352459098222363e-05
-7.341817573063472e-06   1.6445347567336588e-06   -7.38090531637761e-07
-7.341817573063472e-06   1.6445347567336588e-06   -7.38090531637761e-07
-7.341817573063472e-06   1.6445347567336588e-06   -7.38090531637761e-07
-7.341817573063472e-06   1.6445347567336588e-06   -7.38090531637761e-07
-1.0781544580673437e-05   1.2639926341578584e-06   5.223113087924632e-06
-1.0781544580673437e-05   1.2639926341578584e-06   5.223113087924632e-06
-1.0781544580673437e-05   1.2639926341578584e-06   5.223113087924632e-06
-1.0781544580673437e-05   1.2639926341578584e-06   5.223113087924632e-06
-1.3612413676065988e-05   3.202728133460753e-06   5.304600385096702e-06
-1.3612413676065988e-05   3.202728133460753e-06   5.304600385096702e-06
-1.3612413676065988e-05   3.202728133460753e-06   5.304600385096702e-06
-1.3612413676065988e-05   3.202728133460753e-06   5.304600385096702e-06
-2.0505067596935246e-05   3.1731480690487535e-06   -6.200904188332647e-06
-2.0505067596935246e-05   3.1731480690487535e-06   -6.200904188332647e-06
-2.0505067596935246e-05   3.1731480690487535e-06   -6.200904188332647e-06
-2.0505067596935246e-05   3.1731480690487535e-06   -6.200904188332647e-06
-2.1123250615796847e-05   3.1102062169758573e-06   7.937159860435614e-06
-2.1123250615796847e-05   3.1102062169758573e-06   7.937159860435614e-06
-2.1123250615796847e-05   3.1102062169758573e-06   7.937159860435614e-06
-2.1123250615796847e-05   3.1102062169758573e-06   7.937159860435614e-06
-1.3955332660576004e-05   3.242230722188947e-06   -4.088584768060301e-06
-1.3955332660576004e-05   3.242230722188947e-06   -4.088584768060301e-06
-1.3955332660576004e-05   3.242230722188947e-06   -4.088584768060301e-06
-1.3955332660576004e-05   3.242230722188947e-06   -4.088584768060301e-06
-1.6602667723587266e-05   3.2248100092670392e-06   3.340927647116571e-07
-1.6602667723587266e-05   3.2248100092670392e-06   3.340927647116571e-07
-1.6602667723587266e-05   3.2248100092670392e-06   3.340927647116571e-07
-1.6602667723587266e-05   3.2248100092670392e-06   3.340927647116571e-07
-1.3955332660575997e-05   3.1102062169759657e-06   7.857945157307782e-06
-1.3955332660575997e-05   3.1102062169759657e-06   7.857945157307782e-06
-1.3955332660575997e-05   3.1102062169759657e-06   7.857945157307782e-06
-1.3955332660575997e-05   3.1102062169759657e-06   7.857945157307782e-06
-2.1123250615796847e-05   3.242230722188947e-06   -4.009370064932496e-06
-2.1123250615796847e-05   3.242230722188947e-06   -4.009370064932496e-06
-2.1123250615796847e-05   3.242230722188947e-06   -4.009370064932496e-06
-2.1123250615796847e-05   3.242230722188947e-06   -4.009370064932496e-06
-2.1729287309060584e-05   3.037523284915621e-06   9.768347050770126e-06
-2.1729287309060584e-05   3.037523284915621e-06   9.768347050770126e-06
-2.1729287309060584e-05   3.037523284915621e-06   9.768347050770126e-06
-2.1729287309060584e-05   3.037523284915621e-06   9.768347050770126e-06
-1.4377136914402587e-05   3.2215678901384263e-06   -2.5956637034602173e-06
-1.4377136914402587e-05   3.2215678901384263e-06   -2.5956637034602173e-06
-1.4377136914402587e-05   3.2215678901384263e-06   -2.5956637034602173e-06
-1.4377136914402587e-05   3.2215678901384263e-06   -2.5956637034602173e-06
-1.732597092974776e-05   3.231591175857423e-06   2.313045684017214e-06
-1.732597092974776e-05   3.231591175857423e-06   2.313045684017214e-06
-1.732597092974776e-05   3.231591175857423e-06   2.313045684017214e-06
-1.732597092974776e-05   3.231591175857423e-06   2.313045684017214e-06
-1.4377136914402587e-05   3.0375232849157293e-06   9.657920287636508e-06
-1.4377136914402587e-05   3.0375232849157293e-06   9.657920287636508e-06
-1.4377136914402587e-05   3.0375232849157293e-06   9.657920287636508e-06
-1.4377136914402587e-05   3.0375232849157293e-06   9.657920287636508e-06
-2.1729287309060584e-05   3.2215678901384263e-06   -2.4852369403266126e-06
-2.1729287309060584e-05   3.2215678901384263e-06   -2.4852369403266126e-06
-2.1729287309060584e-05   3.2215678901384263e-06   -2.4852369403266126e-06
-2.1729287309060584e-05   3.2215678901384263e-06   -2.4852369403266126e-06
-2.2445398815057773e-05   2.5593173295972377e-06   1.2823806577397722e-05
-2.2445398815057773e-05   2.5593173295972377e-06   1.2823806577397722e-05
-2.2445398815057773e-05   2.5593173295972377e-06   1.2823806577397722e-05
-2.2445398815057773e-05   2.5593173295972377e-06   1.2823806577397722e-05
-1.4821691929455985e-05   2.9738768259335562e-06   -1.311072630737106e-07
-1.4821691929455985e-05   2.9738768259335562e-06   -1.311072630737106e-07
-1.4821691929455985e-05   2.9738768259335562e-06   -1.311072630737106e-07
-1.4821691929455985e-05   2.9738768259335562e-06   -1.311072630737106e-07
-1.7564375277908402e-05   3.0841794742193264e-06   4.3738500620422755e-06
-1.7564375277908402e-05   3.0841794742193264e-06   4.3738500620422755e-06
-1.7564375277908402e-05   3.0841794742193264e-06   4.3738500620422755e-06
-1.7564375277908402e-05   3.0841794742193264e-06   4.3738500620422755e-06
1.3614741663148912e-05   -1.8970961740992281e-06   1.0372345315618197e-05
1.3614741663148912e-05   -1.8970961740992281e-06   1.0372345315618197e-05
1.3614741663148912e-05   -1.8970961740992281e-06   1.0372345315618197e-05
1.3614741663148912e-05   -1.8970961740992281e-06   1.0372345315618197e-05
6.715461638873012e-06   -1.412456664126767e-06   -8.356710188581282e-07
6.715461638873012e-06   -1.412456664126767e-06   -8.356710188581282e-07
6.715461638873012e-06   -1.412456664126767e-06   -8.356710188581282e-07
6.715461638873012e-06   -1.412456664126767e-06   -8.356710188581282e-07
6.470855197067392e-06   -2.1426906415104603e-06   8.99976629867874e-06
6.470855197067392e-06   -2.1426906415104603e-06   8.99976629867874e-06
6.470855197067392e-06   -2.1426906415104603e-06   8.99976629867874e-06
6.470855197067392e-06   -2.1426906415104603e-06   8.99976629867874e-06
1.3166082806649491e-05   -1.6321514025932626e-06   -2.465269927308315e-06
1.3166082806649491e-05   -1.6321514025932626e-06   -2.465269927308315e-06
1.3166082806649491e-05   -1.6321514025932626e-06   -2.465269927308315e-06
1.3166082806649491e-05   -1.6321514025932626e-06   -2.465269927308315e-06
9.534759193582546e-06   -1.7524891537943395e-06   3.6591387451905617e-06
9.534759193582546e-06   -1.7524891537943395e-06   3.6591387451905617e-06
9.534759193582546e-06   -1.7524891537943395e-06   3.6591387451905617e-06
9.534759193582546e-06   -1.7524891537943395e-06   3.6591387451905617e-06
1.3166082806649469e-05   -2.1426906415104603e-06   8.693442755328487e-06
1.3166082806649469e-05   -2.1426906415104603e-06   8.693442755328487e-06
1.3166082806649469e-05   -2.1426906415104603e-06   8.693442755328487e-06
1.3166082806649469e-05   -2.1426906415104603e-06   8.693442755328487e-06
6.4708551970674155e-06   -1.6321514025932626e-06   -2.1589463839580053e-06
6.4708551970674155e-06   -1.6321514025932626e-06   -2.1589463839580053e-06
6.4708551970674155e-06   -1.6321514025932626e-06   -2.1589463839580053e-06
6.4708551970674155e-06   -1.6321514025932626e-06   -2.1589463839580053e-06
6.198322061943453e-06   -2.177403447248716e-06   8.052283702884898e-06
6.198322061943453e-06   -2.177403447248716e-06   8.052283702884898e-06
6.198322061943453e-06   -2.177403447248716e-06   8.052283702884898e-06
6.198322061943453e-06   -2.177403447248716e-06   8.052283702884898e-06
1.2758287067381102e-05   -1.6750691386856892e-06   -3.182391891315638e-06
1.2758287067381102e-05   -1.6750691386856892e-06   -3.182391891315638e-06
1.2758287067381102e-05   -1.6750691386856892e-06   -3.182391891315638e-06
1.2758287067381102e-05   -1.6750691386856892e-06   -3.182391891315638e-06
9.373985728395457e-06   -1.8381887383576165e-06   2.555982100130202e-06
9.373985728395457e-06   -1.8381887383576165e-06   2.555982100130202e-06
9.373985728395457e-06   -1.8381887383576165e-06   2.555982100130202e-06
9.373985728395457e-06   -1.8381887383576165e-06   2.555982100130202e-06
1.2758287067381058e-05   -2.177403447248716e-06   7.75088311774706e-06
1.2758287067381058e-05   -2.177403447248716e-06   7.75088311774706e-06
1.2758287067381058e-05   -2.177403447248716e-06   7.75088311774706e-06
1.2758287067381058e-05   -2.177403447248716e-06   7.75088311774706e-06
6.198322061943463e-06   -1.6750691386856892e-06   -2.8809913061778503e-06
6.198322061943463e-06   -1.6750691386856892e-06   -2.8809913061778503e-06
6.198322061943463e-06   -1.6750691386856892e-06   -2.8809913061778503e-06
6.198322061943463e-06   -1.6750691386856892e-06   -2.8809913061778503e-06
5.935519179963525e-06   -2.155666813769886e-06   6.720912173309207e-06
5.935519179963525e-06   -2.155666813769886e-06   6.720912173309207e-06
5.935519179963525e-06   -2.155666813769886e-06   6.720912173309207e-06
5.935519179963525e-06   -2.155666813769886e-06   6.720912173309207e-06
1.2294990409452265e-05   -1.6862105479072175e-06   -4.159880302022941e-06
1.2294990409452265e-05   -1.6862105479072175e-06   -4.159880302022941e-06
1.2294990409452265e-05   -1.6862105479072175e-06   -4.159880302022941e-06
1.2294990409452265e-05   -1.6862105479072175e-06   -4.159880302022941e-06
8.907612470194711e-06   -1.8045924356583634e-06   1.5567787293905113e-06
8.907612470194711e-06   -1.8045924356583634e-06   1.5567787293905113e-06
8.907612470194711e-06   -1.8045924356583634e-06   1.5567787293905113e-06
8.907612470194711e-06   -1.8045924356583634e-06   1.5567787293905113e-06
6.715461638873012e-06   -6.596691154025927e-07   1.0763964218424619e-05
6.715461638873012e-06   -6.596691154025927e-07   1.0763964218424619e-05
6.715461638873012e-06   -6.596691154025927e-07   1.0763964218424619e-05
6.715461638873012e-06   -6.596691154025927e-07   1.0763964218424619e-05
2.3819642648272498e-07   -2.7260950785656674e-07   2.0075796230176017e-07
2.3819642648272498e-07   -2.7260950785656674e-07   2.0075796230176017e-07
2.3819642648272498e-07   -2.7260950785656674e-07   2.0075796230176017e-07
2.3819642648272498e-07   -2.7260950785656674e-07   2.0075796230176017e-07
2.611530721817641e-09   -7.898967713888729e-07   1.0867194310731421e-05
2.611530721817641e-09   -7.898967713888729e-07   1.0867194310731421e-05
2.611530721817641e-09   -7.898967713888729e-07   1.0867194310731421e-05
2.611530721817641e-09   -7.898967713888729e-07   1.0867194310731421e-05
6.4708551970674155e-06   -4.268348300377669e-07   -1.3104896465523276e-07
6.4708551970674155e-06   -4.268348300377669e-07   -1.3104896465523276e-07
6.4708551970674155e-06   -4.268348300377669e-07   -1.3104896465523276e-07
6.4708551970674155e-06   -4.268348300377669e-07   -1.3104896465523276e-07
3.3156240433975093e-06   -5.181674736958516e-07   5.182469210989485e-06
3.3156240433975093e-06   -5.181674736958516e-07   5.182469210989485e-06
3.3156240433975093e-06   -5.181674736958516e-07   5.182469210989485e-06
3.3156240433975093e-06   -5.181674736958516e-07   5.182469210989485e-06
6.470855197067409e-06   -7.898967713887645e-07   1.0649357145920693e-05
6.470855197067409e-06   -7.898967713887645e-07   1.0649357145920693e-05
6.470855197067409e-06   -7.898967713887645e-07   1.0649357145920693e-05
6.470855197067409e-06   -7.898967713887645e-07   1.0649357145920693e-05
2.611530721817641e-09   -4.268348300377669e-07   8.678820015542476e-08
2.611530721817641e-09   -4.268348300377669e-07   8.678820015542476e-08
2.611530721817641e-09   -4.268348300377669e-07   8.678820015542476e-08
2.611530721817641e-09   -4.268348300377669e-07   8.678820015542476e-08
-2.423210265141507e-07   -8.728864569985863e-07   1.0693060747935695e-05
-2.423210265141507e-07   -8.728864569985863e-07   1.0693060747935695e-05
-2.423210265141507e-07   -8.728864569985863e-07   1.0693060747935695e-05
-2.423210265141507e-07   -8.728864569985863e-07   1.0693060747935695e-05
6.198322061943463e-06   -5.394333517900292e-07   -2.41416262618765e-07
6.198322061943463e-06   -5.394333517900292e-07   -2.41416262618765e-07
6.198322061943463e-06   -5.394333517900292e-07   -2.41416262618765e-07
6.198322061943463e-06   -5.394333517900292e-07   -2.41416262618765e-07
3.0433846797807572e-06   -5.980763750259698e-07   5.051998521594134e-06
3.0433846797807572e-06   -5.980763750259698e-07   5.051998521594134e-06
3.0433846797807572e-06   -5.980763750259698e-07   5.051998521594134e-06
3.0433846797807572e-06   -5.980763750259698e-07   5.051998521594134e-06
6.198322061943453e-06   -8.728864569985863e-07   1.0492988884810593e-05
6.198322061943453e-06   -8.728864569985863e-07   1.0492988884810593e-05
6.198322061943453e-06   -8.728864569985863e-07   1.0492988884810593e-05
6.198322061943453e-06   -8.728864569985863e-07   1.0492988884810593e-05
-2.423210265141507e-07   -5.394333517900292e-07   -4.13443994936734e-08
-2.423210265141507e-07   -5.394333517900292e-07   -4.13443994936734e-08
-2.423210265141507e-07   -5.394333517900292e-07   -4.13443994936734e-08
-2.423210265141507e-07   -5.394333517900292e-07   -4.13443994936734e-08
-4.973346635007205e-07   -9.049355132761429e-07   1.0764326698449944e-05
-4.973346635007205e-07   -9.049355132761429e-07   1.0764326698449944e-05
-4.973346635007205e-07   -9.049355132761429e-07   1.0764326698449944e-05
-4.973346635007205e-07   -9.049355132761429e-07   1.0764326698449944e-05
5.93551917996354e-06   -6.258908596799449e-07   -1.2452316614824496e-07
5.93551917996354e-06   -6.258908596799449e-07   -1.2452316614824496e-07
5.93551917996354e-06   -6.258908596799449e-07   -1.2452316614824496e-07
5.93551917996354e-06   -6.258908596799449e-07   -1.2452316614824496e-07
2.841787811060957e-06   -6.386131177698413e-07   5.039329136876855e-06
2.841787811060957e-06   -6.386131177698413e-07   5.039329136876855e-06
2.841787811060957e-06   -6.386131177698413e-07   5.039329136876855e-06
2.841787811060957e-06   -6.386131177698413e-07   5.039329136876855e-06
2.381964264827182e-07   6.073551117751798e-07   1.1091417398863756e-05
2.381964264827182e-07   6.073551117751798e-07   1.1091417398863756e-05
2.381964264827182e-07   6.073551117751798e-07   1.1091417398863756e-05
2.381964264827182e-07   6.073551117751798e-07   1.1091417398863756e-05
-6.055217962101108e-06   8.657424815068995e-07   7.574258397298451e-07
-6.055217962101108e-06   8.657424815068995e-07   7.574258397298451e-07
-6.055217962101108e-06   8.657424815068995e-07   7.574258397298451e-07
-6.055217962101108e-06   8.657424815068995e-07   7.574258397298451e-07
-6.30181910606886e-06   5.108611674125609e-07   1.123853516930048e-05
-6.30181910606886e-06   5.108611674125609e-07   1.123853516930048e-05
-6.30181910606886e-06   5.108611674125609e-07   1.123853516930048e-05
-6.30181910606886e-06   5.108611674125609e-07   1.123853516930048e-05
2.611530721817641e-09   7.396782635911599e-07   5.938605169422071e-07
2.611530721817641e-09   7.396782635911599e-07   5.938605169422071e-07
2.611530721817641e-09   7.396782635911599e-07   5.938605169422071e-07
2.611530721817641e-09   7.396782635911599e-07   5.938605169422071e-07
-3.033573925707841e-06   6.866023536099839e-07   5.6860151569803794e-06
-3.033573925707841e-06   6.866023536099839e-07   5.6860151569803794e-06
-3.033573925707841e-06   6.866023536099839e-07   5.6860151569803794e-06
-3.033573925707841e-06   6.866023536099839e-07   5.6860151569803794e-06
2.611530721817641e-09   5.108611674125609e-07   1.1101244911593353e-05
2.611530721817641e-09   5.108611674125609e-07   1.1101244911593353e-05
2.611530721817641e-09   5.108611674125609e-07   1.1101244911593353e-05
2.611530721817641e-09   5.108611674125609e-07   1.1101244911593353e-05
-6.30181910606886e-06   7.396782635911599e-07   7.311507746493476e-07
-6.30181910606886e-06   7.396782635911599e-07   7.311507746493476e-07
-6.30181910606886e-06   7.396782635911599e-07   7.311507746493476e-07
-6.30181910606886e-06   7.396782635911599e-07   7.311507746493476e-07
-6.561621490652541e-06   4.2106226382540406e-07   1.1338648458205378e-05
-6.561621490652541e-06   4.2106226382540406e-07   1.1338648458205378e-05
-6.561621490652541e-06   4.2106226382540406e-07   1.1338648458205378e-05
-6.561621490652541e-06   4.2106226382540406e-07   1.1338648458205378e-05
-2.423210265141507e-07   6.173727114273247e-07   6.886947494136157e-07
-2.423210265141507e-07   6.173727114273247e-07   6.886947494136157e-07
-2.423210265141507e-07   6.173727114273247e-07   6.886947494136157e-07
-2.423210265141507e-07   6.173727114273247e-07   6.886947494136157e-07
-3.262262133207258e-06   6.159012079121496e-07   5.7228128293446005e-06
-3.262262133207258e-06   6.159012079121496e-07   5.7228128293446005e-06
-3.262262133207258e-06   6.159012079121496e-07   5.7228128293446005e-06
-3.262262133207258e-06   6.159012079121496e-07   5.7228128293446005e-06
-2.423210265141507e-07   4.210622638255125e-07   1.1220862189644269e-05
-2.423210265141507e-07   4.210622638255125e-07   1.1220862189644269e-05
-2.423210265141507e-07   4.210622638255125e-07   1.1220862189644269e-05
-2.423210265141507e-07   4.210622638255125e-07   1.1220862189644269e-05
-6.561621490652555e-06   6.173727114273247e-07   8.064810179747518e-07
-6.561621490652555e-06   6.173727114273247e-07   8.064810179747518e-07
-6.561621490652555e-06   6.173727114273247e-07   8.064810179747518e-07
-6.561621490652555e-06   6.173727114273247e-07   8.064810179747518e-07
-6.829372486595149e-06   3.5717037817541847e-07   1.1498864965582317e-05
-6.829372486595149e-06   3.5717037817541847e-07   1.1498864965582317e-05
-6.829372486595149e-06   3.5717037817541847e-07   1.1498864965582317e-05
-6.829372486595149e-06   3.5717037817541847e-07   1.1498864965582317e-05
-4.973346635007205e-07   5.086488885822733e-07   8.545814875142359e-07
-4.973346635007205e-07   5.086488885822733e-07   8.545814875142359e-07
-4.973346635007205e-07   5.086488885822733e-07   8.545814875142359e-07
-4.973346635007205e-07   5.086488885822733e-07   8.545814875142359e-07
-3.509797728961118e-06   5.48426890966975e-07   5.851486461850832e-06
-3.509797728961118e-06   5.48426890966975e-07   5.851486461850832e-06
-3.509797728961118e-06   5.48426890966975e-07   5.851486461850832e-06
-3.509797728961118e-06   5.48426890966975e-07   5.851486461850832e-06
-6.055217962101129e-06   1.9510698633846447e-06   9.712760833260317e-06
-6.055217962101129e-06   1.9510698633846447e-06   9.712760833260317e-06
-6.055217962101129e-06   1.9510698633846447e-06   9.712760833260317e-06
-6.055217962101129e-06   1.9510698633846447e-06   9.712760833260317e-06
-1.217360378635126e-05   1.9763069280922044e-06   -4.694066349986885e-07
-1.217360378635126e-05   1.9763069280922044e-06   -4.694066349986885e-07
-1.217360378635126e-05   1.9763069280922044e-06   -4.694066349986885e-07
-1.217360378635126e-05   1.9763069280922044e-06   -4.694066349986885e-07
-1.2459594941318599e-05   1.8561017764934327e-06   9.882046225406815e-06
-1.2459594941318599e-05   1.8561017764934327e-06   9.882046225406815e-06
-1.2459594941318599e-05   1.8561017764934327e-06   9.882046225406815e-06
-1.2459594941318599e-05   1.8561017764934327e-06   9.882046225406815e-06
-6.301819106068874e-06   1.8579463266787683e-06   -3.8202023012063593e-07
-6.301819106068874e-06   1.8579463266787683e-06   -3.8202023012063593e-07
-6.301819106068874e-06   1.8579463266787683e-06   -3.8202023012063593e-07
-6.301819106068874e-06   1.8579463266787683e-06   -3.8202023012063593e-07
-9.206341043593319e-06   1.9028086241817434e-06   4.431932287251683e-06
-9.206341043593319e-06   1.9028086241817434e-06   4.431932287251683e-06
-9.206341043593319e-06   1.9028086241817434e-06   4.431932287251683e-06
-9.206341043593319e-06   1.9028086241817434e-06   4.431932287251683e-06
-6.301819106068874e-06   1.8561017764934327e-06   9.880939495295559e-06
-6.301819106068874e-06   1.8561017764934327e-06   9.880939495295559e-06
-6.301819106068874e-06   1.8561017764934327e-06   9.880939495295559e-06
-6.301819106068874e-06   1.8561017764934327e-06   9.880939495295559e-06
-1.2459594941318585e-05   1.8579463266787683e-06   -3.8091350000932613e-07
-1.2459594941318585e-05   1.8579463266787683e-06   -3.8091350000932613e-07
-1.2459594941318585e-05   1.8579463266787683e-06   -3.8091350000932613e-07
-1.2459594941318585e-05   1.8579463266787683e-06   -3.8091350000932613e-07
-1.2775442437152269e-05   1.7666456226690923e-06   1.0342116104989328e-05
-1.2775442437152269e-05   1.7666456226690923e-06   1.0342116104989328e-05
-1.2775442437152269e-05   1.7666456226690923e-06   1.0342116104989328e-05
-1.2775442437152269e-05   1.7666456226690923e-06   1.0342116104989328e-05
-6.561621490652555e-06   1.7470925043759807e-06   -2.5202682010159712e-09
-6.561621490652555e-06   1.7470925043759807e-06   -2.5202682010159712e-09
-6.561621490652555e-06   1.7470925043759807e-06   -2.5202682010159712e-09
-6.561621490652555e-06   1.7470925043759807e-06   -2.5202682010159712e-09
-9.409549367323054e-06   1.8371280846385743e-06   4.690004844758991e-06
-9.409549367323054e-06   1.8371280846385743e-06   4.690004844758991e-06
-9.409549367323054e-06   1.8371280846385743e-06   4.690004844758991e-06
-9.409549367323054e-06   1.8371280846385743e-06   4.690004844758991e-06
-6.561621490652548e-06   1.7666456226690923e-06   1.0353847975965163e-05
-6.561621490652548e-06   1.7666456226690923e-06   1.0353847975965163e-05
-6.561621490652548e-06   1.7666456226690923e-06   1.0353847975965163e-05
-6.561621490652548e-06   1.7666456226690923e-06   1.0353847975965163e-05
-1.2775442437152248e-05   1.7470925043759807e-06   -1.425213917689112e-08
-1.2775442437152248e-05   1.7470925043759807e-06   -1.425213917689112e-08
-1.2775442437152248e-05   1.7470925043759807e-06   -1.425213917689112e-08
-1.2775442437152248e-05   1.7470925043759807e-06   -1.425213917689112e-08
-1.3075789055150848e-05   1.6445347567335504e-06   1.0666370945283004e-05
-1.3075789055150848e-05   1.6445347567335504e-06   1.0666370945283004e-05
-1.3075789055150848e-05   1.6445347567335504e-06   1.0666370945283004e-05
-1.3075789055150848e-05   1.6445347567335504e-06   1.0666370945283004e-05
-6.829372486595176e-06   1.6101364407125488e-06   2.763156539694971e-07
-6.829372486595176e-06   1.6101364407125488e-06   2.763156539694971e-07
-6.829372486595176e-06   1.6101364407125488e-06   2.763156539694971e-07
-6.829372486595176e-06   1.6101364407125488e-06   2.763156539694971e-07
-9.740772609842085e-06   1.749546377856695e-06   5.045003230428393e-06
-9.740772609842085e-06   1.749546377856695e-06   5.045003230428393e-06
-9.740772609842085e-06   1.749546377856695e-06   5.045003230428393e-06
-9.740772609842085e-06   1.749546377856695e-06   5.045003230428393e-06
-1.2173603786351239e-05   3.1731480690487535e-06   4.694826950087637e-06
-1.2173603786351239e-05   3.1731480690487535e-06   4.694826950087637e-06
-1.2173603786351239e-05   3.1731480690487535e-06   4.694826950087637e-06
-1.2173603786351239e-05   3.1731480690487535e-06   4.694826950087637e-06
-1.802830394178202e-05   2.865213152643438e-06   -5.247767592140158e-06
-1.802830394178202e-05   2.865213152643438e-06   -5.247767592140158e-06
-1.802830394178202e-05   2.865213152643438e-06   -5.247767592140158e-06
-1.802830394178202e-05   2.865213152643438e-06   -5.247767592140158e-06
-1.8479159237483033e-05   3.242230722188947e-06   6.566375116505516e-06
-1.8479159237483033e-05   3.242230722188947e-06   6.566375116505516e-06
-1.8479159237483033e-05   3.242230722188947e-06   6.566375116505516e-06
-1.8479159237483033e-05   3.242230722188947e-06   6.566375116505516e-06
-1.2459594941318599e-05   2.901977982616255e-06   -3.2620804000249592e-06
-1.2459594941318599e-05   2.901977982616255e-06   -3.2620804000249592e-06
-1.2459594941318599e-05   2.901977982616255e-06   -3.2620804000249592e-06
-1.2459594941318599e-05   2.901977982616255e-06   -3.2620804000249592e-06
-1.469884910674877e-05   3.0241672977215917e-06   3.966962866288053e-07
-1.469884910674877e-05   3.0241672977215917e-06   3.966962866288053e-07
-1.469884910674877e-05   3.0241672977215917e-06   3.966962866288053e-07
-1.469884910674877e-05   3.0241672977215917e-06   3.966962866288053e-07
-1.2459594941318572e-05   3.242230722188947e-06   6.770526760249099e-06
-1.2459594941318572e-05   3.242230722188947e-06   6.770526760249099e-06
-1.2459594941318572e-05   3.242230722188947e-06   6.770526760249099e-06
-1.2459594941318572e-05   3.242230722188947e-06   6.770526760249099e-06
-1.84791592374831e-05   2.901977982616255e-06   -3.4662320437686505e-06
-1.84791592374831e-05   2.901977982616255e-06   -3.4662320437686505e-06
-1.84791592374831e-05   2.901977982616255e-06   -3.4662320437686505e-06
-1.84791592374831e-05   2.901977982616255e-06   -3.4662320437686505e-06
-1.8917727621575847e-05   3.221567890138318e-06   8.004555882893793e-06
-1.8917727621575847e-05   3.221567890138318e-06   8.004555882893793e-06
-1.8917727621575847e-05   3.221567890138318e-06   8.004555882893793e-06
-1.8917727621575847e-05   3.221567890138318e-06   8.004555882893793e-06
-1.2775442437152269e-05   2.8718253448841184e-06   -2.022740563993025e-06
-1.2775442437152269e-05   2.8718253448841184e-06   -2.022740563993025e-06
-1.2775442437152269e-05   2.8718253448841184e-06   -2.022740563993025e-06
-1.2775442437152269e-05   2.8718253448841184e-06   -2.022740563993025e-06
-1.5264438446095248e-05   3.0818601435010683e-06   1.999565238408683e-06
-1.5264438446095248e-05   3.0818601435010683e-06   1.999565238408683e-06
-1.5264438446095248e-05   3.0818601435010683e-06   1.999565238408683e-06
-1.5264438446095248e-05   3.0818601435010683e-06   1.999565238408683e-06
-1.2775442437152269e-05   3.2215678901384263e-06   8.21440141004641e-06
-1.2775442437152269e-05   3.2215678901384263e-06   8.21440141004641e-06
-1.2775442437152269e-05   3.2215678901384263e-06   8.21440141004641e-06
-1.2775442437152269e-05   3.2215678901384263e-06   8.21440141004641e-06
-1.8917727621575915e-05   2.8718253448841184e-06   -2.2325860911456016e-06
-1.8917727621575915e-05   2.8718253448841184e-06   -2.2325860911456016e-06
-1.8917727621575915e-05   2.8718253448841184e-06   -2.2325860911456016e-06
-1.8917727621575915e-05   2.8718253448841184e-06   -2.2325860911456016e-06
-1.942824347474259e-05   2.9738768259335562e-06   1.0457891469033967e-05
-1.942824347474259e-05   2.9738768259335562e-06   1.0457891469033967e-05
-1.942824347474259e-05   2.9738768259335562e-06   1.0457891469033967e-05
-1.942824347474259e-05   2.9738768259335562e-06   1.0457891469033967e-05
-1.3075789055150848e-05   2.6549261999216003e-06   6.183781198820034e-08
-1.3075789055150848e-05   2.6549261999216003e-06   6.183781198820034e-08
-1.3075789055150848e-05   2.6549261999216003e-06   6.183781198820034e-08
-1.3075789055150848e-05   2.6549261999216003e-06   6.183781198820034e-08
-1.5390728614597493e-05   2.991979792331726e-06   3.7178382556201685e-06
-1.5390728614597493e-05   2.991979792331726e-06   3.7178382556201685e-06
-1.5390728614597493e-05   2.991979792331726e-06   3.7178382556201685e-06
-1.5390728614597493e-05   2.991979792331726e-06   3.7178382556201685e-06
1.0489611970063994e-05   -1.412456664126767e-06   8.770806900872412e-06
1.0489611970063994e-05   -1.412456664126767e-06   8.770806900872412e-06
1.0489611970063994e-05   -1.412456664126767e-06   8.770806900872412e-06
1.0489611970063994e-05   -1.412456664126767e-06   8.770806900872412e-06
4.9244486849199445e-06   -9.524632317113721e-07   -2.2846918158514256e-07
4.9244486849199445e-06   -9.524632317113721e-07   -2.2846918158514256e-07
4.9244486849199445e-06   -9.524632317113721e-07   -2.2846918158514256e-07
4.9244486849199445e-06   -9.524632317113721e-07   -2.2846918158514256e-07
4.704678695079457e-06   -1.6321514025932626e-06   7.690197578849632e-06
4.704678695079457e-06   -1.6321514025932626e-06   7.690197578849632e-06
4.704678695079457e-06   -1.6321514025932626e-06   7.690197578849632e-06
4.704678695079457e-06   -1.6321514025932626e-06   7.690197578849632e-06
1.0063336117139575e-05   -1.1490870743699434e-06   -1.5307367215179015e-06
1.0063336117139575e-05   -1.1490870743699434e-06   -1.5307367215179015e-06
1.0063336117139575e-05   -1.1490870743699434e-06   -1.5307367215179015e-06
1.0063336117139575e-05   -1.1490870743699434e-06   -1.5307367215179015e-06
7.1911323033930415e-06   -1.2949978317714113e-06   3.3438160891672978e-06
7.1911323033930415e-06   -1.2949978317714113e-06   3.3438160891672978e-06
7.1911323033930415e-06   -1.2949978317714113e-06   3.3438160891672978e-06
7.1911323033930415e-06   -1.2949978317714113e-06   3.3438160891672978e-06
1.0063336117139575e-05   -1.6321514025932626e-06   7.400358981915663e-06
1.0063336117139575e-05   -1.6321514025932626e-06   7.400358981915663e-06
1.0063336117139575e-05   -1.6321514025932626e-06   7.400358981915663e-06
1.0063336117139575e-05   -1.6321514025932626e-06   7.400358981915663e-06
4.704678695079466e-06   -1.1490870743699434e-06   -1.2408981245838266e-06
4.704678695079466e-06   -1.1490870743699434e-06   -1.2408981245838266e-06
4.704678695079466e-06   -1.1490870743699434e-06   -1.2408981245838266e-06
4.704678695079466e-06   -1.1490870743699434e-06   -1.2408981245838266e-06
4.46107076975866e-06   -1.6750691386856892e-06   6.9323187063783124e-06
4.46107076975866e-06   -1.6750691386856892e-06   6.9323187063783124e-06
4.46107076975866e-06   -1.6750691386856892e-06   6.9323187063783124e-06
4.46107076975866e-06   -1.6750691386856892e-06   6.9323187063783124e-06
9.688435929959288e-06   -1.2005800654641156e-06   -2.064650004555632e-06
9.688435929959288e-06   -1.2005800654641156e-06   -2.064650004555632e-06
9.688435929959288e-06   -1.2005800654641156e-06   -2.064650004555632e-06
9.688435929959288e-06   -1.2005800654641156e-06   -2.064650004555632e-06
7.021618039620326e-06   -1.3753510451736898e-06   2.4849090671684915e-06
7.021618039620326e-06   -1.3753510451736898e-06   2.4849090671684915e-06
7.021618039620326e-06   -1.3753510451736898e-06   2.4849090671684915e-06
7.021618039620326e-06   -1.3753510451736898e-06   2.4849090671684915e-06
9.688435929959271e-06   -1.6750691386856892e-06   6.6476252624454225e-06
9.688435929959271e-06   -1.6750691386856892e-06   6.6476252624454225e-06
9.688435929959271e-06   -1.6750691386856892e-06   6.6476252624454225e-06
9.688435929959271e-06   -1.6750691386856892e-06   6.6476252624454225e-06
4.4610707697586685e-06   -1.2005800654641156e-06   -1.7799565606226877e-06
4.4610707697586685e-06   -1.2005800654641156e-06   -1.7799565606226877e-06
4.4610707697586685e-06   -1.2005800654641156e-06   -1.7799565606226877e-06
4.4610707697586685e-06   -1.2005800654641156e-06   -1.7799565606226877e-06
4.235547719972861e-06   -1.6862105479072175e-06   5.896199334455435e-06
4.235547719972861e-06   -1.6862105479072175e-06   5.896199334455435e-06
4.235547719972861e-06   -1.6862105479072175e-06   5.896199334455435e-06
4.235547719972861e-06   -1.6862105479072175e-06   5.896199334455435e-06
9.267640819256059e-06   -1.2439023092784569e-06   -2.7560074408604434e-06
9.267640819256059e-06   -1.2439023092784569e-06   -2.7560074408604434e-06
9.267640819256059e-06   -1.2439023092784569e-06   -2.7560074408604434e-06
9.267640819256059e-06   -1.2439023092784569e-06   -2.7560074408604434e-06
6.6229480594629294e-06   -1.3650398791122988e-06   1.7244963673619933e-06
6.6229480594629294e-06   -1.3650398791122988e-06   1.7244963673619933e-06
6.6229480594629294e-06   -1.3650398791122988e-06   1.7244963673619933e-06
6.6229480594629294e-06   -1.3650398791122988e-06   1.7244963673619933e-06
4.924448684919926e-06   -2.7260950785656674e-07   9.850996176953856e-06
4.924448684919926e-06   -2.7260950785656674e-07   9.850996176953856e-06
4.924448684919926e-06   -2.7260950785656674e-07   9.850996176953856e-06
4.924448684919926e-06   -2.7260950785656674e-07   9.850996176953856e-06
-3.3524693900079865e-07   -1.4878553274513297e-08   1.2394753765018816e-06
-3.3524693900079865e-07   -1.4878553274513297e-08   1.2394753765018816e-06
-3.3524693900079865e-07   -1.4878553274513297e-08   1.2394753765018816e-06
-3.3524693900079865e-07   -1.4878553274513297e-08   1.2394753765018816e-06
-5.42440388966731e-07   -4.268348300377669e-07   9.863740222601839e-06
-5.42440388966731e-07   -4.268348300377669e-07   9.863740222601839e-06
-5.42440388966731e-07   -4.268348300377669e-07   9.863740222601839e-06
-5.42440388966731e-07   -4.268348300377669e-07   9.863740222601839e-06
4.704678695079466e-06   -1.8409278928870065e-07   9.728965247421331e-07
4.704678695079466e-06   -1.8409278928870065e-07   9.728965247421331e-07
4.704678695079466e-06   -1.8409278928870065e-07   9.728965247421331e-07
4.704678695079466e-06   -1.8409278928870065e-07   9.728965247421331e-07
2.1521023795990483e-06   -2.3104166319172764e-07   5.255359708217981e-06
2.1521023795990483e-06   -2.3104166319172764e-07   5.255359708217981e-06
2.1521023795990483e-06   -2.3104166319172764e-07   5.255359708217981e-06
2.1521023795990483e-06   -2.3104166319172764e-07   5.255359708217981e-06
4.704678695079454e-06   -4.268348300377669e-07   9.718094998152442e-06
4.704678695079454e-06   -4.268348300377669e-07   9.718094998152442e-06
4.704678695079454e-06   -4.268348300377669e-07   9.718094998152442e-06
4.704678695079454e-06   -4.268348300377669e-07   9.718094998152442e-06
-5.42440388966731e-07   -1.8409278928870065e-07   1.118541749191499e-06
-5.42440388966731e-07   -1.8409278928870065e-07   1.118541749191499e-06
-5.42440388966731e-07   -1.8409278928870065e-07   1.118541749191499e-06
-5.42440388966731e-07   -1.8409278928870065e-07   1.118541749191499e-06
-7.542788701607418e-07   -5.394333517900292e-07   9.706107703241025e-06
-7.542788701607418e-07   -5.394333517900292e-07   9.706107703241025e-06
-7.542788701607418e-07   -5.394333517900292e-07   9.706107703241025e-06
-7.542788701607418e-07   -5.394333517900292e-07   9.706107703241025e-06
4.4610707697586685e-06   -3.15743429617427e-07   8.79644350071732e-07
4.4610707697586685e-06   -3.15743429617427e-07   8.79644350071732e-07
4.4610707697586685e-06   -3.15743429617427e-07   8.79644350071732e-07
4.4610707697586685e-06   -3.15743429617427e-07   8.79644350071732e-07
1.918117795907483e-06   -3.3456206847341623e-07   5.1291904898043345e-06
1.918117795907483e-06   -3.3456206847341623e-07   5.1291904898043345e-06
1.918117795907483e-06   -3.3456206847341623e-07   5.1291904898043345e-06
1.918117795907483e-06   -3.3456206847341623e-07   5.1291904898043345e-06
4.46107076975866e-06   -5.394333517900292e-07   9.571893749937388e-06
4.46107076975866e-06   -5.394333517900292e-07   9.571893749937388e-06
4.46107076975866e-06   -5.394333517900292e-07   9.571893749937388e-06
4.46107076975866e-06   -5.394333517900292e-07   9.571893749937388e-06
-7.542788701607418e-07   -3.15743429617427e-07   1.0138583033753252e-06
-7.542788701607418e-07   -3.15743429617427e-07   1.0138583033753252e-06
-7.542788701607418e-07   -3.15743429617427e-07   1.0138583033753252e-06
-7.542788701607418e-07   -3.15743429617427e-07   1.0138583033753252e-06
-9.674115733993978e-07   -6.258908596799449e-07   9.76410198898133e-06
-9.674115733993978e-07   -6.258908596799449e-07   9.76410198898133e-06
-9.674115733993978e-07   -6.258908596799449e-07   9.76410198898133e-06
-9.674115733993978e-07   -6.258908596799449e-07   9.76410198898133e-06
4.235547719972864e-06   -4.3552539606521445e-07   9.782838885254192e-07
4.235547719972864e-06   -4.3552539606521445e-07   9.782838885254192e-07
4.235547719972864e-06   -4.3552539606521445e-07   9.782838885254192e-07
4.235547719972864e-06   -4.3552539606521445e-07   9.782838885254192e-07
1.7420183325158977e-06   -4.0912394635430824e-07   5.1183253311274084e-06
1.7420183325158977e-06   -4.0912394635430824e-07   5.1183253311274084e-06
1.7420183325158977e-06   -4.0912394635430824e-07   5.1183253311274084e-06
1.7420183325158977e-06   -4.0912394635430824e-07   5.1183253311274084e-06
-3.352469390008054e-07   8.65742481507008e-07   1.0407270205292044e-05
-3.352469390008054e-07   8.65742481507008e-07   1.0407270205292044e-05
-3.352469390008054e-07   8.65742481507008e-07   1.0407270205292044e-05
-3.352469390008054e-07   8.65742481507008e-07   1.0407270205292044e-05
-5.484357616599464e-06   8.949909594735319e-07   1.8429681627408416e-06
-5.484357616599464e-06   8.949909594735319e-07   1.8429681627408416e-06
-5.484357616599464e-06   8.949909594735319e-07   1.8429681627408416e-06
-5.484357616599464e-06   8.949909594735319e-07   1.8429681627408416e-06
-5.693249984147357e-06   7.396782635911599e-07   1.0375952477772728e-05
-5.693249984147357e-06   7.396782635911599e-07   1.0375952477772728e-05
-5.693249984147357e-06   7.396782635911599e-07   1.0375952477772728e-05
-5.693249984147357e-06   7.396782635911599e-07   1.0375952477772728e-05
-5.42440388966731e-07   7.482448275645398e-07   1.7861298807542902e-06
-5.42440388966731e-07   7.482448275645398e-07   1.7861298807542902e-06
-5.42440388966731e-07   7.482448275645398e-07   1.7861298807542902e-06
-5.42440388966731e-07   7.482448275645398e-07   1.7861298807542902e-06
-3.02151917159227e-06   7.968086830001863e-07   5.888789538535444e-06
-3.02151917159227e-06   7.968086830001863e-07   5.888789538535444e-06
-3.02151917159227e-06   7.968086830001863e-07   5.888789538535444e-06
-3.02151917159227e-06   7.968086830001863e-07   5.888789538535444e-06
-5.42440388966731e-07   7.396782635910515e-07   1.0370812539388689e-05
-5.42440388966731e-07   7.396782635910515e-07   1.0370812539388689e-05
-5.42440388966731e-07   7.396782635910515e-07   1.0370812539388689e-05
-5.42440388966731e-07   7.396782635910515e-07   1.0370812539388689e-05
-5.693249984147357e-06   7.482448275645398e-07   1.7912698191383425e-06
-5.693249984147357e-06   7.482448275645398e-07   1.7912698191383425e-06
-5.693249984147357e-06   7.482448275645398e-07   1.7912698191383425e-06
-5.693249984147357e-06   7.482448275645398e-07   1.7912698191383425e-06
-5.907041442160612e-06   6.173727114273247e-07   1.0428074220140168e-05
-5.907041442160612e-06   6.173727114273247e-07   1.0428074220140168e-05
-5.907041442160612e-06   6.173727114273247e-07   1.0428074220140168e-05
-5.907041442160612e-06   6.173727114273247e-07   1.0428074220140168e-05
-7.542788701607418e-07   6.039183247472536e-07   1.8482092321485136e-06
-7.542788701607418e-07   6.039183247472536e-07   1.8482092321485136e-06
-7.542788701607418e-07   6.039183247472536e-07   1.8482092321485136e-06
-7.542788701607418e-07   6.039183247472536e-07   1.8482092321485136e-06
-3.214932982479424e-06   6.989992962351012e-07   5.89225083645373e-06
-3.214932982479424e-06   6.989992962351012e-07   5.89225083645373e-06
-3.214932982479424e-06   6.989992962351012e-07   5.89225083645373e-06
-3.214932982479424e-06   6.989992962351012e-07   5.89225083645373e-06
-7.542788701607418e-07   6.173727114273247e-07   1.0436146852148341e-05
-7.542788701607418e-07   6.173727114273247e-07   1.0436146852148341e-05
-7.542788701607418e-07   6.173727114273247e-07   1.0436146852148341e-05
-7.542788701607418e-07   6.173727114273247e-07   1.0436146852148341e-05
-5.907041442160612e-06   6.039183247472536e-07   1.8401366001404018e-06
-5.907041442160612e-06   6.039183247472536e-07   1.8401366001404018e-06
-5.907041442160612e-06   6.039183247472536e-07   1.8401366001404018e-06
-5.907041442160612e-06   6.039183247472536e-07   1.8401366001404018e-06
-6.120457674159648e-06   5.086488885822733e-07   1.0550859115039104e-05
-6.120457674159648e-06   5.086488885822733e-07   1.0550859115039104e-05
-6.120457674159648e-06   5.086488885822733e-07   1.0550859115039104e-05
-6.120457674159648e-06   5.086488885822733e-07   1.0550859115039104e-05
-9.674115733993978e-07   4.671143295039608e-07   1.987369682552372e-06
-9.674115733993978e-07   4.671143295039608e-07   1.987369682552372e-06
-9.674115733993978e-07   4.671143295039608e-07   1.987369682552372e-06
-9.674115733993978e-07   4.671143295039608e-07   1.987369682552372e-06
-3.4176879240446888e-06   6.039367187599121e-07   5.989070166741124e-06
-3.4176879240446888e-06   6.039367187599121e-07   5.989070166741124e-06
-3.4176879240446888e-06   6.039367187599121e-07   5.989070166741124e-06
-3.4176879240446888e-06   6.039367187599121e-07   5.989070166741124e-06
-5.484357616599457e-06   1.9763069280922044e-06   9.182844578518824e-06
-5.484357616599457e-06   1.9763069280922044e-06   9.182844578518824e-06
-5.484357616599457e-06   1.9763069280922044e-06   9.182844578518824e-06
-5.484357616599457e-06   1.9763069280922044e-06   9.182844578518824e-06
-1.0536261466533898e-05   1.7733461819020987e-06   6.412283809140162e-07
-1.0536261466533898e-05   1.7733461819020987e-06   6.412283809140162e-07
-1.0536261466533898e-05   1.7733461819020987e-06   6.412283809140162e-07
-1.0536261466533898e-05   1.7733461819020987e-06   6.412283809140162e-07
-1.0761528167422274e-05   1.8579463266787683e-06   9.128704972464368e-06
-1.0761528167422274e-05   1.8579463266787683e-06   9.128704972464368e-06
-1.0761528167422274e-05   1.8579463266787683e-06   9.128704972464368e-06
-1.0761528167422274e-05   1.8579463266787683e-06   9.128704972464368e-06
-5.6932499841473634e-06   1.6344854924482503e-06   8.156511675446202e-07
-5.6932499841473634e-06   1.6344854924482503e-06   8.156511675446202e-07
-5.6932499841473634e-06   1.6344854924482503e-06   8.156511675446202e-07
-5.6932499841473634e-06   1.6344854924482503e-06   8.156511675446202e-07
-8.091572489394128e-06   1.7848702817380678e-06   4.722624469381912e-06
-8.091572489394128e-06   1.7848702817380678e-06   4.722624469381912e-06
-8.091572489394128e-06   1.7848702817380678e-06   4.722624469381912e-06
-8.091572489394128e-06   1.7848702817380678e-06   4.722624469381912e-06
-5.693249984147357e-06   1.8579463266788767e-06   9.262781473002798e-06
-5.693249984147357e-06   1.8579463266788767e-06   9.262781473002798e-06
-5.693249984147357e-06   1.8579463266788767e-06   9.262781473002798e-06
-5.693249984147357e-06   1.8579463266788767e-06   9.262781473002798e-06
-1.0761528167422274e-05   1.6344854924482503e-06   6.815746670062173e-07
-1.0761528167422274e-05   1.6344854924482503e-06   6.815746670062173e-07
-1.0761528167422274e-05   1.6344854924482503e-06   6.815746670062173e-07
-1.0761528167422274e-05   1.6344854924482503e-06   6.815746670062173e-07
-1.1008720136567796e-05   1.7470925043759807e-06   9.47293801054213e-06
-1.1008720136567796e-05   1.7470925043759807e-06   9.47293801054213e-06
-1.1008720136567796e-05   1.7470925043759807e-06   9.47293801054213e-06
-1.1008720136567796e-05   1.7470925043759807e-06   9.47293801054213e-06
-5.907041442160626e-06   1.503534298672067e-06   1.1162751099524996e-06
-5.907041442160626e-06   1.503534298672067e-06   1.1162751099524996e-06
-5.907041442160626e-06   1.503534298672067e-06   1.1162751099524996e-06
-5.907041442160626e-06   1.503534298672067e-06   1.1162751099524996e-06
-8.249926211695036e-06   1.696930839414695e-06   4.905045134731288e-06
-8.249926211695036e-06   1.696930839414695e-06   4.905045134731288e-06
-8.249926211695036e-06   1.696930839414695e-06   4.905045134731288e-06
-8.249926211695036e-06   1.696930839414695e-06   4.905045134731288e-06
-5.907041442160619e-06   1.7470925043759807e-06   9.619072933964468e-06
-5.907041442160619e-06   1.7470925043759807e-06   9.619072933964468e-06
-5.907041442160619e-06   1.7470925043759807e-06   9.619072933964468e-06
-5.907041442160619e-06   1.7470925043759807e-06   9.619072933964468e-06
-1.1008720136567796e-05   1.503534298672067e-06   9.701401865301758e-07
-1.1008720136567796e-05   1.503534298672067e-06   9.701401865301758e-07
-1.1008720136567796e-05   1.503534298672067e-06   9.701401865301758e-07
-1.1008720136567796e-05   1.503534298672067e-06   9.701401865301758e-07
-1.1233803759129205e-05   1.6101364407125488e-06   9.72538454496871e-06
-1.1233803759129205e-05   1.6101364407125488e-06   9.72538454496871e-06
-1.1233803759129205e-05   1.6101364407125488e-06   9.72538454496871e-06
-1.1233803759129205e-05   1.6101364407125488e-06   9.72538454496871e-06
-6.120457674159661e-06   1.349600390243154e-06   1.3594627003011948e-06
-6.120457674159661e-06   1.349600390243154e-06   1.3594627003011948e-06
-6.120457674159661e-06   1.349600390243154e-06   1.3594627003011948e-06
-6.120457674159661e-06   1.349600390243154e-06   1.3594627003011948e-06
-8.508787748613252e-06   1.595999559404716e-06   5.192173322893974e-06
-8.508787748613252e-06   1.595999559404716e-06   5.192173322893974e-06
-8.508787748613252e-06   1.595999559404716e-06   5.192173322893974e-06
-8.508787748613252e-06   1.595999559404716e-06   5.192173322893974e-06
-1.0536261466533898e-05   2.865213152643438e-06   4.467468123506508e-06
-1.0536261466533898e-05   2.865213152643438e-06   4.467468123506508e-06
-1.0536261466533898e-05   2.865213152643438e-06   4.467468123506508e-06
-1.0536261466533898e-05   2.865213152643438e-06   4.467468123506508e-06
-1.5371559661791844e-05   2.464519496419063e-06   -3.831778395658e-06
-1.5371559661791844e-05   2.464519496419063e-06   -3.831778395658e-06
-1.5371559661791844e-05   2.464519496419063e-06   -3.831778395658e-06
-1.5371559661791844e-05   2.464519496419063e-06   -3.831778395658e-06
-1.5778274424737177e-05   2.901977982616255e-06   5.981296962584686e-06
-1.5778274424737177e-05   2.901977982616255e-06   5.981296962584686e-06
-1.5778274424737177e-05   2.901977982616255e-06   5.981296962584686e-06
-1.5778274424737177e-05   2.901977982616255e-06   5.981296962584686e-06
-1.0761528167422274e-05   2.4582427995095517e-06   -2.113705689742873e-06
-1.0761528167422274e-05   2.4582427995095517e-06   -2.113705689742873e-06
-1.0761528167422274e-05   2.4582427995095517e-06   -2.113705689742873e-06
-1.0761528167422274e-05   2.4582427995095517e-06   -2.113705689742873e-06
-1.261216761083402e-05   2.6309520035241833e-06   8.670678602013622e-07
-1.261216761083402e-05   2.6309520035241833e-06   8.670678602013622e-07
-1.261216761083402e-05   2.6309520035241833e-06   8.670678602013622e-07
-1.261216761083402e-05   2.6309520035241833e-06   8.670678602013622e-07
-1.076152816742226e-05   2.901977982616255e-06   6.247538072448762e-06
-1.076152816742226e-05   2.901977982616255e-06   6.247538072448762e-06
-1.076152816742226e-05   2.901977982616255e-06   6.247538072448762e-06
-1.076152816742226e-05   2.901977982616255e-06   6.247538072448762e-06
-1.5778274424737204e-05   2.4582427995095517e-06   -2.3799467996068948e-06
-1.5778274424737204e-05   2.4582427995095517e-06   -2.3799467996068948e-06
-1.5778274424737204e-05   2.4582427995095517e-06   -2.3799467996068948e-06
-1.5778274424737204e-05   2.4582427995095517e-06   -2.3799467996068948e-06
-1.61406887370531e-05   2.8718253448841184e-06   7.187449611465921e-06
-1.61406887370531e-05   2.8718253448841184e-06   7.187449611465921e-06
-1.61406887370531e-05   2.8718253448841184e-06   7.187449611465921e-06
-1.61406887370531e-05   2.8718253448841184e-06   7.187449611465921e-06
-1.1008720136567796e-05   2.4101587211174114e-06   -1.0888314150829667e-06
-1.1008720136567796e-05   2.4101587211174114e-06   -1.0888314150829667e-06
-1.1008720136567796e-05   2.4101587211174114e-06   -1.0888314150829667e-06
-1.1008720136567796e-05   2.4101587211174114e-06   -1.0888314150829667e-06
-1.308824606101528e-05   2.6622101928693584e-06   2.2258142426122317e-06
-1.308824606101528e-05   2.6622101928693584e-06   2.2258142426122317e-06
-1.308824606101528e-05   2.6622101928693584e-06   2.2258142426122317e-06
-1.308824606101528e-05   2.6622101928693584e-06   2.2258142426122317e-06
-1.1008720136567796e-05   2.8718253448841184e-06   7.46444958572601e-06
-1.1008720136567796e-05   2.8718253448841184e-06   7.46444958572601e-06
-1.1008720136567796e-05   2.8718253448841184e-06   7.46444958572601e-06
-1.1008720136567796e-05   2.8718253448841184e-06   7.46444958572601e-06
-1.6140688737053112e-05   2.4101587211174114e-06   -1.3658313893429746e-06
-1.6140688737053112e-05   2.4101587211174114e-06   -1.3658313893429746e-06
-1.6140688737053112e-05   2.4101587211174114e-06   -1.3658313893429746e-06
-1.6140688737053112e-05   2.4101587211174114e-06   -1.3658313893429746e-06
-1.6555454940189206e-05   2.6549261999216003e-06   9.254523339156289e-06
-1.6555454940189206e-05   2.6549261999216003e-06   9.254523339156289e-06
-1.6555454940189206e-05   2.6549261999216003e-06   9.254523339156289e-06
-1.6555454940189206e-05   2.6549261999216003e-06   9.254523339156289e-06
-1.1233803759129205e-05   2.193222277515456e-06   6.621270574998987e-07
-1.1233803759129205e-05   2.193222277515456e-06   6.621270574998987e-07
-1.1233803759129205e-05   2.193222277515456e-06   6.621270574998987e-07
-1.1233803759129205e-05   2.193222277515456e-06   6.621270574998987e-07
-1.317605781461266e-05   2.5716880009122494e-06   3.672137715934605e-06
-1.317605781461266e-05   2.5716880009122494e-06   3.672137715934605e-06
-1.317605781461266e-05   2.5716880009122494e-06   3.672137715934605e-06
-1.317605781461266e-05   2.5716880009122494e-06   3.672137715934605e-06
7.373190657835841e-06   -9.524632317112636e-07   7.239889716198153e-06
7.373190657835841e-06   -9.524632317112636e-07   7.239889716198153e-06
7.373190657835841e-06   -9.524632317112636e-07   7.239889716198153e-06
7.373190657835841e-06   -9.524632317112636e-07   7.239889716198153e-06
3.068598992913914e-06   -4.891698246657248e-07   3.435463188889787e-07
3.068598992913914e-06   -4.891698246657248e-07   3.435463188889787e-07
3.068598992913914e-06   -4.891698246657248e-07   3.435463188889787e-07
3.068598992913914e-06   -4.891698246657248e-07   3.435463188889787e-07
2.889987004631741e-06   -1.1490870743699434e-06   6.4923671815036044e-06
2.889987004631741e-06   -1.1490870743699434e-06   6.4923671815036044e-06
2.889987004631741e-06   -1.1490870743699434e-06   6.4923671815036044e-06
2.889987004631741e-06   -1.1490870743699434e-06   6.4923671815036044e-06
6.9906087130626205e-06   -6.673425371715724e-07   -6.310490548668932e-07
6.9906087130626205e-06   -6.673425371715724e-07   -6.310490548668932e-07
6.9906087130626205e-06   -6.673425371715724e-07   -6.310490548668932e-07
6.9906087130626205e-06   -6.673425371715724e-07   -6.310490548668932e-07
4.828828733597076e-06   -8.327103274061425e-07   3.071138251716524e-06
4.828828733597076e-06   -8.327103274061425e-07   3.071138251716524e-06
4.828828733597076e-06   -8.327103274061425e-07   3.071138251716524e-06
4.828828733597076e-06   -8.327103274061425e-07   3.071138251716524e-06
6.990608713062634e-06   -1.1490870743699434e-06   6.20332045918456e-06
6.990608713062634e-06   -1.1490870743699434e-06   6.20332045918456e-06
6.990608713062634e-06   -1.1490870743699434e-06   6.20332045918456e-06
6.990608713062634e-06   -1.1490870743699434e-06   6.20332045918456e-06
2.889987004631731e-06   -6.673425371715724e-07   -3.420023325479099e-07
2.889987004631731e-06   -6.673425371715724e-07   -3.420023325479099e-07
2.889987004631731e-06   -6.673425371715724e-07   -3.420023325479099e-07
2.889987004631731e-06   -6.673425371715724e-07   -3.420023325479099e-07
2.688203870453292e-06   -1.2005800654641156e-06   5.9395229897884106e-06
2.688203870453292e-06   -1.2005800654641156e-06   5.9395229897884106e-06
2.688203870453292e-06   -1.2005800654641156e-06   5.9395229897884106e-06
2.688203870453292e-06   -1.2005800654641156e-06   5.9395229897884106e-06
6.660982254950321e-06   -7.274473789465599e-07   -9.656539296171228e-07
6.660982254950321e-06   -7.274473789465599e-07   -9.656539296171228e-07
6.660982254950321e-06   -7.274473789465599e-07   -9.656539296171228e-07
6.660982254950321e-06   -7.274473789465599e-07   -9.656539296171228e-07
4.664467018858925e-06   -9.087223696939949e-07   2.470636458317115e-06
4.664467018858925e-06   -9.087223696939949e-07   2.470636458317115e-06
4.664467018858925e-06   -9.087223696939949e-07   2.470636458317115e-06
4.664467018858925e-06   -9.087223696939949e-07   2.470636458317115e-06
6.660982254950334e-06   -1.2005800654641156e-06   5.65564337787791e-06
6.660982254950334e-06   -1.2005800654641156e-06   5.65564337787791e-06
6.660982254950334e-06   -1.2005800654641156e-06   5.65564337787791e-06
6.660982254950334e-06   -1.2005800654641156e-06   5.65564337787791e-06
2.6882038704532886e-06   -7.274473789465599e-07   -6.817743177065677e-07
2.6882038704532886e-06   -7.274473789465599e-07   -6.817743177065677e-07
2.6882038704532886e-06   -7.274473789465599e-07   -6.817743177065677e-07
2.6882038704532886e-06   -7.274473789465599e-07   -6.817743177065677e-07
2.5068288682992673e-06   -1.2439023092784569e-06   5.21254853351374e-06
2.5068288682992673e-06   -1.2439023092784569e-06   5.21254853351374e-06
2.5068288682992673e-06   -1.2439023092784569e-06   5.21254853351374e-06
2.5068288682992673e-06   -1.2439023092784569e-06   5.21254853351374e-06
6.285066200427869e-06   -8.02945606211494e-07   -1.3490877085407715e-06
6.285066200427869e-06   -8.02945606211494e-07   -1.3490877085407715e-06
6.285066200427869e-06   -8.02945606211494e-07   -1.3490877085407715e-06
6.285066200427869e-06   -8.02945606211494e-07   -1.3490877085407715e-06
4.342497826580376e-06   -9.209098492180597e-07   1.9593047936756222e-06
4.342497826580376e-06   -9.209098492180597e-07   1.9593047936756222e-06
4.342497826580376e-06   -9.209098492180597e-07   1.9593047936756222e-06
4.342497826580376e-06   -9.209098492180597e-07   1.9593047936756222e-06
3.068598992913926e-06   -1.4878553274621717e-08   8.831171745763333e-06
3.068598992913926e-06   -1.4878553274621717e-08   8.831171745763333e-06
3.068598992913926e-06   -1.4878553274621717e-08   8.831171745763333e-06
3.068598992913926e-06   -1.4878553274621717e-08   8.831171745763333e-06
-9.598659706840519e-07   2.2370718000421343e-07   2.2602149130673452e-06
-9.598659706840519e-07   2.2370718000421343e-07   2.2602149130673452e-06
-9.598659706840519e-07   2.2370718000421343e-07   2.2602149130673452e-06
-9.598659706840519e-07   2.2370718000421343e-07   2.2602149130673452e-06
-1.1244992117279975e-06   -1.8409278928870065e-07   8.843924696101994e-06
-1.1244992117279975e-06   -1.8409278928870065e-07   8.843924696101994e-06
-1.1244992117279975e-06   -1.8409278928870065e-07   8.843924696101994e-06
-1.1244992117279975e-06   -1.8409278928870065e-07   8.843924696101994e-06
2.889987004631731e-06   4.5511986165435586e-08   2.0153514702299853e-06
2.889987004631731e-06   4.5511986165435586e-08   2.0153514702299853e-06
2.889987004631731e-06   4.5511986165435586e-08   2.0153514702299853e-06
2.889987004631731e-06   4.5511986165435586e-08   2.0153514702299853e-06
9.394363921526842e-07   1.734838557315363e-09   5.292535446260223e-06
9.394363921526842e-07   1.734838557315363e-09   5.292535446260223e-06
9.394363921526842e-07   1.734838557315363e-09   5.292535446260223e-06
9.394363921526842e-07   1.734838557315363e-09   5.292535446260223e-06
2.8899870046317393e-06   -1.8409278928870065e-07   8.70616183082948e-06
2.8899870046317393e-06   -1.8409278928870065e-07   8.70616183082948e-06
2.8899870046317393e-06   -1.8409278928870065e-07   8.70616183082948e-06
2.8899870046317393e-06   -1.8409278928870065e-07   8.70616183082948e-06
-1.1244992117279975e-06   4.5511986165489796e-08   2.1531143355024555e-06
-1.1244992117279975e-06   4.5511986165489796e-08   2.1531143355024555e-06
-1.1244992117279975e-06   4.5511986165489796e-08   2.1531143355024555e-06
-1.1244992117279975e-06   4.5511986165489796e-08   2.1531143355024555e-06
-1.2930891040286829e-06   -3.15743429617427e-07   8.729372026820609e-06
-1.2930891040286829e-06   -3.15743429617427e-07   8.729372026820609e-06
-1.2930891040286829e-06   -3.15743429617427e-07   8.729372026820609e-06
-1.2930891040286829e-06   -3.15743429617427e-07   8.729372026820609e-06
2.6882038704532886e-06   -9.866321905457019e-08   1.963635609679533e-06
2.6882038704532886e-06   -9.866321905457019e-08   1.963635609679533e-06
2.6882038704532886e-06   -9.866321905457019e-08   1.963635609679533e-06
2.6882038704532886e-06   -9.866321905457019e-08   1.963635609679533e-06
7.57251555813045e-07   -1.1613907254784048e-07   5.192374979509575e-06
7.57251555813045e-07   -1.1613907254784048e-07   5.192374979509575e-06
7.57251555813045e-07   -1.1613907254784048e-07   5.192374979509575e-06
7.57251555813045e-07   -1.1613907254784048e-07   5.192374979509575e-06
2.688203870453297e-06   -3.15743429617427e-07   8.59912390048284e-06
2.688203870453297e-06   -3.15743429617427e-07   8.59912390048284e-06
2.688203870453297e-06   -3.15743429617427e-07   8.59912390048284e-06
2.688203870453297e-06   -3.15743429617427e-07   8.59912390048284e-06
-1.2930891040286829e-06   -9.866321905457019e-08   2.0938837360173572e-06
-1.2930891040286829e-06   -9.866321905457019e-08   2.0938837360173572e-06
-1.2930891040286829e-06   -9.866321905457019e-08   2.0938837360173572e-06
-1.2930891040286829e-06   -9.866321905457019e-08   2.0938837360173572e-06
-1.4604636169855846e-06   -4.3552539606521445e-07   8.799570795450817e-06
-1.4604636169855846e-06   -4.3552539606521445e-07   8.799570795450817e-06
-1.4604636169855846e-06   -4.3552539606521445e-07   8.799570795450817e-06
-1.4604636169855846e-06   -4.3552539606521445e-07   8.799570795450817e-06
2.5068288682992554e-06   -2.3866560318433786e-07   2.069300777580888e-06
2.5068288682992554e-06   -2.3866560318433786e-07   2.069300777580888e-06
2.5068288682992554e-06   -2.3866560318433786e-07   2.069300777580888e-06
2.5068288682992554e-06   -2.3866560318433786e-07   2.069300777580888e-06
6.152540343436851e-07   -2.1243952150651509e-07   5.20618985183345e-06
6.152540343436851e-07   -2.1243952150651509e-07   5.20618985183345e-06
6.152540343436851e-07   -2.1243952150651509e-07   5.20618985183345e-06
6.152540343436851e-07   -2.1243952150651509e-07   5.20618985183345e-06
-9.59865970684045e-07   8.949909594734235e-07   9.560266885189658e-06
-9.59865970684045e-07   8.949909594734235e-07   9.560266885189658e-06
-9.59865970684045e-07   8.949909594734235e-07   9.560266885189658e-06
-9.59865970684045e-07   8.949909594734235e-07   9.560266885189658e-06
-4.91784663750747e-06   8.863237472607889e-07   2.958432113156327e-06
-4.91784663750747e-06   8.863237472607889e-07   2.958432113156327e-06
-4.91784663750747e-06   8.863237472607889e-07   2.958432113156327e-06
-4.91784663750747e-06   8.863237472607889e-07   2.958432113156327e-06
-5.08084728255904e-06   7.482448275645398e-07   9.49829869715369e-06
-5.08084728255904e-06   7.482448275645398e-07   9.49829869715369e-06
-5.08084728255904e-06   7.482448275645398e-07   9.49829869715369e-06
-5.08084728255904e-06   7.482448275645398e-07   9.49829869715369e-06
-1.1244992117279907e-06   7.26221276712766e-07   2.917599376279741e-06
-1.1244992117279907e-06   7.26221276712766e-07   2.917599376279741e-06
-1.1244992117279907e-06   7.26221276712766e-07   2.917599376279741e-06
-1.1244992117279907e-06   7.26221276712766e-07   2.917599376279741e-06
-3.028476795430715e-06   7.925337612924369e-07   6.051107858369859e-06
-3.028476795430715e-06   7.925337612924369e-07   6.051107858369859e-06
-3.028476795430715e-06   7.925337612924369e-07   6.051107858369859e-06
-3.028476795430715e-06   7.925337612924369e-07   6.051107858369859e-06
-1.1244992117279975e-06   7.482448275645398e-07   9.511512827664744e-06
-1.1244992117279975e-06   7.482448275645398e-07   9.511512827664744e-06
-1.1244992117279975e-06   7.482448275645398e-07   9.511512827664744e-06
-1.1244992117279975e-06   7.482448275645398e-07   9.511512827664744e-06
-5.08084728255904e-06   7.262212767127118e-07   2.9043852457686335e-06
-5.08084728255904e-06   7.262212767127118e-07   2.9043852457686335e-06
-5.08084728255904e-06   7.262212767127118e-07   2.9043852457686335e-06
-5.08084728255904e-06   7.262212767127118e-07   2.9043852457686335e-06
-5.247535190457848e-06   6.039183247472536e-07   9.542179748936463e-06
-5.247535190457848e-06   6.039183247472536e-07   9.542179748936463e-06
-5.247535190457848e-06   6.039183247472536e-07   9.542179748936463e-06
-5.247535190457848e-06   6.039183247472536e-07   9.542179748936463e-06
-1.2930891040286829e-06   5.680129803184246e-07   2.9729794782117926e-06
-1.2930891040286829e-06   5.680129803184246e-07   2.9729794782117926e-06
-1.2930891040286829e-06   5.680129803184246e-07   2.9729794782117926e-06
-1.2930891040286829e-06   5.680129803184246e-07   2.9729794782117926e-06
-3.177185756418294e-06   6.771055531196645e-07   6.0476850218472755e-06
-3.177185756418294e-06   6.771055531196645e-07   6.0476850218472755e-06
-3.177185756418294e-06   6.771055531196645e-07   6.0476850218472755e-06
-3.177185756418294e-06   6.771055531196645e-07   6.0476850218472755e-06
-1.2930891040286829e-06   6.039183247472536e-07   9.56372295559375e-06
-1.2930891040286829e-06   6.039183247472536e-07   9.56372295559375e-06
-1.2930891040286829e-06   6.039183247472536e-07   9.56372295559375e-06
-1.2930891040286829e-06   6.039183247472536e-07   9.56372295559375e-06
-5.247535190457848e-06   5.680129803184246e-07   2.9514362715545874e-06
-5.247535190457848e-06   5.680129803184246e-07   2.9514362715545874e-06
-5.247535190457848e-06   5.680129803184246e-07   2.9514362715545874e-06
-5.247535190457848e-06   5.680129803184246e-07   2.9514362715545874e-06
-5.412049990027453e-06   4.671143295039608e-07   9.663746798832388e-06
-5.412049990027453e-06   4.671143295039608e-07   9.663746798832388e-06
-5.412049990027453e-06   4.671143295039608e-07   9.663746798832388e-06
-5.412049990027453e-06   4.671143295039608e-07   9.663746798832388e-06
-1.4604636169855846e-06   4.15963475376333e-07   3.108460022905868e-06
-1.4604636169855846e-06   4.15963475376333e-07   3.108460022905868e-06
-1.4604636169855846e-06   4.15963475376333e-07   3.108460022905868e-06
-1.4604636169855846e-06   4.15963475376333e-07   3.108460022905868e-06
-3.3330309632927412e-06   5.645956861152247e-07   6.140226273641106e-06
-3.3330309632927412e-06   5.645956861152247e-07   6.140226273641106e-06
-3.3330309632927412e-06   5.645956861152247e-07   6.140226273641106e-06
-3.3330309632927412e-06   5.645956861152247e-07   6.140226273641106e-06
-4.91784663750747e-06   1.7733461819020987e-06   8.475103223749348e-06
-4.91784663750747e-06   1.7733461819020987e-06   8.475103223749348e-06
-4.91784663750747e-06   1.7733461819020987e-06   8.475103223749348e-06
-4.91784663750747e-06   1.7733461819020987e-06   8.475103223749348e-06
-8.821412434842262e-06   1.5323418923155092e-06   1.8245576544394324e-06
-8.821412434842262e-06   1.5323418923155092e-06   1.8245576544394324e-06
-8.821412434842262e-06   1.5323418923155092e-06   1.8245576544394324e-06
-8.821412434842262e-06   1.5323418923155092e-06   1.8245576544394324e-06
-8.996944150486993e-06   1.6344854924482503e-06   8.36831592007913e-06
-8.996944150486993e-06   1.6344854924482503e-06   8.36831592007913e-06
-8.996944150486993e-06   1.6344854924482503e-06   8.36831592007913e-06
-8.996944150486993e-06   1.6344854924482503e-06   8.36831592007913e-06
-5.08084728255902e-06   1.377211949980296e-06   1.995851932346646e-06
-5.08084728255902e-06   1.377211949980296e-06   1.995851932346646e-06
-5.08084728255902e-06   1.377211949980296e-06   1.995851932346646e-06
-5.08084728255902e-06   1.377211949980296e-06   1.995851932346646e-06
-6.9342121580507185e-06   1.5505285398211325e-06   4.9808034375952315e-06
-6.9342121580507185e-06   1.5505285398211325e-06   4.9808034375952315e-06
-6.9342121580507185e-06   1.5505285398211325e-06   4.9808034375952315e-06
-6.9342121580507185e-06   1.5505285398211325e-06   4.9808034375952315e-06
-5.08084728255904e-06   1.6344854924482503e-06   8.522680045559914e-06
-5.08084728255904e-06   1.6344854924482503e-06   8.522680045559914e-06
-5.08084728255904e-06   1.6344854924482503e-06   8.522680045559914e-06
-5.08084728255904e-06   1.6344854924482503e-06   8.522680045559914e-06
-8.996944150486966e-06   1.3772119499803502e-06   1.8414878068659303e-06
-8.996944150486966e-06   1.3772119499803502e-06   1.8414878068659303e-06
-8.996944150486966e-06   1.3772119499803502e-06   1.8414878068659303e-06
-8.996944150486966e-06   1.3772119499803502e-06   1.8414878068659303e-06
-9.193861533802149e-06   1.503534298672067e-06   8.655589370675843e-06
-9.193861533802149e-06   1.503534298672067e-06   8.655589370675843e-06
-9.193861533802149e-06   1.503534298672067e-06   8.655589370675843e-06
-9.193861533802149e-06   1.503534298672067e-06   8.655589370675843e-06
-5.247535190457827e-06   1.232319485217515e-06   2.2411076865081018e-06
-5.247535190457827e-06   1.232319485217515e-06   2.2411076865081018e-06
-5.247535190457827e-06   1.232319485217515e-06   2.2411076865081018e-06
-5.247535190457827e-06   1.232319485217515e-06   2.2411076865081018e-06
-7.052995815084184e-06   1.4454382412225917e-06   5.122337473949159e-06
-7.052995815084184e-06   1.4454382412225917e-06   5.122337473949159e-06
-7.052995815084184e-06   1.4454382412225917e-06   5.122337473949159e-06
-7.052995815084184e-06   1.4454382412225917e-06   5.122337473949159e-06
-5.247535190457841e-06   1.503534298672067e-06   8.81831825874852e-06
-5.247535190457841e-06   1.503534298672067e-06   8.81831825874852e-06
-5.247535190457841e-06   1.503534298672067e-06   8.81831825874852e-06
-5.247535190457841e-06   1.503534298672067e-06   8.81831825874852e-06
-9.193861533802135e-06   1.232319485217515e-06   2.07837879843533e-06
-9.193861533802135e-06   1.232319485217515e-06   2.07837879843533e-06
-9.193861533802135e-06   1.232319485217515e-06   2.07837879843533e-06
-9.193861533802135e-06   1.232319485217515e-06   2.07837879843533e-06
-9.367932475392698e-06   1.349600390243154e-06   8.892409816974663e-06
-9.367932475392698e-06   1.349600390243154e-06   8.892409816974663e-06
-9.367932475392698e-06   1.349600390243154e-06   8.892409816974663e-06
-9.367932475392698e-06   1.349600390243154e-06   8.892409816974663e-06
-5.4120499900274255e-06   1.0690158318204732e-06   2.4676230764194543e-06
-5.4120499900274255e-06   1.0690158318204732e-06   2.4676230764194543e-06
-5.4120499900274255e-06   1.0690158318204732e-06   2.4676230764194543e-06
-5.4120499900274255e-06   1.0690158318204732e-06   2.4676230764194543e-06
-7.251932676174806e-06   1.3333070964503292e-06   5.3755194612206426e-06
-7.251932676174806e-06   1.3333070964503292e-06   5.3755194612206426e-06
-7.251932676174806e-06   1.3333070964503292e-06   5.3755194612206426e-06
-7.251932676174806e-06   1.3333070964503292e-06   5.3755194612206426e-06
-8.821412434842262e-06   2.464519496419063e-06   4.097910067159922e-06
-8.821412434842262e-06   2.464519496419063e-06   4.097910067159922e-06
-8.821412434842262e-06   2.464519496419063e-06   4.097910067159922e-06
-8.821412434842262e-06   2.464519496419063e-06   4.097910067159922e-06
-1.2517503953954877e-05   2.0297154303484445e-06   -2.3231249043368036e-06
-1.2517503953954877e-05   2.0297154303484445e-06   -2.3231249043368036e-06
-1.2517503953954877e-05   2.0297154303484445e-06   -2.3231249043368036e-06
-1.2517503953954877e-05   2.0297154303484445e-06   -2.3231249043368036e-06
-1.2887111525994264e-05   2.4582427995095517e-06   5.288127175019479e-06
-1.2887111525994264e-05   2.4582427995095517e-06   5.288127175019479e-06
-1.2887111525994264e-05   2.4582427995095517e-06   5.288127175019479e-06
-1.2887111525994264e-05   2.4582427995095517e-06   5.288127175019479e-06
-8.996944150486966e-06   1.9833954856585427e-06   -9.105767291820062e-07
-8.996944150486966e-06   1.9833954856585427e-06   -9.105767291820062e-07
-8.996944150486966e-06   1.9833954856585427e-06   -9.105767291820062e-07
-8.996944150486966e-06   1.9833954856585427e-06   -9.105767291820062e-07
-1.0399885676645244e-05   2.191072338477947e-06   1.3030530360569077e-06
-1.0399885676645244e-05   2.191072338477947e-06   1.3030530360569077e-06
-1.0399885676645244e-05   2.191072338477947e-06   1.3030530360569077e-06
-1.0399885676645244e-05   2.191072338477947e-06   1.3030530360569077e-06
-8.996944150486993e-06   2.4582427995095517e-06   5.573035563330095e-06
-8.996944150486993e-06   2.4582427995095517e-06   5.573035563330095e-06
-8.996944150486993e-06   2.4582427995095517e-06   5.573035563330095e-06
-8.996944150486993e-06   2.4582427995095517e-06   5.573035563330095e-06
-1.2887111525994291e-05   1.9833954856584885e-06   -1.1954851174926224e-06
-1.2887111525994291e-05   1.9833954856584885e-06   -1.1954851174926224e-06
-1.2887111525994291e-05   1.9833954856584885e-06   -1.1954851174926224e-06
-1.2887111525994291e-05   1.9833954856584885e-06   -1.1954851174926224e-06
-1.3207860462144893e-05   2.4101587211174114e-06   6.303524450947714e-06
-1.3207860462144893e-05   2.4101587211174114e-06   6.303524450947714e-06
-1.3207860462144893e-05   2.4101587211174114e-06   6.303524450947714e-06
-1.3207860462144893e-05   2.4101587211174114e-06   6.303524450947714e-06
-9.193861533802135e-06   1.9216698575924606e-06   -9.338044484186311e-08
-9.193861533802135e-06   1.9216698575924606e-06   -9.338044484186311e-08
-9.193861533802135e-06   1.9216698575924606e-06   -9.338044484186311e-08
-9.193861533802135e-06   1.9216698575924606e-06   -9.338044484186311e-08
-1.079715108667873e-05   2.195021445447389e-06   2.414757857239889e-06
-1.079715108667873e-05   2.195021445447389e-06   2.414757857239889e-06
-1.079715108667873e-05   2.195021445447389e-06   2.414757857239889e-06
-1.079715108667873e-05   2.195021445447389e-06   2.414757857239889e-06
-9.193861533802149e-06   2.4101587211174114e-06   6.596617769062728e-06
-9.193861533802149e-06   2.4101587211174114e-06   6.596617769062728e-06
-9.193861533802149e-06   2.4101587211174114e-06   6.596617769062728e-06
-9.193861533802149e-06   2.4101587211174114e-06   6.596617769062728e-06
-1.3207860462144893e-05   1.9216698575924606e-06   -3.8647376295684985e-07
-1.3207860462144893e-05   1.9216698575924606e-06   -3.8647376295684985e-07
-1.3207860462144893e-05   1.9216698575924606e-06   -3.8647376295684985e-07
-1.3207860462144893e-05   1.9216698575924606e-06   -3.8647376295684985e-07
-1.3578421980887988e-05   2.193222277515456e-06   8.061793701624514e-06
-1.3578421980887988e-05   2.193222277515456e-06   8.061793701624514e-06
-1.3578421980887988e-05   2.193222277515456e-06   8.061793701624514e-06
-1.3578421980887988e-05   2.193222277515456e-06   8.061793701624514e-06
-9.367932475392684e-06   1.7105521061313027e-06   1.3339132952961156e-06
-9.367932475392684e-06   1.7105521061313027e-06   1.3339132952961156e-06
-9.367932475392684e-06   1.7105521061313027e-06   1.3339132952961156e-06
-9.367932475392684e-06   1.7105521061313027e-06   1.3339132952961156e-06
-1.087495332386659e-05   2.1027025723442975e-06   3.610324429691473e-06
-1.087495332386659e-05   2.1027025723442975e-06   3.610324429691473e-06
-1.087495332386659e-05   2.1027025723442975e-06   3.610324429691473e-06
-1.087495332386659e-05   2.1027025723442975e-06   3.610324429691473e-06
4.251374482137869e-06   -4.891698246657248e-07   5.7853933607460075e-06
4.251374482137869e-06   -4.891698246657248e-07   5.7853933607460075e-06
4.251374482137869e-06   -4.891698246657248e-07   5.7853933607460075e-06
4.251374482137869e-06   -4.891698246657248e-07   5.7853933607460075e-06
1.1725069105777197e-06   -2.3739001018185588e-08   9.332059023342445e-07
1.1725069105777197e-06   -2.3739001018185588e-08   9.332059023342445e-07
1.1725069105777197e-06   -2.3739001018185588e-08   9.332059023342445e-07
1.1725069105777197e-06   -2.3739001018185588e-08   9.332059023342445e-07
1.0363987692248915e-06   -6.673425371715724e-07   5.373170542842033e-06
1.0363987692248915e-06   -6.673425371715724e-07   5.373170542842033e-06
1.0363987692248915e-06   -6.673425371715724e-07   5.373170542842033e-06
1.0363987692248915e-06   -6.673425371715724e-07   5.373170542842033e-06
3.913144565237881e-06   -1.8490691941551278e-07   2.891328455001678e-07
3.913144565237881e-06   -1.8490691941551278e-07   2.891328455001678e-07
3.913144565237881e-06   -1.8490691941551278e-07   2.891328455001678e-07
3.913144565237881e-06   -1.8490691941551278e-07   2.891328455001678e-07
2.443111506290184e-06   -3.640665308626183e-07   2.8466837106147822e-06
2.443111506290184e-06   -3.640665308626183e-07   2.8466837106147822e-06
2.443111506290184e-06   -3.640665308626183e-07   2.8466837106147822e-06
2.443111506290184e-06   -3.640665308626183e-07   2.8466837106147822e-06
3.913144565237888e-06   -6.673425371715724e-07   5.083709172188494e-06
3.913144565237888e-06   -6.673425371715724e-07   5.083709172188494e-06
3.913144565237888e-06   -6.673425371715724e-07   5.083709172188494e-06
3.913144565237888e-06   -6.673425371715724e-07   5.083709172188494e-06
1.0363987692248898e-06   -1.8490691941551278e-07   5.785942161537602e-07
1.0363987692248898e-06   -1.8490691941551278e-07   5.785942161537602e-07
1.0363987692248898e-06   -1.8490691941551278e-07   5.785942161537602e-07
1.0363987692248898e-06   -1.8490691941551278e-07   5.785942161537602e-07
8.766736771667204e-07   -7.274473789466141e-07   5.029017721665371e-06
8.766736771667204e-07   -7.274473789466141e-07   5.029017721665371e-06
8.766736771667204e-07   -7.274473789466141e-07   5.029017721665371e-06
8.766736771667204e-07   -7.274473789466141e-07   5.029017721665371e-06
3.6254997193388528e-06   -2.526490830016045e-07   1.6276200714483192e-07
3.6254997193388528e-06   -2.526490830016045e-07   1.6276200714483192e-07
3.6254997193388528e-06   -2.526490830016045e-07   1.6276200714483192e-07
3.6254997193388528e-06   -2.526490830016045e-07   1.6276200714483192e-07
2.2838915102701935e-06   -4.3458891423910073e-07   2.507939587668447e-06
2.2838915102701935e-06   -4.3458891423910073e-07   2.507939587668447e-06
2.2838915102701935e-06   -4.3458891423910073e-07   2.507939587668447e-06
2.2838915102701935e-06   -4.3458891423910073e-07   2.507939587668447e-06
3.625499719338856e-06   -7.274473789465599e-07   4.744138744098344e-06
3.625499719338856e-06   -7.274473789465599e-07   4.744138744098344e-06
3.625499719338856e-06   -7.274473789465599e-07   4.744138744098344e-06
3.625499719338856e-06   -7.274473789465599e-07   4.744138744098344e-06
8.76673677166717e-07   -2.526490830016045e-07   4.476409847118594e-07
8.76673677166717e-07   -2.526490830016045e-07   4.476409847118594e-07
8.76673677166717e-07   -2.526490830016045e-07   4.476409847118594e-07
8.76673677166717e-07   -2.526490830016045e-07   4.476409847118594e-07
7.377113339587296e-07   -8.029456062114398e-07   4.6205841281664296e-06
7.377113339587296e-07   -8.029456062114398e-07   4.6205841281664296e-06
7.377113339587296e-07   -8.029456062114398e-07   4.6205841281664296e-06
7.377113339587296e-07   -8.029456062114398e-07   4.6205841281664296e-06
3.2868464320675893e-06   -3.621837310906792e-07   1.0756850624588131e-07
3.2868464320675893e-06   -3.621837310906792e-07   1.0756850624588131e-07
3.2868464320675893e-06   -3.621837310906792e-07   1.0756850624588131e-07
3.2868464320675893e-06   -3.621837310906792e-07   1.0756850624588131e-07
2.0374683177885823e-06   -4.677775367993033e-07   2.25322164680282e-06
2.0374683177885823e-06   -4.677775367993033e-07   2.25322164680282e-06
2.0374683177885823e-06   -4.677775367993033e-07   2.25322164680282e-06
2.0374683177885823e-06   -4.677775367993033e-07   2.25322164680282e-06
1.1725069105777214e-06   2.2370718000415922e-07   7.838169009145575e-06
1.1725069105777214e-06   2.2370718000415922e-07   7.838169009145575e-06
1.1725069105777214e-06   2.2370718000415922e-07   7.838169009145575e-06
1.1725069105777214e-06   2.2370718000415922e-07   7.838169009145575e-06
-1.6222227419105542e-06   4.380329273470586e-07   3.3088817034041516e-06
-1.6222227419105542e-06   4.380329273470586e-07   3.3088817034041516e-06
-1.6222227419105542e-06   4.380329273470586e-07   3.3088817034041516e-06
-1.6222227419105542e-06   4.380329273470586e-07   3.3088817034041516e-06
-1.7423925025783293e-06   4.5511986165435586e-08   7.858159516230864e-06
-1.7423925025783293e-06   4.5511986165435586e-08   7.858159516230864e-06
-1.7423925025783293e-06   4.5511986165435586e-08   7.858159516230864e-06
-1.7423925025783293e-06   4.5511986165435586e-08   7.858159516230864e-06
1.0363987692248898e-06   2.582372705169241e-07   3.0992055592813008e-06
1.0363987692248898e-06   2.582372705169241e-07   3.0992055592813008e-06
1.0363987692248898e-06   2.582372705169241e-07   3.0992055592813008e-06
1.0363987692248898e-06   2.582372705169241e-07   3.0992055592813008e-06
-3.1056692082146177e-07   2.2244646349277525e-07   5.365622860239921e-06
-3.1056692082146177e-07   2.2244646349277525e-07   5.365622860239921e-06
-3.1056692082146177e-07   2.2244646349277525e-07   5.365622860239921e-06
-3.1056692082146177e-07   2.2244646349277525e-07   5.365622860239921e-06
1.0363987692248907e-06   4.5511986165489796e-08   7.730524345619938e-06
1.0363987692248907e-06   4.5511986165489796e-08   7.730524345619938e-06
1.0363987692248907e-06   4.5511986165489796e-08   7.730524345619938e-06
1.0363987692248907e-06   4.5511986165489796e-08   7.730524345619938e-06
-1.7423925025783293e-06   2.582372705169241e-07   3.2268407298922247e-06
-1.7423925025783293e-06   2.582372705169241e-07   3.2268407298922247e-06
-1.7423925025783293e-06   2.582372705169241e-07   3.2268407298922247e-06
-1.7423925025783293e-06   2.582372705169241e-07   3.2268407298922247e-06
-1.8663242065829926e-06   -9.866321905457019e-08   7.798175878324812e-06
-1.8663242065829926e-06   -9.866321905457019e-08   7.798175878324812e-06
-1.8663242065829926e-06   -9.866321905457019e-08   7.798175878324812e-06
-1.8663242065829926e-06   -9.866321905457019e-08   7.798175878324812e-06
8.76673677166717e-07   1.0758382973423625e-07   3.102764509468705e-06
8.76673677166717e-07   1.0758382973423625e-07   3.102764509468705e-06
8.76673677166717e-07   1.0758382973423625e-07   3.102764509468705e-06
8.76673677166717e-07   1.0758382973423625e-07   3.102764509468705e-06
-4.3956349222865285e-07   9.813614289174441e-08   5.30216173723325e-06
-4.3956349222865285e-07   9.813614289174441e-08   5.30216173723325e-06
-4.3956349222865285e-07   9.813614289174441e-08   5.30216173723325e-06
-4.3956349222865285e-07   9.813614289174441e-08   5.30216173723325e-06
8.766736771667204e-07   -9.866321905457019e-08   7.674427649051528e-06
8.766736771667204e-07   -9.866321905457019e-08   7.674427649051528e-06
8.766736771667204e-07   -9.866321905457019e-08   7.674427649051528e-06
8.766736771667204e-07   -9.866321905457019e-08   7.674427649051528e-06
-1.8663242065829994e-06   1.0758382973418204e-07   3.2265127387420074e-06
-1.8663242065829994e-06   1.0758382973418204e-07   3.2265127387420074e-06
-1.8663242065829994e-06   1.0758382973418204e-07   3.2265127387420074e-06
-1.8663242065829994e-06   1.0758382973418204e-07   3.2265127387420074e-06
-1.988695724904833e-06   -2.386656031843921e-07   7.891039492163333e-06
-1.988695724904833e-06   -2.386656031843921e-07   7.891039492163333e-06
-1.988695724904833e-06   -2.386656031843921e-07   7.891039492163333e-06
-1.988695724904833e-06   -2.386656031843921e-07   7.891039492163333e-06
7.37711333958727e-07   -4.426410365868973e-08   3.2303868276754395e-06
7.37711333958727e-07   -4.426410365868973e-08   3.2303868276754395e-06
7.37711333958727e-07   -4.426410365868973e-08   3.2303868276754395e-06
7.37711333958727e-07   -4.426410365868973e-08   3.2303868276754395e-06
-5.476268716606622e-07   -1.1443853549411142e-08   5.352925020308925e-06
-5.476268716606622e-07   -1.1443853549411142e-08   5.352925020308925e-06
-5.476268716606622e-07   -1.1443853549411142e-08   5.352925020308925e-06
-5.476268716606622e-07   -1.1443853549411142e-08   5.352925020308925e-06
-1.6222227419105542e-06   8.863237472607889e-07   8.670181984967904e-06
-1.6222227419105542e-06   8.863237472607889e-07   8.670181984967904e-06
-1.6222227419105542e-06   8.863237472607889e-07   8.670181984967904e-06
-1.6222227419105542e-06   8.863237472607889e-07   8.670181984967904e-06
-4.3628441664262925e-06   8.40997561216356e-07   4.075283899148362e-06
-4.3628441664262925e-06   8.40997561216356e-07   4.075283899148362e-06
-4.3628441664262925e-06   8.40997561216356e-07   4.075283899148362e-06
-4.3628441664262925e-06   8.40997561216356e-07   4.075283899148362e-06
-4.4786830018025625e-06   7.262212767127118e-07   8.593110930216283e-06
-4.4786830018025625e-06   7.262212767127118e-07   8.593110930216283e-06
-4.4786830018025625e-06   7.262212767127118e-07   8.593110930216283e-06
-4.4786830018025625e-06   7.262212767127118e-07   8.593110930216283e-06
-1.7423925025783225e-06   6.769985653930439e-07   4.0621603916343775e-06
-1.7423925025783225e-06   6.769985653930439e-07   4.0621603916343775e-06
-1.7423925025783225e-06   6.769985653930439e-07   4.0621603916343775e-06
-1.7423925025783225e-06   6.769985653930439e-07   4.0621603916343775e-06
-3.057756742669536e-06   7.623351630634987e-07   6.203232166517749e-06
-3.057756742669536e-06   7.623351630634987e-07   6.203232166517749e-06
-3.057756742669536e-06   7.623351630634987e-07   6.203232166517749e-06
-3.057756742669536e-06   7.623351630634987e-07   6.203232166517749e-06
-1.7423925025783293e-06   7.262212767127118e-07   8.622644557008041e-06
-1.7423925025783293e-06   7.262212767127118e-07   8.622644557008041e-06
-1.7423925025783293e-06   7.262212767127118e-07   8.622644557008041e-06
-1.7423925025783293e-06   7.262212767127118e-07   8.622644557008041e-06
-4.478683001802556e-06   6.769985653930981e-07   4.032626764842613e-06
-4.478683001802556e-06   6.769985653930981e-07   4.032626764842613e-06
-4.478683001802556e-06   6.769985653930981e-07   4.032626764842613e-06
-4.478683001802556e-06   6.769985653930981e-07   4.032626764842613e-06
-4.598112255616639e-06   5.680129803184246e-07   8.64479852563996e-06
-4.598112255616639e-06   5.680129803184246e-07   8.64479852563996e-06
-4.598112255616639e-06   5.680129803184246e-07   8.64479852563996e-06
-4.598112255616639e-06   5.680129803184246e-07   8.64479852563996e-06
-1.8663242065829926e-06   5.138911555194951e-07   4.124291538796613e-06
-1.8663242065829926e-06   5.138911555194951e-07   4.124291538796613e-06
-1.8663242065829926e-06   5.138911555194951e-07   4.124291538796613e-06
-1.8663242065829926e-06   5.138911555194951e-07   4.124291538796613e-06
-3.1604699422219134e-06   6.384053332766709e-07   6.206492591540448e-06
-3.1604699422219134e-06   6.384053332766709e-07   6.206492591540448e-06
-3.1604699422219134e-06   6.384053332766709e-07   6.206492591540448e-06
-3.1604699422219134e-06   6.384053332766709e-07   6.206492591540448e-06
-1.8663242065829994e-06   5.680129803184246e-07   8.677271620519328e-06
-1.8663242065829994e-06   5.680129803184246e-07   8.677271620519328e-06
-1.8663242065829994e-06   5.680129803184246e-07   8.677271620519328e-06
-1.8663242065829994e-06   5.680129803184246e-07   8.677271620519328e-06
-4.5981122556166325e-06   5.138911555194409e-07   4.091818443917252e-06
-4.5981122556166325e-06   5.138911555194409e-07   4.091818443917252e-06
-4.5981122556166325e-06   5.138911555194409e-07   4.091818443917252e-06
-4.5981122556166325e-06   5.138911555194409e-07   4.091818443917252e-06
-4.7155347131953165e-06   4.15963475376333e-07   8.777407115643837e-06
-4.7155347131953165e-06   4.15963475376333e-07   8.777407115643837e-06
-4.7155347131953165e-06   4.15963475376333e-07   8.777407115643837e-06
-4.7155347131953165e-06   4.15963475376333e-07   8.777407115643837e-06
-1.9886957249048263e-06   3.5817056518312436e-07   4.2673512146090974e-06
-1.9886957249048263e-06   3.5817056518312436e-07   4.2673512146090974e-06
-1.9886957249048263e-06   3.5817056518312436e-07   4.2673512146090974e-06
-1.9886957249048263e-06   3.5817056518312436e-07   4.2673512146090974e-06
-3.269961019460173e-06   5.171888059264142e-07   6.307382427755417e-06
-3.269961019460173e-06   5.171888059264142e-07   6.307382427755417e-06
-3.269961019460173e-06   5.171888059264142e-07   6.307382427755417e-06
-3.269961019460173e-06   5.171888059264142e-07   6.307382427755417e-06
-4.3628441664262925e-06   1.5323418923155092e-06   7.653714388376298e-06
-4.3628441664262925e-06   1.5323418923155092e-06   7.653714388376298e-06
-4.3628441664262925e-06   1.5323418923155092e-06   7.653714388376298e-06
-4.3628441664262925e-06   1.5323418923155092e-06   7.653714388376298e-06
-7.0631287857428495e-06   1.2613709573939397e-06   2.9906574618957e-06
-7.0631287857428495e-06   1.2613709573939397e-06   2.9906574618957e-06
-7.0631287857428495e-06   1.2613709573939397e-06   2.9906574618957e-06
-7.0631287857428495e-06   1.2613709573939397e-06   2.9906574618957e-06
-7.189982750687864e-06   1.3772119499803502e-06   7.516321351465946e-06
-7.189982750687864e-06   1.3772119499803502e-06   7.516321351465946e-06
-7.189982750687864e-06   1.3772119499803502e-06   7.516321351465946e-06
-7.189982750687864e-06   1.3772119499803502e-06   7.516321351465946e-06
-4.478683001802549e-06   1.0967848410997345e-06   3.165744701985585e-06
-4.478683001802549e-06   1.0967848410997345e-06   3.165744701985585e-06
-4.478683001802549e-06   1.0967848410997345e-06   3.165744701985585e-06
-4.478683001802549e-06   1.0967848410997345e-06   3.165744701985585e-06
-5.759495757907149e-06   1.2932891108066139e-06   5.182530067002707e-06
-5.759495757907149e-06   1.2932891108066139e-06   5.182530067002707e-06
-5.759495757907149e-06   1.2932891108066139e-06   5.182530067002707e-06
-5.759495757907149e-06   1.2932891108066139e-06   5.182530067002707e-06
-4.4786830018025625e-06   1.3772119499803502e-06   7.684577616794337e-06
-4.4786830018025625e-06   1.3772119499803502e-06   7.684577616794337e-06
-4.4786830018025625e-06   1.3772119499803502e-06   7.684577616794337e-06
-4.4786830018025625e-06   1.3772119499803502e-06   7.684577616794337e-06
-7.189982750687864e-06   1.0967848410997345e-06   2.9974884366571803e-06
-7.189982750687864e-06   1.0967848410997345e-06   2.9974884366571803e-06
-7.189982750687864e-06   1.0967848410997345e-06   2.9974884366571803e-06
-7.189982750687864e-06   1.0967848410997345e-06   2.9974884366571803e-06
-7.339504050373928e-06   1.2323194852175692e-06   7.76268073101157e-06
-7.339504050373928e-06   1.2323194852175692e-06   7.76268073101157e-06
-7.339504050373928e-06   1.2323194852175692e-06   7.76268073101157e-06
-7.339504050373928e-06   1.2323194852175692e-06   7.76268073101157e-06
-4.598112255616626e-06   9.460041359143087e-07   3.3654836159980705e-06
-4.598112255616626e-06   9.460041359143087e-07   3.3654836159980705e-06
-4.598112255616626e-06   9.460041359143087e-07   3.3654836159980705e-06
-4.598112255616626e-06   9.460041359143087e-07   3.3654836159980705e-06
-5.8398496707000155e-06   1.177507603368239e-06   5.29614389399802e-06
-5.8398496707000155e-06   1.177507603368239e-06   5.29614389399802e-06
-5.8398496707000155e-06   1.177507603368239e-06   5.29614389399802e-06
-5.8398496707000155e-06   1.177507603368239e-06   5.29614389399802e-06
-4.598112255616639e-06   1.2323194852175692e-06   7.93446994059346e-06
-4.598112255616639e-06   1.2323194852175692e-06   7.93446994059346e-06
-4.598112255616639e-06   1.2323194852175692e-06   7.93446994059346e-06
-4.598112255616639e-06   1.2323194852175692e-06   7.93446994059346e-06
-7.339504050373887e-06   9.460041359143087e-07   3.1936944064161793e-06
-7.339504050373887e-06   9.460041359143087e-07   3.1936944064161793e-06
-7.339504050373887e-06   9.460041359143087e-07   3.1936944064161793e-06
-7.339504050373887e-06   9.460041359143087e-07   3.1936944064161793e-06
-7.466916585402398e-06   1.0690158318204732e-06   7.996047801558037e-06
-7.466916585402398e-06   1.0690158318204732e-06   7.996047801558037e-06
-7.466916585402398e-06   1.0690158318204732e-06   7.996047801558037e-06
-7.466916585402398e-06   1.0690158318204732e-06   7.996047801558037e-06
-4.715534713195296e-06   7.836610316938695e-07   3.5816242279556264e-06
-4.715534713195296e-06   7.836610316938695e-07   3.5816242279556264e-06
-4.715534713195296e-06   7.836610316938695e-07   3.5816242279556264e-06
-4.715534713195296e-06   7.836610316938695e-07   3.5816242279556264e-06
-5.981491334769527e-06   1.0602517489342466e-06   5.525597500235323e-06
-5.981491334769527e-06   1.0602517489342466e-06   5.525597500235323e-06
-5.981491334769527e-06   1.0602517489342466e-06   5.525597500235323e-06
-5.981491334769527e-06   1.0602517489342466e-06   5.525597500235323e-06
-7.063128785742877e-06   2.0297154303484445e-06   3.604331708289459e-06
-7.063128785742877e-06   2.0297154303484445e-06   3.604331708289459e-06
-7.063128785742877e-06   2.0297154303484445e-06   3.604331708289459e-06
-7.063128785742877e-06   2.0297154303484445e-06   3.604331708289459e-06
-9.534969231983986e-06   1.5706544709984463e-06   -7.90838944389054e-07
-9.534969231983986e-06   1.5706544709984463e-06   -7.90838944389054e-07
-9.534969231983986e-06   1.5706544709984463e-06   -7.90838944389054e-07
-9.534969231983986e-06   1.5706544709984463e-06   -7.90838944389054e-07
-9.86175872979059e-06   1.9833954856584885e-06   4.467123924679461e-06
-9.86175872979059e-06   1.9833954856584885e-06   4.467123924679461e-06
-9.86175872979059e-06   1.9833954856584885e-06   4.467123924679461e-06
-9.86175872979059e-06   1.9833954856584885e-06   4.467123924679461e-06
-7.189982750687837e-06   1.4881740010944675e-06   3.1129685024673995e-07
-7.189982750687837e-06   1.4881740010944675e-06   3.1129685024673995e-07
-7.189982750687837e-06   1.4881740010944675e-06   3.1129685024673995e-07
-7.189982750687837e-06   1.4881740010944675e-06   3.1129685024673995e-07
-8.105105382191056e-06   1.7329423728408978e-06   1.6896402130379148e-06
-8.105105382191056e-06   1.7329423728408978e-06   1.6896402130379148e-06
-8.105105382191056e-06   1.7329423728408978e-06   1.6896402130379148e-06
-8.105105382191056e-06   1.7329423728408978e-06   1.6896402130379148e-06
-7.18998275068785e-06   1.9833954856585427e-06   4.764256815417982e-06
-7.18998275068785e-06   1.9833954856585427e-06   4.764256815417982e-06
-7.18998275068785e-06   1.9833954856585427e-06   4.764256815417982e-06
-7.18998275068785e-06   1.9833954856585427e-06   4.764256815417982e-06
-9.86175872979063e-06   1.4881740010944675e-06   1.4163959508340924e-08
-9.86175872979063e-06   1.4881740010944675e-06   1.4163959508340924e-08
-9.86175872979063e-06   1.4881740010944675e-06   1.4163959508340924e-08
-9.86175872979063e-06   1.4881740010944675e-06   1.4163959508340924e-08
-1.0141497960707753e-05   1.9216698575924606e-06   5.2880718906084235e-06
-1.0141497960707753e-05   1.9216698575924606e-06   5.2880718906084235e-06
-1.0141497960707753e-05   1.9216698575924606e-06   5.2880718906084235e-06
-1.0141497960707753e-05   1.9216698575924606e-06   5.2880718906084235e-06
-7.339504050373887e-06   1.416920529049323e-06   9.209316371779238e-07
-7.339504050373887e-06   1.416920529049323e-06   9.209316371779238e-07
-7.339504050373887e-06   1.416920529049323e-06   9.209316371779238e-07
-7.339504050373887e-06   1.416920529049323e-06   9.209316371779238e-07
-8.422404912478325e-06   1.7131134475634928e-06   2.5480506562435804e-06
-8.422404912478325e-06   1.7131134475634928e-06   2.5480506562435804e-06
-8.422404912478325e-06   1.7131134475634928e-06   2.5480506562435804e-06
-8.422404912478325e-06   1.7131134475634928e-06   2.5480506562435804e-06
-7.339504050373914e-06   1.9216698575924606e-06   5.5909214877343494e-06
-7.339504050373914e-06   1.9216698575924606e-06   5.5909214877343494e-06
-7.339504050373914e-06   1.9216698575924606e-06   5.5909214877343494e-06
-7.339504050373914e-06   1.9216698575924606e-06   5.5909214877343494e-06
-1.0141497960707794e-05   1.416920529049323e-06   6.180820400520656e-07
-1.0141497960707794e-05   1.416920529049323e-06   6.180820400520656e-07
-1.0141497960707794e-05   1.416920529049323e-06   6.180820400520656e-07
-1.0141497960707794e-05   1.416920529049323e-06   6.180820400520656e-07
-1.0474499869724899e-05   1.710552106131357e-06   6.735943379170418e-06
-1.0474499869724899e-05   1.710552106131357e-06   6.735943379170418e-06
-1.0474499869724899e-05   1.710552106131357e-06   6.735943379170418e-06
-1.0474499869724899e-05   1.710552106131357e-06   6.735943379170418e-06
-7.466916585402371e-06   1.2193098122681824e-06   2.0180499482841765e-06
-7.466916585402371e-06   1.2193098122681824e-06   2.0180499482841765e-06
-7.466916585402371e-06   1.2193098122681824e-06   2.0180499482841765e-06
-7.466916585402371e-06   1.2193098122681824e-06   2.0180499482841765e-06
-8.4940588151472e-06   1.623231599997177e-06   3.487600591888304e-06
-8.4940588151472e-06   1.623231599997177e-06   3.487600591888304e-06
-8.4940588151472e-06   1.623231599997177e-06   3.487600591888304e-06
-8.4940588151472e-06   1.623231599997177e-06   3.487600591888304e-06
1.083011678330767e-06   -2.3739001018239798e-08   4.3992947653582635e-06
1.083011678330767e-06   -2.3739001018239798e-08   4.3992947653582635e-06
1.083011678330767e-06   -2.3739001018239798e-08   4.3992947653582635e-06
1.083011678330767e-06   -2.3739001018239798e-08   4.3992947653582635e-06
-7.479553759199386e-07   4.288878707270436e-07   1.619259131320906e-06
-7.479553759199386e-07   4.288878707270436e-07   1.619259131320906e-06
-7.479553759199386e-07   4.288878707270436e-07   1.619259131320906e-06
-7.479553759199386e-07   4.288878707270436e-07   1.619259131320906e-06
-8.478849666104108e-07   -1.8490691941551278e-07   4.3096952751037144e-06
-8.478849666104108e-07   -1.8490691941551278e-07   4.3096952751037144e-06
-8.478849666104108e-07   -1.8490691941551278e-07   4.3096952751037144e-06
-8.478849666104108e-07   -1.8490691941551278e-07   4.3096952751037144e-06
7.817860614982019e-07   2.7829745087023594e-07   1.3156542727512082e-06
7.817860614982019e-07   2.7829745087023594e-07   1.3156542727512082e-06
7.817860614982019e-07   2.7829745087023594e-07   1.3156542727512082e-06
7.817860614982019e-07   2.7829745087023594e-07   1.3156542727512082e-06
1.784912424255759e-08   9.799477461989222e-08   2.697064107260805e-06
1.784912424255759e-08   9.799477461989222e-08   2.697064107260805e-06
1.784912424255759e-08   9.799477461989222e-08   2.697064107260805e-06
1.784912424255759e-08   9.799477461989222e-08   2.697064107260805e-06
7.817860614982019e-07   -1.8490691941551278e-07   4.031772652932238e-06
7.817860614982019e-07   -1.8490691941551278e-07   4.031772652932238e-06
7.817860614982019e-07   -1.8490691941551278e-07   4.031772652932238e-06
7.817860614982019e-07   -1.8490691941551278e-07   4.031772652932238e-06
-8.478849666104108e-07   2.7829745087023594e-07   1.5935768949226845e-06
-8.478849666104108e-07   2.7829745087023594e-07   1.5935768949226845e-06
-8.478849666104108e-07   2.7829745087023594e-07   1.5935768949226845e-06
-8.478849666104108e-07   2.7829745087023594e-07   1.5935768949226845e-06
-9.719227761973345e-07   -2.526490830016045e-07   4.178266903757233e-06
-9.719227761973345e-07   -2.526490830016045e-07   4.178266903757233e-06
-9.719227761973345e-07   -2.526490830016045e-07   4.178266903757233e-06
-9.719227761973345e-07   -2.526490830016045e-07   4.178266903757233e-06
5.188495500225179e-07   1.9788144153983205e-07   1.4233280453326141e-06
5.188495500225179e-07   1.9788144153983205e-07   1.4233280453326141e-06
5.188495500225179e-07   1.9788144153983205e-07   1.4233280453326141e-06
5.188495500225179e-07   1.9788144153983205e-07   1.4233280453326141e-06
-1.4212609136124618e-07   3.401646895580387e-08   2.623273097855953e-06
-1.4212609136124618e-07   3.401646895580387e-08   2.623273097855953e-06
-1.4212609136124618e-07   3.401646895580387e-08   2.623273097855953e-06
-1.4212609136124618e-07   3.401646895580387e-08   2.623273097855953e-06
5.188495500225179e-07   -2.526490830016045e-07   3.907948589032344e-06
5.188495500225179e-07   -2.526490830016045e-07   3.907948589032344e-06
5.188495500225179e-07   -2.526490830016045e-07   3.907948589032344e-06
5.188495500225179e-07   -2.526490830016045e-07   3.907948589032344e-06
-9.719227761973337e-07   1.9788144153983205e-07   1.693646360057476e-06
-9.719227761973337e-07   1.9788144153983205e-07   1.693646360057476e-06
-9.719227761973337e-07   1.9788144153983205e-07   1.693646360057476e-06
-9.719227761973337e-07   1.9788144153983205e-07   1.693646360057476e-06
-1.0765915285517028e-06   -3.621837310906792e-07   4.1040142731032885e-06
-1.0765915285517028e-06   -3.621837310906792e-07   4.1040142731032885e-06
-1.0765915285517028e-06   -3.621837310906792e-07   4.1040142731032885e-06
-1.0765915285517028e-06   -3.621837310906792e-07   4.1040142731032885e-06
1.8775627497851757e-07   2.9722004829535464e-08   1.761624492334139e-06
1.8775627497851757e-07   2.9722004829535464e-08   1.761624492334139e-06
1.8775627497851757e-07   2.9722004829535464e-08   1.761624492334139e-06
1.8775627497851757e-07   2.9722004829535464e-08   1.761624492334139e-06
-3.231627260931675e-07   -2.0995734685341425e-08   2.6435868044959128e-06
-3.231627260931675e-07   -2.0995734685341425e-08   2.6435868044959128e-06
-3.231627260931675e-07   -2.0995734685341425e-08   2.6435868044959128e-06
-3.231627260931675e-07   -2.0995734685341425e-08   2.6435868044959128e-06
-7.479553759199386e-07   4.380329273470044e-07   6.917951241069666e-06
-7.479553759199386e-07   4.380329273470044e-07   6.917951241069666e-06
-7.479553759199386e-07   4.380329273470044e-07   6.917951241069666e-06
-7.479553759199386e-07   4.380329273470044e-07   6.917951241069666e-06
-2.275592798958956e-06   5.320612532356932e-07   4.428305864871197e-06
-2.275592798958956e-06   5.320612532356932e-07   4.428305864871197e-06
-2.275592798958956e-06   5.320612532356932e-07   4.428305864871197e-06
-2.275592798958956e-06   5.320612532356932e-07   4.428305864871197e-06
-2.3521996041415925e-06   2.582372705169241e-07   6.89450092626964e-06
-2.3521996041415925e-06   2.582372705169241e-07   6.89450092626964e-06
-2.3521996041415925e-06   2.582372705169241e-07   6.89450092626964e-06
-2.3521996041415925e-06   2.582372705169241e-07   6.89450092626964e-06
-8.478849666104108e-07   3.652277839142899e-07   4.32311555567925e-06
-8.478849666104108e-07   3.652277839142899e-07   4.32311555567925e-06
-8.478849666104108e-07   3.652277839142899e-07   4.32311555567925e-06
-8.478849666104108e-07   3.652277839142899e-07   4.32311555567925e-06
-1.5677324245093926e-06   3.7763465459480106e-07   5.515417196435903e-06
-1.5677324245093926e-06   3.7763465459480106e-07   5.515417196435903e-06
-1.5677324245093926e-06   3.7763465459480106e-07   5.515417196435903e-06
-1.5677324245093926e-06   3.7763465459480106e-07   5.515417196435903e-06
-8.478849666104116e-07   2.582372705169241e-07   6.830306618231145e-06
-8.478849666104116e-07   2.582372705169241e-07   6.830306618231145e-06
-8.478849666104116e-07   2.582372705169241e-07   6.830306618231145e-06
-8.478849666104116e-07   2.582372705169241e-07   6.830306618231145e-06
-2.3521996041415857e-06   3.652277839142899e-07   4.387309863717676e-06
-2.3521996041415857e-06   3.652277839142899e-07   4.387309863717676e-06
-2.3521996041415857e-06   3.652277839142899e-07   4.387309863717676e-06
-2.3521996041415857e-06   3.652277839142899e-07   4.387309863717676e-06
-2.43139366377562e-06   1.0758382973423625e-07   6.896912331508893e-06
-2.43139366377562e-06   1.0758382973423625e-07   6.896912331508893e-06
-2.43139366377562e-06   1.0758382973423625e-07   6.896912331508893e-06
-2.43139366377562e-06   1.0758382973423625e-07   6.896912331508893e-06
-9.719227761973337e-07   2.1345366805884149e-07   4.400938949216965e-06
-9.719227761973337e-07   2.1345366805884149e-07   4.400938949216965e-06
-9.719227761973337e-07   2.1345366805884149e-07   4.400938949216965e-06
-9.719227761973337e-07   2.1345366805884149e-07   4.400938949216965e-06
-1.6463433947158668e-06   2.5703775430937093e-07   5.498822861664299e-06
-1.6463433947158668e-06   2.5703775430937093e-07   5.498822861664299e-06
-1.6463433947158668e-06   2.5703775430937093e-07   5.498822861664299e-06
-1.6463433947158668e-06   2.5703775430937093e-07   5.498822861664299e-06
-9.719227761973345e-07   1.0758382973423625e-07   6.833390428514097e-06
-9.719227761973345e-07   1.0758382973423625e-07   6.833390428514097e-06
-9.719227761973345e-07   1.0758382973423625e-07   6.833390428514097e-06
-9.719227761973345e-07   1.0758382973423625e-07   6.833390428514097e-06
-2.43139366377562e-06   2.1345366805884149e-07   4.464460852211756e-06
-2.43139366377562e-06   2.1345366805884149e-07   4.464460852211756e-06
-2.43139366377562e-06   2.1345366805884149e-07   4.464460852211756e-06
-2.43139366377562e-06   2.1345366805884149e-07   4.464460852211756e-06
-2.5095495785378697e-06   -4.426410365868973e-08   7.0197685327651595e-06
-2.5095495785378697e-06   -4.426410365868973e-08   7.0197685327651595e-06
-2.5095495785378697e-06   -4.426410365868973e-08   7.0197685327651595e-06
-2.5095495785378697e-06   -4.426410365868973e-08   7.0197685327651595e-06
-1.0765915285517028e-06   5.1391001849323235e-08   4.5741120528167685e-06
-1.0765915285517028e-06   5.1391001849323235e-08   4.5741120528167685e-06
-1.0765915285517028e-06   5.1391001849323235e-08   4.5741120528167685e-06
-1.0765915285517028e-06   5.1391001849323235e-08   4.5741120528167685e-06
-1.7240566127161324e-06   1.4064282588175346e-07   5.599669432004674e-06
-1.7240566127161324e-06   1.4064282588175346e-07   5.599669432004674e-06
-1.7240566127161324e-06   1.4064282588175346e-07   5.599669432004674e-06
-1.7240566127161324e-06   1.4064282588175346e-07   5.599669432004674e-06
-2.275592798958949e-06   8.40997561216356e-07   7.767966143973739e-06
-2.275592798958949e-06   8.40997561216356e-07   7.767966143973739e-06
-2.275592798958949e-06   8.40997561216356e-07   7.767966143973739e-06
-2.275592798958949e-06   8.40997561216356e-07   7.767966143973739e-06
-3.785545380158737e-06   6.527789462807071e-07   5.138447339679355e-06
-3.785545380158737e-06   6.527789462807071e-07   5.138447339679355e-06
-3.785545380158737e-06   6.527789462807071e-07   5.138447339679355e-06
-3.785545380158737e-06   6.527789462807071e-07   5.138447339679355e-06
-3.851202913823833e-06   6.769985653930981e-07   7.623586222882633e-06
-3.851202913823833e-06   6.769985653930981e-07   7.623586222882633e-06
-3.851202913823833e-06   6.769985653930981e-07   7.623586222882633e-06
-3.851202913823833e-06   6.769985653930981e-07   7.623586222882633e-06
-2.3521996041415857e-06   4.999412901777437e-07   5.23148173854141e-06
-2.3521996041415857e-06   4.999412901777437e-07   5.23148173854141e-06
-2.3521996041415857e-06   4.999412901777437e-07   5.23148173854141e-06
-2.3521996041415857e-06   4.999412901777437e-07   5.23148173854141e-06
-3.068536264558623e-06   6.529548184155422e-07   6.333568055627136e-06
-3.068536264558623e-06   6.529548184155422e-07   6.333568055627136e-06
-3.068536264558623e-06   6.529548184155422e-07   6.333568055627136e-06
-3.068536264558623e-06   6.529548184155422e-07   6.333568055627136e-06
-2.3521996041415857e-06   6.769985653930981e-07   7.72982058801184e-06
-2.3521996041415857e-06   6.769985653930981e-07   7.72982058801184e-06
-2.3521996041415857e-06   6.769985653930981e-07   7.72982058801184e-06
-2.3521996041415857e-06   6.769985653930981e-07   7.72982058801184e-06
-3.851202913823833e-06   4.999412901777437e-07   5.1252473734122165e-06
-3.851202913823833e-06   4.999412901777437e-07   5.1252473734122165e-06
-3.851202913823833e-06   4.999412901777437e-07   5.1252473734122165e-06
-3.851202913823833e-06   4.999412901777437e-07   5.1252473734122165e-06
-3.9212409570624814e-06   5.138911555194409e-07   7.69323009319528e-06
-3.9212409570624814e-06   5.138911555194409e-07   7.69323009319528e-06
-3.9212409570624814e-06   5.138911555194409e-07   7.69323009319528e-06
-3.9212409570624814e-06   5.138911555194409e-07   7.69323009319528e-06
-2.43139366377562e-06   3.4478942490570293e-07   5.311612309418762e-06
-2.43139366377562e-06   3.4478942490570293e-07   5.311612309418762e-06
-2.43139366377562e-06   3.4478942490570293e-07   5.311612309418762e-06
-2.43139366377562e-06   3.4478942490570293e-07   5.311612309418762e-06
-3.124686618631173e-06   5.315259426345083e-07   6.355058656874025e-06
-3.124686618631173e-06   5.315259426345083e-07   6.355058656874025e-06
-3.124686618631173e-06   5.315259426345083e-07   6.355058656874025e-06
-3.124686618631173e-06   5.315259426345083e-07   6.355058656874025e-06
-2.43139366377562e-06   5.138911555194951e-07   7.794691131563479e-06
-2.43139366377562e-06   5.138911555194951e-07   7.794691131563479e-06
-2.43139366377562e-06   5.138911555194951e-07   7.794691131563479e-06
-2.43139366377562e-06   5.138911555194951e-07   7.794691131563479e-06
-3.921240957062468e-06   3.4478942490570293e-07   5.210151271050495e-06
-3.921240957062468e-06   3.4478942490570293e-07   5.210151271050495e-06
-3.921240957062468e-06   3.4478942490570293e-07   5.210151271050495e-06
-3.921240957062468e-06   3.4478942490570293e-07   5.210151271050495e-06
-3.989852577508638e-06   3.5817056518312436e-07   7.844341717256611e-06
-3.989852577508638e-06   3.5817056518312436e-07   7.844341717256611e-06
-3.989852577508638e-06   3.5817056518312436e-07   7.844341717256611e-06
-3.989852577508638e-06   3.5817056518312436e-07   7.844341717256611e-06
-2.509549578537863e-06   1.9858672730511473e-07   5.47292035503214e-06
-2.509549578537863e-06   1.9858672730511473e-07   5.47292035503214e-06
-2.509549578537863e-06   1.9858672730511473e-07   5.47292035503214e-06
-2.509549578537863e-06   1.9858672730511473e-07   5.47292035503214e-06
-3.187180149841576e-06   4.122869850939825e-07   6.474084485864952e-06
-3.187180149841576e-06   4.122869850939825e-07   6.474084485864952e-06
-3.187180149841576e-06   4.122869850939825e-07   6.474084485864952e-06
-3.187180149841576e-06   4.122869850939825e-07   6.474084485864952e-06
-3.7855453801587504e-06   1.2613709573939397e-06   6.73299109871261e-06
-3.7855453801587504e-06   1.2613709573939397e-06   6.73299109871261e-06
-3.7855453801587504e-06   1.2613709573939397e-06   6.73299109871261e-06
-3.7855453801587504e-06   1.2613709573939397e-06   6.73299109871261e-06
-5.276525709393926e-06   8.920463625150142e-07   4.0264291263932995e-06
-5.276525709393926e-06   8.920463625150142e-07   4.0264291263932995e-06
-5.276525709393926e-06   8.920463625150142e-07   4.0264291263932995e-06
-5.276525709393926e-06   8.920463625150142e-07   4.0264291263932995e-06
-5.348949390269258e-06   1.0967848410996803e-06   6.537511188742359e-06
-5.348949390269258e-06   1.0967848410996803e-06   6.537511188742359e-06
-5.348949390269258e-06   1.0967848410996803e-06   6.537511188742359e-06
-5.348949390269258e-06   1.0967848410996803e-06   6.537511188742359e-06
-3.851202913823833e-06   7.314632222944154e-07   4.260460032616523e-06
-3.851202913823833e-06   7.314632222944154e-07   4.260460032616523e-06
-3.851202913823833e-06   7.314632222944154e-07   4.260460032616523e-06
-3.851202913823833e-06   7.314632222944154e-07   4.260460032616523e-06
-4.555837249348437e-06   9.8448315242279e-07   5.283038633747158e-06
-4.555837249348437e-06   9.8448315242279e-07   5.283038633747158e-06
-4.555837249348437e-06   9.8448315242279e-07   5.283038633747158e-06
-4.555837249348437e-06   9.8448315242279e-07   5.283038633747158e-06
-3.851202913823833e-06   1.0967848410997345e-06   6.756704160025551e-06
-3.851202913823833e-06   1.0967848410997345e-06   6.756704160025551e-06
-3.851202913823833e-06   1.0967848410997345e-06   6.756704160025551e-06
-3.851202913823833e-06   1.0967848410997345e-06   6.756704160025551e-06
-5.348949390269244e-06   7.314632222944696e-07   4.041267061333359e-06
-5.348949390269244e-06   7.314632222944696e-07   4.041267061333359e-06
-5.348949390269244e-06   7.314632222944696e-07   4.041267061333359e-06
-5.348949390269244e-06   7.314632222944696e-07   4.041267061333359e-06
-5.44734950447788e-06   9.46004135914363e-07   6.751923360375617e-06
-5.44734950447788e-06   9.46004135914363e-07   6.751923360375617e-06
-5.44734950447788e-06   9.46004135914363e-07   6.751923360375617e-06
-5.44734950447788e-06   9.46004135914363e-07   6.751923360375617e-06
-3.9212409570624814e-06   5.877176277468586e-07   4.423381019583744e-06
-3.9212409570624814e-06   5.877176277468586e-07   4.423381019583744e-06
-3.9212409570624814e-06   5.877176277468586e-07   4.423381019583744e-06
-3.9212409570624814e-06   5.877176277468586e-07   4.423381019583744e-06
-4.595078376698631e-06   8.668609542092126e-07   5.378957389766615e-06
-4.595078376698631e-06   8.668609542092126e-07   5.378957389766615e-06
-4.595078376698631e-06   8.668609542092126e-07   5.378957389766615e-06
-4.595078376698631e-06   8.668609542092126e-07   5.378957389766615e-06
-3.921240957062468e-06   9.460041359143087e-07   6.966895265276017e-06
-3.921240957062468e-06   9.460041359143087e-07   6.966895265276017e-06
-3.921240957062468e-06   9.460041359143087e-07   6.966895265276017e-06
-3.921240957062468e-06   9.460041359143087e-07   6.966895265276017e-06
-5.44734950447788e-06   5.877176277468586e-07   4.208409114683257e-06
-5.44734950447788e-06   5.877176277468586e-07   4.208409114683257e-06
-5.44734950447788e-06   5.877176277468586e-07   4.208409114683257e-06
-5.44734950447788e-06   5.877176277468586e-07   4.208409114683257e-06
-5.525842009961862e-06   7.836610316938695e-07   6.987296225983866e-06
-5.525842009961862e-06   7.836610316938695e-07   6.987296225983866e-06
-5.525842009961862e-06   7.836610316938695e-07   6.987296225983866e-06
-5.525842009961862e-06   7.836610316938695e-07   6.987296225983866e-06
-3.989852577508652e-06   4.403372804685714e-07   4.633308089297056e-06
-3.989852577508652e-06   4.403372804685714e-07   4.633308089297056e-06
-3.989852577508652e-06   4.403372804685714e-07   4.633308089297056e-06
-3.989852577508652e-06   4.403372804685714e-07   4.633308089297056e-06
-4.677513436497077e-06   7.539776982410902e-07   5.591225270281102e-06
-4.677513436497077e-06   7.539776982410902e-07   5.591225270281102e-06
-4.677513436497077e-06   7.539776982410902e-07   5.591225270281102e-06
-4.677513436497077e-06   7.539776982410902e-07   5.591225270281102e-06
-5.276525709393926e-06   1.5706544709984463e-06   3.005336511110497e-06
-5.276525709393926e-06   1.5706544709984463e-06   3.005336511110497e-06
-5.276525709393926e-06   1.5706544709984463e-06   3.005336511110497e-06
-5.276525709393926e-06   1.5706544709984463e-06   3.005336511110497e-06
-6.490795632564891e-06   1.0705068777716771e-06   6.814647498895355e-07
-6.490795632564891e-06   1.0705068777716771e-06   6.814647498895355e-07
-6.490795632564891e-06   1.0705068777716771e-06   6.814647498895355e-07
-6.490795632564891e-06   1.0705068777716771e-06   6.814647498895355e-07
-6.759989497237234e-06   1.4881740010944675e-06   3.5367552506912524e-06
-6.759989497237234e-06   1.4881740010944675e-06   3.5367552506912524e-06
-6.759989497237234e-06   1.4881740010944675e-06   3.5367552506912524e-06
-6.759989497237234e-06   1.4881740010944675e-06   3.5367552506912524e-06
-5.348949390269244e-06   9.639000816932981e-07   1.4995860907185941e-06
-5.348949390269244e-06   9.639000816932981e-07   1.4995860907185941e-06
-5.348949390269244e-06   9.639000816932981e-07   1.4995860907185941e-06
-5.348949390269244e-06   9.639000816932981e-07   1.4995860907185941e-06
-5.760886994170725e-06   1.257344826961315e-06   2.0100819167269174e-06
-5.760886994170725e-06   1.257344826961315e-06   2.0100819167269174e-06
-5.760886994170725e-06   1.257344826961315e-06   2.0100819167269174e-06
-5.760886994170725e-06   1.257344826961315e-06   2.0100819167269174e-06
-5.348949390269244e-06   1.4881740010944133e-06   3.851319602331905e-06
-5.348949390269244e-06   1.4881740010944133e-06   3.851319602331905e-06
-5.348949390269244e-06   1.4881740010944133e-06   3.851319602331905e-06
-5.348949390269244e-06   1.4881740010944133e-06   3.851319602331905e-06
-6.759989497237274e-06   9.63900081693244e-07   1.1850217390779184e-06
-6.759989497237274e-06   9.63900081693244e-07   1.1850217390779184e-06
-6.759989497237274e-06   9.63900081693244e-07   1.1850217390779184e-06
-6.759989497237274e-06   9.63900081693244e-07   1.1850217390779184e-06
-6.989829986062135e-06   1.4169205290492687e-06   4.1629344562325995e-06
-6.989829986062135e-06   1.4169205290492687e-06   4.1629344562325995e-06
-6.989829986062135e-06   1.4169205290492687e-06   4.1629344562325995e-06
-6.989829986062135e-06   1.4169205290492687e-06   4.1629344562325995e-06
-5.44734950447788e-06   8.898769708747824e-07   1.9083597884969107e-06
-5.44734950447788e-06   8.898769708747824e-07   1.9083597884969107e-06
-5.44734950447788e-06   8.898769708747824e-07   1.9083597884969107e-06
-5.44734950447788e-06   8.898769708747824e-07   1.9083597884969107e-06
-5.991163210561755e-06   1.2171527610894484e-06   2.61835049117476e-06
-5.991163210561755e-06   1.2171527610894484e-06   2.61835049117476e-06
-5.991163210561755e-06   1.2171527610894484e-06   2.61835049117476e-06
-5.991163210561755e-06   1.2171527610894484e-06   2.61835049117476e-06
-5.44734950447788e-06   1.416920529049323e-06   4.4791605911373075e-06
-5.44734950447788e-06   1.416920529049323e-06   4.4791605911373075e-06
-5.44734950447788e-06   1.416920529049323e-06   4.4791605911373075e-06
-5.44734950447788e-06   1.416920529049323e-06   4.4791605911373075e-06
-6.989829986062175e-06   8.898769708747824e-07   1.5921336535921764e-06
-6.989829986062175e-06   8.898769708747824e-07   1.5921336535921764e-06
-6.989829986062175e-06   8.898769708747824e-07   1.5921336535921764e-06
-6.989829986062175e-06   8.898769708747824e-07   1.5921336535921764e-06
-7.279679511295941e-06   1.2193098122681824e-06   5.29289645639973e-06
-7.279679511295941e-06   1.2193098122681824e-06   5.29289645639973e-06
-7.279679511295941e-06   1.2193098122681824e-06   5.29289645639973e-06
-7.279679511295941e-06   1.2193098122681824e-06   5.29289645639973e-06
-5.525842009961848e-06   7.159125289536413e-07   2.671872324164985e-06
-5.525842009961848e-06   7.159125289536413e-07   2.671872324164985e-06
-5.525842009961848e-06   7.159125289536413e-07   2.671872324164985e-06
-5.525842009961848e-06   7.159125289536413e-07   2.671872324164985e-06
-6.0533660499790425e-06   1.134704897522154e-06   3.299803636385828e-06
-6.0533660499790425e-06   1.134704897522154e-06   3.299803636385828e-06
-6.0533660499790425e-06   1.134704897522154e-06   3.299803636385828e-06
-6.0533660499790425e-06   1.134704897522154e-06   3.299803636385828e-06
-2.26381032598637e-06   4.288878707270436e-07   3.2164969664979603e-06
-2.26381032598637e-06   4.288878707270436e-07   3.2164969664979603e-06
-2.26381032598637e-06   4.288878707270436e-07   3.2164969664979603e-06
-2.26381032598637e-06   4.288878707270436e-07   3.2164969664979603e-06
-2.647375057933309e-06   8.413274390007869e-07   2.8246861542173323e-06
-2.647375057933309e-06   8.413274390007869e-07   2.8246861542173323e-06
-2.647375057933309e-06   8.413274390007869e-07   2.8246861542173323e-06
-2.647375057933309e-06   8.413274390007869e-07   2.8246861542173323e-06
-2.724095054683425e-06   2.7829745087023594e-07   3.408217775823977e-06
-2.724095054683425e-06   2.7829745087023594e-07   3.408217775823977e-06
-2.724095054683425e-06   2.7829745087023594e-07   3.408217775823977e-06
-2.724095054683425e-06   2.7829745087023594e-07   3.408217775823977e-06
-2.5696922349754725e-06   6.510697231957544e-07   2.927216379582086e-06
-2.5696922349754725e-06   6.510697231957544e-07   2.927216379582086e-06
-2.5696922349754725e-06   6.510697231957544e-07   2.927216379582086e-06
-2.5696922349754725e-06   6.510697231957544e-07   2.927216379582086e-06
-2.4930189088814717e-06   5.107661645330013e-07   2.8836096379564018e-06
-2.4930189088814717e-06   5.107661645330013e-07   2.8836096379564018e-06
-2.4930189088814717e-06   5.107661645330013e-07   2.8836096379564018e-06
-2.4930189088814717e-06   5.107661645330013e-07   2.8836096379564018e-06
-2.5696922349754793e-06   2.7829745087029015e-07   3.1845544124286065e-06
-2.5696922349754793e-06   2.7829745087029015e-07   3.1845544124286065e-06
-2.5696922349754793e-06   2.7829745087029015e-07   3.1845544124286065e-06
-2.5696922349754793e-06   2.7829745087029015e-07   3.1845544124286065e-06
-2.724095054683425e-06   6.510697231957544e-07   3.150879742977382e-06
-2.724095054683425e-06   6.510697231957544e-07   3.150879742977382e-06
-2.724095054683425e-06   6.510697231957544e-07   3.150879742977382e-06
-2.724095054683425e-06   6.510697231957544e-07   3.150879742977382e-06
-2.823338174453872e-06   1.9788144153977784e-07   3.488812248018578e-06
-2.823338174453872e-06   1.9788144153977784e-07   3.488812248018578e-06
-2.823338174453872e-06   1.9788144153977784e-07   3.488812248018578e-06
-2.823338174453872e-06   1.9788144153977784e-07   3.488812248018578e-06
-2.86918461052625e-06   5.220060481977561e-07   3.3707482108110806e-06
-2.86918461052625e-06   5.220060481977561e-07   3.3707482108110806e-06
-2.86918461052625e-06   5.220060481977561e-07   3.3707482108110806e-06
-2.86918461052625e-06   5.220060481977561e-07   3.3707482108110806e-06
-2.674123587781977e-06   4.294387066056083e-07   3.101186911192493e-06
-2.674123587781977e-06   4.294387066056083e-07   3.101186911192493e-06
-2.674123587781977e-06   4.294387066056083e-07   3.101186911192493e-06
-2.674123587781977e-06   4.294387066056083e-07   3.101186911192493e-06
-2.8691846105262568e-06   1.9788144153983205e-07   3.2943374840237313e-06
-2.8691846105262568e-06   1.9788144153983205e-07   3.2943374840237313e-06
-2.8691846105262568e-06   1.9788144153983205e-07   3.2943374840237313e-06
-2.8691846105262568e-06   1.9788144153983205e-07   3.2943374840237313e-06
-2.823338174453872e-06   5.220060481977561e-07   3.5652229748058255e-06
-2.823338174453872e-06   5.220060481977561e-07   3.5652229748058255e-06
-2.823338174453872e-06   5.220060481977561e-07   3.5652229748058255e-06
-2.823338174453872e-06   5.220060481977561e-07   3.5652229748058255e-06
-2.8896354994971986e-06   2.9722004829535464e-08   3.786780332564252e-06
-2.8896354994971986e-06   2.9722004829535464e-08   3.786780332564252e-06
-2.8896354994971986e-06   2.9722004829535464e-08   3.786780332564252e-06
-2.8896354994971986e-06   2.9722004829535464e-08   3.786780332564252e-06
-3.1893219840506647e-06   2.0592364623501906e-07   4.180536821976686e-06
-3.1893219840506647e-06   2.0592364623501906e-07   4.180536821976686e-06
-3.1893219840506647e-06   2.0592364623501906e-07   4.180536821976686e-06
-3.1893219840506647e-06   2.0592364623501906e-07   4.180536821976686e-06
-2.810489530495484e-06   3.3272486220088486e-07   3.4730686698051383e-06
-2.810489530495484e-06   3.3272486220088486e-07   3.4730686698051383e-06
-2.810489530495484e-06   3.3272486220088486e-07   3.4730686698051383e-06
-2.810489530495484e-06   3.3272486220088486e-07   3.4730686698051383e-06
-2.647375057933305e-06   5.320612532357474e-07   6.216590445479262e-06
-2.647375057933305e-06   5.320612532357474e-07   6.216590445479262e-06
-2.647375057933305e-06   5.320612532357474e-07   6.216590445479262e-06
-2.647375057933305e-06   5.320612532357474e-07   6.216590445479262e-06
-2.7885235452490317e-06   2.1936036114552498e-07   5.793722431365615e-06
-2.7885235452490317e-06   2.1936036114552498e-07   5.793722431365615e-06
-2.7885235452490317e-06   2.1936036114552498e-07   5.793722431365615e-06
-2.7885235452490317e-06   2.1936036114552498e-07   5.793722431365615e-06
-2.8168785928910214e-06   3.652277839142899e-07   5.978856419381744e-06
-2.8168785928910214e-06   3.652277839142899e-07   5.978856419381744e-06
-2.8168785928910214e-06   3.652277839142899e-07   5.978856419381744e-06
-2.8168785928910214e-06   3.652277839142899e-07   5.978856419381744e-06
-2.724095054683425e-06   1.0039442191624561e-07   5.983117206234562e-06
-2.724095054683425e-06   1.0039442191624561e-07   5.983117206234562e-06
-2.724095054683425e-06   1.0039442191624561e-07   5.983117206234562e-06
-2.724095054683425e-06   1.0039442191624561e-07   5.983117206234562e-06
-2.7381203671368796e-06   2.671815571734593e-07   5.906420445835991e-06
-2.7381203671368796e-06   2.671815571734593e-07   5.906420445835991e-06
-2.7381203671368796e-06   2.671815571734593e-07   5.906420445835991e-06
-2.7381203671368796e-06   2.671815571734593e-07   5.906420445835991e-06
-2.7240950546834234e-06   3.652277839142899e-07   6.137756436580473e-06
-2.7240950546834234e-06   3.652277839142899e-07   6.137756436580473e-06
-2.7240950546834234e-06   3.652277839142899e-07   6.137756436580473e-06
-2.7240950546834234e-06   3.652277839142899e-07   6.137756436580473e-06
-2.8168785928910214e-06   1.0039442191624561e-07   5.824217189035735e-06
-2.8168785928910214e-06   1.0039442191624561e-07   5.824217189035735e-06
-2.8168785928910214e-06   1.0039442191624561e-07   5.824217189035735e-06
-2.8168785928910214e-06   1.0039442191624561e-07   5.824217189035735e-06
-2.8511071048118057e-06   2.1345366805884149e-07   6.048104261832709e-06
-2.8511071048118057e-06   2.1345366805884149e-07   6.048104261832709e-06
-2.8511071048118057e-06   2.1345366805884149e-07   6.048104261832709e-06
-2.8511071048118057e-06   2.1345366805884149e-07   6.048104261832709e-06
-2.823338174453872e-06   -3.3213957516828665e-08   6.149823286581464e-06
-2.823338174453872e-06   -3.3213957516828665e-08   6.149823286581464e-06
-2.823338174453872e-06   -3.3213957516828665e-08   6.149823286581464e-06
-2.823338174453872e-06   -3.3213957516828665e-08   6.149823286581464e-06
-2.7718832842940225e-06   1.7097003743651862e-07   5.941554739342986e-06
-2.7718832842940225e-06   1.7097003743651862e-07   5.941554739342986e-06
-2.7718832842940225e-06   1.7097003743651862e-07   5.941554739342986e-06
-2.7718832842940225e-06   1.7097003743651862e-07   5.941554739342986e-06
-2.823338174453872e-06   2.1345366805884149e-07   6.196104837177981e-06
-2.823338174453872e-06   2.1345366805884149e-07   6.196104837177981e-06
-2.823338174453872e-06   2.1345366805884149e-07   6.196104837177981e-06
-2.823338174453872e-06   2.1345366805884149e-07   6.196104837177981e-06
-2.8511071048118057e-06   -3.3213957516828665e-08   6.001822711236064e-06
-2.8511071048118057e-06   -3.3213957516828665e-08   6.001822711236064e-06
-2.8511071048118057e-06   -3.3213957516828665e-08   6.001822711236064e-06
-2.8511071048118057e-06   -3.3213957516828665e-08   6.001822711236064e-06
-2.8786409851490344e-06   5.1391001849377446e-08   6.209620482257121e-06
-2.8786409851490344e-06   5.1391001849377446e-08   6.209620482257121e-06
-2.8786409851490344e-06   5.1391001849377446e-08   6.209620482257121e-06
-2.8786409851490344e-06   5.1391001849377446e-08   6.209620482257121e-06
-2.889635499497195e-06   -2.0611561354669477e-07   6.382448642074975e-06
-2.889635499497195e-06   -2.0611561354669477e-07   6.382448642074975e-06
-2.889635499497195e-06   -2.0611561354669477e-07   6.382448642074975e-06
-2.889635499497195e-06   -2.0611561354669477e-07   6.382448642074975e-06
-2.8210535963539215e-06   6.052986294331243e-08   6.1081581842753875e-06
-2.8210535963539215e-06   6.052986294331243e-08   6.1081581842753875e-06
-2.8210535963539215e-06   6.052986294331243e-08   6.1081581842753875e-06
-2.8210535963539215e-06   6.052986294331243e-08   6.1081581842753875e-06
-2.7885235452490385e-06   6.527789462806529e-07   6.852042553994733e-06
-2.7885235452490385e-06   6.527789462806529e-07   6.852042553994733e-06
-2.7885235452490385e-06   6.527789462806529e-07   6.852042553994733e-06
-2.7885235452490385e-06   6.527789462806529e-07   6.852042553994733e-06
-3.0877609012943167e-06   6.329867675917674e-08   5.999625465539653e-06
-3.0877609012943167e-06   6.329867675917674e-08   5.999625465539653e-06
-3.0877609012943167e-06   6.329867675917674e-08   5.999625465539653e-06
-3.0877609012943167e-06   6.329867675917674e-08   5.999625465539653e-06
-3.101876923240765e-06   4.999412901777437e-07   6.502360700029279e-06
-3.101876923240765e-06   4.999412901777437e-07   6.502360700029279e-06
-3.101876923240765e-06   4.999412901777437e-07   6.502360700029279e-06
-3.101876923240765e-06   4.999412901777437e-07   6.502360700029279e-06
-2.8168785928910214e-06   -3.450470011592149e-08   6.348031076955924e-06
-2.8168785928910214e-06   -3.450470011592149e-08   6.348031076955924e-06
-2.8168785928910214e-06   -3.450470011592149e-08   6.348031076955924e-06
-2.8168785928910214e-06   -3.450470011592149e-08   6.348031076955924e-06
-2.9448640066533534e-06   2.8402460772598533e-07   6.370222515188019e-06
-2.9448640066533534e-06   2.8402460772598533e-07   6.370222515188019e-06
-2.9448640066533534e-06   2.8402460772598533e-07   6.370222515188019e-06
-2.9448640066533534e-06   2.8402460772598533e-07   6.370222515188019e-06
-2.8168785928910214e-06   4.999412901777437e-07   6.823028294205478e-06
-2.8168785928910214e-06   4.999412901777437e-07   6.823028294205478e-06
-2.8168785928910214e-06   4.999412901777437e-07   6.823028294205478e-06
-2.8168785928910214e-06   4.999412901777437e-07   6.823028294205478e-06
-3.101876923240765e-06   -3.450470011592149e-08   6.027363482779704e-06
-3.101876923240765e-06   -3.450470011592149e-08   6.027363482779704e-06
-3.101876923240765e-06   -3.450470011592149e-08   6.027363482779704e-06
-3.101876923240765e-06   -3.450470011592149e-08   6.027363482779704e-06
-3.1222451406549964e-06   3.4478942490570293e-07   6.597531154380005e-06
-3.1222451406549964e-06   3.4478942490570293e-07   6.597531154380005e-06
-3.1222451406549964e-06   3.4478942490570293e-07   6.597531154380005e-06
-3.1222451406549964e-06   3.4478942490570293e-07   6.597531154380005e-06
-2.8511071048118057e-06   -1.5141818286045676e-07   6.4433589926343314e-06
-2.8511071048118057e-06   -1.5141818286045676e-07   6.4433589926343314e-06
-2.8511071048118057e-06   -1.5141818286045676e-07   6.4433589926343314e-06
-2.8511071048118057e-06   -1.5141818286045676e-07   6.4433589926343314e-06
-2.9529501966044483e-06   1.8830754610764562e-07   6.409262041574365e-06
-2.9529501966044483e-06   1.8830754610764562e-07   6.409262041574365e-06
-2.9529501966044483e-06   1.8830754610764562e-07   6.409262041574365e-06
-2.9529501966044483e-06   1.8830754610764562e-07   6.409262041574365e-06
-2.8511071048118057e-06   3.447894249056487e-07   6.89525571903962e-06
-2.8511071048118057e-06   3.447894249056487e-07   6.89525571903962e-06
-2.8511071048118057e-06   3.447894249056487e-07   6.89525571903962e-06
-2.8511071048118057e-06   3.447894249056487e-07   6.89525571903962e-06
-3.122245140654983e-06   -1.5141818286048387e-07   6.145634427974649e-06
-3.122245140654983e-06   -1.5141818286048387e-07   6.145634427974649e-06
-3.122245140654983e-06   -1.5141818286048387e-07   6.145634427974649e-06
-3.122245140654983e-06   -1.5141818286048387e-07   6.145634427974649e-06
-3.137923778603316e-06   1.9858672730506052e-07   6.77160482173071e-06
-3.137923778603316e-06   1.9858672730506052e-07   6.77160482173071e-06
-3.137923778603316e-06   1.9858672730506052e-07   6.77160482173071e-06
-3.137923778603316e-06   1.9858672730506052e-07   6.77160482173071e-06
-2.8786409851490344e-06   -2.6713143842324485e-07   6.6188977320771495e-06
-2.8786409851490344e-06   -2.6713143842324485e-07   6.6188977320771495e-06
-2.8786409851490344e-06   -2.6713143842324485e-07   6.6188977320771495e-06
-2.8786409851490344e-06   -2.6713143842324485e-07   6.6188977320771495e-06
-2.966300323748958e-06   9.027033401828063e-08   6.5505555662786065e-06
-2.966300323748958e-06   9.027033401828063e-08   6.5505555662786065e-06
-2.966300323748958e-06   9.027033401828063e-08   6.5505555662786065e-06
-2.966300323748958e-06   9.027033401828063e-08   6.5505555662786065e-06
-3.0877609012943167e-06   8.920463625150142e-07   5.607930935923132e-06
-3.0877609012943167e-06   8.920463625150142e-07   5.607930935923132e-06
-3.0877609012943167e-06   8.920463625150142e-07   5.607930935923132e-06
-3.0877609012943167e-06   8.920463625150142e-07   5.607930935923132e-06
-3.4829512049658725e-06   2.975394369728339e-07   4.592576274478598e-06
-3.4829512049658725e-06   2.975394369728339e-07   4.592576274478598e-06
-3.4829512049658725e-06   2.975394369728339e-07   4.592576274478598e-06
-3.4829512049658725e-06   2.975394369728339e-07   4.592576274478598e-06
-3.495556354614877e-06   7.314632222944696e-07   5.299356266961575e-06
-3.495556354614877e-06   7.314632222944696e-07   5.299356266961575e-06
-3.495556354614877e-06   7.314632222944696e-07   5.299356266961575e-06
-3.495556354614877e-06   7.314632222944696e-07   5.299356266961575e-06
-3.101876923240765e-06   1.6776806850766677e-07   4.981440973610084e-06
-3.101876923240765e-06   1.6776806850766677e-07   4.981440973610084e-06
-3.101876923240765e-06   1.6776806850766677e-07   4.981440973610084e-06
-3.101876923240765e-06   1.6776806850766677e-07   4.981440973610084e-06
-3.283631565694147e-06   5.32311839768852e-07   5.065639114942399e-06
-3.283631565694147e-06   5.32311839768852e-07   5.065639114942399e-06
-3.283631565694147e-06   5.32311839768852e-07   5.065639114942399e-06
-3.283631565694147e-06   5.32311839768852e-07   5.065639114942399e-06
-3.101876923240765e-06   7.314632222944154e-07   5.637573359233559e-06
-3.101876923240765e-06   7.314632222944154e-07   5.637573359233559e-06
-3.101876923240765e-06   7.314632222944154e-07   5.637573359233559e-06
-3.101876923240765e-06   7.314632222944154e-07   5.637573359233559e-06
-3.495556354614877e-06   1.6776806850769387e-07   4.643223881338065e-06
-3.495556354614877e-06   1.6776806850769387e-07   4.643223881338065e-06
-3.495556354614877e-06   1.6776806850769387e-07   4.643223881338065e-06
-3.495556354614877e-06   1.6776806850769387e-07   4.643223881338065e-06
-3.539045549352262e-06   5.877176277468586e-07   5.491810950647175e-06
-3.539045549352262e-06   5.877176277468586e-07   5.491810950647175e-06
-3.539045549352262e-06   5.877176277468586e-07   5.491810950647175e-06
-3.539045549352262e-06   5.877176277468586e-07   5.491810950647175e-06
-3.122245140654983e-06   5.613437397005458e-08   5.116093555084452e-06
-3.122245140654983e-06   5.613437397005458e-08   5.116093555084452e-06
-3.122245140654983e-06   5.613437397005458e-08   5.116093555084452e-06
-3.122245140654983e-06   5.613437397005458e-08   5.116093555084452e-06
-3.280444439329268e-06   4.269639818449628e-07   5.157261288149745e-06
-3.280444439329268e-06   4.269639818449628e-07   5.157261288149745e-06
-3.280444439329268e-06   4.269639818449628e-07   5.157261288149745e-06
-3.280444439329268e-06   4.269639818449628e-07   5.157261288149745e-06
-3.1222451406549964e-06   5.877176277468586e-07   5.810760902913106e-06
-3.1222451406549964e-06   5.877176277468586e-07   5.810760902913106e-06
-3.1222451406549964e-06   5.877176277468586e-07   5.810760902913106e-06
-3.1222451406549964e-06   5.877176277468586e-07   5.810760902913106e-06
-3.539045549352262e-06   5.613437397008168e-08   4.797143602818379e-06
-3.539045549352262e-06   5.613437397008168e-08   4.797143602818379e-06
-3.539045549352262e-06   5.613437397008168e-08   4.797143602818379e-06
-3.539045549352262e-06   5.613437397008168e-08   4.797143602818379e-06
-3.566854974368605e-06   4.403372804686256e-07   5.729499093390963e-06
-3.566854974368605e-06   4.403372804686256e-07   5.729499093390963e-06
-3.566854974368605e-06   4.403372804686256e-07   5.729499093390963e-06
-3.566854974368605e-06   4.403372804686256e-07   5.729499093390963e-06
-3.1379237786033023e-06   -5.673566175052572e-08   5.312857532446873e-06
-3.1379237786033023e-06   -5.673566175052572e-08   5.312857532446873e-06
-3.1379237786033023e-06   -5.673566175052572e-08   5.312857532446873e-06
-3.1379237786033023e-06   -5.673566175052572e-08   5.312857532446873e-06
-3.3034624530156115e-06   3.3217704479415874e-07   5.35540769920715e-06
-3.3034624530156115e-06   3.3217704479415874e-07   5.35540769920715e-06
-3.3034624530156115e-06   3.3217704479415874e-07   5.35540769920715e-06
-3.3034624530156115e-06   3.3217704479415874e-07   5.35540769920715e-06
-3.4829512049658725e-06   1.070506877771623e-06   2.2063509600301473e-06
-3.4829512049658725e-06   1.070506877771623e-06   2.2063509600301473e-06
-3.4829512049658725e-06   1.070506877771623e-06   2.2063509600301473e-06
-3.4829512049658725e-06   1.070506877771623e-06   2.2063509600301473e-06
-3.5371817588352133e-06   5.01937986573369e-07   1.7748253688622457e-06
-3.5371817588352133e-06   5.01937986573369e-07   1.7748253688622457e-06
-3.5371817588352133e-06   5.01937986573369e-07   1.7748253688622457e-06
-3.5371817588352133e-06   5.01937986573369e-07   1.7748253688622457e-06
-3.719552691984257e-06   9.63900081693244e-07   2.424517908102149e-06
-3.719552691984257e-06   9.63900081693244e-07   2.424517908102149e-06
-3.719552691984257e-06   9.63900081693244e-07   2.424517908102149e-06
-3.719552691984257e-06   9.63900081693244e-07   2.424517908102149e-06
-3.4955563546148637e-06   4.086377679522193e-07   2.384348067397871e-06
-3.4955563546148637e-06   4.086377679522193e-07   2.384348067397871e-06
-3.4955563546148637e-06   4.086377679522193e-07   2.384348067397871e-06
-3.4955563546148637e-06   4.086377679522193e-07   2.384348067397871e-06
-3.4422664312287285e-06   7.573828329971214e-07   2.086284489394004e-06
-3.4422664312287285e-06   7.573828329971214e-07   2.086284489394004e-06
-3.4422664312287285e-06   7.573828329971214e-07   2.086284489394004e-06
-3.4422664312287285e-06   7.573828329971214e-07   2.086284489394004e-06
-3.4955563546148637e-06   9.639000816932981e-07   2.7576752963467423e-06
-3.4955563546148637e-06   9.639000816932981e-07   2.7576752963467423e-06
-3.4955563546148637e-06   9.639000816932981e-07   2.7576752963467423e-06
-3.4955563546148637e-06   9.639000816932981e-07   2.7576752963467423e-06
-3.7195526919842298e-06   4.086377679521922e-07   2.0511906791532373e-06
-3.7195526919842298e-06   4.086377679521922e-07   2.0511906791532373e-06
-3.7195526919842298e-06   4.086377679521922e-07   2.0511906791532373e-06
-3.7195526919842298e-06   4.086377679521922e-07   2.0511906791532373e-06
-3.878949738317741e-06   8.898769708747824e-07   2.866634694073905e-06
-3.878949738317741e-06   8.898769708747824e-07   2.866634694073905e-06
-3.878949738317741e-06   8.898769708747824e-07   2.866634694073905e-06
-3.878949738317741e-06   8.898769708747824e-07   2.866634694073905e-06
-3.5390455493522483e-06   3.4799875356329377e-07   2.6252546428516413e-06
-3.5390455493522483e-06   3.4799875356329377e-07   2.6252546428516413e-06
-3.5390455493522483e-06   3.4799875356329377e-07   2.6252546428516413e-06
-3.5390455493522483e-06   3.4799875356329377e-07   2.6252546428516413e-06
-3.574746756170487e-06   7.051705513459825e-07   2.4704535755456342e-06
-3.574746756170487e-06   7.051705513459825e-07   2.4704535755456342e-06
-3.574746756170487e-06   7.051705513459825e-07   2.4704535755456342e-06
-3.574746756170487e-06   7.051705513459825e-07   2.4704535755456342e-06
-3.5390455493522347e-06   8.898769708747824e-07   3.1917616244607006e-06
-3.5390455493522347e-06   8.898769708747824e-07   3.1917616244607006e-06
-3.5390455493522347e-06   8.898769708747824e-07   3.1917616244607006e-06
-3.5390455493522347e-06   8.898769708747824e-07   3.1917616244607006e-06
-3.878949738317741e-06   3.4799875356329377e-07   2.300127712464744e-06
-3.878949738317741e-06   3.4799875356329377e-07   2.300127712464744e-06
-3.878949738317741e-06   3.4799875356329377e-07   2.300127712464744e-06
-3.878949738317741e-06   3.4799875356329377e-07   2.300127712464744e-06
-4.110115792321545e-06   7.159125289536413e-07   3.6775740785338954e-06
-4.110115792321545e-06   7.159125289536413e-07   3.6775740785338954e-06
-4.110115792321545e-06   7.159125289536413e-07   3.6775740785338954e-06
-4.110115792321545e-06   7.159125289536413e-07   3.6775740785338954e-06
-3.5668549743685915e-06   2.2177336152009726e-07   3.068622882405707e-06
-3.5668549743685915e-06   2.2177336152009726e-07   3.068622882405707e-06
-3.5668549743685915e-06   2.2177336152009726e-07   3.068622882405707e-06
-3.5668549743685915e-06   2.2177336152009726e-07   3.068622882405707e-06
-3.6201107228039478e-06   6.397663837722314e-07   2.906586649779701e-06
-3.6201107228039478e-06   6.397663837722314e-07   2.906586649779701e-06
-3.6201107228039478e-06   6.397663837722314e-07   2.906586649779701e-06
-3.6201107228039478e-06   6.397663837722314e-07   2.906586649779701e-06
-6.338000519403642e-06   8.41327439000814e-07   2.7532008050919205e-06
-6.338000519403642e-06   8.41327439000814e-07   2.7532008050919205e-06
-6.338000519403642e-06   8.41327439000814e-07   2.7532008050919205e-06
-6.338000519403642e-06   8.41327439000814e-07   2.7532008050919205e-06
-4.358000833514791e-06   1.1552625693664619e-06   6.241561359792753e-06
-4.358000833514791e-06   1.1552625693664619e-06   6.241561359792753e-06
-4.358000833514791e-06   1.1552625693664619e-06   6.241561359792753e-06
-4.358000833514791e-06   1.1552625693664619e-06   6.241561359792753e-06
-4.36141261141315e-06   6.510697231957544e-07   3.053388883499458e-06
-4.36141261141315e-06   6.510697231957544e-07   3.053388883499458e-06
-4.36141261141315e-06   6.510697231957544e-07   3.053388883499458e-06
-4.36141261141315e-06   6.510697231957544e-07   3.053388883499458e-06
-7.025507485217152e-06   4.2876816082005806e-07   7.626927943931613e-06
-7.025507485217152e-06   4.2876816082005806e-07   7.626927943931613e-06
-7.025507485217152e-06   4.2876816082005806e-07   7.626927943931613e-06
-7.025507485217152e-06   4.2876816082005806e-07   7.626927943931613e-06
-5.234191827835488e-06   6.754810420687843e-07   4.493374119546282e-06
-5.234191827835488e-06   6.754810420687843e-07   4.493374119546282e-06
-5.234191827835488e-06   6.754810420687843e-07   4.493374119546282e-06
-5.234191827835488e-06   6.754810420687843e-07   4.493374119546282e-06
-7.025507485217164e-06   6.510697231957815e-07   3.1867698209249082e-06
-7.025507485217164e-06   6.510697231957815e-07   3.1867698209249082e-06
-7.025507485217164e-06   6.510697231957815e-07   3.1867698209249082e-06
-7.025507485217164e-06   6.510697231957815e-07   3.1867698209249082e-06
-4.36141261141315e-06   4.2876816082005806e-07   7.493547006506189e-06
-4.36141261141315e-06   4.2876816082005806e-07   7.493547006506189e-06
-4.36141261141315e-06   4.2876816082005806e-07   7.493547006506189e-06
-4.36141261141315e-06   4.2876816082005806e-07   7.493547006506189e-06
-4.434855037201e-06   5.220060481977561e-07   3.3803900203984084e-06
-4.434855037201e-06   5.220060481977561e-07   3.3803900203984084e-06
-4.434855037201e-06   5.220060481977561e-07   3.3803900203984084e-06
-4.434855037201e-06   5.220060481977561e-07   3.3803900203984084e-06
-7.06288016331851e-06   2.9374686424082756e-07   7.897387407635061e-06
-7.06288016331851e-06   2.9374686424082756e-07   7.897387407635061e-06
-7.06288016331851e-06   2.9374686424082756e-07   7.897387407635061e-06
-7.06288016331851e-06   2.9374686424082756e-07   7.897387407635061e-06
-5.607665016386216e-06   4.0756514963882274e-07   5.403737858175732e-06
-5.607665016386216e-06   4.0756514963882274e-07   5.403737858175732e-06
-5.607665016386216e-06   4.0756514963882274e-07   5.403737858175732e-06
-5.607665016386216e-06   4.0756514963882274e-07   5.403737858175732e-06
-7.062880163318523e-06   5.220060481977561e-07   3.51734553077256e-06
-7.062880163318523e-06   5.220060481977561e-07   3.51734553077256e-06
-7.062880163318523e-06   5.220060481977561e-07   3.51734553077256e-06
-7.062880163318523e-06   5.220060481977561e-07   3.51734553077256e-06
-4.4348550372009915e-06   2.9374686424082756e-07   7.760431897260896e-06
-4.4348550372009915e-06   2.9374686424082756e-07   7.760431897260896e-06
-4.4348550372009915e-06   2.9374686424082756e-07   7.760431897260896e-06
-4.4348550372009915e-06   2.9374686424082756e-07   7.760431897260896e-06
-4.4012548470974e-06   2.0592364623501906e-07   3.949639479948255e-06
-4.4012548470974e-06   2.0592364623501906e-07   3.949639479948255e-06
-4.4012548470974e-06   2.0592364623501906e-07   3.949639479948255e-06
-4.4012548470974e-06   2.0592364623501906e-07   3.949639479948255e-06
-7.161132750411132e-06   -2.886790137243922e-07   8.846197581446768e-06
-7.161132750411132e-06   -2.886790137243922e-07   8.846197581446768e-06
-7.161132750411132e-06   -2.886790137243922e-07   8.846197581446768e-06
-7.161132750411132e-06   -2.886790137243922e-07   8.846197581446768e-06
-5.536226956451178e-06   1.8020828053839357e-07   5.8566888816225014e-06
-5.536226956451178e-06   1.8020828053839357e-07   5.8566888816225014e-06
-5.536226956451178e-06   1.8020828053839357e-07   5.8566888816225014e-06
-5.536226956451178e-06   1.8020828053839357e-07   5.8566888816225014e-06
-4.358000833514799e-06   2.1936036114552498e-07   6.098218695713714e-06
-4.358000833514799e-06   2.1936036114552498e-07   6.098218695713714e-06
-4.358000833514799e-06   2.1936036114552498e-07   6.098218695713714e-06
-4.358000833514799e-06   2.1936036114552498e-07   6.098218695713714e-06
-2.712055405238093e-06   -1.4307228310091099e-06   7.851411160882098e-06
-2.712055405238093e-06   -1.4307228310091099e-06   7.851411160882098e-06
-2.712055405238093e-06   -1.4307228310091099e-06   7.851411160882098e-06
-2.712055405238093e-06   -1.4307228310091099e-06   7.851411160882098e-06
-2.726485179197539e-06   1.0039442191624561e-07   5.1149084309115415e-06
-2.726485179197539e-06   1.0039442191624561e-07   5.1149084309115415e-06
-2.726485179197539e-06   1.0039442191624561e-07   5.1149084309115415e-06
-2.726485179197539e-06   1.0039442191624561e-07   5.1149084309115415e-06
-4.36141261141315e-06   -1.1841354378256216e-06   8.610505400449387e-06
-4.36141261141315e-06   -1.1841354378256216e-06   8.610505400449387e-06
-4.36141261141315e-06   -1.1841354378256216e-06   8.610505400449387e-06
-4.36141261141315e-06   -1.1841354378256216e-06   8.610505400449387e-06
-3.524054073526815e-06   -7.100726425524127e-07   6.930470160141596e-06
-3.524054073526815e-06   -7.100726425524127e-07   6.930470160141596e-06
-3.524054073526815e-06   -7.100726425524127e-07   6.930470160141596e-06
-3.524054073526815e-06   -7.100726425524127e-07   6.930470160141596e-06
-4.361412611413155e-06   1.0039442191624561e-07   5.885626346756594e-06
-4.361412611413155e-06   1.0039442191624561e-07   5.885626346756594e-06
-4.361412611413155e-06   1.0039442191624561e-07   5.885626346756594e-06
-4.361412611413155e-06   1.0039442191624561e-07   5.885626346756594e-06
-2.726485179197532e-06   -1.1841354378256216e-06   7.839787484604276e-06
-2.726485179197532e-06   -1.1841354378256216e-06   7.839787484604276e-06
-2.726485179197532e-06   -1.1841354378256216e-06   7.839787484604276e-06
-2.726485179197532e-06   -1.1841354378256216e-06   7.839787484604276e-06
-2.7499286763332456e-06   -3.3213957516828665e-08   5.2608654358648045e-06
-2.7499286763332456e-06   -3.3213957516828665e-08   5.2608654358648045e-06
-2.7499286763332456e-06   -3.3213957516828665e-08   5.2608654358648045e-06
-2.7499286763332456e-06   -3.3213957516828665e-08   5.2608654358648045e-06
-4.4348550372009915e-06   -1.2067554513655552e-06   8.773200933620286e-06
-4.4348550372009915e-06   -1.2067554513655552e-06   8.773200933620286e-06
-4.4348550372009915e-06   -1.2067554513655552e-06   8.773200933620286e-06
-4.4348550372009915e-06   -1.2067554513655552e-06   8.773200933620286e-06
-3.5074455444947745e-06   -6.210024695947527e-07   6.876066656714077e-06
-3.5074455444947745e-06   -6.210024695947527e-07   6.876066656714077e-06
-3.5074455444947745e-06   -6.210024695947527e-07   6.876066656714077e-06
-3.5074455444947745e-06   -6.210024695947527e-07   6.876066656714077e-06
-4.434855037201e-06   -3.3213957516828665e-08   5.9649903321740675e-06
-4.434855037201e-06   -3.3213957516828665e-08   5.9649903321740675e-06
-4.434855037201e-06   -3.3213957516828665e-08   5.9649903321740675e-06
-4.434855037201e-06   -3.3213957516828665e-08   5.9649903321740675e-06
-2.749928676333239e-06   -1.2067554513655552e-06   8.06907603731103e-06
-2.749928676333239e-06   -1.2067554513655552e-06   8.06907603731103e-06
-2.749928676333239e-06   -1.2067554513655552e-06   8.06907603731103e-06
-2.749928676333239e-06   -1.2067554513655552e-06   8.06907603731103e-06
-2.7383628627665607e-06   -2.0611561354669477e-07   5.445976246790357e-06
-2.7383628627665607e-06   -2.0611561354669477e-07   5.445976246790357e-06
-2.7383628627665607e-06   -2.0611561354669477e-07   5.445976246790357e-06
-2.7383628627665607e-06   -2.0611561354669477e-07   5.445976246790357e-06
-4.40125484709739e-06   -1.205872394234841e-06   8.817316955754564e-06
-4.40125484709739e-06   -1.205872394234841e-06   8.817316955754564e-06
-4.40125484709739e-06   -1.205872394234841e-06   8.817316955754564e-06
-4.40125484709739e-06   -1.205872394234841e-06   8.817316955754564e-06
-3.5372912441831954e-06   -6.891701505753578e-07   7.067356271368579e-06
-3.5372912441831954e-06   -6.891701505753578e-07   7.067356271368579e-06
-3.5372912441831954e-06   -6.891701505753578e-07   7.067356271368579e-06
-3.5372912441831954e-06   -6.891701505753578e-07   7.067356271368579e-06
-2.712055405238093e-06   6.329867675914963e-08   5.6677599763078895e-06
-2.712055405238093e-06   6.329867675914963e-08   5.6677599763078895e-06
-2.712055405238093e-06   6.329867675914963e-08   5.6677599763078895e-06
-2.712055405238093e-06   6.329867675914963e-08   5.6677599763078895e-06
-2.041016115590175e-06   -1.1190603240201667e-06   6.076743391920205e-06
-2.041016115590175e-06   -1.1190603240201667e-06   6.076743391920205e-06
-2.041016115590175e-06   -1.1190603240201667e-06   6.076743391920205e-06
-2.041016115590175e-06   -1.1190603240201667e-06   6.076743391920205e-06
-2.033009863399281e-06   -3.450470011592149e-08   4.9999612877394295e-06
-2.033009863399281e-06   -3.450470011592149e-08   4.9999612877394295e-06
-2.033009863399281e-06   -3.450470011592149e-08   4.9999612877394295e-06
-2.033009863399281e-06   -3.450470011592149e-08   4.9999612877394295e-06
-2.726485179197532e-06   -1.0991064186030396e-06   6.794514511828829e-06
-2.726485179197532e-06   -1.0991064186030396e-06   6.794514511828829e-06
-2.726485179197532e-06   -1.0991064186030396e-06   6.794514511828829e-06
-2.726485179197532e-06   -1.0991064186030396e-06   6.794514511828829e-06
-2.3650768938793713e-06   -5.628123089279255e-07   5.870390903826855e-06
-2.3650768938793713e-06   -5.628123089279255e-07   5.870390903826855e-06
-2.3650768938793713e-06   -5.628123089279255e-07   5.870390903826855e-06
-2.3650768938793713e-06   -5.628123089279255e-07   5.870390903826855e-06
-2.726485179197532e-06   -3.450470011592149e-08   5.638722318831703e-06
-2.726485179197532e-06   -3.450470011592149e-08   5.638722318831703e-06
-2.726485179197532e-06   -3.450470011592149e-08   5.638722318831703e-06
-2.726485179197532e-06   -3.450470011592149e-08   5.638722318831703e-06
-2.033009863399281e-06   -1.0991064186030531e-06   6.155753480736581e-06
-2.033009863399281e-06   -1.0991064186030531e-06   6.155753480736581e-06
-2.033009863399281e-06   -1.0991064186030531e-06   6.155753480736581e-06
-2.033009863399281e-06   -1.0991064186030531e-06   6.155753480736581e-06
-2.0295897565480986e-06   -1.5141818286045676e-07   5.1151192710106104e-06
-2.0295897565480986e-06   -1.5141818286045676e-07   5.1151192710106104e-06
-2.0295897565480986e-06   -1.5141818286045676e-07   5.1151192710106104e-06
-2.0295897565480986e-06   -1.5141818286045676e-07   5.1151192710106104e-06
-2.749928676333239e-06   -1.1302222599478978e-06   6.902966583571628e-06
-2.749928676333239e-06   -1.1302222599478978e-06   6.902966583571628e-06
-2.749928676333239e-06   -1.1302222599478978e-06   6.902966583571628e-06
-2.749928676333239e-06   -1.1302222599478978e-06   6.902966583571628e-06
-2.3544956504509817e-06   -5.946912519554982e-07   5.922592935638944e-06
-2.3544956504509817e-06   -5.946912519554982e-07   5.922592935638944e-06
-2.3544956504509817e-06   -5.946912519554982e-07   5.922592935638944e-06
-2.3544956504509817e-06   -5.946912519554982e-07   5.922592935638944e-06
-2.749928676333239e-06   -1.5141818286048387e-07   5.702401717263086e-06
-2.749928676333239e-06   -1.5141818286048387e-07   5.702401717263086e-06
-2.749928676333239e-06   -1.5141818286048387e-07   5.702401717263086e-06
-2.749928676333239e-06   -1.5141818286048387e-07   5.702401717263086e-06
-2.0295897565480986e-06   -1.1302222599478978e-06   6.315684137319188e-06
-2.0295897565480986e-06   -1.1302222599478978e-06   6.315684137319188e-06
-2.0295897565480986e-06   -1.1302222599478978e-06   6.315684137319188e-06
-2.0295897565480986e-06   -1.1302222599478978e-06   6.315684137319188e-06
-2.004156292251727e-06   -2.6713143842327196e-07   5.2950245314612224e-06
-2.004156292251727e-06   -2.6713143842327196e-07   5.2950245314612224e-06
-2.004156292251727e-06   -2.6713143842327196e-07   5.2950245314612224e-06
-2.004156292251727e-06   -2.6713143842327196e-07   5.2950245314612224e-06
-2.7383628627665607e-06   -1.1703060627048473e-06   7.060606923554874e-06
-2.7383628627665607e-06   -1.1703060627048473e-06   7.060606923554874e-06
-2.7383628627665607e-06   -1.1703060627048473e-06   7.060606923554874e-06
-2.7383628627665607e-06   -1.1703060627048473e-06   7.060606923554874e-06
-2.3428997451394355e-06   -6.43596740901878e-07   6.085476134427885e-06
-2.3428997451394355e-06   -6.43596740901878e-07   6.085476134427885e-06
-2.3428997451394355e-06   -6.43596740901878e-07   6.085476134427885e-06
-2.3428997451394355e-06   -6.43596740901878e-07   6.085476134427885e-06
-2.0410161155901615e-06   2.975394369728339e-07   3.907999540104522e-06
-2.0410161155901615e-06   2.975394369728339e-07   3.907999540104522e-06
-2.0410161155901615e-06   2.975394369728339e-07   3.907999540104522e-06
-2.0410161155901615e-06   2.975394369728339e-07   3.907999540104522e-06
-1.7555095792392373e-06   -4.6380691837300664e-07   3.927035954148558e-06
-1.7555095792392373e-06   -4.6380691837300664e-07   3.927035954148558e-06
-1.7555095792392373e-06   -4.6380691837300664e-07   3.927035954148558e-06
-1.7555095792392373e-06   -4.6380691837300664e-07   3.927035954148558e-06
-1.7295793707896353e-06   1.6776806850766677e-07   3.5302137729882317e-06
-1.7295793707896353e-06   1.6776806850766677e-07   3.5302137729882317e-06
-1.7295793707896353e-06   1.6776806850766677e-07   3.5302137729882317e-06
-1.7295793707896353e-06   1.6776806850766677e-07   3.5302137729882317e-06
-2.033009863399281e-06   -5.386069407949866e-07   4.459756266252617e-06
-2.033009863399281e-06   -5.386069407949866e-07   4.459756266252617e-06
-2.033009863399281e-06   -5.386069407949866e-07   4.459756266252617e-06
-2.033009863399281e-06   -5.386069407949866e-07   4.459756266252617e-06
-1.8765152447807335e-06   -1.0656354877089684e-07   3.9397058666740075e-06
-1.8765152447807335e-06   -1.0656354877089684e-07   3.9397058666740075e-06
-1.8765152447807335e-06   -1.0656354877089684e-07   3.9397058666740075e-06
-1.8765152447807335e-06   -1.0656354877089684e-07   3.9397058666740075e-06
-2.033009863399281e-06   1.6776806850766677e-07   3.954038778569829e-06
-2.033009863399281e-06   1.6776806850766677e-07   3.954038778569829e-06
-2.033009863399281e-06   1.6776806850766677e-07   3.954038778569829e-06
-2.033009863399281e-06   1.6776806850766677e-07   3.954038778569829e-06
-1.7295793707896353e-06   -5.386069407949866e-07   4.035931260671026e-06
-1.7295793707896353e-06   -5.386069407949866e-07   4.035931260671026e-06
-1.7295793707896353e-06   -5.386069407949866e-07   4.035931260671026e-06
-1.7295793707896353e-06   -5.386069407949866e-07   4.035931260671026e-06
-1.7247334168989619e-06   5.613437397008168e-08   3.6938573995982395e-06
-1.7247334168989619e-06   5.613437397008168e-08   3.6938573995982395e-06
-1.7247334168989619e-06   5.613437397008168e-08   3.6938573995982395e-06
-1.7247334168989619e-06   5.613437397008168e-08   3.6938573995982395e-06
-2.0295897565480986e-06   -5.967339569002805e-07   4.593672297535583e-06
-2.0295897565480986e-06   -5.967339569002805e-07   4.593672297535583e-06
-2.0295897565480986e-06   -5.967339569002805e-07   4.593672297535583e-06
-2.0295897565480986e-06   -5.967339569002805e-07   4.593672297535583e-06
-1.850415331843466e-06   -1.839118954199959e-07   4.047355019472882e-06
-1.850415331843466e-06   -1.839118954199959e-07   4.047355019472882e-06
-1.850415331843466e-06   -1.839118954199959e-07   4.047355019472882e-06
-1.850415331843466e-06   -1.839118954199959e-07   4.047355019472882e-06
-2.029589756548085e-06   5.613437397008168e-08   4.085578398120373e-06
-2.029589756548085e-06   5.613437397008168e-08   4.085578398120373e-06
-2.029589756548085e-06   5.613437397008168e-08   4.085578398120373e-06
-2.029589756548085e-06   5.613437397008168e-08   4.085578398120373e-06
-1.7247334168989619e-06   -5.967339569002805e-07   4.2019512990133884e-06
-1.7247334168989619e-06   -5.967339569002805e-07   4.2019512990133884e-06
-1.7247334168989619e-06   -5.967339569002805e-07   4.2019512990133884e-06
-1.7247334168989619e-06   -5.967339569002805e-07   4.2019512990133884e-06
-1.7092536641076159e-06   -5.6735661750498614e-08   3.899326504752134e-06
-1.7092536641076159e-06   -5.6735661750498614e-08   3.899326504752134e-06
-1.7092536641076159e-06   -5.6735661750498614e-08   3.899326504752134e-06
-1.7092536641076159e-06   -5.6735661750498614e-08   3.899326504752134e-06
-2.004156292251727e-06   -6.718835392768646e-07   4.7599196115080775e-06
-2.004156292251727e-06   -6.718835392768646e-07   4.7599196115080775e-06
-2.004156292251727e-06   -6.718835392768646e-07   4.7599196115080775e-06
-2.004156292251727e-06   -6.718835392768646e-07   4.7599196115080775e-06
-1.83439949936568e-06   -2.527944743697117e-07   4.225538184420512e-06
-1.83439949936568e-06   -2.527944743697117e-07   4.225538184420512e-06
-1.83439949936568e-06   -2.527944743697117e-07   4.225538184420512e-06
-1.83439949936568e-06   -2.527944743697117e-07   4.225538184420512e-06
-1.7555095792392373e-06   5.01937986573369e-07   9.74582155999657e-07
-1.7555095792392373e-06   5.01937986573369e-07   9.74582155999657e-07
-1.7555095792392373e-06   5.01937986573369e-07   9.74582155999657e-07
-1.7555095792392373e-06   5.01937986573369e-07   9.74582155999657e-07
-1.0985758068408425e-06   -4.442126731445009e-08   1.741656224330947e-06
-1.0985758068408425e-06   -4.442126731445009e-08   1.741656224330947e-06
-1.0985758068408425e-06   -4.442126731445009e-08   1.741656224330947e-06
-1.0985758068408425e-06   -4.442126731445009e-08   1.741656224330947e-06
-1.1702201677529702e-06   4.086377679521922e-07   9.871157275739362e-07
-1.1702201677529702e-06   4.086377679521922e-07   9.871157275739362e-07
-1.1702201677529702e-06   4.086377679521922e-07   9.871157275739362e-07
-1.1702201677529702e-06   4.086377679521922e-07   9.871157275739362e-07
-1.7295793707896353e-06   -6.506595117126187e-08   2.203603297442513e-06
-1.7295793707896353e-06   -6.506595117126187e-08   2.203603297442513e-06
-1.7295793707896353e-06   -6.506595117126187e-08   2.203603297442513e-06
-1.7295793707896353e-06   -6.506595117126187e-08   2.203603297442513e-06
-1.3887622479997802e-06   2.5989189386278603e-07   1.4406000524391197e-06
-1.3887622479997802e-06   2.5989189386278603e-07   1.4406000524391197e-06
-1.3887622479997802e-06   2.5989189386278603e-07   1.4406000524391197e-06
-1.3887622479997802e-06   2.5989189386278603e-07   1.4406000524391197e-06
-1.7295793707896353e-06   4.086377679522193e-07   1.2713379590479761e-06
-1.7295793707896353e-06   4.086377679522193e-07   1.2713379590479761e-06
-1.7295793707896353e-06   4.086377679522193e-07   1.2713379590479761e-06
-1.7295793707896353e-06   4.086377679522193e-07   1.2713379590479761e-06
-1.1702201677529702e-06   -6.506595117126187e-08   1.9193810659685e-06
-1.1702201677529702e-06   -6.506595117126187e-08   1.9193810659685e-06
-1.1702201677529702e-06   -6.506595117126187e-08   1.9193810659685e-06
-1.1702201677529702e-06   -6.506595117126187e-08   1.9193810659685e-06
-1.2305462163301822e-06   3.4799875356329377e-07   1.2579852903390142e-06
-1.2305462163301822e-06   3.4799875356329377e-07   1.2579852903390142e-06
-1.2305462163301822e-06   3.4799875356329377e-07   1.2579852903390142e-06
-1.2305462163301822e-06   3.4799875356329377e-07   1.2579852903390142e-06
-1.7247334168989619e-06   -9.197316192421001e-08   2.345613773912776e-06
-1.7247334168989619e-06   -9.197316192421001e-08   2.345613773912776e-06
-1.7247334168989619e-06   -9.197316192421001e-08   2.345613773912776e-06
-1.7247334168989619e-06   -9.197316192421001e-08   2.345613773912776e-06
-1.42551042906215e-06   2.1565669100644764e-07   1.662330882426234e-06
-1.42551042906215e-06   2.1565669100644764e-07   1.662330882426234e-06
-1.42551042906215e-06   2.1565669100644764e-07   1.662330882426234e-06
-1.42551042906215e-06   2.1565669100644764e-07   1.662330882426234e-06
-1.7247334168989619e-06   3.4799875356329377e-07   1.5219684396314812e-06
-1.7247334168989619e-06   3.4799875356329377e-07   1.5219684396314812e-06
-1.7247334168989619e-06   3.4799875356329377e-07   1.5219684396314812e-06
-1.7247334168989619e-06   3.4799875356329377e-07   1.5219684396314812e-06
-1.230546216330155e-06   -9.197316192421001e-08   2.0816306246202414e-06
-1.230546216330155e-06   -9.197316192421001e-08   2.0816306246202414e-06
-1.230546216330155e-06   -9.197316192421001e-08   2.0816306246202414e-06
-1.230546216330155e-06   -9.197316192421001e-08   2.0816306246202414e-06
-1.3588076641791037e-06   2.2177336152009726e-07   1.743379196235352e-06
-1.3588076641791037e-06   2.2177336152009726e-07   1.743379196235352e-06
-1.3588076641791037e-06   2.2177336152009726e-07   1.743379196235352e-06
-1.3588076641791037e-06   2.2177336152009726e-07   1.743379196235352e-06
-1.7092536641076159e-06   -1.2815401149162558e-07   2.5374122865898165e-06
-1.7092536641076159e-06   -1.2815401149162558e-07   2.5374122865898165e-06
-1.7092536641076159e-06   -1.2815401149162558e-07   2.5374122865898165e-06
-1.7092536641076159e-06   -1.2815401149162558e-07   2.5374122865898165e-06
-1.4389789069998144e-06   1.838627059915323e-07   1.899744327586955e-06
-1.4389789069998144e-06   1.838627059915323e-07   1.899744327586955e-06
-1.4389789069998144e-06   1.838627059915323e-07   1.899744327586955e-06
-1.4389789069998144e-06   1.838627059915323e-07   1.899744327586955e-06
-1.5287167692559313e-05   1.1552625693664754e-06   7.066401870528056e-06
-1.5287167692559313e-05   1.1552625693664754e-06   7.066401870528056e-06
-1.5287167692559313e-05   1.1552625693664754e-06   7.066401870528056e-06
-1.5287167692559313e-05   1.1552625693664754e-06   7.066401870528056e-06
-3.5344758038571078e-06   -8.10200259984485e-06   2.109986258350495e-05
-3.5344758038571078e-06   -8.10200259984485e-06   2.109986258350495e-05
-3.5344758038571078e-06   -8.10200259984485e-06   2.109986258350495e-05
-3.5344758038571078e-06   -8.10200259984485e-06   2.109986258350495e-05
-4.1891933862827786e-06   4.287681608200445e-07   3.8271431352321815e-06
-4.1891933862827786e-06   4.287681608200445e-07   3.8271431352321815e-06
-4.1891933862827786e-06   4.287681608200445e-07   3.8271431352321815e-06
-4.1891933862827786e-06   4.287681608200445e-07   3.8271431352321815e-06
-1.3942755335518012e-05   -6.392715954260398e-06   2.4175970186339142e-05
-1.3942755335518012e-05   -6.392715954260398e-06   2.4175970186339142e-05
-1.3942755335518012e-05   -6.392715954260398e-06   2.4175970186339142e-05
-1.3942755335518012e-05   -6.392715954260398e-06   2.4175970186339142e-05
-9.280618207890538e-06   -3.178373390793588e-06   1.4477136102213267e-05
-9.280618207890538e-06   -3.178373390793588e-06   1.4477136102213267e-05
-9.280618207890538e-06   -3.178373390793588e-06   1.4477136102213267e-05
-9.280618207890538e-06   -3.178373390793588e-06   1.4477136102213267e-05
-1.3942755335517989e-05   4.287681608200445e-07   7.920033604280442e-06
-1.3942755335517989e-05   4.287681608200445e-07   7.920033604280442e-06
-1.3942755335517989e-05   4.287681608200445e-07   7.920033604280442e-06
-1.3942755335517989e-05   4.287681608200445e-07   7.920033604280442e-06
-4.189193386282787e-06   -6.392715954260398e-06   2.0083079717290878e-05
-4.189193386282787e-06   -6.392715954260398e-06   2.0083079717290878e-05
-4.189193386282787e-06   -6.392715954260398e-06   2.0083079717290878e-05
-4.189193386282787e-06   -6.392715954260398e-06   2.0083079717290878e-05
-4.304223807377692e-06   2.9374686424082756e-07   4.209234367613282e-06
-4.304223807377692e-06   2.9374686424082756e-07   4.209234367613282e-06
-4.304223807377692e-06   2.9374686424082756e-07   4.209234367613282e-06
-4.304223807377692e-06   2.9374686424082756e-07   4.209234367613282e-06
-1.3159851789770357e-05   -5.58181850066324e-06   2.249395355721013e-05
-1.3159851789770357e-05   -5.58181850066324e-06   2.249395355721013e-05
-1.3159851789770357e-05   -5.58181850066324e-06   2.249395355721013e-05
-1.3159851789770357e-05   -5.58181850066324e-06   2.249395355721013e-05
-9.019008200468216e-06   -3.0213012151911466e-06   1.4056237203756656e-05
-9.019008200468216e-06   -3.0213012151911466e-06   1.4056237203756656e-05
-9.019008200468216e-06   -3.0213012151911466e-06   1.4056237203756656e-05
-9.019008200468216e-06   -3.0213012151911466e-06   1.4056237203756656e-05
-1.3159851789770335e-05   2.9374686424082756e-07   7.734573586555718e-06
-1.3159851789770335e-05   2.9374686424082756e-07   7.734573586555718e-06
-1.3159851789770335e-05   2.9374686424082756e-07   7.734573586555718e-06
-1.3159851789770335e-05   2.9374686424082756e-07   7.734573586555718e-06
-4.304223807377699e-06   -5.58181850066324e-06   1.896861433826769e-05
-4.304223807377699e-06   -5.58181850066324e-06   1.896861433826769e-05
-4.304223807377699e-06   -5.58181850066324e-06   1.896861433826769e-05
-4.304223807377699e-06   -5.58181850066324e-06   1.896861433826769e-05
-4.756231743590951e-06   -2.886790137243922e-07   5.251964431850534e-06
-4.756231743590951e-06   -2.886790137243922e-07   5.251964431850534e-06
-4.756231743590951e-06   -2.886790137243922e-07   5.251964431850534e-06
-4.756231743590951e-06   -2.886790137243922e-07   5.251964431850534e-06
-1.2149500076969292e-05   -4.496787058240599e-06   2.0098943147524126e-05
-1.2149500076969292e-05   -4.496787058240599e-06   2.0098943147524126e-05
-1.2149500076969292e-05   -4.496787058240599e-06   2.0098943147524126e-05
-1.2149500076969292e-05   -4.496787058240599e-06   2.0098943147524126e-05
-8.69627482932575e-06   -2.7934374185374723e-06   1.3321557950963026e-05
-8.69627482932575e-06   -2.7934374185374723e-06   1.3321557950963026e-05
-8.69627482932575e-06   -2.7934374185374723e-06   1.3321557950963026e-05
-8.69627482932575e-06   -2.7934374185374723e-06   1.3321557950963026e-05
-3.5344758038571027e-06   -1.4307228310091099e-06   4.111942485383406e-06
-3.5344758038571027e-06   -1.4307228310091099e-06   4.111942485383406e-06
-3.5344758038571027e-06   -1.4307228310091099e-06   4.111942485383406e-06
-3.5344758038571027e-06   -1.4307228310091099e-06   4.111942485383406e-06
-1.2138346301313686e-06   -2.686157465979066e-06   7.22641699394435e-06
-1.2138346301313686e-06   -2.686157465979066e-06   7.22641699394435e-06
-1.2138346301313686e-06   -2.686157465979066e-06   7.22641699394435e-06
-1.2138346301313686e-06   -2.686157465979066e-06   7.22641699394435e-06
-1.3798593398134414e-06   -1.184135437825608e-06   3.5615199004722847e-06
-1.3798593398134414e-06   -1.184135437825608e-06   3.5615199004722847e-06
-1.3798593398134414e-06   -1.184135437825608e-06   3.5615199004722847e-06
-1.3798593398134414e-06   -1.184135437825608e-06   3.5615199004722847e-06
-4.189193386282787e-06   -3.4884381523307857e-06   9.626324939957597e-06
-4.189193386282787e-06   -3.4884381523307857e-06   9.626324939957597e-06
-4.189193386282787e-06   -3.4884381523307857e-06   9.626324939957597e-06
-4.189193386282787e-06   -3.4884381523307857e-06   9.626324939957597e-06
-2.4444876370364614e-06   -1.8013366629511505e-06   5.706221130919256e-06
-2.4444876370364614e-06   -1.8013366629511505e-06   5.706221130919256e-06
-2.4444876370364614e-06   -1.8013366629511505e-06   5.706221130919256e-06
-2.4444876370364614e-06   -1.8013366629511505e-06   5.706221130919256e-06
-4.1891933862827735e-06   -1.184135437825608e-06   4.944101529175331e-06
-4.1891933862827735e-06   -1.184135437825608e-06   4.944101529175331e-06
-4.1891933862827735e-06   -1.184135437825608e-06   4.944101529175331e-06
-4.1891933862827735e-06   -1.184135437825608e-06   4.944101529175331e-06
-1.3798593398134414e-06   -3.4884381523307857e-06   8.243743311254496e-06
-1.3798593398134414e-06   -3.4884381523307857e-06   8.243743311254496e-06
-1.3798593398134414e-06   -3.4884381523307857e-06   8.243743311254496e-06
-1.3798593398134414e-06   -3.4884381523307857e-06   8.243743311254496e-06
-1.5239350479901727e-06   -1.2067554513655552e-06   4.007536751906082e-06
-1.5239350479901727e-06   -1.2067554513655552e-06   4.007536751906082e-06
-1.5239350479901727e-06   -1.2067554513655552e-06   4.007536751906082e-06
-1.5239350479901727e-06   -1.2067554513655552e-06   4.007536751906082e-06
-4.304223807377699e-06   -3.230866538143197e-06   9.85581800295184e-06
-4.304223807377699e-06   -3.230866538143197e-06   9.85581800295184e-06
-4.304223807377699e-06   -3.230866538143197e-06   9.85581800295184e-06
-4.304223807377699e-06   -3.230866538143197e-06   9.85581800295184e-06
-2.7833396534319807e-06   -2.179317658165777e-06   6.690081751722557e-06
-2.7833396534319807e-06   -2.179317658165777e-06   6.690081751722557e-06
-2.7833396534319807e-06   -2.179317658165777e-06   6.690081751722557e-06
-2.7833396534319807e-06   -2.179317658165777e-06   6.690081751722557e-06
-4.304223807377692e-06   -1.2067554513655552e-06   5.222003403972659e-06
-4.304223807377692e-06   -1.2067554513655552e-06   5.222003403972659e-06
-4.304223807377692e-06   -1.2067554513655552e-06   5.222003403972659e-06
-4.304223807377692e-06   -1.2067554513655552e-06   5.222003403972659e-06
-1.5239350479901795e-06   -3.230866538143197e-06   8.641351350885266e-06
-1.5239350479901795e-06   -3.230866538143197e-06   8.641351350885266e-06
-1.5239350479901795e-06   -3.230866538143197e-06   8.641351350885266e-06
-1.5239350479901795e-06   -3.230866538143197e-06   8.641351350885266e-06
-1.76229381945271e-06   -1.2058723942348545e-06   4.40489924714709e-06
-1.76229381945271e-06   -1.2058723942348545e-06   4.40489924714709e-06
-1.76229381945271e-06   -1.2058723942348545e-06   4.40489924714709e-06
-1.76229381945271e-06   -1.2058723942348545e-06   4.40489924714709e-06
-4.7562317435909545e-06   -3.0641159858797385e-06   1.0509741942364396e-05
-4.7562317435909545e-06   -3.0641159858797385e-06   1.0509741942364396e-05
-4.7562317435909545e-06   -3.0641159858797385e-06   1.0509741942364396e-05
-4.7562317435909545e-06   -3.0641159858797385e-06   1.0509741942364396e-05
-2.994958295883075e-06   -1.993624379966308e-06   6.931991232636545e-06
-2.994958295883075e-06   -1.993624379966308e-06   6.931991232636545e-06
-2.994958295883075e-06   -1.993624379966308e-06   6.931991232636545e-06
-2.994958295883075e-06   -1.993624379966308e-06   6.931991232636545e-06
-1.2138346301313686e-06   -1.1190603240201667e-06   2.2934293359071174e-06
-1.2138346301313686e-06   -1.1190603240201667e-06   2.2934293359071174e-06
-1.2138346301313686e-06   -1.1190603240201667e-06   2.2934293359071174e-06
-1.2138346301313686e-06   -1.1190603240201667e-06   2.2934293359071174e-06
-6.879752008909896e-07   -8.491736153767187e-07   3.3317937431604584e-06
-6.879752008909896e-07   -8.491736153767187e-07   3.3317937431604584e-06
-6.879752008909896e-07   -8.491736153767187e-07   3.3317937431604584e-06
-6.879752008909896e-07   -8.491736153767187e-07   3.3317937431604584e-06
-6.736907637116234e-07   -1.0991064186030531e-06   2.528241202880599e-06
-6.736907637116234e-07   -1.0991064186030531e-06   2.528241202880599e-06
-6.736907637116234e-07   -1.0991064186030531e-06   2.528241202880599e-06
-6.736907637116234e-07   -1.0991064186030531e-06   2.528241202880599e-06
-1.3798593398134414e-06   -1.0791159599634699e-06   3.6931945545331895e-06
-1.3798593398134414e-06   -1.0791159599634699e-06   3.6931945545331895e-06
-1.3798593398134414e-06   -1.0791159599634699e-06   3.6931945545331895e-06
-1.3798593398134414e-06   -1.0791159599634699e-06   3.6931945545331895e-06
-9.250889434070172e-07   -9.652783530406242e-07   2.8669413297020488e-06
-9.250889434070172e-07   -9.652783530406242e-07   2.8669413297020488e-06
-9.250889434070172e-07   -9.652783530406242e-07   2.8669413297020488e-06
-9.250889434070172e-07   -9.652783530406242e-07   2.8669413297020488e-06
-1.3798593398134347e-06   -1.0991064186030531e-06   2.5162469276968576e-06
-1.3798593398134347e-06   -1.0991064186030531e-06   2.5162469276968576e-06
-1.3798593398134347e-06   -1.0991064186030531e-06   2.5162469276968576e-06
-1.3798593398134347e-06   -1.0991064186030531e-06   2.5162469276968576e-06
-6.736907637116234e-07   -1.0791159599634699e-06   3.7051888297169377e-06
-6.736907637116234e-07   -1.0791159599634699e-06   3.7051888297169377e-06
-6.736907637116234e-07   -1.0791159599634699e-06   3.7051888297169377e-06
-6.736907637116234e-07   -1.0791159599634699e-06   3.7051888297169377e-06
-6.876296156108839e-07   -1.1302222599478978e-06   2.7115348802268563e-06
-6.876296156108839e-07   -1.1302222599478978e-06   2.7115348802268563e-06
-6.876296156108839e-07   -1.1302222599478978e-06   2.7115348802268563e-06
-6.876296156108839e-07   -1.1302222599478978e-06   2.7115348802268563e-06
-1.5239350479901795e-06   -1.346709623180928e-06   4.235269685465463e-06
-1.5239350479901795e-06   -1.346709623180928e-06   4.235269685465463e-06
-1.5239350479901795e-06   -1.346709623180928e-06   4.235269685465463e-06
-1.5239350479901795e-06   -1.346709623180928e-06   4.235269685465463e-06
-9.967708582968811e-07   -1.0546288772095988e-06   3.1814142550605073e-06
-9.967708582968811e-07   -1.0546288772095988e-06   3.1814142550605073e-06
-9.967708582968811e-07   -1.0546288772095988e-06   3.1814142550605073e-06
-9.967708582968811e-07   -1.0546288772095988e-06   3.1814142550605073e-06
-1.523935047990166e-06   -1.1302222599478978e-06   2.8414272981666666e-06
-1.523935047990166e-06   -1.1302222599478978e-06   2.8414272981666666e-06
-1.523935047990166e-06   -1.1302222599478978e-06   2.8414272981666666e-06
-1.523935047990166e-06   -1.1302222599478978e-06   2.8414272981666666e-06
-6.876296156108839e-07   -1.346709623180928e-06   4.105377267525639e-06
-6.876296156108839e-07   -1.346709623180928e-06   4.105377267525639e-06
-6.876296156108839e-07   -1.346709623180928e-06   4.105377267525639e-06
-6.876296156108839e-07   -1.346709623180928e-06   4.105377267525639e-06
-7.211971447891363e-07   -1.1703060627048473e-06   2.9907716282964118e-06
-7.211971447891363e-07   -1.1703060627048473e-06   2.9907716282964118e-06
-7.211971447891363e-07   -1.1703060627048473e-06   2.9907716282964118e-06
-7.211971447891363e-07   -1.1703060627048473e-06   2.9907716282964118e-06
-1.7622938194527168e-06   -1.599092154477872e-06   4.9832044077995e-06
-1.7622938194527168e-06   -1.599092154477872e-06   4.9832044077995e-06
-1.7622938194527168e-06   -1.599092154477872e-06   4.9832044077995e-06
-1.7622938194527168e-06   -1.599092154477872e-06   4.9832044077995e-06
-1.0814895318717604e-06   -1.139912120990178e-06   3.573022575071967e-06
-1.0814895318717604e-06   -1.139912120990178e-06   3.573022575071967e-06
-1.0814895318717604e-06   -1.139912120990178e-06   3.573022575071967e-06
-1.0814895318717604e-06   -1.139912120990178e-06   3.573022575071967e-06
-6.879752008909896e-07   -4.6380691837300664e-07   7.624617365290339e-07
-6.879752008909896e-07   -4.6380691837300664e-07   7.624617365290339e-07
-6.879752008909896e-07   -4.6380691837300664e-07   7.624617365290339e-07
-6.879752008909896e-07   -4.6380691837300664e-07   7.624617365290339e-07
-5.352094061630039e-07   3.340904886400597e-08   1.3154009747512696e-06
-5.352094061630039e-07   3.340904886400597e-08   1.3154009747512696e-06
-5.352094061630039e-07   3.340904886400597e-08   1.3154009747512696e-06
-5.352094061630039e-07   3.340904886400597e-08   1.3154009747512696e-06
-4.4374620373235875e-07   -5.386069407949866e-07   1.120730487545144e-06
-4.4374620373235875e-07   -5.386069407949866e-07   1.120730487545144e-06
-4.4374620373235875e-07   -5.386069407949866e-07   1.120730487545144e-06
-4.4374620373235875e-07   -5.386069407949866e-07   1.120730487545144e-06
-6.736907637116234e-07   -5.7796108880791834e-08   1.2154849216953491e-06
-6.736907637116234e-07   -5.7796108880791834e-08   1.2154849216953491e-06
-6.736907637116234e-07   -5.7796108880791834e-08   1.2154849216953491e-06
-6.736907637116234e-07   -5.7796108880791834e-08   1.2154849216953491e-06
-5.481162257731486e-07   -2.519398496776451e-07   1.1226802696093273e-06
-5.481162257731486e-07   -2.519398496776451e-07   1.1226802696093273e-06
-5.481162257731486e-07   -2.519398496776451e-07   1.1226802696093273e-06
-5.481162257731486e-07   -2.519398496776451e-07   1.1226802696093273e-06
-6.736907637116234e-07   -5.386069407949866e-07   8.322439883966538e-07
-6.736907637116234e-07   -5.386069407949866e-07   8.322439883966538e-07
-6.736907637116234e-07   -5.386069407949866e-07   8.322439883966538e-07
-6.736907637116234e-07   -5.386069407949866e-07   8.322439883966538e-07
-4.4374620373235875e-07   -5.7796108880791834e-08   1.503971420843873e-06
-4.4374620373235875e-07   -5.7796108880791834e-08   1.503971420843873e-06
-4.4374620373235875e-07   -5.7796108880791834e-08   1.503971420843873e-06
-4.4374620373235875e-07   -5.7796108880791834e-08   1.503971420843873e-06
-3.981468122391831e-07   -5.967339569002805e-07   1.2323140013566452e-06
-3.981468122391831e-07   -5.967339569002805e-07   1.2323140013566452e-06
-3.981468122391831e-07   -5.967339569002805e-07   1.2323140013566452e-06
-3.981468122391831e-07   -5.967339569002805e-07   1.2323140013566452e-06
-6.876296156108839e-07   -1.9208235537804338e-07   1.4719943793960985e-06
-6.876296156108839e-07   -1.9208235537804338e-07   1.4719943793960985e-06
-6.876296156108839e-07   -1.9208235537804338e-07   1.4719943793960985e-06
-6.876296156108839e-07   -1.9208235537804338e-07   1.4719943793960985e-06
-5.067495561499955e-07   -3.153044153404215e-07   1.2444608496053747e-06
-5.067495561499955e-07   -3.153044153404215e-07   1.2444608496053747e-06
-5.067495561499955e-07   -3.153044153404215e-07   1.2444608496053747e-06
-5.067495561499955e-07   -3.153044153404215e-07   1.2444608496053747e-06
-6.876296156108975e-07   -5.967339569002805e-07   9.895230404432525e-07
-6.876296156108975e-07   -5.967339569002805e-07   9.895230404432525e-07
-6.876296156108975e-07   -5.967339569002805e-07   9.895230404432525e-07
-6.876296156108975e-07   -5.967339569002805e-07   9.895230404432525e-07
-3.981468122391831e-07   -1.9208235537804338e-07   1.7147853403094438e-06
-3.981468122391831e-07   -1.9208235537804338e-07   1.7147853403094438e-06
-3.981468122391831e-07   -1.9208235537804338e-07   1.7147853403094438e-06
-3.981468122391831e-07   -1.9208235537804338e-07   1.7147853403094438e-06
-3.28864776032956e-07   -6.718835392768646e-07   1.3621216980022393e-06
-3.28864776032956e-07   -6.718835392768646e-07   1.3621216980022393e-06
-3.28864776032956e-07   -6.718835392768646e-07   1.3621216980022393e-06
-3.28864776032956e-07   -6.718835392768646e-07   1.3621216980022393e-06
-7.211971447891363e-07   -4.5499586063750717e-07   1.8858763720788557e-06
-7.211971447891363e-07   -4.5499586063750717e-07   1.8858763720788557e-06
-7.211971447891363e-07   -4.5499586063750717e-07   1.8858763720788557e-06
-7.211971447891363e-07   -4.5499586063750717e-07   1.8858763720788557e-06
-4.782018406122556e-07   -4.072691868161799e-07   1.452248194158028e-06
-4.782018406122556e-07   -4.072691868161799e-07   1.452248194158028e-06
-4.782018406122556e-07   -4.072691868161799e-07   1.452248194158028e-06
-4.782018406122556e-07   -4.072691868161799e-07   1.452248194158028e-06
-5.352094061630039e-07   -4.442126731445009e-08   -7.967728606136118e-07
-5.352094061630039e-07   -4.442126731445009e-08   -7.967728606136118e-07
-5.352094061630039e-07   -4.442126731445009e-08   -7.967728606136118e-07
-5.352094061630039e-07   -4.442126731445009e-08   -7.967728606136118e-07
-1.2526077273702528e-07   6.629836674485696e-08   -4.709335780142391e-08
-1.2526077273702528e-07   6.629836674485696e-08   -4.709335780142391e-08
-1.2526077273702528e-07   6.629836674485696e-08   -4.709335780142391e-08
-1.2526077273702528e-07   6.629836674485696e-08   -4.709335780142391e-08
-3.6392920701804835e-08   -6.506595117126187e-08   -6.061896575316236e-07
-3.6392920701804835e-08   -6.506595117126187e-08   -6.061896575316236e-07
-3.6392920701804835e-08   -6.506595117126187e-08   -6.061896575316236e-07
-3.6392920701804835e-08   -6.506595117126187e-08   -6.061896575316236e-07
-4.4374620373235875e-07   1.1061374574817196e-07   -3.267533729909276e-08
-4.4374620373235875e-07   1.1061374574817196e-07   -3.267533729909276e-08
-4.4374620373235875e-07   1.1061374574817196e-07   -3.267533729909276e-08
-4.4374620373235875e-07   1.1061374574817196e-07   -3.267533729909276e-08
-2.6048582261692534e-07   3.3755335504705294e-08   -2.9199425967876684e-07
-2.6048582261692534e-07   3.3755335504705294e-08   -2.9199425967876684e-07
-2.6048582261692534e-07   3.3755335504705294e-08   -2.9199425967876684e-07
-2.6048582261692534e-07   3.3755335504705294e-08   -2.9199425967876684e-07
-4.4374620373235875e-07   -6.506595117126187e-08   -7.11597475683356e-07
-4.4374620373235875e-07   -6.506595117126187e-08   -7.11597475683356e-07
-4.4374620373235875e-07   -6.506595117126187e-08   -7.11597475683356e-07
-4.4374620373235875e-07   -6.506595117126187e-08   -7.11597475683356e-07
-3.6392920701804835e-08   1.1061374574817196e-07   7.273248085257872e-08
-3.6392920701804835e-08   1.1061374574817196e-07   7.273248085257872e-08
-3.6392920701804835e-08   1.1061374574817196e-07   7.273248085257872e-08
-3.6392920701804835e-08   1.1061374574817196e-07   7.273248085257872e-08
5.352433925573776e-09   -9.197316192422356e-08   -5.188058183811764e-07
5.352433925573776e-09   -9.197316192422356e-08   -5.188058183811764e-07
5.352433925573776e-09   -9.197316192422356e-08   -5.188058183811764e-07
5.352433925573776e-09   -9.197316192422356e-08   -5.188058183811764e-07
-3.981468122391831e-07   8.33896803471833e-08   4.847521986389106e-08
-3.981468122391831e-07   8.33896803471833e-08   4.847521986389106e-08
-3.981468122391831e-07   8.33896803471833e-08   4.847521986389106e-08
-3.981468122391831e-07   8.33896803471833e-08   4.847521986389106e-08
-1.9723052163956965e-07   2.1122482138077935e-08   -2.4902494554320713e-07
-1.9723052163956965e-07   2.1122482138077935e-08   -2.4902494554320713e-07
-1.9723052163956965e-07   2.1122482138077935e-08   -2.4902494554320713e-07
-1.9723052163956965e-07   2.1122482138077935e-08   -2.4902494554320713e-07
-3.981468122391831e-07   -9.197316192421001e-08   -6.240235237440077e-07
-3.981468122391831e-07   -9.197316192421001e-08   -6.240235237440077e-07
-3.981468122391831e-07   -9.197316192421001e-08   -6.240235237440077e-07
-3.981468122391831e-07   -9.197316192421001e-08   -6.240235237440077e-07
5.352433925573776e-09   8.33896803471833e-08   1.5369292522674264e-07
5.352433925573776e-09   8.33896803471833e-08   1.5369292522674264e-07
5.352433925573776e-09   8.33896803471833e-08   1.5369292522674264e-07
5.352433925573776e-09   8.33896803471833e-08   1.5369292522674264e-07
5.413126128012125e-08   -1.2815401149161203e-07   -3.8449180779604147e-07
5.413126128012125e-08   -1.2815401149161203e-07   -3.8449180779604147e-07
5.413126128012125e-08   -1.2815401149161203e-07   -3.8449180779604147e-07
5.413126128012125e-08   -1.2815401149161203e-07   -3.8449180779604147e-07
-3.28864776032956e-07   4.985447618201274e-08   1.4702982845490225e-07
-3.28864776032956e-07   4.985447618201274e-08   1.4702982845490225e-07
-3.28864776032956e-07   4.985447618201274e-08   1.4702982845490225e-07
-3.28864776032956e-07   4.985447618201274e-08   1.4702982845490225e-07
-1.4108674226043276e-07   3.6544176401677995e-09   -1.3821352604082016e-07
-1.4108674226043276e-07   3.6544176401677995e-09   -1.3821352604082016e-07
-1.4108674226043276e-07   3.6544176401677995e-09   -1.3821352604082016e-07
-1.4108674226043276e-07   3.6544176401677995e-09   -1.3821352604082016e-07
              </DataArray>   
             <DataArray type="Float64" NumberOfComponents="3" Name="Stress" format="ascii">   
-0.8027376327461966   -0.20068440818654915   -0.20068440818654915
-0.8027376327461966   -0.20068440818654915   -0.20068440818654915
-0.8027376327461966   -0.20068440818654915   -0.20068440818654915
-0.8027376327461966   -0.20068440818654915   -0.20068440818654915
-0.4641892613006292   -0.01543953908281974   -0.009594233512562635
-0.4641892613006292   -0.01543953908281974   -0.009594233512562635
-0.4641892613006292   -0.01543953908281974   -0.009594233512562635
-0.4641892613006292   -0.01543953908281974   -0.009594233512562635
-0.49970264116331115   -0.12492566029082779   -0.12492566029082779
-0.49970264116331115   -0.12492566029082779   -0.12492566029082779
-0.49970264116331115   -0.12492566029082779   -0.12492566029082779
-0.49970264116331115   -0.12492566029082779   -0.12492566029082779
-0.7733924641822562   -0.06408951856250437   -0.024691094031183133
-0.7733924641822562   -0.06408951856250437   -0.024691094031183133
-0.7733924641822562   -0.06408951856250437   -0.024691094031183133
-0.7733924641822562   -0.06408951856250437   -0.024691094031183133
-0.6063923473966998   -0.09975667534750562   -0.0017144453396062262
-0.6063923473966998   -0.09975667534750562   -0.0017144453396062262
-0.6063923473966998   -0.09975667534750562   -0.0017144453396062262
-0.6063923473966998   -0.09975667534750562   -0.0017144453396062262
-0.8395959351816888   -0.2098989837954222   -0.2098989837954222
-0.8395959351816888   -0.2098989837954222   -0.2098989837954222
-0.8395959351816888   -0.2098989837954222   -0.2098989837954222
-0.8395959351816888   -0.2098989837954222   -0.2098989837954222
-0.4492587821893186   0.005124192916651157   -0.002756218628343937
-0.4492587821893186   0.005124192916651157   -0.002756218628343937
-0.4492587821893186   0.005124192916651157   -0.002756218628343937
-0.4492587821893186   0.005124192916651157   -0.002756218628343937
-0.5006685636250268   -0.1251671409062567   -0.1251671409062567
-0.5006685636250268   -0.1251671409062567   -0.1251671409062567
-0.5006685636250268   -0.1251671409062567   -0.1251671409062567
-0.5006685636250268   -0.1251671409062567   -0.1251671409062567
-0.7988868142635229   -0.06456500849605885   -0.03611969619324763
-0.7988868142635229   -0.06456500849605885   -0.03611969619324763
-0.7988868142635229   -0.06456500849605885   -0.03611969619324763
-0.7988868142635229   -0.06456500849605885   -0.03611969619324763
-0.6285337517150432   -0.0937624529004562   -0.03331118335965492
-0.6285337517150432   -0.0937624529004562   -0.03331118335965492
-0.6285337517150432   -0.0937624529004562   -0.03331118335965492
-0.6285337517150432   -0.0937624529004562   -0.03331118335965492
-0.8652776370285145   -0.21631940925712861   -0.21631940925712861
-0.8652776370285145   -0.21631940925712861   -0.21631940925712861
-0.8652776370285145   -0.21631940925712861   -0.21631940925712861
-0.8652776370285145   -0.21631940925712861   -0.21631940925712861
-0.44753957287998136   0.013325427834868314   0.001985244077845255
-0.44753957287998136   0.013325427834868314   0.001985244077845255
-0.44753957287998136   0.013325427834868314   0.001985244077845255
-0.44753957287998136   0.013325427834868314   0.001985244077845255
-0.49990564735725046   -0.12497641183931261   -0.12497641183931261
-0.49990564735725046   -0.12497641183931261   -0.12497641183931261
-0.49990564735725046   -0.12497641183931261   -0.12497641183931261
-0.49990564735725046   -0.12497641183931261   -0.12497641183931261
-0.8445818922511789   -0.056310192299187795   -0.02190553518447464
-0.8445818922511789   -0.056310192299187795   -0.02190553518447464
-0.8445818922511789   -0.056310192299187795   -0.02190553518447464
-0.8445818922511789   -0.056310192299187795   -0.02190553518447464
-0.6447890100186888   -0.0921680151244042   -0.06011464510107415
-0.6447890100186888   -0.0921680151244042   -0.06011464510107415
-0.6447890100186888   -0.0921680151244042   -0.06011464510107415
-0.6447890100186888   -0.0921680151244042   -0.06011464510107415
-0.5102027853128372   -0.1275506963282093   -0.1275506963282093
-0.5102027853128372   -0.1275506963282093   -0.1275506963282093
-0.5102027853128372   -0.1275506963282093   -0.1275506963282093
-0.5102027853128372   -0.1275506963282093   -0.1275506963282093
-0.2134583659517956   -0.014685457238720126   -0.004728347994672963
-0.2134583659517956   -0.014685457238720126   -0.004728347994672963
-0.2134583659517956   -0.014685457238720126   -0.004728347994672963
-0.2134583659517956   -0.014685457238720126   -0.004728347994672963
-0.22353108486146092   -0.05588277121536523   -0.05588277121536523
-0.22353108486146092   -0.05588277121536523   -0.05588277121536523
-0.22353108486146092   -0.05588277121536523   -0.05588277121536523
-0.22353108486146092   -0.05588277121536523   -0.05588277121536523
-0.46420637289508343   -0.054883526021356314   -0.017486453219160702
-0.46420637289508343   -0.054883526021356314   -0.017486453219160702
-0.46420637289508343   -0.054883526021356314   -0.017486453219160702
-0.46420637289508343   -0.054883526021356314   -0.017486453219160702
-0.34267573855042105   -0.06508085151789934   0.0026033666579617994
-0.34267573855042105   -0.06508085151789934   0.0026033666579617994
-0.34267573855042105   -0.06508085151789934   0.0026033666579617994
-0.34267573855042105   -0.06508085151789934   0.0026033666579617994
-0.4997026411633107   -0.12492566029082768   -0.12492566029082768
-0.4997026411633107   -0.12492566029082768   -0.12492566029082768
-0.4997026411633107   -0.12492566029082768   -0.12492566029082768
-0.4997026411633107   -0.12492566029082768   -0.12492566029082768
-0.20098860457692527   0.0012055750704141749   -0.00025871607846638354
-0.20098860457692527   0.0012055750704141749   -0.00025871607846638354
-0.20098860457692527   0.0012055750704141749   -0.00025871607846638354
-0.20098860457692527   0.0012055750704141749   -0.00025871607846638354
-0.21810945627397338   -0.054527364068493345   -0.054527364068493345
-0.21810945627397338   -0.054527364068493345   -0.054527364068493345
-0.21810945627397338   -0.054527364068493345   -0.054527364068493345
-0.21810945627397338   -0.054527364068493345   -0.054527364068493345
-0.46260922623873546   -0.04465537404958257   -0.015382220831474048
-0.46260922623873546   -0.04465537404958257   -0.015382220831474048
-0.46260922623873546   -0.04465537404958257   -0.015382220831474048
-0.46260922623873546   -0.04465537404958257   -0.015382220831474048
-0.3374748649526411   -0.05469999903314218   -0.017597106496176414
-0.3374748649526411   -0.05469999903314218   -0.017597106496176414
-0.3374748649526411   -0.05469999903314218   -0.017597106496176414
-0.3374748649526411   -0.05469999903314218   -0.017597106496176414
-0.5006685636250268   -0.1251671409062567   -0.1251671409062567
-0.5006685636250268   -0.1251671409062567   -0.1251671409062567
-0.5006685636250268   -0.1251671409062567   -0.1251671409062567
-0.5006685636250268   -0.1251671409062567   -0.1251671409062567
-0.19259747959226234   0.013437042083600442   0.005068113187967998
-0.19259747959226234   0.013437042083600442   0.005068113187967998
-0.19259747959226234   0.013437042083600442   0.005068113187967998
-0.19259747959226234   0.013437042083600442   0.005068113187967998
-0.21309940358337204   -0.05327485089584301   -0.05327485089584301
-0.21309940358337204   -0.05327485089584301   -0.05327485089584301
-0.21309940358337204   -0.05327485089584301   -0.05327485089584301
-0.21309940358337204   -0.05327485089584301   -0.05327485089584301
-0.45873877465339924   -0.03433231526296908   -0.009786144896405953
-0.45873877465339924   -0.03433231526296908   -0.009786144896405953
-0.45873877465339924   -0.03433231526296908   -0.009786144896405953
-0.45873877465339924   -0.03433231526296908   -0.009786144896405953
-0.33868022792138464   -0.048283154030404576   -0.039140059357621985
-0.33868022792138464   -0.048283154030404576   -0.039140059357621985
-0.33868022792138464   -0.048283154030404576   -0.039140059357621985
-0.33868022792138464   -0.048283154030404576   -0.039140059357621985
-0.23286178322790818   -0.058215445806977045   -0.058215445806977045
-0.23286178322790818   -0.058215445806977045   -0.058215445806977045
-0.23286178322790818   -0.058215445806977045   -0.058215445806977045
-0.23286178322790818   -0.058215445806977045   -0.058215445806977045
0.02625906614569728   0.0014853498081752918   0.0002348149405375303
0.02625906614569728   0.0014853498081752918   0.0002348149405375303
0.02625906614569728   0.0014853498081752918   0.0002348149405375303
0.02625906614569728   0.0014853498081752918   0.0002348149405375303
0.03495575775754477   0.008738939439386192   0.008738939439386192
0.03495575775754477   0.008738939439386192   0.008738939439386192
0.03495575775754477   0.008738939439386192   0.008738939439386192
0.03495575775754477   0.008738939439386192   0.008738939439386192
-0.21011564869574972   -0.0363047070887138   -0.008383654513462421
-0.21011564869574972   -0.0363047070887138   -0.008383654513462421
-0.21011564869574972   -0.0363047070887138   -0.008383654513462421
-0.21011564869574972   -0.0363047070887138   -0.008383654513462421
-0.09064256805501279   -0.022965094452068506   0.015040811485320342
-0.09064256805501279   -0.022965094452068506   0.015040811485320342
-0.09064256805501279   -0.022965094452068506   0.015040811485320342
-0.09064256805501279   -0.022965094452068506   0.015040811485320342
-0.22353108486146092   -0.05588277121536523   -0.05588277121536523
-0.22353108486146092   -0.05588277121536523   -0.05588277121536523
-0.22353108486146092   -0.05588277121536523   -0.05588277121536523
-0.22353108486146092   -0.05588277121536523   -0.05588277121536523
0.0356443880646199   0.015590197707401807   0.00533083270674598
0.0356443880646199   0.015590197707401807   0.00533083270674598
0.0356443880646199   0.015590197707401807   0.00533083270674598
0.0356443880646199   0.015590197707401807   0.00533083270674598
0.03987722418138859   0.009969306045347147   0.009969306045347147
0.03987722418138859   0.009969306045347147   0.009969306045347147
0.03987722418138859   0.009969306045347147   0.009969306045347147
0.03987722418138859   0.009969306045347147   0.009969306045347147
-0.2022812912507243   -0.024296278827862967   -0.005617624192881666
-0.2022812912507243   -0.024296278827862967   -0.005617624192881666
-0.2022812912507243   -0.024296278827862967   -0.005617624192881666
-0.2022812912507243   -0.024296278827862967   -0.005617624192881666
-0.08652617444350914   -0.014132120199895301   -0.005277565487488508
-0.08652617444350914   -0.014132120199895301   -0.005277565487488508
-0.08652617444350914   -0.014132120199895301   -0.005277565487488508
-0.08652617444350914   -0.014132120199895301   -0.005277565487488508
-0.21810945627397338   -0.054527364068493345   -0.054527364068493345
-0.21810945627397338   -0.054527364068493345   -0.054527364068493345
-0.21810945627397338   -0.054527364068493345   -0.054527364068493345
-0.21810945627397338   -0.054527364068493345   -0.054527364068493345
0.0432357565979891   0.027730758679329545   0.00900051549436701
0.0432357565979891   0.027730758679329545   0.00900051549436701
0.0432357565979891   0.027730758679329545   0.00900051549436701
0.0432357565979891   0.027730758679329545   0.00900051549436701
0.04635191552721981   0.011587978881804952   0.011587978881804952
0.04635191552721981   0.011587978881804952   0.011587978881804952
0.04635191552721981   0.011587978881804952   0.011587978881804952
0.04635191552721981   0.011587978881804952   0.011587978881804952
-0.19376240013176857   -0.010010337664181516   0.00014565313051025965
-0.19376240013176857   -0.010010337664181516   0.00014565313051025965
-0.19376240013176857   -0.010010337664181516   0.00014565313051025965
-0.19376240013176857   -0.010010337664181516   0.00014565313051025965
-0.08349690749547983   -0.00561620337277886   -0.02541386742442559
-0.08349690749547983   -0.00561620337277886   -0.02541386742442559
-0.08349690749547983   -0.00561620337277886   -0.02541386742442559
-0.08349690749547983   -0.00561620337277886   -0.02541386742442559
0.02879448132883863   0.0071986203322096575   0.0071986203322096575
0.02879448132883863   0.0071986203322096575   0.0071986203322096575
0.02879448132883863   0.0071986203322096575   0.0071986203322096575
0.02879448132883863   0.0071986203322096575   0.0071986203322096575
0.2890243942775571   0.026574984327346833   0.00916692465855651
0.2890243942775571   0.026574984327346833   0.00916692465855651
0.2890243942775571   0.026574984327346833   0.00916692465855651
0.2890243942775571   0.026574984327346833   0.00916692465855651
0.3143046012729073   0.07857615031822683   0.07857615031822683
0.3143046012729073   0.07857615031822683   0.07857615031822683
0.3143046012729073   0.07857615031822683   0.07857615031822683
0.3143046012729073   0.07857615031822683   0.07857615031822683
0.02658716314497877   -0.02030704880234743   -0.004058045381710717
0.02658716314497877   -0.02030704880234743   -0.004058045381710717
0.02658716314497877   -0.02030704880234743   -0.004058045381710717
0.02658716314497877   -0.02030704880234743   -0.004058045381710717
0.16444914039578792   0.020499929327554282   0.02977283679745698
0.16444914039578792   0.020499929327554282   0.02977283679745698
0.16444914039578792   0.020499929327554282   0.02977283679745698
0.16444914039578792   0.020499929327554282   0.02977283679745698
0.034955757757544885   0.008738939439386221   0.008738939439386221
0.034955757757544885   0.008738939439386221   0.008738939439386221
0.034955757757544885   0.008738939439386221   0.008738939439386221
0.034955757757544885   0.008738939439386221   0.008738939439386221
0.2929881939015587   0.036582349317710705   0.013987914461999991
0.2929881939015587   0.036582349317710705   0.013987914461999991
0.2929881939015587   0.036582349317710705   0.013987914461999991
0.2929881939015587   0.036582349317710705   0.013987914461999991
0.3134342845644001   0.07835857114110002   0.07835857114110002
0.3134342845644001   0.07835857114110002   0.07835857114110002
0.3134342845644001   0.07835857114110002   0.07835857114110002
0.3134342845644001   0.07835857114110002   0.07835857114110002
0.03422407913219162   -0.008546537111725682   0.00021942395643477757
0.03422407913219162   -0.008546537111725682   0.00021942395643477757
0.03422407913219162   -0.008546537111725682   0.00021942395643477757
0.03422407913219162   -0.008546537111725682   0.00021942395643477757
0.16372013005874872   0.027085057642198103   0.007637997427169399
0.16372013005874872   0.027085057642198103   0.007637997427169399
0.16372013005874872   0.027085057642198103   0.007637997427169399
0.16372013005874872   0.027085057642198103   0.007637997427169399
0.03987722418138862   0.009969306045347156   0.009969306045347156
0.03987722418138862   0.009969306045347156   0.009969306045347156
0.03987722418138862   0.009969306045347156   0.009969306045347156
0.03987722418138862   0.009969306045347156   0.009969306045347156
0.29496045893095585   0.04702204739977997   0.01732596671519882
0.29496045893095585   0.04702204739977997   0.01732596671519882
0.29496045893095585   0.04702204739977997   0.01732596671519882
0.29496045893095585   0.04702204739977997   0.01732596671519882
0.31996174828738216   0.07999043707184554   0.07999043707184554
0.31996174828738216   0.07999043707184554   0.07999043707184554
0.31996174828738216   0.07999043707184554   0.07999043707184554
0.31996174828738216   0.07999043707184554   0.07999043707184554
0.04411506177990157   0.006967886860112245   0.0050238021669060905
0.04411506177990157   0.006967886860112245   0.0050238021669060905
0.04411506177990157   0.006967886860112245   0.0050238021669060905
0.04411506177990157   0.006967886860112245   0.0050238021669060905
0.16672337272090848   0.0368623051419099   -0.012883129592101309
0.16672337272090848   0.0368623051419099   -0.012883129592101309
0.16672337272090848   0.0368623051419099   -0.012883129592101309
0.16672337272090848   0.0368623051419099   -0.012883129592101309
0.3131955694226405   0.07829889235566012   0.07829889235566012
0.3131955694226405   0.07829889235566012   0.07829889235566012
0.3131955694226405   0.07829889235566012   0.07829889235566012
0.3131955694226405   0.07829889235566012   0.07829889235566012
0.6525179389448937   0.049891079748644804   0.017685201456439505
0.6525179389448937   0.049891079748644804   0.017685201456439505
0.6525179389448937   0.049891079748644804   0.017685201456439505
0.6525179389448937   0.049891079748644804   0.017685201456439505
0.6675245386539822   0.16688113466349555   0.16688113466349555
0.6675245386539822   0.16688113466349555   0.16688113466349555
0.6675245386539822   0.16688113466349555   0.16688113466349555
0.6675245386539822   0.16688113466349555   0.16688113466349555
0.2795022752764294   -0.015672361115664585   -0.0011869682302713125
0.2795022752764294   -0.015672361115664585   -0.0011869682302713125
0.2795022752764294   -0.015672361115664585   -0.0011869682302713125
0.2795022752764294   -0.015672361115664585   -0.0011869682302713125
0.4649796151283718   0.06597579322996755   0.0523020392394905
0.4649796151283718   0.06597579322996755   0.0523020392394905
0.4649796151283718   0.06597579322996755   0.0523020392394905
0.4649796151283718   0.06597579322996755   0.0523020392394905
0.314304601272907   0.07857615031822675   0.07857615031822675
0.314304601272907   0.07857615031822675   0.07857615031822675
0.314304601272907   0.07857615031822675   0.07857615031822675
0.314304601272907   0.07857615031822675   0.07857615031822675
0.6188276642098718   0.05873807478197361   0.03153982232447583
0.6188276642098718   0.05873807478197361   0.03153982232447583
0.6188276642098718   0.05873807478197361   0.03153982232447583
0.6188276642098718   0.05873807478197361   0.03153982232447583
0.6481509465084082   0.16203773662710205   0.16203773662710205
0.6481509465084082   0.16203773662710205   0.16203773662710205
0.6481509465084082   0.16203773662710205   0.16203773662710205
0.6481509465084082   0.16203773662710205   0.16203773662710205
0.28092939407659684   -0.008389162325234512   0.002581852168418483
0.28092939407659684   -0.008389162325234512   0.002581852168418483
0.28092939407659684   -0.008389162325234512   0.002581852168418483
0.28092939407659684   -0.008389162325234512   0.002581852168418483
0.4517208108066253   0.06802844916812897   0.025050622357038803
0.4517208108066253   0.06802844916812897   0.025050622357038803
0.4517208108066253   0.06802844916812897   0.025050622357038803
0.4517208108066253   0.06802844916812897   0.025050622357038803
0.3134342845644001   0.07835857114110002   0.07835857114110002
0.3134342845644001   0.07835857114110002   0.07835857114110002
0.3134342845644001   0.07835857114110002   0.07835857114110002
0.3134342845644001   0.07835857114110002   0.07835857114110002
0.5994254542760037   0.059069401416167996   0.021378610676023344
0.5994254542760037   0.059069401416167996   0.021378610676023344
0.5994254542760037   0.059069401416167996   0.021378610676023344
0.5994254542760037   0.059069401416167996   0.021378610676023344
0.6189765568651135   0.1547441392162784   0.1547441392162784
0.6189765568651135   0.1547441392162784   0.1547441392162784
0.6189765568651135   0.1547441392162784   0.1547441392162784
0.6189765568651135   0.1547441392162784   0.1547441392162784
0.291808231169525   0.009935147392873725   0.009278141161531299
0.291808231169525   0.009935147392873725   0.009278141161531299
0.291808231169525   0.009935147392873725   0.009278141161531299
0.291808231169525   0.009935147392873725   0.009278141161531299
0.43303167045531693   0.07393661478941985   -0.006702655729243386
0.43303167045531693   0.07393661478941985   -0.006702655729243386
0.43303167045531693   0.07393661478941985   -0.006702655729243386
0.43303167045531693   0.07393661478941985   -0.006702655729243386
-0.630337424984919   -0.04521121001355026   0.007695575518074958
-0.630337424984919   -0.04521121001355026   0.007695575518074958
-0.630337424984919   -0.04521121001355026   0.007695575518074958
-0.630337424984919   -0.04521121001355026   0.007695575518074958
-0.4018097596395411   -0.009837664784528369   -0.0028087299393143826
-0.4018097596395411   -0.009837664784528369   -0.0028087299393143826
-0.4018097596395411   -0.009837664784528369   -0.0028087299393143826
-0.4018097596395411   -0.009837664784528369   -0.0028087299393143826
-0.40405302884830224   0.016479970280641923   0.008816914850594982
-0.40405302884830224   0.016479970280641923   0.008816914850594982
-0.40405302884830224   0.016479970280641923   0.008816914850594982
-0.40405302884830224   0.016479970280641923   0.008816914850594982
-0.6394801883647545   -0.04392339158937117   -0.007837191605468335
-0.6394801883647545   -0.04392339158937117   -0.007837191605468335
-0.6394801883647545   -0.04392339158937117   -0.007837191605468335
-0.6394801883647545   -0.04392339158937117   -0.007837191605468335
-0.4985601861351164   -0.01720642536064282   -0.002284250230291697
-0.4985601861351164   -0.01720642536064282   -0.002284250230291697
-0.4985601861351164   -0.01720642536064282   -0.002284250230291697
-0.4985601861351164   -0.01720642536064282   -0.002284250230291697
-0.6345595626289706   -0.0306801752906624   0.003522720774741809
-0.6345595626289706   -0.0306801752906624   0.003522720774741809
-0.6345595626289706   -0.0306801752906624   0.003522720774741809
-0.6345595626289706   -0.0306801752906624   0.003522720774741809
-0.4096158183624623   0.0025945902035581225   -0.005111652643114056
-0.4096158183624623   0.0025945902035581225   -0.005111652643114056
-0.4096158183624623   0.0025945902035581225   -0.005111652643114056
-0.4096158183624623   0.0025945902035581225   -0.005111652643114056
-0.40424350933995795   0.0235749908322323   0.00993699552464413
-0.40424350933995795   0.0235749908322323   0.00993699552464413
-0.40424350933995795   0.0235749908322323   0.00993699552464413
-0.40424350933995795   0.0235749908322323   0.00993699552464413
-0.6429480162017822   -0.03858080336489367   -0.010316658023281827
-0.6429480162017822   -0.03858080336489367   -0.010316658023281827
-0.6429480162017822   -0.03858080336489367   -0.010316658023281827
-0.6429480162017822   -0.03858080336489367   -0.010316658023281827
-0.5121962837001122   -0.01140074733501402   -0.005006228939239566
-0.5121962837001122   -0.01140074733501402   -0.005006228939239566
-0.5121962837001122   -0.01140074733501402   -0.005006228939239566
-0.5121962837001122   -0.01140074733501402   -0.005006228939239566
-0.6311013667710257   -0.018097352171491027   0.02843313793709506
-0.6311013667710257   -0.018097352171491027   0.02843313793709506
-0.6311013667710257   -0.018097352171491027   0.02843313793709506
-0.6311013667710257   -0.018097352171491027   0.02843313793709506
-0.4112284613319691   0.007953237077575254   -0.009366010680750408
-0.4112284613319691   0.007953237077575254   -0.009366010680750408
-0.4112284613319691   0.007953237077575254   -0.009366010680750408
-0.4112284613319691   0.007953237077575254   -0.009366010680750408
-0.39656320231551023   0.04122681171832687   0.017760794967430958
-0.39656320231551023   0.04122681171832687   0.017760794967430958
-0.39656320231551023   0.04122681171832687   0.017760794967430958
-0.39656320231551023   0.04122681171832687   0.017760794967430958
-0.6245681153427795   -0.030876232728473688   -0.016736336909414947
-0.6245681153427795   -0.030876232728473688   -0.016736336909414947
-0.6245681153427795   -0.030876232728473688   -0.016736336909414947
-0.6245681153427795   -0.030876232728473688   -0.016736336909414947
-0.4921532066535449   0.004862290977518655   0.011006049522322533
-0.4921532066535449   0.004862290977518655   0.011006049522322533
-0.4921532066535449   0.004862290977518655   0.011006049522322533
-0.4921532066535449   0.004862290977518655   0.011006049522322533
-0.411621808517886   -0.05476150331343088   -0.006945135802136321
-0.411621808517886   -0.05476150331343088   -0.006945135802136321
-0.411621808517886   -0.05476150331343088   -0.006945135802136321
-0.411621808517886   -0.05476150331343088   -0.006945135802136321
-0.1903790403317743   -0.004604403895419239   0.0019318351772622967
-0.1903790403317743   -0.004604403895419239   0.0019318351772622967
-0.1903790403317743   -0.004604403895419239   0.0019318351772622967
-0.1903790403317743   -0.004604403895419239   0.0019318351772622967
-0.19284811667414176   0.003491223467067206   0.0030290380020152694
-0.19284811667414176   0.003491223467067206   0.0030290380020152694
-0.19284811667414176   0.003491223467067206   0.0030290380020152694
-0.19284811667414176   0.003491223467067206   0.0030290380020152694
-0.419599328896334   -0.04002958689596209   -0.01240502821295971
-0.419599328896334   -0.04002958689596209   -0.01240502821295971
-0.419599328896334   -0.04002958689596209   -0.01240502821295971
-0.419599328896334   -0.04002958689596209   -0.01240502821295971
-0.3036313931558902   -0.02483138542363008   -0.0071127031870643325
-0.3036313931558902   -0.02483138542363008   -0.0071127031870643325
-0.3036313931558902   -0.02483138542363008   -0.0071127031870643325
-0.3036313931558902   -0.02483138542363008   -0.0071127031870643325
-0.4191455236306987   -0.04367265273399721   -0.0064929360467499125
-0.4191455236306987   -0.04367265273399721   -0.0064929360467499125
-0.4191455236306987   -0.04367265273399721   -0.0064929360467499125
-0.4191455236306987   -0.04367265273399721   -0.0064929360467499125
-0.1925604425414878   0.007875768703391538   8.286342896227095e-05
-0.1925604425414878   0.007875768703391538   8.286342896227095e-05
-0.1925604425414878   0.007875768703391538   8.286342896227095e-05
-0.1925604425414878   0.007875768703391538   8.286342896227095e-05
-0.19186055468630264   0.013370791879493478   0.003999937261473952
-0.19186055468630264   0.013370791879493478   0.003999937261473952
-0.19186055468630264   0.013370791879493478   0.003999937261473952
-0.19186055468630264   0.013370791879493478   0.003999937261473952
-0.41947093611334085   -0.029186294396697177   -0.013438853113341129
-0.41947093611334085   -0.029186294396697177   -0.013438853113341129
-0.41947093611334085   -0.029186294396697177   -0.013438853113341129
-0.41947093611334085   -0.029186294396697177   -0.013438853113341129
-0.30277921886828585   -0.013757491584686372   -0.003392826644834217
-0.30277921886828585   -0.013757491584686372   -0.003392826644834217
-0.30277921886828585   -0.013757491584686372   -0.003392826644834217
-0.30277921886828585   -0.013757491584686372   -0.003392826644834217
-0.4177812883316684   -0.032873936685174646   -0.0013029719165009758
-0.4177812883316684   -0.032873936685174646   -0.0013029719165009758
-0.4177812883316684   -0.032873936685174646   -0.0013029719165009758
-0.4177812883316684   -0.032873936685174646   -0.0013029719165009758
-0.1921697417454321   0.018438894890514576   -0.0026141010451911917
-0.1921697417454321   0.018438894890514576   -0.0026141010451911917
-0.1921697417454321   0.018438894890514576   -0.0026141010451911917
-0.1921697417454321   0.018438894890514576   -0.0026141010451911917
-0.1883989573466834   0.023267665647633343   0.007873942349890264
-0.1883989573466834   0.023267665647633343   0.007873942349890264
-0.1883989573466834   0.023267665647633343   0.007873942349890264
-0.1883989573466834   0.023267665647633343   0.007873942349890264
-0.414687134475427   -0.016653051157392296   -0.0149790029564357
-0.414687134475427   -0.016653051157392296   -0.0149790029564357
-0.414687134475427   -0.016653051157392296   -0.0149790029564357
-0.414687134475427   -0.016653051157392296   -0.0149790029564357
-0.3012301735808802   -0.0032727258267623432   0.0014987648648105284
-0.3012301735808802   -0.0032727258267623432   0.0014987648648105284
-0.3012301735808802   -0.0032727258267623432   0.0014987648648105284
-0.3012301735808802   -0.0032727258267623432   0.0014987648648105284
-0.2006364211439477   -0.0456105043280553   -0.008348968450970459
-0.2006364211439477   -0.0456105043280553   -0.008348968450970459
-0.2006364211439477   -0.0456105043280553   -0.008348968450970459
-0.2006364211439477   -0.0456105043280553   -0.008348968450970459
0.01934996148849905   0.004383358777374875   0.007814144994688778
0.01934996148849905   0.004383358777374875   0.007814144994688778
0.01934996148849905   0.004383358777374875   0.007814144994688778
0.01934996148849905   0.004383358777374875   0.007814144994688778
0.018667490914296172   0.011263060127616995   0.0006720419581456483
0.018667490914296172   0.011263060127616995   0.0006720419581456483
0.018667490914296172   0.011263060127616995   0.0006720419581456483
0.018667490914296172   0.011263060127616995   0.0006720419581456483
-0.20124331187134886   -0.030112980137820156   -0.005342734379132798
-0.20124331187134886   -0.030112980137820156   -0.005342734379132798
-0.20124331187134886   -0.030112980137820156   -0.005342734379132798
-0.20124331187134886   -0.030112980137820156   -0.005342734379132798
-0.0918500406413888   -0.015224153186756866   -0.002984710432772488
-0.0918500406413888   -0.015224153186756866   -0.002984710432772488
-0.0918500406413888   -0.015224153186756866   -0.002984710432772488
-0.0918500406413888   -0.015224153186756866   -0.002984710432772488
-0.20264323124885245   -0.03468712914794678   -0.0077681822565241025
-0.20264323124885245   -0.03468712914794678   -0.0077681822565241025
-0.20264323124885245   -0.03468712914794678   -0.0077681822565241025
-0.20264323124885245   -0.03468712914794678   -0.0077681822565241025
0.020823502431271325   0.016593301277215103   0.006121858393423314
0.020823502431271325   0.016593301277215103   0.006121858393423314
0.020823502431271325   0.016593301277215103   0.006121858393423314
0.020823502431271325   0.016593301277215103   0.006121858393423314
0.020505205742881692   0.022105767447518906   0.0036061101904217106
0.020505205742881692   0.022105767447518906   0.0036061101904217106
0.020505205742881692   0.022105767447518906   0.0036061101904217106
0.020505205742881692   0.022105767447518906   0.0036061101904217106
-0.2003150115869299   -0.01821529270113715   -0.0066862626610317884
-0.2003150115869299   -0.01821529270113715   -0.0066862626610317884
-0.2003150115869299   -0.01821529270113715   -0.0066862626610317884
-0.2003150115869299   -0.01821529270113715   -0.0066862626610317884
-0.09016055549789742   -0.003719207353294219   0.0010151416136672826
-0.09016055549789742   -0.003719207353294219   0.0010151416136672826
-0.09016055549789742   -0.003719207353294219   0.0010151416136672826
-0.09016055549789742   -0.003719207353294219   0.0010151416136672826
-0.2008764158631739   -0.023694578550378594   -0.004013998193010219
-0.2008764158631739   -0.023694578550378594   -0.004013998193010219
-0.2008764158631739   -0.023694578550378594   -0.004013998193010219
-0.2008764158631739   -0.023694578550378594   -0.004013998193010219
0.021882833443346635   0.02840127672098098   0.004198739419284206
0.021882833443346635   0.02840127672098098   0.004198739419284206
0.021882833443346635   0.02840127672098098   0.004198739419284206
0.021882833443346635   0.02840127672098098   0.004198739419284206
0.021261309107957163   0.03414288376016723   0.005888051012528204
0.021261309107957163   0.03414288376016723   0.005888051012528204
0.021261309107957163   0.03414288376016723   0.005888051012528204
0.021261309107957163   0.03414288376016723   0.005888051012528204
-0.19742187462215186   -0.005517226484316157   -0.00845575189550147
-0.19742187462215186   -0.005517226484316157   -0.00845575189550147
-0.19742187462215186   -0.005517226484316157   -0.00845575189550147
-0.19742187462215186   -0.005517226484316157   -0.00845575189550147
-0.0876395053851572   0.008311322276807791   0.005394659725833626
-0.0876395053851572   0.008311322276807791   0.005394659725833626
-0.0876395053851572   0.008311322276807791   0.005394659725833626
-0.0876395053851572   0.008311322276807791   0.005394659725833626
0.008129026451731247   -0.03351575704323718   -0.01039141436853817
0.008129026451731247   -0.03351575704323718   -0.01039141436853817
0.008129026451731247   -0.03351575704323718   -0.01039141436853817
0.008129026451731247   -0.03351575704323718   -0.01039141436853817
0.2360761718453433   0.01612905179807362   0.014433158346798387
0.2360761718453433   0.01612905179807362   0.014433158346798387
0.2360761718453433   0.01612905179807362   0.014433158346798387
0.2360761718453433   0.01612905179807362   0.014433158346798387
0.23602660644600507   0.021919711437036894   -0.002363687485815844
0.23602660644600507   0.021919711437036894   -0.002363687485815844
0.23602660644600507   0.021919711437036894   -0.002363687485815844
0.23602660644600507   0.021919711437036894   -0.002363687485815844
0.0126096929688162   -0.019952755980762044   0.0015988683391248244
0.0126096929688162   -0.019952755980762044   0.0015988683391248244
0.0126096929688162   -0.019952755980762044   0.0015988683391248244
0.0126096929688162   -0.019952755980762044   0.0015988683391248244
0.12167493403052321   -0.0029903521983074242   0.00016791667779292568
0.12167493403052321   -0.0029903521983074242   0.00016791667779292568
0.12167493403052321   -0.0029903521983074242   0.00016791667779292568
0.12167493403052321   -0.0029903521983074242   0.00016791667779292568
0.009831368107198637   -0.024413084269588495   -0.00783242768013638
0.009831368107198637   -0.024413084269588495   -0.00783242768013638
0.009831368107198637   -0.024413084269588495   -0.00783242768013638
0.009831368107198637   -0.024413084269588495   -0.00783242768013638
0.24018054999088653   0.02775565840912685   0.012570083266498989
0.24018054999088653   0.02775565840912685   0.012570083266498989
0.24018054999088653   0.02775565840912685   0.012570083266498989
0.24018054999088653   0.02775565840912685   0.012570083266498989
0.23823067329455186   0.032661338567573764   0.0022522081905712752
0.23823067329455186   0.032661338567573764   0.0022522081905712752
0.23823067329455186   0.032661338567573764   0.0022522081905712752
0.23823067329455186   0.032661338567573764   0.0022522081905712752
0.013393659484036032   -0.009302569337350762   -0.0005432843189369183
0.013393659484036032   -0.009302569337350762   -0.0005432843189369183
0.013393659484036032   -0.009302569337350762   -0.0005432843189369183
0.013393659484036032   -0.009302569337350762   -0.0005432843189369183
0.12362833987706244   0.007266119513581828   0.005086005819352721
0.12362833987706244   0.007266119513581828   0.005086005819352721
0.12362833987706244   0.007266119513581828   0.005086005819352721
0.12362833987706244   0.007266119513581828   0.005086005819352721
0.011339804325174107   -0.014325252295446162   -0.0057898771551510835
0.011339804325174107   -0.014325252295446162   -0.0057898771551510835
0.011339804325174107   -0.014325252295446162   -0.0057898771551510835
0.011339804325174107   -0.014325252295446162   -0.0057898771551510835
0.24128273121996097   0.03868222429221607   0.011491612092970373
0.24128273121996097   0.03868222429221607   0.011491612092970373
0.24128273121996097   0.03868222429221607   0.011491612092970373
0.24128273121996097   0.03868222429221607   0.011491612092970373
0.23467678621263902   0.045050454012077606   0.004874913493994983
0.23467678621263902   0.045050454012077606   0.004874913493994983
0.23467678621263902   0.045050454012077606   0.004874913493994983
0.23467678621263902   0.045050454012077606   0.004874913493994983
0.013545514500506348   0.0038341178741011766   -0.0023821561386598114
0.013545514500506348   0.0038341178741011766   -0.0023821561386598114
0.013545514500506348   0.0038341178741011766   -0.0023821561386598114
0.013545514500506348   0.0038341178741011766   -0.0023821561386598114
0.12577843437662933   0.018981259101190327   0.009655817616570852
0.12577843437662933   0.018981259101190327   0.009655817616570852
0.12577843437662933   0.018981259101190327   0.009655817616570852
0.12577843437662933   0.018981259101190327   0.009655817616570852
0.21715344996428598   -0.04460761515903963   -0.019443784101374918
0.21715344996428598   -0.04460761515903963   -0.019443784101374918
0.21715344996428598   -0.04460761515903963   -0.019443784101374918
0.21715344996428598   -0.04460761515903963   -0.019443784101374918
0.4485451161320452   0.029643855307153355   0.014334404457786148
0.4485451161320452   0.029643855307153355   0.014334404457786148
0.4485451161320452   0.029643855307153355   0.014334404457786148
0.4485451161320452   0.029643855307153355   0.014334404457786148
0.4539757943862022   0.013603591324311104   -0.029280725140165727
0.4539757943862022   0.013603591324311104   -0.029280725140165727
0.4539757943862022   0.013603591324311104   -0.029280725140165727
0.4539757943862022   0.013603591324311104   -0.029280725140165727
0.2321034738926177   -0.008727039343632316   0.008667400527912084
0.2321034738926177   -0.008727039343632316   0.008667400527912084
0.2321034738926177   -0.008727039343632316   0.008667400527912084
0.2321034738926177   -0.008727039343632316   0.008667400527912084
0.32108694414644245   -0.005916866282371175   -0.008263973948434394
0.32108694414644245   -0.005916866282371175   -0.008263973948434394
0.32108694414644245   -0.005916866282371175   -0.008263973948434394
0.32108694414644245   -0.005916866282371175   -0.008263973948434394
0.22366666386563738   -0.029209022951576874   -0.013034665999041701
0.22366666386563738   -0.029209022951576874   -0.013034665999041701
0.22366666386563738   -0.029209022951576874   -0.013034665999041701
0.22366666386563738   -0.029209022951576874   -0.013034665999041701
0.4665962301884908   0.038269200707564635   0.009155844488023705
0.4665962301884908   0.038269200707564635   0.009155844488023705
0.4665962301884908   0.038269200707564635   0.009155844488023705
0.4665962301884908   0.038269200707564635   0.009155844488023705
0.4594879567481896   0.025407325990155466   -0.006994268926224408
0.4594879567481896   0.025407325990155466   -0.006994268926224408
0.4594879567481896   0.025407325990155466   -0.006994268926224408
0.4594879567481896   0.025407325990155466   -0.006994268926224408
0.2314924826014466   -0.0033822873451425997   0.004604880637757018
0.2314924826014466   -0.0033822873451425997   0.004604880637757018
0.2314924826014466   -0.0033822873451425997   0.004604880637757018
0.2314924826014466   -0.0033822873451425997   0.004604880637757018
0.3384549019919932   0.00848457911895767   0.005620433096497655
0.3384549019919932   0.00848457911895767   0.005620433096497655
0.3384549019919932   0.00848457911895767   0.005620433096497655
0.3384549019919932   0.00848457911895767   0.005620433096497655
0.22467497490180768   -0.02227450469582634   -0.010590440509751976
0.22467497490180768   -0.02227450469582634   -0.010590440509751976
0.22467497490180768   -0.02227450469582634   -0.010590440509751976
0.22467497490180768   -0.02227450469582634   -0.010590440509751976
0.4657851863364724   0.04377926522948345   0.006119939775861434
0.4657851863364724   0.04377926522948345   0.006119939775861434
0.4657851863364724   0.04377926522948345   0.006119939775861434
0.4657851863364724   0.04377926522948345   0.006119939775861434
0.4592985564397657   0.03946401497887929   -0.010567846178682172
0.4592985564397657   0.03946401497887929   -0.010567846178682172
0.4592985564397657   0.03946401497887929   -0.010567846178682172
0.4592985564397657   0.03946401497887929   -0.010567846178682172
0.22698824474240809   0.008821991846581188   0.002660668308332821
0.22698824474240809   0.008821991846581188   0.002660668308332821
0.22698824474240809   0.008821991846581188   0.002660668308332821
0.22698824474240809   0.008821991846581188   0.002660668308332821
0.3302023183731469   0.015071704528944435   0.004350840854285363
0.3302023183731469   0.015071704528944435   0.004350840854285363
0.3302023183731469   0.015071704528944435   0.004350840854285363
0.3302023183731469   0.015071704528944435   0.004350840854285363
-0.4920738557318545   -0.022128111840969786   0.02600313087079201
-0.4920738557318545   -0.022128111840969786   0.02600313087079201
-0.4920738557318545   -0.022128111840969786   0.02600313087079201
-0.4920738557318545   -0.022128111840969786   0.02600313087079201
-0.3278341716497205   -0.012888967104032714   -0.006765744959534328
-0.3278341716497205   -0.012888967104032714   -0.006765744959534328
-0.3278341716497205   -0.012888967104032714   -0.006765744959534328
-0.3278341716497205   -0.012888967104032714   -0.006765744959534328
-0.3156406125427281   0.02676092539949848   0.021744817516853587
-0.3156406125427281   0.02676092539949848   0.021744817516853587
-0.3156406125427281   0.02676092539949848   0.021744817516853587
-0.3156406125427281   0.02676092539949848   0.021744817516853587
-0.4942074876070852   -0.035436601419683106   -0.010559904176599307
-0.4942074876070852   -0.035436601419683106   -0.010559904176599307
-0.4942074876070852   -0.035436601419683106   -0.010559904176599307
-0.4942074876070852   -0.035436601419683106   -0.010559904176599307
-0.3909650430785612   -0.006036243103527197   -0.0010235465964871203
-0.3909650430785612   -0.006036243103527197   -0.0010235465964871203
-0.3909650430785612   -0.006036243103527197   -0.0010235465964871203
-0.3909650430785612   -0.006036243103527197   -0.0010235465964871203
-0.48013987657127455   -0.00468298416085608   0.02902453374362715
-0.48013987657127455   -0.00468298416085608   0.02902453374362715
-0.48013987657127455   -0.00468298416085608   0.02902453374362715
-0.48013987657127455   -0.00468298416085608   0.02902453374362715
-0.32749928720236443   -0.0017837554831541397   -0.009003874898675303
-0.32749928720236443   -0.0017837554831541397   -0.009003874898675303
-0.32749928720236443   -0.0017837554831541397   -0.009003874898675303
-0.32749928720236443   -0.0017837554831541397   -0.009003874898675303
-0.31420610264916216   0.03325123483547243   0.020101619425928544
-0.31420610264916216   0.03325123483547243   0.020101619425928544
-0.31420610264916216   0.03325123483547243   0.020101619425928544
-0.31420610264916216   0.03325123483547243   0.020101619425928544
-0.4862265877987634   -0.029537108942753784   -0.014410333274028526
-0.4862265877987634   -0.029537108942753784   -0.014410333274028526
-0.4862265877987634   -0.029537108942753784   -0.014410333274028526
-0.4862265877987634   -0.029537108942753784   -0.014410333274028526
-0.3915269696497874   0.001585014388930911   0.004364405064872994
-0.3915269696497874   0.001585014388930911   0.004364405064872994
-0.3915269696497874   0.001585014388930911   0.004364405064872994
-0.3915269696497874   0.001585014388930911   0.004364405064872994
-0.4731454814546313   0.0014455442416403674   0.02001254526223739
-0.4731454814546313   0.0014455442416403674   0.02001254526223739
-0.4731454814546313   0.0014455442416403674   0.02001254526223739
-0.4731454814546313   0.0014455442416403674   0.02001254526223739
-0.32656106859172124   0.0029947220526524015   -0.01141669750404355
-0.32656106859172124   0.0029947220526524015   -0.01141669750404355
-0.32656106859172124   0.0029947220526524015   -0.01141669750404355
-0.32656106859172124   0.0029947220526524015   -0.01141669750404355
-0.31437707033912604   0.03769996632770893   0.015953613367844736
-0.31437707033912604   0.03769996632770893   0.015953613367844736
-0.31437707033912604   0.03769996632770893   0.015953613367844736
-0.31437707033912604   0.03769996632770893   0.015953613367844736
-0.47595575708238064   -0.023185205092699515   -0.01833407178864455
-0.47595575708238064   -0.023185205092699515   -0.01833407178864455
-0.47595575708238064   -0.023185205092699515   -0.01833407178864455
-0.47595575708238064   -0.023185205092699515   -0.01833407178864455
-0.3800455016611129   0.00844963414343082   0.009340675336340039
-0.3800455016611129   0.00844963414343082   0.009340675336340039
-0.3800455016611129   0.00844963414343082   0.009340675336340039
-0.3800455016611129   0.00844963414343082   0.009340675336340039
-0.3286130902408462   -0.03112286826377126   0.007573563244576023
-0.3286130902408462   -0.03112286826377126   0.007573563244576023
-0.3286130902408462   -0.03112286826377126   0.007573563244576023
-0.3286130902408462   -0.03112286826377126   0.007573563244576023
-0.16692142592484585   -0.006280051361190805   0.00027307784189367895
-0.16692142592484585   -0.006280051361190805   0.00027307784189367895
-0.16692142592484585   -0.006280051361190805   0.00027307784189367895
-0.16692142592484585   -0.006280051361190805   0.00027307784189367895
-0.16200353191550998   0.016329314240327575   0.011793680487664625
-0.16200353191550998   0.016329314240327575   0.011793680487664625
-0.16200353191550998   0.016329314240327575   0.011793680487664625
-0.16200353191550998   0.016329314240327575   0.011793680487664625
-0.33378312788583847   -0.030690909177709065   -0.011515924621493182
-0.33378312788583847   -0.030690909177709065   -0.011515924621493182
-0.33378312788583847   -0.030690909177709065   -0.011515924621493182
-0.33378312788583847   -0.030690909177709065   -0.011515924621493182
-0.2469842800662888   -0.012123710898522808   -0.005148743175608601
-0.2469842800662888   -0.012123710898522808   -0.005148743175608601
-0.2469842800662888   -0.012123710898522808   -0.005148743175608601
-0.2469842800662888   -0.012123710898522808   -0.005148743175608601
-0.32741754638595266   -0.01765667500937365   0.007277748709601219
-0.32741754638595266   -0.01765667500937365   0.007277748709601219
-0.32741754638595266   -0.01765667500937365   0.007277748709601219
-0.32741754638595266   -0.01765667500937365   0.007277748709601219
-0.16709051393131522   0.004573679556073705   -0.0018855949071063909
-0.16709051393131522   0.004573679556073705   -0.0018855949071063909
-0.16709051393131522   0.004573679556073705   -0.0018855949071063909
-0.16709051393131522   0.004573679556073705   -0.0018855949071063909
-0.1613616929849831   0.027159184137041242   0.010179296426993154
-0.1613616929849831   0.027159184137041242   0.010179296426993154
-0.1613616929849831   0.027159184137041242   0.010179296426993154
-0.1613616929849831   0.027159184137041242   0.010179296426993154
-0.3317207245931632   -0.020607370148666572   -0.013612885309937544
-0.3317207245931632   -0.020607370148666572   -0.013612885309937544
-0.3317207245931632   -0.020607370148666572   -0.013612885309937544
-0.3317207245931632   -0.020607370148666572   -0.013612885309937544
-0.2441472485593243   -0.0012105537085887602   -9.722636488354933e-05
-0.2441472485593243   -0.0012105537085887602   -9.722636488354933e-05
-0.2441472485593243   -0.0012105537085887602   -9.722636488354933e-05
-0.2441472485593243   -0.0012105537085887602   -9.722636488354933e-05
-0.3252283323297227   -0.006668051537987718   0.004909757396586077
-0.3252283323297227   -0.006668051537987718   0.004909757396586077
-0.3252283323297227   -0.006668051537987718   0.004909757396586077
-0.3252283323297227   -0.006668051537987718   0.004909757396586077
-0.16681386540636425   0.014260085368422527   -0.004182466911290985
-0.16681386540636425   0.014260085368422527   -0.004182466911290985
-0.16681386540636425   0.014260085368422527   -0.004182466911290985
-0.16681386540636425   0.014260085368422527   -0.004182466911290985
-0.16118842491956795   0.038563925014002506   0.007607168344679227
-0.16118842491956795   0.038563925014002506   0.007607168344679227
-0.16118842491956795   0.038563925014002506   0.007607168344679227
-0.16118842491956795   0.038563925014002506   0.007607168344679227
-0.3299736936956834   -0.009692808459890692   -0.014636728627344598
-0.3299736936956834   -0.009692808459890692   -0.014636728627344598
-0.3299736936956834   -0.009692808459890692   -0.014636728627344598
-0.3299736936956834   -0.009692808459890692   -0.014636728627344598
-0.24415193860070838   0.008842170140509288   0.0037847761123669874
-0.24415193860070838   0.008842170140509288   0.0037847761123669874
-0.24415193860070838   0.008842170140509288   0.0037847761123669874
-0.24415193860070838   0.008842170140509288   0.0037847761123669874
-0.1730558509390294   -0.03583037702092621   -0.0008487215692901157
-0.1730558509390294   -0.03583037702092621   -0.0008487215692901157
-0.1730558509390294   -0.03583037702092621   -0.0008487215692901157
-0.1730558509390294   -0.03583037702092621   -0.0008487215692901157
-0.007427938128474845   0.0014516527994942983   0.007379572173135798
-0.007427938128474845   0.0014516527994942983   0.007379572173135798
-0.007427938128474845   0.0014516527994942983   0.007379572173135798
-0.007427938128474845   0.0014516527994942983   0.007379572173135798
-0.007937800888214332   0.010325680299383248   0.003545056823747777
-0.007937800888214332   0.010325680299383248   0.003545056823747777
-0.007937800888214332   0.010325680299383248   0.003545056823747777
-0.007937800888214332   0.010325680299383248   0.003545056823747777
-0.17304563142068796   -0.022826458177384316   -0.0042610446205134465
-0.17304563142068796   -0.022826458177384316   -0.0042610446205134465
-0.17304563142068796   -0.022826458177384316   -0.0042610446205134465
-0.17304563142068796   -0.022826458177384316   -0.0042610446205134465
-0.09065144962527213   -0.011327655306550584   -0.002912574982508545
-0.09065144962527213   -0.011327655306550584   -0.002912574982508545
-0.09065144962527213   -0.011327655306550584   -0.002912574982508545
-0.09065144962527213   -0.011327655306550584   -0.002912574982508545
-0.17285791559321553   -0.023830948948728385   -0.0023179747118072616
-0.17285791559321553   -0.023830948948728385   -0.0023179747118072616
-0.17285791559321553   -0.023830948948728385   -0.0023179747118072616
-0.17285791559321553   -0.023830948948728385   -0.0023179747118072616
-0.007174803525197268   0.012280884261217144   0.005404839676999311
-0.007174803525197268   0.012280884261217144   0.005404839676999311
-0.007174803525197268   0.012280884261217144   0.005404839676999311
-0.007174803525197268   0.012280884261217144   0.005404839676999311
-0.0070181866699998065   0.022112809247917132   0.0016574221673094913
-0.0070181866699998065   0.022112809247917132   0.0016574221673094913
-0.0070181866699998065   0.022112809247917132   0.0016574221673094913
-0.0070181866699998065   0.022112809247917132   0.0016574221673094913
-0.17247817795025294   -0.01197173386683728   -0.006272210395476135
-0.17247817795025294   -0.01197173386683728   -0.006272210395476135
-0.17247817795025294   -0.01197173386683728   -0.006272210395476135
-0.17247817795025294   -0.01197173386683728   -0.006272210395476135
-0.08964704497205726   -0.0004469161422907056   0.0011757375238672409
-0.08964704497205726   -0.0004469161422907056   0.0011757375238672409
-0.08964704497205726   -0.0004469161422907056   0.0011757375238672409
-0.08964704497205726   -0.0004469161422907056   0.0011757375238672409
-0.1722223683102539   -0.012210408938382999   -0.004754487123935156
-0.1722223683102539   -0.012210408938382999   -0.004754487123935156
-0.1722223683102539   -0.012210408938382999   -0.004754487123935156
-0.1722223683102539   -0.012210408938382999   -0.004754487123935156
-0.00649003458659477   0.023135446042866634   0.003275545789385273
-0.00649003458659477   0.023135446042866634   0.003275545789385273
-0.00649003458659477   0.023135446042866634   0.003275545789385273
-0.00649003458659477   0.023135446042866634   0.003275545789385273
-0.006719740625058262   0.0342436922359211   -0.00035329229140874767
-0.006719740625058262   0.0342436922359211   -0.00035329229140874767
-0.006719740625058262   0.0342436922359211   -0.00035329229140874767
-0.006719740625058262   0.0342436922359211   -0.00035329229140874767
-0.17227358278897945   -0.0009402237723981632   -0.008314472215978159
-0.17227358278897945   -0.0009402237723981632   -0.008314472215978159
-0.17227358278897945   -0.0009402237723981632   -0.008314472215978159
-0.17227358278897945   -0.0009402237723981632   -0.008314472215978159
-0.08883768194704303   0.010444897654914267   0.004927103990438721
-0.08883768194704303   0.010444897654914267   0.004927103990438721
-0.08883768194704303   0.010444897654914267   0.004927103990438721
-0.08883768194704303   0.010444897654914267   0.004927103990438721
-0.0188005738307902   -0.039449433095252055   -0.008582520443694553
-0.0188005738307902   -0.039449433095252055   -0.008582520443694553
-0.0188005738307902   -0.039449433095252055   -0.008582520443694553
-0.0188005738307902   -0.039449433095252055   -0.008582520443694553
0.15123806617747654   0.010462797367057502   0.014048135200969536
0.15123806617747654   0.010462797367057502   0.014048135200969536
0.15123806617747654   0.010462797367057502   0.014048135200969536
0.15123806617747654   0.010462797367057502   0.014048135200969536
0.1462523603601067   0.005317209341352453   -0.005693972441593166
0.1462523603601067   0.005317209341352453   -0.005693972441593166
0.1462523603601067   0.005317209341352453   -0.005693972441593166
0.1462523603601067   0.005317209341352453   -0.005693972441593166
-0.0129391272804191   -0.014269082183950652   0.003133187346057957
-0.0129391272804191   -0.014269082183950652   0.003133187346057957
-0.0129391272804191   -0.014269082183950652   0.003133187346057957
-0.0129391272804191   -0.014269082183950652   0.003133187346057957
0.06548354836937036   -0.00932650834861066   -0.0016761793367709374
0.06548354836937036   -0.00932650834861066   -0.0016761793367709374
0.06548354836937036   -0.00932650834861066   -0.0016761793367709374
0.06548354836937036   -0.00932650834861066   -0.0016761793367709374
-0.018612156622774018   -0.02868092323069876   -0.010820118318968529
-0.018612156622774018   -0.02868092323069876   -0.010820118318968529
-0.018612156622774018   -0.02868092323069876   -0.010820118318968529
-0.018612156622774018   -0.02868092323069876   -0.010820118318968529
0.15300768010568722   0.020811340791326183   0.012588494836335812
0.15300768010568722   0.020811340791326183   0.012588494836335812
0.15300768010568722   0.020811340791326183   0.012588494836335812
0.15300768010568722   0.020811340791326183   0.012588494836335812
0.14883634863055772   0.016296507935690117   -0.007990587100254212
0.14883634863055772   0.016296507935690117   -0.007990587100254212
0.14883634863055772   0.016296507935690117   -0.007990587100254212
0.14883634863055772   0.016296507935690117   -0.007990587100254212
-0.012484293419896653   -0.004539222650061162   0.0009789203158037732
-0.012484293419896653   -0.004539222650061162   0.0009789203158037732
-0.012484293419896653   -0.004539222650061162   0.0009789203158037732
-0.012484293419896653   -0.004539222650061162   0.0009789203158037732
0.06623980022439702   0.0005487257840898676   0.0023982405865806233
0.06623980022439702   0.0005487257840898676   0.0023982405865806233
0.06623980022439702   0.0005487257840898676   0.0023982405865806233
0.06623980022439702   0.0005487257840898676   0.0023982405865806233
-0.018005460776703335   -0.018089136957807547   -0.013077002160483396
-0.018005460776703335   -0.018089136957807547   -0.013077002160483396
-0.018005460776703335   -0.018089136957807547   -0.013077002160483396
-0.018005460776703335   -0.018089136957807547   -0.013077002160483396
0.15553800390762332   0.031026910163695694   0.01078728705706811
0.15553800390762332   0.031026910163695694   0.01078728705706811
0.15553800390762332   0.031026910163695694   0.01078728705706811
0.15553800390762332   0.031026910163695694   0.01078728705706811
0.15048821123107994   0.030019105307602538   -0.008399915701728539
0.15048821123107994   0.030019105307602538   -0.008399915701728539
0.15048821123107994   0.030019105307602538   -0.008399915701728539
0.15048821123107994   0.030019105307602538   -0.008399915701728539
-0.012374744378557458   0.006786555462164157   -0.0011711742851476651
-0.012374744378557458   0.006786555462164157   -0.0011711742851476651
-0.012374744378557458   0.006786555462164157   -0.0011711742851476651
-0.012374744378557458   0.006786555462164157   -0.0011711742851476651
0.06874106601178721   0.011511643665457543   0.007215955576797873
0.06874106601178721   0.011511643665457543   0.007215955576797873
0.06874106601178721   0.011511643665457543   0.007215955576797873
0.06874106601178721   0.011511643665457543   0.007215955576797873
0.13511210651744046   -0.03927783387812936   -0.016841031854022682
0.13511210651744046   -0.03927783387812936   -0.016841031854022682
0.13511210651744046   -0.03927783387812936   -0.016841031854022682
0.13511210651744046   -0.03927783387812936   -0.016841031854022682
0.2987483578605439   0.02222118827863529   0.015829908028384437
0.2987483578605439   0.02222118827863529   0.015829908028384437
0.2987483578605439   0.02222118827863529   0.015829908028384437
0.2987483578605439   0.02222118827863529   0.015829908028384437
0.29646610148567615   -0.002072945663735691   -0.02242475866566518
0.29646610148567615   -0.002072945663735691   -0.02242475866566518
0.29646610148567615   -0.002072945663735691   -0.02242475866566518
0.29646610148567615   -0.002072945663735691   -0.02242475866566518
0.14786730711902216   -0.0029862110179408458   0.01068418171227899
0.14786730711902216   -0.0029862110179408458   0.01068418171227899
0.14786730711902216   -0.0029862110179408458   0.01068418171227899
0.14786730711902216   -0.0029862110179408458   0.01068418171227899
0.20888037426271833   -0.007827330453993447   -0.006977999646952771
0.20888037426271833   -0.007827330453993447   -0.006977999646952771
0.20888037426271833   -0.007827330453993447   -0.006977999646952771
0.20888037426271833   -0.007827330453993447   -0.006977999646952771
0.13539235535538227   -0.033948417317861336   -0.0207283708059995
0.13539235535538227   -0.033948417317861336   -0.0207283708059995
0.13539235535538227   -0.033948417317861336   -0.0207283708059995
0.13539235535538227   -0.033948417317861336   -0.0207283708059995
0.30983265160608814   0.029780858992956974   0.012554187279702117
0.30983265160608814   0.029780858992956974   0.012554187279702117
0.30983265160608814   0.029780858992956974   0.012554187279702117
0.30983265160608814   0.029780858992956974   0.012554187279702117
0.30411264468640914   0.004189402493247313   -0.03015683225525599
0.30411264468640914   0.004189402493247313   -0.03015683225525599
0.30411264468640914   0.004189402493247313   -0.03015683225525599
0.30411264468640914   0.004189402493247313   -0.03015683225525599
0.14913672369316583   0.0017964672940940507   0.0080113288543852
0.14913672369316583   0.0017964672940940507   0.0080113288543852
0.14913672369316583   0.0017964672940940507   0.0080113288543852
0.14913672369316583   0.0017964672940940507   0.0080113288543852
0.21865427557402192   -0.001026574949473176   -0.002058191241597925
0.21865427557402192   -0.001026574949473176   -0.002058191241597925
0.21865427557402192   -0.001026574949473176   -0.002058191241597925
0.21865427557402192   -0.001026574949473176   -0.002058191241597925
0.13711042190317574   -0.027703681810535563   -0.022620030990937
0.13711042190317574   -0.027703681810535563   -0.022620030990937
0.13711042190317574   -0.027703681810535563   -0.022620030990937
0.13711042190317574   -0.027703681810535563   -0.022620030990937
0.3181138816755659   0.035664486797044065   0.008374268386735138
0.3181138816755659   0.035664486797044065   0.008374268386735138
0.3181138816755659   0.035664486797044065   0.008374268386735138
0.3181138816755659   0.035664486797044065   0.008374268386735138
0.31623370899324255   0.02044761384098468   -0.028456685970484112
0.31623370899324255   0.02044761384098468   -0.028456685970484112
0.31623370899324255   0.02044761384098468   -0.028456685970484112
0.31623370899324255   0.02044761384098468   -0.028456685970484112
0.14979154681875886   0.01225271161476263   0.005883155929508704
0.14979154681875886   0.01225271161476263   0.005883155929508704
0.14979154681875886   0.01225271161476263   0.005883155929508704
0.14979154681875886   0.01225271161476263   0.005883155929508704
0.22060173462420113   0.006703377610172832   0.00343217443886815
0.22060173462420113   0.006703377610172832   0.00343217443886815
0.22060173462420113   0.006703377610172832   0.00343217443886815
0.22060173462420113   0.006703377610172832   0.00343217443886815
-0.348892403734094   -0.011072268700639001   0.02337597914180774
-0.348892403734094   -0.011072268700639001   0.02337597914180774
-0.348892403734094   -0.011072268700639001   0.02337597914180774
-0.348892403734094   -0.011072268700639001   0.02337597914180774
-0.24542831506655585   -0.01673343711642509   -0.008748327908114148
-0.24542831506655585   -0.01673343711642509   -0.008748327908114148
-0.24542831506655585   -0.01673343711642509   -0.008748327908114148
-0.24542831506655585   -0.01673343711642509   -0.008748327908114148
-0.2307906789603709   0.023336344317508383   0.01988801586264382
-0.2307906789603709   0.023336344317508383   0.01988801586264382
-0.2307906789603709   0.023336344317508383   0.01988801586264382
-0.2307906789603709   0.023336344317508383   0.01988801586264382
-0.3489043314716212   -0.02879554878918509   -0.012813808893187258
-0.3489043314716212   -0.02879554878918509   -0.012813808893187258
-0.3489043314716212   -0.02879554878918509   -0.012813808893187258
-0.3489043314716212   -0.02879554878918509   -0.012813808893187258
-0.28155236756146035   -0.004410474685376663   -0.0008927346944032095
-0.28155236756146035   -0.004410474685376663   -0.0008927346944032095
-0.28155236756146035   -0.004410474685376663   -0.0008927346944032095
-0.28155236756146035   -0.004410474685376663   -0.0008927346944032095
-0.3355751546470162   0.002840959413150934   0.022195567027501854
-0.3355751546470162   0.002840959413150934   0.022195567027501854
-0.3355751546470162   0.002840959413150934   0.022195567027501854
-0.3355751546470162   0.002840959413150934   0.022195567027501854
-0.24302908868073778   -0.007209396780589121   -0.0107582916410909
-0.24302908868073778   -0.007209396780589121   -0.0107582916410909
-0.24302908868073778   -0.007209396780589121   -0.0107582916410909
-0.24302908868073778   -0.007209396780589121   -0.0107582916410909
-0.22860487961186599   0.028224636346502546   0.01677668498535572
-0.22860487961186599   0.028224636346502546   0.01677668498535572
-0.22860487961186599   0.028224636346502546   0.01677668498535572
-0.22860487961186599   0.028224636346502546   0.01677668498535572
-0.3404765264913181   -0.023339490203463008   -0.016156917215553825
-0.3404765264913181   -0.023339490203463008   -0.016156917215553825
-0.3404765264913181   -0.023339490203463008   -0.016156917215553825
-0.3404765264913181   -0.023339490203463008   -0.016156917215553825
-0.27946233687141453   0.0020197454227559516   0.0027746962528619953
-0.27946233687141453   0.0020197454227559516   0.0027746962528619953
-0.27946233687141453   0.0020197454227559516   0.0027746962528619953
-0.27946233687141453   0.0020197454227559516   0.0027746962528619953
-0.32728460669774523   0.00868832686835419   0.01777486468049317
-0.32728460669774523   0.00868832686835419   0.01777486468049317
-0.32728460669774523   0.00868832686835419   0.01777486468049317
-0.32728460669774523   0.00868832686835419   0.01777486468049317
-0.240816528616428   -0.002822909936303658   -0.013234013754647151
-0.240816528616428   -0.002822909936303658   -0.013234013754647151
-0.240816528616428   -0.002822909936303658   -0.013234013754647151
-0.240816528616428   -0.002822909936303658   -0.013234013754647151
-0.22740026511524714   0.03307917855687523   0.014432354492095737
-0.22740026511524714   0.03307917855687523   0.014432354492095737
-0.22740026511524714   0.03307917855687523   0.014432354492095737
-0.22740026511524714   0.03307917855687523   0.014432354492095737
-0.3292372663984861   -0.01608368579897855   -0.0193189277787402
-0.3292372663984861   -0.01608368579897855   -0.0193189277787402
-0.3292372663984861   -0.01608368579897855   -0.0193189277787402
-0.3292372663984861   -0.01608368579897855   -0.0193189277787402
-0.2688886815331837   0.008085456896456233   0.007867057035468014
-0.2688886815331837   0.008085456896456233   0.007867057035468014
-0.2688886815331837   0.008085456896456233   0.007867057035468014
-0.2688886815331837   0.008085456896456233   0.007867057035468014
-0.2424720408888818   -0.019654057291342435   0.008953663155171477
-0.2424720408888818   -0.019654057291342435   0.008953663155171477
-0.2424720408888818   -0.019654057291342435   0.008953663155171477
-0.2424720408888818   -0.019654057291342435   0.008953663155171477
-0.1418107036231338   -0.0108346841437676   -0.0014170340116644812
-0.1418107036231338   -0.0108346841437676   -0.0014170340116644812
-0.1418107036231338   -0.0108346841437676   -0.0014170340116644812
-0.1418107036231338   -0.0108346841437676   -0.0014170340116644812
-0.134575636636748   0.013597315823706227   0.010717709136492849
-0.134575636636748   0.013597315823706227   0.010717709136492849
-0.134575636636748   0.013597315823706227   0.010717709136492849
-0.134575636636748   0.013597315823706227   0.010717709136492849
-0.24618019005293373   -0.023475983167130888   -0.01024721211553107
-0.24618019005293373   -0.023475983167130888   -0.01024721211553107
-0.24618019005293373   -0.023475983167130888   -0.01024721211553107
-0.24618019005293373   -0.023475983167130888   -0.01024721211553107
-0.19052712031032287   -0.009208025108503187   -0.004006601827170778
-0.19052712031032287   -0.009208025108503187   -0.004006601827170778
-0.19052712031032287   -0.009208025108503187   -0.004006601827170778
-0.19052712031032287   -0.009208025108503187   -0.004006601827170778
-0.23958904695094976   -0.008085336684151047   0.007317856911408243
-0.23958904695094976   -0.008085336684151047   0.007317856911408243
-0.23958904695094976   -0.008085336684151047   0.007317856911408243
-0.23958904695094976   -0.008085336684151047   0.007317856911408243
-0.14031935510415566   -0.0009459060246974245   -0.003457661352141831
-0.14031935510415566   -0.0009459060246974245   -0.003457661352141831
-0.14031935510415566   -0.0009459060246974245   -0.003457661352141831
-0.14031935510415566   -0.0009459060246974245   -0.003457661352141831
-0.13286870470676404   0.023640017808249328   0.00877203458823897
-0.13286870470676404   0.023640017808249328   0.00877203458823897
-0.13286870470676404   0.023640017808249328   0.00877203458823897
-0.13286870470676404   0.023640017808249328   0.00877203458823897
-0.24282936549220185   -0.014037200352129388   -0.012083907717691774
-0.24282936549220185   -0.014037200352129388   -0.012083907717691774
-0.24282936549220185   -0.014037200352129388   -0.012083907717691774
-0.24282936549220185   -0.014037200352129388   -0.012083907717691774
-0.18685984115112064   0.0006167401239326187   0.00021717139339370514
-0.18685984115112064   0.0006167401239326187   0.00021717139339370514
-0.18685984115112064   0.0006167401239326187   0.00021717139339370514
-0.18685984115112064   0.0006167401239326187   0.00021717139339370514
-0.23574018107700723   0.0026468986814860707   0.006677915324665891
-0.23574018107700723   0.0026468986814860707   0.006677915324665891
-0.23574018107700723   0.0026468986814860707   0.006677915324665891
-0.23574018107700723   0.0026468986814860707   0.006677915324665891
-0.1389056775953212   0.008008130301271572   -0.005780942347567623
-0.1389056775953212   0.008008130301271572   -0.005780942347567623
-0.1389056775953212   0.008008130301271572   -0.005780942347567623
-0.1389056775953212   0.008008130301271572   -0.005780942347567623
-0.13121806952073836   0.03437770535312203   0.006960216262774002
-0.13121806952073836   0.03437770535312203   0.006960216262774002
-0.13121806952073836   0.03437770535312203   0.006960216262774002
-0.13121806952073836   0.03437770535312203   0.006960216262774002
-0.24033574626474413   -0.0038271645012193448   -0.013338708197293516
-0.24033574626474413   -0.0038271645012193448   -0.013338708197293516
-0.24033574626474413   -0.0038271645012193448   -0.013338708197293516
-0.24033574626474413   -0.0038271645012193448   -0.013338708197293516
-0.18542040068131918   0.009910832920521952   0.004257858794619887
-0.18542040068131918   0.009910832920521952   0.004257858794619887
-0.18542040068131918   0.009910832920521952   0.004257858794619887
-0.18542040068131918   0.009910832920521952   0.004257858794619887
-0.14474076129959032   -0.027389356314082677   0.0004873497763664093
-0.14474076129959032   -0.027389356314082677   0.0004873497763664093
-0.14474076129959032   -0.027389356314082677   0.0004873497763664093
-0.14474076129959032   -0.027389356314082677   0.0004873497763664093
-0.03914646368798891   -0.003475830785998295   0.0058741647524969
-0.03914646368798891   -0.003475830785998295   0.0058741647524969
-0.03914646368798891   -0.003475830785998295   0.0058741647524969
-0.03914646368798891   -0.003475830785998295   0.0058741647524969
-0.03824089418491153   0.005387529452357917   0.00200415629242128
-0.03824089418491153   0.005387529452357917   0.00200415629242128
-0.03824089418491153   0.005387529452357917   0.00200415629242128
-0.03824089418491153   0.005387529452357917   0.00200415629242128
-0.14315872525645984   -0.015900597190654103   -0.0026998209477069905
-0.14315872525645984   -0.015900597190654103   -0.0026998209477069905
-0.14315872525645984   -0.015900597190654103   -0.0026998209477069905
-0.14315872525645984   -0.015900597190654103   -0.0026998209477069905
-0.09148334150318659   -0.009894092982973899   -0.0028624033411446185
-0.09148334150318659   -0.009894092982973899   -0.0028624033411446185
-0.09148334150318659   -0.009894092982973899   -0.0028624033411446185
-0.09148334150318659   -0.009894092982973899   -0.0028624033411446185
-0.14291719931009794   -0.01618926709372829   -0.0012035213128233375
-0.14291719931009794   -0.01618926709372829   -0.0012035213128233375
-0.14291719931009794   -0.01618926709372829   -0.0012035213128233375
-0.14291719931009794   -0.01618926709372829   -0.0012035213128233375
-0.03763261745534923   0.0065260020313562955   0.0039070673612344045
-0.03763261745534923   0.0065260020313562955   0.0039070673612344045
-0.03763261745534923   0.0065260020313562955   0.0039070673612344045
-0.03763261745534923   0.0065260020313562955   0.0039070673612344045
-0.03617646610526168   0.01663824650313   0.0004759796093690011
-0.03617646610526168   0.01663824650313   0.0004759796093690011
-0.03617646610526168   0.01663824650313   0.0004759796093690011
-0.03617646610526168   0.01663824650313   0.0004759796093690011
-0.1414479408573039   -0.00582494254864923   -0.004659185807561838
-0.1414479408573039   -0.00582494254864923   -0.004659185807561838
-0.1414479408573039   -0.00582494254864923   -0.004659185807561838
-0.1414479408573039   -0.00582494254864923   -0.004659185807561838
-0.08927644729965693   0.00019659141296191063   0.0011267571954120233
-0.08927644729965693   0.00019659141296191063   0.0011267571954120233
-0.08927644729965693   0.00019659141296191063   0.0011267571954120233
-0.08927644729965693   0.00019659141296191063   0.0011267571954120233
-0.14091606329045583   -0.004974847466813967   -0.002849893055156691
-0.14091606329045583   -0.004974847466813967   -0.002849893055156691
-0.14091606329045583   -0.004974847466813967   -0.002849893055156691
-0.14091606329045583   -0.004974847466813967   -0.002849893055156691
-0.03592349168040963   0.016573003412994922   0.001806094823764647
-0.03592349168040963   0.016573003412994922   0.001806094823764647
-0.03592349168040963   0.016573003412994922   0.001806094823764647
-0.03592349168040963   0.016573003412994922   0.001806094823764647
-0.0343184937865048   0.028052334811936634   -0.0013067682967826382
-0.0343184937865048   0.028052334811936634   -0.0013067682967826382
-0.0343184937865048   0.028052334811936634   -0.0013067682967826382
-0.0343184937865048   0.028052334811936634   -0.0013067682967826382
-0.13995699589701407   0.004363434835564402   -0.00672014510104744
-0.13995699589701407   0.004363434835564402   -0.00672014510104744
-0.13995699589701407   0.004363434835564402   -0.00672014510104744
-0.13995699589701407   0.004363434835564402   -0.00672014510104744
-0.0872627719555048   0.01033604863704446   0.004970117294119374
-0.0872627719555048   0.01033604863704446   0.004970117294119374
-0.0872627719555048   0.01033604863704446   0.004970117294119374
-0.0872627719555048   0.01033604863704446   0.004970117294119374
-0.04792337099857036   -0.03373029802135568   -0.007755904565053299
-0.04792337099857036   -0.03373029802135568   -0.007755904565053299
-0.04792337099857036   -0.03373029802135568   -0.007755904565053299
-0.04792337099857036   -0.03373029802135568   -0.007755904565053299
0.06189524598699843   0.0047519013447598745   0.012722868244770218
0.06189524598699843   0.0047519013447598745   0.012722868244770218
0.06189524598699843   0.0047519013447598745   0.012722868244770218
0.06189524598699843   0.0047519013447598745   0.012722868244770218
0.05726831740921142   -0.00231448491714077   -0.007301271009523141
0.05726831740921142   -0.00231448491714077   -0.007301271009523141
0.05726831740921142   -0.00231448491714077   -0.007301271009523141
0.05726831740921142   -0.00231448491714077   -0.007301271009523141
-0.040306639425856224   -0.00772861351838932   0.004791573058445037
-0.040306639425856224   -0.00772861351838932   0.004791573058445037
-0.040306639425856224   -0.00772861351838932   0.004791573058445037
-0.040306639425856224   -0.00772861351838932   0.004791573058445037
0.007348810426740825   -0.00948161281860522   -0.002048281485487624
0.007348810426740825   -0.00948161281860522   -0.002048281485487624
0.007348810426740825   -0.00948161281860522   -0.002048281485487624
0.007348810426740825   -0.00948161281860522   -0.002048281485487624
-0.04633366555632016   -0.023490884608996038   -0.009581286503267903
-0.04633366555632016   -0.023490884608996038   -0.009581286503267903
-0.04633366555632016   -0.023490884608996038   -0.009581286503267903
-0.04633366555632016   -0.023490884608996038   -0.009581286503267903
0.06430543095414977   0.014457873587940212   0.011111938210086695
0.06430543095414977   0.014457873587940212   0.011111938210086695
0.06430543095414977   0.014457873587940212   0.011111938210086695
0.06430543095414977   0.014457873587940212   0.011111938210086695
0.061130314415705156   0.008331318293658884   -0.008282982801193965
0.061130314415705156   0.008331318293658884   -0.008282982801193965
0.061130314415705156   0.008331318293658884   -0.008282982801193965
0.061130314415705156   0.008331318293658884   -0.008282982801193965
-0.038818826964632853   0.0012814973021142081   0.0026209245135292636
-0.038818826964632853   0.0012814973021142081   0.0026209245135292636
-0.038818826964632853   0.0012814973021142081   0.0026209245135292636
-0.038818826964632853   0.0012814973021142081   0.0026209245135292636
0.009416202599348758   -0.00030461541997338967   0.002018753774813812
0.009416202599348758   -0.00030461541997338967   0.002018753774813812
0.009416202599348758   -0.00030461541997338967   0.002018753774813812
0.009416202599348758   -0.00030461541997338967   0.002018753774813812
-0.044635813845044   -0.01350151109627887   -0.01168100149013358
-0.044635813845044   -0.01350151109627887   -0.01168100149013358
-0.044635813845044   -0.01350151109627887   -0.01168100149013358
-0.044635813845044   -0.01350151109627887   -0.01168100149013358
0.06782415493915388   0.02399118033508934   0.009526357774618195
0.06782415493915388   0.02399118033508934   0.009526357774618195
0.06782415493915388   0.02399118033508934   0.009526357774618195
0.06782415493915388   0.02399118033508934   0.009526357774618195
0.06424860377662506   0.020427359322765945   -0.00959050313731739
0.06424860377662506   0.020427359322765945   -0.00959050313731739
0.06424860377662506   0.020427359322765945   -0.00959050313731739
0.06424860377662506   0.020427359322765945   -0.00959050313731739
-0.037230892291396006   0.011627966643107708   0.0005556073475899296
-0.037230892291396006   0.011627966643107708   0.0005556073475899296
-0.037230892291396006   0.011627966643107708   0.0005556073475899296
-0.037230892291396006   0.011627966643107708   0.0005556073475899296
0.012565609621793134   0.009625815888216671   0.006213057998407912
0.012565609621793134   0.009625815888216671   0.006213057998407912
0.012565609621793134   0.009625815888216671   0.006213057998407912
0.012565609621793134   0.009625815888216671   0.006213057998407912
0.04850407385257823   -0.03407489028762402   -0.015406200794946428
0.04850407385257823   -0.03407489028762402   -0.015406200794946428
0.04850407385257823   -0.03407489028762402   -0.015406200794946428
0.04850407385257823   -0.03407489028762402   -0.015406200794946428
0.1508366486685664   0.015034609065140925   0.01664793668435658
0.1508366486685664   0.015034609065140925   0.01664793668435658
0.1508366486685664   0.015034609065140925   0.01664793668435658
0.1508366486685664   0.015034609065140925   0.01664793668435658
0.14922685856401446   -0.0089113155924249   -0.020300892605133583
0.14922685856401446   -0.0089113155924249   -0.020300892605133583
0.14922685856401446   -0.0089113155924249   -0.020300892605133583
0.14922685856401446   -0.0089113155924249   -0.020300892605133583
0.062281819340508915   0.00300162590275228   0.012450127827070796
0.062281819340508915   0.00300162590275228   0.012450127827070796
0.062281819340508915   0.00300162590275228   0.012450127827070796
0.062281819340508915   0.00300162590275228   0.012450127827070796
0.09733982854099908   -0.007214201127372845   -0.005303209315479602
0.09733982854099908   -0.007214201127372845   -0.005303209315479602
0.09733982854099908   -0.007214201127372845   -0.005303209315479602
0.09733982854099908   -0.007214201127372845   -0.005303209315479602
0.04997057118080804   -0.028269409968146357   -0.017835077100534436
0.04997057118080804   -0.028269409968146357   -0.017835077100534436
0.04997057118080804   -0.028269409968146357   -0.017835077100534436
0.04997057118080804   -0.028269409968146357   -0.017835077100534436
0.16256782829073527   0.02338944184549359   0.014103198590554833
0.16256782829073527   0.02338944184549359   0.014103198590554833
0.16256782829073527   0.02338944184549359   0.014103198590554833
0.16256782829073527   0.02338944184549359   0.014103198590554833
0.15777320969437492   -0.0029596623508203745   -0.024405805371396003
0.15777320969437492   -0.0029596623508203745   -0.024405805371396003
0.15777320969437492   -0.0029596623508203745   -0.024405805371396003
0.15777320969437492   -0.0029596623508203745   -0.024405805371396003
0.06454180203409315   0.007365113229930515   0.009740660354473431
0.06454180203409315   0.007365113229930515   0.009740660354473431
0.06454180203409315   0.007365113229930515   0.009740660354473431
0.06454180203409315   0.007365113229930515   0.009740660354473431
0.10587509242620166   -0.0011860641530693147   -0.0005370303229408624
0.10587509242620166   -0.0011860641530693147   -0.0005370303229408624
0.10587509242620166   -0.0011860641530693147   -0.0005370303229408624
0.10587509242620166   -0.0011860641530693147   -0.0005370303229408624
0.052312152860065964   -0.023316005917124395   -0.020726466368607182
0.052312152860065964   -0.023316005917124395   -0.020726466368607182
0.052312152860065964   -0.023316005917124395   -0.020726466368607182
0.052312152860065964   -0.023316005917124395   -0.020726466368607182
0.17108099349295736   0.028799591420789583   0.010373859849908372
0.17108099349295736   0.028799591420789583   0.010373859849908372
0.17108099349295736   0.028799591420789583   0.010373859849908372
0.17108099349295736   0.028799591420789583   0.010373859849908372
0.17095150119257288   0.010072760718509578   -0.026176552925570567
0.17095150119257288   0.010072760718509578   -0.026176552925570567
0.17095150119257288   0.010072760718509578   -0.026176552925570567
0.17095150119257288   0.010072760718509578   -0.026176552925570567
0.0668511490059574   0.016096718175957262   0.007752864156152484
0.0668511490059574   0.016096718175957262   0.007752864156152484
0.0668511490059574   0.016096718175957262   0.007752864156152484
0.0668511490059574   0.016096718175957262   0.007752864156152484
0.11028949145660667   0.0054121867224248416   0.003606141982439576
0.11028949145660667   0.0054121867224248416   0.003606141982439576
0.11028949145660667   0.0054121867224248416   0.003606141982439576
0.11028949145660667   0.0054121867224248416   0.003606141982439576
-0.20664581808074345   -0.003070699405286162   0.020782863661768076
-0.20664581808074345   -0.003070699405286162   0.020782863661768076
-0.20664581808074345   -0.003070699405286162   0.020782863661768076
-0.20664581808074345   -0.003070699405286162   0.020782863661768076
-0.16289104393419987   -0.02095974239216103   -0.010150424780273995
-0.16289104393419987   -0.02095974239216103   -0.010150424780273995
-0.16289104393419987   -0.02095974239216103   -0.010150424780273995
-0.16289104393419987   -0.02095974239216103   -0.010150424780273995
-0.14737588240512078   0.017619450012754362   0.01773273605000953
-0.14737588240512078   0.017619450012754362   0.01773273605000953
-0.14737588240512078   0.017619450012754362   0.01773273605000953
-0.14737588240512078   0.017619450012754362   0.01773273605000953
-0.20585739897717398   -0.0224890854692003   -0.013868803256802096
-0.20585739897717398   -0.0224890854692003   -0.013868803256802096
-0.20585739897717398   -0.0224890854692003   -0.013868803256802096
-0.20585739897717398   -0.0224890854692003   -0.013868803256802096
-0.17385675629717892   -0.00469792711715996   -0.002826854558913296
-0.17385675629717892   -0.00469792711715996   -0.002826854558913296
-0.17385675629717892   -0.00469792711715996   -0.002826854558913296
-0.17385675629717892   -0.00469792711715996   -0.002826854558913296
-0.1928302554224209   0.008947995007370861   0.019829834040392187
-0.1928302554224209   0.008947995007370861   0.019829834040392187
-0.1928302554224209   0.008947995007370861   0.019829834040392187
-0.1928302554224209   0.008947995007370861   0.019829834040392187
-0.15948246875128022   -0.012897073255222855   -0.012283672412808637
-0.15948246875128022   -0.012897073255222855   -0.012283672412808637
-0.15948246875128022   -0.012897073255222855   -0.012283672412808637
-0.15948246875128022   -0.012897073255222855   -0.012283672412808637
-0.1438108895481765   0.022219235558941765   0.014971074653328491
-0.1438108895481765   0.022219235558941765   0.014971074653328491
-0.1438108895481765   0.022219235558941765   0.014971074653328491
-0.1438108895481765   0.022219235558941765   0.014971074653328491
-0.19631518396187048   -0.017272655243667757   -0.017282595668241366
-0.19631518396187048   -0.017272655243667757   -0.017282595668241366
-0.19631518396187048   -0.017272655243667757   -0.017282595668241366
-0.19631518396187048   -0.017272655243667757   -0.017282595668241366
-0.16886591387341393   0.0013029969896654683   0.0010285017226746643
-0.16886591387341393   0.0013029969896654683   0.0010285017226746643
-0.16886591387341393   0.0013029969896654683   0.0010285017226746643
-0.16886591387341393   0.0013029969896654683   0.0010285017226746643
-0.18330113164424697   0.014524978620252753   0.01599003205595388
-0.18330113164424697   0.014524978620252753   0.01599003205595388
-0.18330113164424697   0.014524978620252753   0.01599003205595388
-0.18330113164424697   0.014524978620252753   0.01599003205595388
-0.15595941016459883   -0.008712866603777736   -0.01483942626606288
-0.15595941016459883   -0.008712866603777736   -0.01483942626606288
-0.15595941016459883   -0.008712866603777736   -0.01483942626606288
-0.15595941016459883   -0.008712866603777736   -0.01483942626606288
-0.1409511098118   0.02801881403418198   0.012907414800376337
-0.1409511098118   0.02801881403418198   0.012907414800376337
-0.1409511098118   0.02801881403418198   0.012907414800376337
-0.1409511098118   0.02801881403418198   0.012907414800376337
-0.1835084595957296   -0.008907253314686323   -0.0199829225640561
-0.1835084595957296   -0.008907253314686323   -0.0199829225640561
-0.1835084595957296   -0.008907253314686323   -0.0199829225640561
-0.1835084595957296   -0.008907253314686323   -0.0199829225640561
-0.15886061153835673   0.0072603737872460675   0.005778994611364325
-0.15886061153835673   0.0072603737872460675   0.005778994611364325
-0.15886061153835673   0.0072603737872460675   0.005778994611364325
-0.15886061153835673   0.0072603737872460675   0.005778994611364325
-0.15699476557977154   -0.011594870677350773   0.00996609527705739
-0.15699476557977154   -0.011594870677350773   0.00996609527705739
-0.15699476557977154   -0.011594870677350773   0.00996609527705739
-0.15699476557977154   -0.011594870677350773   0.00996609527705739
-0.11677682199512518   -0.015870692168826042   -0.002995632846359749
-0.11677682199512518   -0.015870692168826042   -0.002995632846359749
-0.11677682199512518   -0.015870692168826042   -0.002995632846359749
-0.11677682199512518   -0.015870692168826042   -0.002995632846359749
-0.10819340230717568   0.007984884813732367   0.009070340043027137
-0.10819340230717568   0.007984884813732367   0.009070340043027137
-0.10819340230717568   0.007984884813732367   0.009070340043027137
-0.10819340230717568   0.007984884813732367   0.009070340043027137
-0.15947333570453148   -0.016550121481983066   -0.008584958952304723
-0.15947333570453148   -0.016550121481983066   -0.008584958952304723
-0.15947333570453148   -0.016550121481983066   -0.008584958952304723
-0.15947333570453148   -0.016550121481983066   -0.008584958952304723
-0.13502313277259495   -0.00827342571328218   -0.0037273965592730376
-0.13502313277259495   -0.00827342571328218   -0.0037273965592730376
-0.13502313277259495   -0.00827342571328218   -0.0037273965592730376
-0.13502313277259495   -0.00827342571328218   -0.0037273965592730376
-0.1529684377091547   -0.001088590305625154   0.00847799984821851
-0.1529684377091547   -0.001088590305625154   0.00847799984821851
-0.1529684377091547   -0.001088590305625154   0.00847799984821851
-0.1529684377091547   -0.001088590305625154   0.00847799984821851
-0.11395634064426953   -0.006734686704343063   -0.0050247801243666675
-0.11395634064426953   -0.006734686704343063   -0.0050247801243666675
-0.11395634064426953   -0.006734686704343063   -0.0050247801243666675
-0.11395634064426953   -0.006734686704343063   -0.0050247801243666675
-0.1051292888420499   0.017368232440086583   0.007243179593236124
-0.1051292888420499   0.017368232440086583   0.007243179593236124
-0.1051292888420499   0.017368232440086583   0.007243179593236124
-0.1051292888420499   0.017368232440086583   0.007243179593236124
-0.1548209870882372   -0.007573513382395928   -0.010286664105634453
-0.1548209870882372   -0.007573513382395928   -0.010286664105634453
-0.1548209870882372   -0.007573513382395928   -0.010286664105634453
-0.1548209870882372   -0.007573513382395928   -0.010286664105634453
-0.13054713952520286   0.000728890356294868   0.00030379268902896387
-0.13054713952520286   0.000728890356294868   0.00030379268902896387
-0.13054713952520286   0.000728890356294868   0.00030379268902896387
-0.13054713952520286   0.000728890356294868   0.00030379268902896387
-0.14793235503243718   0.008896316534629384   0.0076866662563374235
-0.14793235503243718   0.008896316534629384   0.0076866662563374235
-0.14793235503243718   0.008896316534629384   0.0076866662563374235
-0.14793235503243718   0.008896316534629384   0.0076866662563374235
-0.11116160855427204   0.0017547148666372143   -0.007304901394426207
-0.11116160855427204   0.0017547148666372143   -0.007304901394426207
-0.11116160855427204   0.0017547148666372143   -0.007304901394426207
-0.11116160855427204   0.0017547148666372143   -0.007304901394426207
-0.10207322949268656   0.027593609099158194   0.005502643032536628
-0.10207322949268656   0.027593609099158194   0.005502643032536628
-0.10207322949268656   0.027593609099158194   0.005502643032536628
-0.10207322949268656   0.027593609099158194   0.005502643032536628
-0.15101271675997552   0.002271423631721191   -0.01165322953803843
-0.15101271675997552   0.002271423631721191   -0.01165322953803843
-0.15101271675997552   0.002271423631721191   -0.01165322953803843
-0.15101271675997552   0.002271423631721191   -0.01165322953803843
-0.12732464906928476   0.009602446953586464   0.0042643643181104925
-0.12732464906928476   0.009602446953586464   0.0042643643181104925
-0.12732464906928476   0.009602446953586464   0.0042643643181104925
-0.12732464906928476   0.009602446953586464   0.0042643643181104925
-0.11658987650709318   -0.019771388179437358   0.001839790604409689
-0.11658987650709318   -0.019771388179437358   0.001839790604409689
-0.11658987650709318   -0.019771388179437358   0.001839790604409689
-0.11658987650709318   -0.019771388179437358   0.001839790604409689
-0.07117077392586874   -0.008589438867647792   0.004236697911711299
-0.07117077392586874   -0.008589438867647792   0.004236697911711299
-0.07117077392586874   -0.008589438867647792   0.004236697911711299
-0.07117077392586874   -0.008589438867647792   0.004236697911711299
-0.06892523653388581   -0.0004075208213484005   0.0005320721762474981
-0.06892523653388581   -0.0004075208213484005   0.0005320721762474981
-0.06892523653388581   -0.0004075208213484005   0.0005320721762474981
-0.06892523653388581   -0.0004075208213484005   0.0005320721762474981
-0.11358312058054931   -0.008925510317024418   -0.0009678561930842513
-0.11358312058054931   -0.008925510317024418   -0.0009678561930842513
-0.11358312058054931   -0.008925510317024418   -0.0009678561930842513
-0.11358312058054931   -0.008925510317024418   -0.0009678561930842513
-0.09271768849909924   -0.0089775241480341   -0.0027283779384537207
-0.09271768849909924   -0.0089775241480341   -0.0027283779384537207
-0.09271768849909924   -0.0089775241480341   -0.0027283779384537207
-0.09271768849909924   -0.0089775241480341   -0.0027283779384537207
-0.11343091283063962   -0.00936794672338464   0.00023561896282393467
-0.11343091283063962   -0.00936794672338464   0.00023561896282393467
-0.11343091283063962   -0.00936794672338464   0.00023561896282393467
-0.11343091283063962   -0.00936794672338464   0.00023561896282393467
-0.06833840321242542   0.0007739566563824529   0.002284761305818559
-0.06833840321242542   0.0007739566563824529   0.002284761305818559
-0.06833840321242542   0.0007739566563824529   0.002284761305818559
-0.06833840321242542   0.0007739566563824529   0.002284761305818559
-0.06558394225316151   0.01008543201330311   -0.0009713116019386906
-0.06558394225316151   0.01008543201330311   -0.0009713116019386906
-0.06558394225316151   0.01008543201330311   -0.0009713116019386906
-0.06558394225316151   0.01008543201330311   -0.0009713116019386906
-0.11051176763375821   0.0005732885468132873   -0.002874270472033134
-0.11051176763375821   0.0005732885468132873   -0.002874270472033134
-0.11051176763375821   0.0005732885468132873   -0.002874270472033134
-0.11051176763375821   0.0005732885468132873   -0.002874270472033134
-0.08918622105304616   0.0004357943897342585   0.0011908531867759259
-0.08918622105304616   0.0004357943897342585   0.0011908531867759259
-0.08918622105304616   0.0004357943897342585   0.0011908531867759259
-0.08918622105304616   0.0004357943897342585   0.0011908531867759259
-0.1101142319720253   0.0010924797221724368   -0.0014057833387282719
-0.1101142319720253   0.0010924797221724368   -0.0014057833387282719
-0.1101142319720253   0.0010924797221724368   -0.0014057833387282719
-0.1101142319720253   0.0010924797221724368   -0.0014057833387282719
-0.06531236881350842   0.010235349939328692   0.00023663767030178504
-0.06531236881350842   0.010235349939328692   0.00023663767030178504
-0.06531236881350842   0.010235349939328692   0.00023663767030178504
-0.06531236881350842   0.010235349939328692   0.00023663767030178504
-0.06242604146645821   0.020679012061121098   -0.002673213403819834
-0.06242604146645821   0.020679012061121098   -0.002673213403819834
-0.06242604146645821   0.020679012061121098   -0.002673213403819834
-0.06242604146645821   0.020679012061121098   -0.002673213403819834
-0.10764861102845229   0.010143824429546432   -0.0049244799766802235
-0.10764861102845229   0.010143824429546432   -0.0049244799766802235
-0.10764861102845229   0.010143824429546432   -0.0049244799766802235
-0.10764861102845229   0.010143824429546432   -0.0049244799766802235
-0.0858539458965104   0.009883557242406641   0.004951257171113247
-0.0858539458965104   0.009883557242406641   0.004951257171113247
-0.0858539458965104   0.009883557242406641   0.004951257171113247
-0.0858539458965104   0.009883557242406641   0.004951257171113247
-0.07693722244250674   -0.026830135581600627   -0.006354847957527134
-0.07693722244250674   -0.026830135581600627   -0.006354847957527134
-0.07693722244250674   -0.026830135581600627   -0.006354847957527134
-0.07693722244250674   -0.026830135581600627   -0.006354847957527134
-0.027141761821096667   -0.0008652044818069642   0.01108471617804201
-0.027141761821096667   -0.0008652044818069642   0.01108471617804201
-0.027141761821096667   -0.0008652044818069642   0.01108471617804201
-0.027141761821096667   -0.0008652044818069642   0.01108471617804201
-0.03046431501510499   -0.008394112596717258   -0.008378246743945892
-0.03046431501510499   -0.008394112596717258   -0.008378246743945892
-0.03046431501510499   -0.008394112596717258   -0.008378246743945892
-0.03046431501510499   -0.008394112596717258   -0.008378246743945892
-0.06787020478911768   -0.0010124911948766711   0.006412201273615734
-0.06787020478911768   -0.0010124911948766711   0.006412201273615734
-0.06787020478911768   -0.0010124911948766711   0.006412201273615734
-0.06787020478911768   -0.0010124911948766711   0.006412201273615734
-0.050560480591149363   -0.008875551865325444   -0.001972973486021821
-0.050560480591149363   -0.008875551865325444   -0.001972973486021821
-0.050560480591149363   -0.008875551865325444   -0.001972973486021821
-0.050560480591149363   -0.008875551865325444   -0.001972973486021821
-0.07397161028287101   -0.017034488149572424   -0.008072829240455697
-0.07397161028287101   -0.017034488149572424   -0.008072829240455697
-0.07397161028287101   -0.017034488149572424   -0.008072829240455697
-0.07397161028287101   -0.017034488149572424   -0.008072829240455697
-0.023536803229137662   0.008453990650191125   0.00941120893898237
-0.023536803229137662   0.008453990650191125   0.00941120893898237
-0.023536803229137662   0.008453990650191125   0.00941120893898237
-0.023536803229137662   0.008453990650191125   0.00941120893898237
-0.025513969400370783   0.0015308131214371648   -0.009437353954118023
-0.025513969400370783   0.0015308131214371648   -0.009437353954118023
-0.025513969400370783   0.0015308131214371648   -0.009437353954118023
-0.025513969400370783   0.0015308131214371648   -0.009437353954118023
-0.06504599118941573   0.007512852792457787   0.004291022937635565
-0.06504599118941573   0.007512852792457787   0.004291022937635565
-0.06504599118941573   0.007512852792457787   0.004291022937635565
-0.06504599118941573   0.007512852792457787   0.004291022937635565
-0.04677549983757152   -8.590410816534597e-05   0.0020289435421115194
-0.04677549983757152   -8.590410816534597e-05   0.0020289435421115194
-0.04677549983757152   -8.590410816534597e-05   0.0020289435421115194
-0.04677549983757152   -8.590410816534597e-05   0.0020289435421115194
-0.07095272085337626   -0.007679517413568645   -0.010050255176141585
-0.07095272085337626   -0.007679517413568645   -0.010050255176141585
-0.07095272085337626   -0.007679517413568645   -0.010050255176141585
-0.07095272085337626   -0.007679517413568645   -0.010050255176141585
-0.018837543615819463   0.01749287944805559   0.00798270864202063
-0.018837543615819463   0.01749287944805559   0.00798270864202063
-0.018837543615819463   0.01749287944805559   0.00798270864202063
-0.018837543615819463   0.01749287944805559   0.00798270864202063
-0.021332149711238875   0.0125791310886724   -0.010587313004743743
-0.021332149711238875   0.0125791310886724   -0.010587313004743743
-0.021332149711238875   0.0125791310886724   -0.010587313004743743
-0.021332149711238875   0.0125791310886724   -0.010587313004743743
-0.062153969703829595   0.017120758305060428   0.002245399165383896
-0.062153969703829595   0.017120758305060428   0.002245399165383896
-0.062153969703829595   0.017120758305060428   0.002245399165383896
-0.062153969703829595   0.017120758305060428   0.002245399165383896
-0.042889286824339276   0.009026142833623909   0.0060140485501782946
-0.042889286824339276   0.009026142833623909   0.0060140485501782946
-0.042889286824339276   0.009026142833623909   0.0060140485501782946
-0.042889286824339276   0.009026142833623909   0.0060140485501782946
-0.03772542385233318   -0.02878929372324992   -0.013909504736698062
-0.03772542385233318   -0.02878929372324992   -0.013909504736698062
-0.03772542385233318   -0.02878929372324992   -0.013909504736698062
-0.03772542385233318   -0.02878929372324992   -0.013909504736698062
0.005021755646786573   0.008002130114660479   0.017070302711742414
0.005021755646786573   0.008002130114660479   0.017070302711742414
0.005021755646786573   0.008002130114660479   0.017070302711742414
0.005021755646786573   0.008002130114660479   0.017070302711742414
0.004955414451281483   -0.014646590661388629   -0.018464550104406313
0.004955414451281483   -0.014646590661388629   -0.018464550104406313
0.004955414451281483   -0.014646590661388629   -0.018464550104406313
0.004955414451281483   -0.014646590661388629   -0.018464550104406313
-0.022518702915006447   0.008977776920173427   0.013977924239656133
-0.022518702915006447   0.008977776920173427   0.013977924239656133
-0.022518702915006447   0.008977776920173427   0.013977924239656133
-0.022518702915006447   0.008977776920173427   0.013977924239656133
-0.012686763340567862   -0.00627913560802759   -0.0031221600698733074
-0.012686763340567862   -0.00627913560802759   -0.0031221600698733074
-0.012686763340567862   -0.00627913560802759   -0.0031221600698733074
-0.012686763340567862   -0.00627913560802759   -0.0031221600698733074
-0.03472912744916222   -0.022091561102321723   -0.016004860408628092
-0.03472912744916222   -0.022091561102321723   -0.016004860408628092
-0.03472912744916222   -0.022091561102321723   -0.016004860408628092
-0.03472912744916222   -0.022091561102321723   -0.016004860408628092
0.01804651729670199   0.017303425672371014   0.01504094778893563
0.01804651729670199   0.017303425672371014   0.01504094778893563
0.01804651729670199   0.017303425672371014   0.01504094778893563
0.01804651729670199   0.017303425672371014   0.01504094778893563
0.014536603882084588   -0.008979422295230723   -0.021976819119320357
0.014536603882084588   -0.008979422295230723   -0.021976819119320357
0.014536603882084588   -0.008979422295230723   -0.021976819119320357
0.014536603882084588   -0.008979422295230723   -0.021976819119320357
-0.01906785152718914   0.013091539486577918   0.011232509046649432
-0.01906785152718914   0.013091539486577918   0.011232509046649432
-0.01906785152718914   0.013091539486577918   0.011232509046649432
-0.01906785152718914   0.013091539486577918   0.011232509046649432
-0.004913487586968811   -0.0004247428731671737   0.0011885945880946212
-0.004913487586968811   -0.0004247428731671737   0.0011885945880946212
-0.004913487586968811   -0.0004247428731671737   0.0011885945880946212
-0.004913487586968811   -0.0004247428731671737   0.0011885945880946212
-0.031127425962042137   -0.017426357640332298   -0.018547466000705334
-0.031127425962042137   -0.017426357640332298   -0.018547466000705334
-0.031127425962042137   -0.017426357640332298   -0.018547466000705334
-0.031127425962042137   -0.017426357640332298   -0.018547466000705334
0.02748185299200941   0.02242414950675084   0.011345854628323156
0.02748185299200941   0.02242414950675084   0.011345854628323156
0.02748185299200941   0.02242414950675084   0.011345854628323156
0.02748185299200941   0.02242414950675084   0.011345854628323156
0.028060233844687664   0.0020728335830117886   -0.02357564364730132
0.028060233844687664   0.0020728335830117886   -0.02357564364730132
0.028060233844687664   0.0020728335830117886   -0.02357564364730132
0.028060233844687664   0.0020728335830117886   -0.02357564364730132
-0.015852109535964904   0.020258999493265636   0.009133019467033359
-0.015852109535964904   0.020258999493265636   0.009133019467033359
-0.015852109535964904   0.020258999493265636   0.009133019467033359
-0.015852109535964904   0.020258999493265636   0.009133019467033359
0.002260675063680249   0.005683466265709757   0.005439283361129684
0.002260675063680249   0.005683466265709757   0.005439283361129684
0.002260675063680249   0.005683466265709757   0.005439283361129684
0.002260675063680249   0.005683466265709757   0.005439283361129684
-0.06577591093258502   0.004398366097299889   0.01952498466541574
-0.06577591093258502   0.004398366097299889   0.01952498466541574
-0.06577591093258502   0.004398366097299889   0.01952498466541574
-0.06577591093258502   0.004398366097299889   0.01952498466541574
-0.08140542850803115   -0.02529093420358329   -0.011356666528613307
-0.08140542850803115   -0.02529093420358329   -0.011356666528613307
-0.08140542850803115   -0.02529093420358329   -0.011356666528613307
-0.08140542850803115   -0.02529093420358329   -0.011356666528613307
-0.06499557343543887   0.011647045677176275   0.015950026933345667
-0.06499557343543887   0.011647045677176275   0.015950026933345667
-0.06499557343543887   0.011647045677176275   0.015950026933345667
-0.06499557343543887   0.011647045677176275   0.015950026933345667
-0.06396410588050092   -0.016206532687906155   -0.014703856769121634
-0.06396410588050092   -0.016206532687906155   -0.014703856769121634
-0.06396410588050092   -0.016206532687906155   -0.014703856769121634
-0.06396410588050092   -0.016206532687906155   -0.014703856769121634
-0.06739284827069418   -0.0051658829614514845   -0.00548751530473658
-0.06739284827069418   -0.0051658829614514845   -0.00548751530473658
-0.06739284827069418   -0.0051658829614514845   -0.00548751530473658
-0.06739284827069418   -0.0051658829614514845   -0.00548751530473658
-0.05117694022386624   0.014854878915041994   0.018170559911101624
-0.05117694022386624   0.014854878915041994   0.018170559911101624
-0.05117694022386624   0.014854878915041994   0.018170559911101624
-0.05117694022386624   0.014854878915041994   0.018170559911101624
-0.07695914936442091   -0.018590776198119413   -0.013630030836267907
-0.07695914936442091   -0.018590776198119413   -0.013630030836267907
-0.07695914936442091   -0.018590776198119413   -0.013630030836267907
-0.07695914936442091   -0.018590776198119413   -0.013630030836267907
-0.06009144282902476   0.016107710001130753   0.013395489422913173
-0.06009144282902476   0.016107710001130753   0.013395489422913173
-0.06009144282902476   0.016107710001130753   0.013395489422913173
-0.06009144282902476   0.016107710001130753   0.013395489422913173
-0.05318715159688931   -0.011165399514319482   -0.018261753846509146
-0.05318715159688931   -0.011165399514319482   -0.018261753846509146
-0.05318715159688931   -0.011165399514319482   -0.018261753846509146
-0.05318715159688931   -0.011165399514319482   -0.018261753846509146
-0.059448098052065114   0.0005105402020388252   -0.0012808191185383747
-0.059448098052065114   0.0005105402020388252   -0.0012808191185383747
-0.059448098052065114   0.0005105402020388252   -0.0012808191185383747
-0.059448098052065114   0.0005105402020388252   -0.0012808191185383747
-0.04034993416625357   0.020273917172976663   0.014485016619371514
-0.04034993416625357   0.020273917172976663   0.014485016619371514
-0.04034993416625357   0.020273917172976663   0.014485016619371514
-0.04034993416625357   0.020273917172976663   0.014485016619371514
-0.07215895926345282   -0.014561905689956575   -0.016272477058138772
-0.07215895926345282   -0.014561905689956575   -0.016272477058138772
-0.07215895926345282   -0.014561905689956575   -0.016272477058138772
-0.07215895926345282   -0.014561905689956575   -0.016272477058138772
-0.05562762142548577   0.022978541450704913   0.011565213092656264
-0.05562762142548577   0.022978541450704913   0.011565213092656264
-0.05562762142548577   0.022978541450704913   0.011565213092656264
-0.05562762142548577   0.022978541450704913   0.011565213092656264
-0.0387905896316971   -0.0015885685484491423   -0.02055542577074386
-0.0387905896316971   -0.0015885685484491423   -0.02055542577074386
-0.0387905896316971   -0.0015885685484491423   -0.02055542577074386
-0.0387905896316971   -0.0015885685484491423   -0.02055542577074386
-0.04996255020961454   0.006480686633565106   0.0031957815294297023
-0.04996255020961454   0.006480686633565106   0.0031957815294297023
-0.04996255020961454   0.006480686633565106   0.0031957815294297023
-0.04996255020961454   0.006480686633565106   0.0031957815294297023
-0.07266669504497128   -0.0042002724107526295   0.011246338993853402
-0.07266669504497128   -0.0042002724107526295   0.011246338993853402
-0.07266669504497128   -0.0042002724107526295   0.011246338993853402
-0.07266669504497128   -0.0042002724107526295   0.011246338993853402
-0.09235400767362925   -0.02064403247484388   -0.004432407235939389
-0.09235400767362925   -0.02064403247484388   -0.004432407235939389
-0.09235400767362925   -0.02064403247484388   -0.004432407235939389
-0.09235400767362925   -0.02064403247484388   -0.004432407235939389
-0.08263338805772517   0.002016977409183579   0.007410587856722177
-0.08263338805772517   0.002016977409183579   0.007410587856722177
-0.08263338805772517   0.002016977409183579   0.007410587856722177
-0.08263338805772517   0.002016977409183579   0.007410587856722177
-0.07372890161344432   -0.00942199497543679   -0.006647573304066642
-0.07372890161344432   -0.00942199497543679   -0.006647573304066642
-0.07372890161344432   -0.00942199497543679   -0.006647573304066642
-0.07372890161344432   -0.00942199497543679   -0.006647573304066642
-0.08043788180515879   -0.007425086791671554   -0.003787148486861894
-0.08043788180515879   -0.007425086791671554   -0.003787148486861894
-0.08043788180515879   -0.007425086791671554   -0.003787148486861894
-0.08043788180515879   -0.007425086791671554   -0.003787148486861894
-0.06744616066452712   0.00553427717457923   0.009809859290502399
-0.06744616066452712   0.00553427717457923   0.009809859290502399
-0.06744616066452712   0.00553427717457923   0.009809859290502399
-0.06744616066452712   0.00553427717457923   0.009809859290502399
-0.0882685096355307   -0.012291675369719746   -0.0064563672534027105
-0.0882685096355307   -0.012291675369719746   -0.0064563672534027105
-0.0882685096355307   -0.012291675369719746   -0.0064563672534027105
-0.0882685096355307   -0.012291675369719746   -0.0064563672534027105
-0.078267491510731   0.010923441627993889   0.0056446153688084295
-0.078267491510731   0.010923441627993889   0.0056446153688084295
-0.078267491510731   0.010923441627993889   0.0056446153688084295
-0.078267491510731   0.010923441627993889   0.0056446153688084295
-0.0678210133920902   -0.0008836708242527802   -0.008260982567028435
-0.0678210133920902   -0.0008836708242527802   -0.008260982567028435
-0.0678210133920902   -0.0008836708242527802   -0.008260982567028435
-0.0678210133920902   -0.0008836708242527802   -0.008260982567028435
-0.07518957004196418   0.0008450119713301375   8.224848637719984e-05
-0.07518957004196418   0.0008450119713301375   8.224848637719984e-05
-0.07518957004196418   0.0008450119713301375   8.224848637719984e-05
-0.07518957004196418   0.0008450119713301375   8.224848637719984e-05
-0.06122924580870649   0.014970837166470134   0.008843347359165164
-0.06122924580870649   0.014970837166470134   0.008843347359165164
-0.06122924580870649   0.014970837166470134   0.008843347359165164
-0.06122924580870649   0.014970837166470134   0.008843347359165164
-0.08416807625570591   -0.004239883524320805   -0.008694983203752855
-0.08416807625570591   -0.004239883524320805   -0.008694983203752855
-0.08416807625570591   -0.004239883524320805   -0.008694983203752855
-0.08416807625570591   -0.004239883524320805   -0.008694983203752855
-0.07387665566284739   0.020822407292563294   0.003965627669043938
-0.07387665566284739   0.020822407292563294   0.003965627669043938
-0.07387665566284739   0.020822407292563294   0.003965627669043938
-0.07387665566284739   0.020822407292563294   0.003965627669043938
-0.0627600232287685   0.008635045200132547   -0.009753299673184081
-0.0627600232287685   0.008635045200132547   -0.009753299673184081
-0.0627600232287685   0.008635045200132547   -0.009753299673184081
-0.0627600232287685   0.008635045200132547   -0.009753299673184081
-0.07022344217382638   0.009431909440047018   0.004036982662882693
-0.07022344217382638   0.009431909440047018   0.004036982662882693
-0.07022344217382638   0.009431909440047018   0.004036982662882693
-0.07022344217382638   0.009431909440047018   0.004036982662882693
-0.08917323127896523   -0.012393151223418566   0.003220593485953928
-0.08917323127896523   -0.012393151223418566   0.003220593485953928
-0.08917323127896523   -0.012393151223418566   0.003220593485953928
-0.08917323127896523   -0.012393151223418566   0.003220593485953928
-0.10315809875899298   -0.013276082828484744   0.002653626428144133
-0.10315809875899298   -0.013276082828484744   0.002653626428144133
-0.10315809875899298   -0.013276082828484744   0.002653626428144133
-0.10315809875899298   -0.013276082828484744   0.002653626428144133
-0.0997028716866104   -0.006152350076041405   -0.000982303882115758
-0.0997028716866104   -0.006152350076041405   -0.000982303882115758
-0.0997028716866104   -0.006152350076041405   -0.000982303882115758
-0.0997028716866104   -0.006152350076041405   -0.000982303882115758
-0.0846755039188162   -0.001679261707951605   0.0008962476684016753
-0.0846755039188162   -0.001679261707951605   0.0008962476684016753
-0.0846755039188162   -0.001679261707951605   0.0008962476684016753
-0.0846755039188162   -0.001679261707951605   0.0008962476684016753
-0.09431929883801297   -0.007901790408358112   -0.0025371943395929484
-0.09431929883801297   -0.007901790408358112   -0.0025371943395929484
-0.09431929883801297   -0.007901790408358112   -0.0025371943395929484
-0.09431929883801297   -0.007901790408358112   -0.0025371943395929484
-0.08471597057237906   -0.0026296487818708494   0.0016443014745056764
-0.08471597057237906   -0.0026296487818708494   0.0016443014745056764
-0.08471597057237906   -0.0026296487818708494   0.0016443014745056764
-0.08471597057237906   -0.0026296487818708494   0.0016443014745056764
-0.09904877674599724   -0.00458833471507189   0.0007241554599812881
-0.09904877674599724   -0.00458833471507189   0.0007241554599812881
-0.09904877674599724   -0.00458833471507189   0.0007241554599812881
-0.09904877674599724   -0.00458833471507189   0.0007241554599812881
-0.0951033420641564   0.003734608537476994   -0.0024760960883087263
-0.0951033420641564   0.003734608537476994   -0.0024760960883087263
-0.0951033420641564   0.003734608537476994   -0.0024760960883087263
-0.0951033420641564   0.003734608537476994   -0.0024760960883087263
-0.08032392276711674   0.007245846267207968   -0.0009599455523343729
-0.08032392276711674   0.007245846267207968   -0.0009599455523343729
-0.08032392276711674   0.007245846267207968   -0.0009599455523343729
-0.08032392276711674   0.007245846267207968   -0.0009599455523343729
-0.08950545353750766   0.0009171587196866345   0.0012938954628076253
-0.08950545353750766   0.0009171587196866345   0.0012938954628076253
-0.08950545353750766   0.0009171587196866345   0.0012938954628076253
-0.08950545353750766   0.0009171587196866345   0.0012938954628076253
-0.08013817725813671   0.00722148864024889   -6.860380476617252e-06
-0.08013817725813671   0.00722148864024889   -6.860380476617252e-06
-0.08013817725813671   0.00722148864024889   -6.860380476617252e-06
-0.08013817725813671   0.00722148864024889   -6.860380476617252e-06
-0.0947518357520429   0.00429621798553062   -0.0012801739757949317
-0.0947518357520429   0.00429621798553062   -0.0012801739757949317
-0.0947518357520429   0.00429621798553062   -0.0012801739757949317
-0.0947518357520429   0.00429621798553062   -0.0012801739757949317
-0.09069773402022893   0.013688952869524998   -0.004149714785003058
-0.09069773402022893   0.013688952869524998   -0.004149714785003058
-0.09069773402022893   0.013688952869524998   -0.004149714785003058
-0.09069773402022893   0.013688952869524998   -0.004149714785003058
-0.07619492004912841   0.016207573573146516   -0.003010860542943892
-0.07619492004912841   0.016207573573146516   -0.003010860542943892
-0.07619492004912841   0.016207573573146516   -0.003010860542943892
-0.07619492004912841   0.016207573573146516   -0.003010860542943892
-0.08492493343208195   0.009754042874710295   0.004944429592864472
-0.08492493343208195   0.009754042874710295   0.004944429592864472
-0.08492493343208195   0.009754042874710295   0.004944429592864472
-0.08492493343208195   0.009754042874710295   0.004944429592864472
-0.10599985688846696   -0.01985001345036116   -0.004981233597351018
-0.10599985688846696   -0.01985001345036116   -0.004981233597351018
-0.10599985688846696   -0.01985001345036116   -0.004981233597351018
-0.10599985688846696   -0.01985001345036116   -0.004981233597351018
-0.11501610709865685   -0.00605075071742538   0.009399332040472608
-0.11501610709865685   -0.00605075071742538   0.009399332040472608
-0.11501610709865685   -0.00605075071742538   0.009399332040472608
-0.11501610709865685   -0.00605075071742538   0.009399332040472608
-0.11701970014448161   -0.014029579832009224   -0.00952374655667543
-0.11701970014448161   -0.014029579832009224   -0.00952374655667543
-0.11701970014448161   -0.014029579832009224   -0.00952374655667543
-0.11701970014448161   -0.014029579832009224   -0.00952374655667543
-0.09549644967413269   0.005880236077848586   0.008017220026382856
-0.09549644967413269   0.005880236077848586   0.008017220026382856
-0.09549644967413269   0.005880236077848586   0.008017220026382856
-0.09549644967413269   0.005880236077848586   0.008017220026382856
-0.10791047111369226   -0.007977059090627504   -0.0016043404222832762
-0.10791047111369226   -0.007977059090627504   -0.0016043404222832762
-0.10791047111369226   -0.007977059090627504   -0.0016043404222832762
-0.10791047111369226   -0.007977059090627504   -0.0016043404222832762
-0.1016741676262961   -0.0103782922902953   -0.00661284136629132
-0.1016741676262961   -0.0103782922902953   -0.00661284136629132
-0.1016741676262961   -0.0103782922902953   -0.00661284136629132
-0.1016741676262961   -0.0103782922902953   -0.00661284136629132
-0.11019914153704588   0.002871789191406817   0.00767767745708721
-0.11019914153704588   0.002871789191406817   0.00767767745708721
-0.11019914153704588   0.002871789191406817   0.00767767745708721
-0.11019914153704588   0.002871789191406817   0.00767767745708721
-0.11092250561272918   -0.004658333972173797   -0.010688396462208916
-0.11092250561272918   -0.004658333972173797   -0.010688396462208916
-0.11092250561272918   -0.004658333972173797   -0.010688396462208916
-0.11092250561272918   -0.004658333972173797   -0.010688396462208916
-0.09137814287462931   0.013923799349611483   0.00596070904719136
-0.09137814287462931   0.013923799349611483   0.00596070904719136
-0.09137814287462931   0.013923799349611483   0.00596070904719136
-0.09137814287462931   0.013923799349611483   0.00596070904719136
-0.10239222463471784   0.0005323407692915914   0.002358302024985115
-0.10239222463471784   0.0005323407692915914   0.002358302024985115
-0.10239222463471784   0.0005323407692915914   0.002358302024985115
-0.10239222463471784   0.0005323407692915914   0.002358302024985115
-0.09736230286889085   -0.0015132270382212862   -0.008523064536284696
-0.09736230286889085   -0.0015132270382212862   -0.008523064536284696
-0.09736230286889085   -0.0015132270382212862   -0.008523064536284696
-0.09736230286889085   -0.0015132270382212862   -0.008523064536284696
-0.10428884520869529   0.011428192825432493   0.006393378760354748
-0.10428884520869529   0.011428192825432493   0.006393378760354748
-0.10428884520869529   0.011428192825432493   0.006393378760354748
-0.10428884520869529   0.011428192825432493   0.006393378760354748
-0.10559716487962097   0.005634876184121618   -0.011740816263526467
-0.10559716487962097   0.005634876184121618   -0.011740816263526467
-0.10559716487962097   0.005634876184121618   -0.011740816263526467
-0.10559716487962097   0.005634876184121618   -0.011740816263526467
-0.08724924416731344   0.02285048883754546   0.003931198511553928
-0.08724924416731344   0.02285048883754546   0.003931198511553928
-0.08724924416731344   0.02285048883754546   0.003931198511553928
-0.08724924416731344   0.02285048883754546   0.003931198511553928
-0.09777045952033839   0.00893078144763049   0.006131443921117904
-0.09777045952033839   0.00893078144763049   0.006131443921117904
-0.09777045952033839   0.00893078144763049   0.006131443921117904
-0.09777045952033839   0.00893078144763049   0.006131443921117904
-0.12290929599207948   -0.023518011153562297   -0.012599351990505426
-0.12290929599207948   -0.023518011153562297   -0.012599351990505426
-0.12290929599207948   -0.023518011153562297   -0.012599351990505426
-0.12290929599207948   -0.023518011153562297   -0.012599351990505426
-0.1381400100277636   0.0013020213665429076   0.017116992501822956
-0.1381400100277636   0.0013020213665429076   0.017116992501822956
-0.1381400100277636   0.0013020213665429076   0.017116992501822956
-0.1381400100277636   0.0013020213665429076   0.017116992501822956
-0.1366124277598462   -0.020008275932531842   -0.016858615179022797
-0.1366124277598462   -0.020008275932531842   -0.016858615179022797
-0.1366124277598462   -0.020008275932531842   -0.016858615179022797
-0.1366124277598462   -0.020008275932531842   -0.016858615179022797
-0.106263594093873   0.014889349232869296   0.015337854631488127
-0.106263594093873   0.014889349232869296   0.015337854631488127
-0.106263594093873   0.014889349232869296   0.015337854631488127
-0.106263594093873   0.014889349232869296   0.015337854631488127
-0.12088609627500346   -0.005222089839871165   -0.0006201234218701345
-0.12088609627500346   -0.005222089839871165   -0.0006201234218701345
-0.12088609627500346   -0.005222089839871165   -0.0006201234218701345
-0.12088609627500346   -0.005222089839871165   -0.0006201234218701345
-0.11836734315471162   -0.015871536886388544   -0.014420004553448548
-0.11836734315471162   -0.015871536886388544   -0.014420004553448548
-0.11836734315471162   -0.015871536886388544   -0.014420004553448548
-0.11836734315471162   -0.015871536886388544   -0.014420004553448548
-0.1238302367289071   0.01143105215682718   0.015613011886311649
-0.1238302367289071   0.01143105215682718   0.015613011886311649
-0.1238302367289071   0.01143105215682718   0.015613011886311649
-0.1238302367289071   0.01143105215682718   0.015613011886311649
-0.12593975308136868   -0.014554938456062445   -0.02012797911236519
-0.12593975308136868   -0.014554938456062445   -0.02012797911236519
-0.12593975308136868   -0.014554938456062445   -0.02012797911236519
-0.12593975308136868   -0.014554938456062445   -0.02012797911236519
-0.10159264721252188   0.018731619235785937   0.012570942330867831
-0.10159264721252188   0.018731619235785937   0.012570942330867831
-0.10159264721252188   0.018731619235785937   0.012570942330867831
-0.10159264721252188   0.018731619235785937   0.012570942330867831
-0.11381294068966386   0.0004995245872381864   0.0031600261267982774
-0.11381294068966386   0.0004995245872381864   0.0031600261267982774
-0.11381294068966386   0.0004995245872381864   0.0031600261267982774
-0.11381294068966386   0.0004995245872381864   0.0031600261267982774
-0.11347288573476441   -0.011379746144317176   -0.016718884900243106
-0.11347288573476441   -0.011379746144317176   -0.016718884900243106
-0.11347288573476441   -0.011379746144317176   -0.016718884900243106
-0.11347288573476441   -0.011379746144317176   -0.016718884900243106
-0.11334652909514407   0.01626941238802248   0.01201378997467276
-0.11334652909514407   0.01626941238802248   0.01201378997467276
-0.11334652909514407   0.01626941238802248   0.01201378997467276
-0.11334652909514407   0.01626941238802248   0.01201378997467276
-0.11182504147304759   -0.005169022521630474   -0.0220341586703645
-0.11182504147304759   -0.005169022521630474   -0.0220341586703645
-0.11182504147304759   -0.005169022521630474   -0.0220341586703645
-0.11182504147304759   -0.005169022521630474   -0.0220341586703645
-0.09743049569837473   0.024373329774577714   0.010354076052247712
-0.09743049569837473   0.024373329774577714   0.010354076052247712
-0.09743049569837473   0.024373329774577714   0.010354076052247712
-0.09743049569837473   0.024373329774577714   0.010354076052247712
-0.10383108536456934   0.006176116974777001   0.007575089504492066
-0.10383108536456934   0.006176116974777001   0.007575089504492066
-0.10383108536456934   0.006176116974777001   0.007575089504492066
-0.10383108536456934   0.006176116974777001   0.007575089504492066
0.07478257560487557   0.011953497018570515   0.018677485469248998
0.07478257560487557   0.011953497018570515   0.018677485469248998
0.07478257560487557   0.011953497018570515   0.018677485469248998
0.07478257560487557   0.011953497018570515   0.018677485469248998
-0.0009002666754187056   -0.029874883178634345   -0.012214713646110528
-0.0009002666754187056   -0.029874883178634345   -0.012214713646110528
-0.0009002666754187056   -0.029874883178634345   -0.012214713646110528
-0.0009002666754187056   -0.029874883178634345   -0.012214713646110528
0.016379341388385097   0.005681898935388222   0.014394854078464244
0.016379341388385097   0.005681898935388222   0.014394854078464244
0.016379341388385097   0.005681898935388222   0.014394854078464244
0.016379341388385097   0.005681898935388222   0.014394854078464244
0.0776120702484952   -0.010006422188356474   -0.01535195200862847
0.0776120702484952   -0.010006422188356474   -0.01535195200862847
0.0776120702484952   -0.010006422188356474   -0.01535195200862847
0.0776120702484952   -0.010006422188356474   -0.01535195200862847
0.03825393137915262   -0.005628849912577736   -0.008986415713409045
0.03825393137915262   -0.005628849912577736   -0.008986415713409045
0.03825393137915262   -0.005628849912577736   -0.008986415713409045
0.03825393137915262   -0.005628849912577736   -0.008986415713409045
0.09024188793592212   0.02094465023102728   0.0168460640091225
0.09024188793592212   0.02094465023102728   0.0168460640091225
0.09024188793592212   0.02094465023102728   0.0168460640091225
0.09024188793592212   0.02094465023102728   0.0168460640091225
0.004549260662046007   -0.024469436522906243   -0.014604214094935796
0.004549260662046007   -0.024469436522906243   -0.014604214094935796
0.004549260662046007   -0.024469436522906243   -0.014604214094935796
0.004549260662046007   -0.024469436522906243   -0.014604214094935796
0.022506181064584338   0.01002276654698796   0.011985743798554426
0.022506181064584338   0.01002276654698796   0.011985743798554426
0.022506181064584338   0.01002276654698796   0.011985743798554426
0.022506181064584338   0.01002276654698796   0.011985743798554426
0.08959969538499041   -0.0051088228319589035   -0.019137455455445165
0.08959969538499041   -0.0051088228319589035   -0.019137455455445165
0.08959969538499041   -0.0051088228319589035   -0.019137455455445165
0.08959969538499041   -0.0051088228319589035   -0.019137455455445165
0.049099287551234515   -0.00024469612297401723   -0.004300987191114072
0.049099287551234515   -0.00024469612297401723   -0.004300987191114072
0.049099287551234515   -0.00024469612297401723   -0.004300987191114072
0.049099287551234515   -0.00024469612297401723   -0.004300987191114072
0.10234460878042557   0.026240800890332736   0.01323748779943705
0.10234460878042557   0.026240800890332736   0.01323748779943705
0.10234460878042557   0.026240800890332736   0.01323748779943705
0.10234460878042557   0.026240800890332736   0.01323748779943705
0.01053331220736292   -0.0205548126370901   -0.017301021303473663
0.01053331220736292   -0.0205548126370901   -0.017301021303473663
0.01053331220736292   -0.0205548126370901   -0.017301021303473663
0.01053331220736292   -0.0205548126370901   -0.017301021303473663
0.028441720536273713   0.018042694424222253   0.010368578924642304
0.028441720536273713   0.018042694424222253   0.010368578924642304
0.028441720536273713   0.018042694424222253   0.010368578924642304
0.028441720536273713   0.018042694424222253   0.010368578924642304
0.10554071005707409   0.005837509067676442   -0.021083141133966664
0.10554071005707409   0.005837509067676442   -0.021083141133966664
0.10554071005707409   0.005837509067676442   -0.021083141133966664
0.10554071005707409   0.005837509067676442   -0.021083141133966664
0.05806823963163634   0.005827723978536719   9.696741405277199e-05
0.05806823963163634   0.005827723978536719   9.696741405277199e-05
0.05806823963163634   0.005827723978536719   9.696741405277199e-05
0.05806823963163634   0.005827723978536719   9.696741405277199e-05
0.010768463133028344   0.0034314613143126083   0.01282259090317777
0.010768463133028344   0.0034314613143126083   0.01282259090317777
0.010768463133028344   0.0034314613143126083   0.01282259090317777
0.010768463133028344   0.0034314613143126083   0.01282259090317777
-0.06890183641929502   -0.02543030144460462   -0.00561621635042862
-0.06890183641929502   -0.02543030144460462   -0.00561621635042862
-0.06890183641929502   -0.02543030144460462   -0.00561621635042862
-0.06890183641929502   -0.02543030144460462   -0.00561621635042862
-0.05809927455093123   -0.003809464297297365   0.005785453024109711
-0.05809927455093123   -0.003809464297297365   0.005785453024109711
-0.05809927455093123   -0.003809464297297365   0.005785453024109711
-0.05809927455093123   -0.003809464297297365   0.005785453024109711
0.010974608124705593   -0.002568459378487751   -0.004378453926056349
0.010974608124705593   -0.002568459378487751   -0.004378453926056349
0.010974608124705593   -0.002568459378487751   -0.004378453926056349
0.010974608124705593   -0.002568459378487751   -0.004378453926056349
-0.026902302741304118   -0.006444109871987068   -0.0042824502929049635
-0.026902302741304118   -0.006444109871987068   -0.0042824502929049635
-0.026902302741304118   -0.006444109871987068   -0.0042824502929049635
-0.026902302741304118   -0.006444109871987068   -0.0042824502929049635
0.017108115951878833   0.01234920697058783   0.011371418860733297
0.017108115951878833   0.01234920697058783   0.011371418860733297
0.017108115951878833   0.01234920697058783   0.011371418860733297
0.017108115951878833   0.01234920697058783   0.011371418860733297
-0.0636435599812302   -0.01813790824950139   -0.00760753017518109
-0.0636435599812302   -0.01813790824950139   -0.00760753017518109
-0.0636435599812302   -0.01813790824950139   -0.00760753017518109
-0.0636435599812302   -0.01813790824950139   -0.00760753017518109
-0.052525710459682864   0.004643428965392224   0.004079213448789253
-0.052525710459682864   0.004643428965392224   0.004079213448789253
-0.052525710459682864   0.004643428965392224   0.004079213448789253
-0.052525710459682864   0.004643428965392224   0.004079213448789253
0.017999034455428328   0.005410957776200341   -0.005938180476438014
0.017999034455428328   0.005410957776200341   -0.005938180476438014
0.017999034455428328   0.005410957776200341   -0.005938180476438014
0.017999034455428328   0.005410957776200341   -0.005938180476438014
-0.020987351451111903   0.00098045999039513   -0.000553945748015145
-0.020987351451111903   0.00098045999039513   -0.000553945748015145
-0.020987351451111903   0.00098045999039513   -0.000553945748015145
-0.020987351451111903   0.00098045999039513   -0.000553945748015145
0.024395094522782643   0.021251968999528543   0.010201108637005345
0.024395094522782643   0.021251968999528543   0.010201108637005345
0.024395094522782643   0.021251968999528543   0.010201108637005345
0.024395094522782643   0.021251968999528543   0.010201108637005345
-0.058351871685983936   -0.010627683416882739   -0.00978048030044116
-0.058351871685983936   -0.010627683416882739   -0.00978048030044116
-0.058351871685983936   -0.010627683416882739   -0.00978048030044116
-0.058351871685983936   -0.010627683416882739   -0.00978048030044116
-0.04691295006127726   0.014245753662778141   0.0024531694725526626
-0.04691295006127726   0.014245753662778141   0.0024531694725526626
-0.04691295006127726   0.014245753662778141   0.0024531694725526626
-0.04691295006127726   0.014245753662778141   0.0024531694725526626
0.024146800602040736   0.014503362312349777   -0.007566688634650121
0.024146800602040736   0.014503362312349777   -0.007566688634650121
0.024146800602040736   0.014503362312349777   -0.007566688634650121
0.024146800602040736   0.014503362312349777   -0.007566688634650121
-0.014400599433702062   0.009222438628178082   0.0034376182969192413
-0.014400599433702062   0.009222438628178082   0.0034376182969192413
-0.014400599433702062   0.009222438628178082   0.0034376182969192413
-0.014400599433702062   0.009222438628178082   0.0034376182969192413
-0.06271614416936475   -0.004785023754386902   0.004666967209005102
-0.06271614416936475   -0.004785023754386902   0.004666967209005102
-0.06271614416936475   -0.004785023754386902   0.004666967209005102
-0.06271614416936475   -0.004785023754386902   0.004666967209005102
-0.13563770095685712   -0.018318545115946223   0.0011065659958513423
-0.13563770095685712   -0.018318545115946223   0.0011065659958513423
-0.13563770095685712   -0.018318545115946223   0.0011065659958513423
-0.13563770095685712   -0.018318545115946223   0.0011065659958513423
-0.13080562325257894   -0.011592361968083026   -0.0025391342984927134
-0.13080562325257894   -0.011592361968083026   -0.0025391342984927134
-0.13080562325257894   -0.011592361968083026   -0.0025391342984927134
-0.13080562325257894   -0.011592361968083026   -0.0025391342984927134
-0.05696460893223742   0.004826689486981315   0.0028226273333000883
-0.05696460893223742   0.004826689486981315   0.0028226273333000883
-0.05696460893223742   0.004826689486981315   0.0028226273333000883
-0.05696460893223742   0.004826689486981315   0.0028226273333000883
-0.09667024685453987   -0.006869696086488526   -0.0025256580697933847
-0.09667024685453987   -0.006869696086488526   -0.0025256580697933847
-0.09667024685453987   -0.006869696086488526   -0.0025256580697933847
-0.09667024685453987   -0.006869696086488526   -0.0025256580697933847
-0.05701267497094294   0.004296543227745843   0.0031124433990079615
-0.05701267497094294   0.004296543227745843   0.0031124433990079615
-0.05701267497094294   0.004296543227745843   0.0031124433990079615
-0.05701267497094294   0.004296543227745843   0.0031124433990079615
-0.13024580729741841   -0.010550465792390006   -0.0007819506983831855
-0.13024580729741841   -0.010550465792390006   -0.0007819506983831855
-0.13024580729741841   -0.010550465792390006   -0.0007819506983831855
-0.13024580729741841   -0.010550465792390006   -0.0007819506983831855
-0.12493347088996269   -0.0022823932625561164   -0.003991595078308837
-0.12493347088996269   -0.0022823932625561164   -0.003991595078308837
-0.12493347088996269   -0.0022823932625561164   -0.003991595078308837
-0.12493347088996269   -0.0022823932625561164   -0.003991595078308837
-0.05144843475840992   0.013041620334386592   0.0010674005861605615
-0.05144843475840992   0.013041620334386592   0.0010674005861605615
-0.05144843475840992   0.013041620334386592   0.0010674005861605615
-0.05144843475840992   0.013041620334386592   0.0010674005861605615
-0.09059888106749815   0.0012920555504530515   0.001242115264620815
-0.09059888106749815   0.0012920555504530515   0.001242115264620815
-0.09059888106749815   0.0012920555504530515   0.001242115264620815
-0.09059888106749815   0.0012920555504530515   0.001242115264620815
-0.051275479746312976   0.013535235981701636   0.0014385599993302182
-0.051275479746312976   0.013535235981701636   0.0014385599993302182
-0.051275479746312976   0.013535235981701636   0.0014385599993302182
-0.051275479746312976   0.013535235981701636   0.0014385599993302182
-0.12469267500413576   -0.0023622580119474455   -0.0027077508997837988
-0.12469267500413576   -0.0023622580119474455   -0.0027077508997837988
-0.12469267500413576   -0.0023622580119474455   -0.0027077508997837988
-0.12469267500413576   -0.0023622580119474455   -0.0027077508997837988
-0.11929561427489677   0.007062471021965892   -0.00563567907307865
-0.11929561427489677   0.007062471021965892   -0.00563567907307865
-0.11929561427489677   0.007062471021965892   -0.00563567907307865
-0.11929561427489677   0.007062471021965892   -0.00563567907307865
-0.04618992823484855   0.021280489328593263   -0.0009664570611188777
-0.04618992823484855   0.021280489328593263   -0.0009664570611188777
-0.04618992823484855   0.021280489328593263   -0.0009664570611188777
-0.04618992823484855   0.021280489328593263   -0.0009664570611188777
-0.08485558579990296   0.009435713999370262   0.0047642576241858844
-0.08485558579990296   0.009435713999370262   0.0047642576241858844
-0.08485558579990296   0.009435713999370262   0.0047642576241858844
-0.08485558579990296   0.009435713999370262   0.0047642576241858844
-0.13549115374763993   -0.012767895891766329   -0.003711347182241381
-0.13549115374763993   -0.012767895891766329   -0.003711347182241381
-0.13549115374763993   -0.012767895891766329   -0.003711347182241381
-0.13549115374763993   -0.012767895891766329   -0.003711347182241381
-0.2020381867461814   -0.011622287157121571   0.007678819285433913
-0.2020381867461814   -0.011622287157121571   0.007678819285433913
-0.2020381867461814   -0.011622287157121571   0.007678819285433913
-0.2020381867461814   -0.011622287157121571   0.007678819285433913
-0.20239484936039975   -0.019245980331624602   -0.010715462334716003
-0.20239484936039975   -0.019245980331624602   -0.010715462334716003
-0.20239484936039975   -0.019245980331624602   -0.010715462334716003
-0.20239484936039975   -0.019245980331624602   -0.010715462334716003
-0.12367296582274254   0.011973807363952246   0.009557983518653954
-0.12367296582274254   0.011973807363952246   0.009557983518653954
-0.12367296582274254   0.011973807363952246   0.009557983518653954
-0.12367296582274254   0.011973807363952246   0.009557983518653954
-0.16495747305223127   -0.007137226960025184   -0.0010889279912694666
-0.16495747305223127   -0.007137226960025184   -0.0010889279912694666
-0.16495747305223127   -0.007137226960025184   -0.0010889279912694666
-0.16495747305223127   -0.007137226960025184   -0.0010889279912694666
-0.12974712117707338   -0.0036176161715225086   -0.0052213697175242536
-0.12974712117707338   -0.0036176161715225086   -0.0052213697175242536
-0.12974712117707338   -0.0036176161715225086   -0.0052213697175242536
-0.12974712117707338   -0.0036176161715225086   -0.0052213697175242536
-0.19588934612248995   -0.0032232089125728905   0.005789282435783345
-0.19588934612248995   -0.0032232089125728905   0.005789282435783345
-0.19588934612248995   -0.0032232089125728905   0.005789282435783345
-0.19588934612248995   -0.0032232089125728905   0.005789282435783345
-0.19497592238822042   -0.010373235075863851   -0.011926683566601837
-0.19497592238822042   -0.010373235075863851   -0.011926683566601837
-0.19497592238822042   -0.010373235075863851   -0.011926683566601837
-0.19497592238822042   -0.010373235075863851   -0.011926683566601837
-0.11826823078480603   0.019440462018584237   0.007611750166334141
-0.11826823078480603   0.019440462018584237   0.007611750166334141
-0.11826823078480603   0.019440462018584237   0.007611750166334141
-0.11826823078480603   0.019440462018584237   0.007611750166334141
-0.15760524031451306   0.0010984436268490355   0.0028050788640939864
-0.15760524031451306   0.0010984436268490355   0.0028050788640939864
-0.15760524031451306   0.0010984436268490355   0.0028050788640939864
-0.15760524031451306   0.0010984436268490355   0.0028050788640939864
-0.12413790477626396   0.004767061337811202   -0.007063219110183027
-0.12413790477626396   0.004767061337811202   -0.007063219110183027
-0.12413790477626396   0.004767061337811202   -0.007063219110183027
-0.12413790477626396   0.004767061337811202   -0.007063219110183027
-0.1886230608756715   0.004783353126000117   0.004681035794278983
-0.1886230608756715   0.004783353126000117   0.004681035794278983
-0.1886230608756715   0.004783353126000117   0.004681035794278983
-0.1886230608756715   0.004783353126000117   0.004681035794278983
-0.18834798797865968   -0.000725330519561973   -0.012849154462637024
-0.18834798797865968   -0.000725330519561973   -0.012849154462637024
-0.18834798797865968   -0.000725330519561973   -0.012849154462637024
-0.18834798797865968   -0.000725330519561973   -0.012849154462637024
-0.11292205675659094   0.027646462656918155   0.005648116883498285
-0.11292205675659094   0.027646462656918155   0.005648116883498285
-0.11292205675659094   0.027646462656918155   0.005648116883498285
-0.11292205675659094   0.027646462656918155   0.005648116883498285
-0.15220458865032627   0.008740732759868912   0.006283404561498963
-0.15220458865032627   0.008740732759868912   0.006283404561498963
-0.15220458865032627   0.008740732759868912   0.006283404561498963
-0.15220458865032627   0.008740732759868912   0.006283404561498963
-0.20718851228109872   -0.01822508057811963   -0.011470014968154613
-0.20718851228109872   -0.01822508057811963   -0.011470014968154613
-0.20718851228109872   -0.01822508057811963   -0.011470014968154613
-0.20718851228109872   -0.01822508057811963   -0.011470014968154613
-0.2780399130779097   -0.0053031861587019904   0.016919522393929198
-0.2780399130779097   -0.0053031861587019904   0.016919522393929198
-0.2780399130779097   -0.0053031861587019904   0.016919522393929198
-0.2780399130779097   -0.0053031861587019904   0.016919522393929198
-0.27459197233449495   -0.024927768945955754   -0.015419358022022852
-0.27459197233449495   -0.024927768945955754   -0.015419358022022852
-0.27459197233449495   -0.024927768945955754   -0.015419358022022852
-0.27459197233449495   -0.024927768945955754   -0.015419358022022852
-0.18900042526605415   0.02033320732708658   0.016677470478300795
-0.18900042526605415   0.02033320732708658   0.016677470478300795
-0.18900042526605415   0.02033320732708658   0.016677470478300795
-0.18900042526605415   0.02033320732708658   0.016677470478300795
-0.2269476173170093   -0.0040737168998590395   0.002021879539492455
-0.2269476173170093   -0.0040737168998590395   0.002021879539492455
-0.2269476173170093   -0.0040737168998590395   0.002021879539492455
-0.2269476173170093   -0.0040737168998590395   0.002021879539492455
-0.2009423884047123   -0.009711506777645984   -0.012987631110256638
-0.2009423884047123   -0.009711506777645984   -0.012987631110256638
-0.2009423884047123   -0.009711506777645984   -0.012987631110256638
-0.2009423884047123   -0.009711506777645984   -0.012987631110256638
-0.2622527342279383   0.005514220126674775   0.015834843438125946
-0.2622527342279383   0.005514220126674775   0.015834843438125946
-0.2622527342279383   0.005514220126674775   0.015834843438125946
-0.2622527342279383   0.005514220126674775   0.015834843438125946
-0.2626993188079234   -0.019680527647541024   -0.01838312049036545
-0.2626993188079234   -0.019680527647541024   -0.01838312049036545
-0.2626993188079234   -0.019680527647541024   -0.01838312049036545
-0.2626993188079234   -0.019680527647541024   -0.01838312049036545
-0.18300505672786663   0.023786356301732613   0.013768053357569109
-0.18300505672786663   0.023786356301732613   0.013768053357569109
-0.18300505672786663   0.023786356301732613   0.013768053357569109
-0.18300505672786663   0.023786356301732613   0.013768053357569109
-0.2204226349709467   0.0014555977807866258   0.005147833887049858
-0.2204226349709467   0.0014555977807866258   0.005147833887049858
-0.2204226349709467   0.0014555977807866258   0.005147833887049858
-0.2204226349709467   0.0014555977807866258   0.005147833887049858
-0.1946006347749403   -0.005390719048403617   -0.01503276152766148
-0.1946006347749403   -0.005390719048403617   -0.01503276152766148
-0.1946006347749403   -0.005390719048403617   -0.01503276152766148
-0.1946006347749403   -0.005390719048403617   -0.01503276152766148
-0.25062353683088906   0.009976751632555826   0.01233851011470763
-0.25062353683088906   0.009976751632555826   0.01233851011470763
-0.25062353683088906   0.009976751632555826   0.01233851011470763
-0.25062353683088906   0.009976751632555826   0.01233851011470763
-0.24794418710725763   -0.0119084880611659   -0.020541321717587435
-0.24794418710725763   -0.0119084880611659   -0.020541321717587435
-0.24794418710725763   -0.0119084880611659   -0.020541321717587435
-0.24794418710725763   -0.0119084880611659   -0.020541321717587435
-0.17777032370385235   0.0278491031569958   0.01146473323484195
-0.17777032370385235   0.0278491031569958   0.01146473323484195
-0.17777032370385235   0.0278491031569958   0.01146473323484195
-0.17777032370385235   0.0278491031569958   0.01146473323484195
-0.20763794465241586   0.006597028350862122   0.009597425138700334
-0.20763794465241586   0.006597028350862122   0.009597425138700334
-0.20763794465241586   0.006597028350862122   0.009597425138700334
-0.20763794465241586   0.006597028350862122   0.009597425138700334
0.21668511210432237   0.01976867027768503   0.018417674855745268
0.21668511210432237   0.01976867027768503   0.018417674855745268
0.21668511210432237   0.01976867027768503   0.018417674855745268
0.21668511210432237   0.01976867027768503   0.018417674855745268
0.07890540865292622   -0.03525369199202902   -0.012103546858406417
0.07890540865292622   -0.03525369199202902   -0.012103546858406417
0.07890540865292622   -0.03525369199202902   -0.012103546858406417
0.07890540865292622   -0.03525369199202902   -0.012103546858406417
0.09681344307262356   -0.00045328774370849076   0.013212347390483095
0.09681344307262356   -0.00045328774370849076   0.013212347390483095
0.09681344307262356   -0.00045328774370849076   0.013212347390483095
0.09681344307262356   -0.00045328774370849076   0.013212347390483095
0.22025502365164626   -0.004318750863782285   -0.015479444948067585
0.22025502365164626   -0.004318750863782285   -0.015479444948067585
0.22025502365164626   -0.004318750863782285   -0.015479444948067585
0.22025502365164626   -0.004318750863782285   -0.015479444948067585
0.14375078879335432   -0.006202317857251713   -0.013698851806430974
0.14375078879335432   -0.006202317857251713   -0.013698851806430974
0.14375078879335432   -0.006202317857251713   -0.013698851806430974
0.14375078879335432   -0.006202317857251713   -0.013698851806430974
0.2328790487371347   0.027318124861846017   0.016003804753744487
0.2328790487371347   0.027318124861846017   0.016003804753744487
0.2328790487371347   0.027318124861846017   0.016003804753744487
0.2328790487371347   0.027318124861846017   0.016003804753744487
0.08510110828128337   -0.031178473175188827   -0.01462414113473742
0.08510110828128337   -0.031178473175188827   -0.01462414113473742
0.08510110828128337   -0.031178473175188827   -0.01462414113473742
0.08510110828128337   -0.031178473175188827   -0.01462414113473742
0.1037174574658978   0.0037155033222862205   0.010866413234873055
0.1037174574658978   0.0037155033222862205   0.010866413234873055
0.1037174574658978   0.0037155033222862205   0.010866413234873055
0.1037174574658978   0.0037155033222862205   0.010866413234873055
0.23307138364365795   0.0004060495339811218   -0.01941542623828963
0.23307138364365795   0.0004060495339811218   -0.01941542623828963
0.23307138364365795   0.0004060495339811218   -0.01941542623828963
0.23307138364365795   0.0004060495339811218   -0.01941542623828963
0.15721576044162833   -0.0011216294477084665   -0.008348677265401365
0.15721576044162833   -0.0011216294477084665   -0.008348677265401365
0.15721576044162833   -0.0011216294477084665   -0.008348677265401365
0.15721576044162833   -0.0011216294477084665   -0.008348677265401365
0.2458147167114705   0.032419275209480805   0.012288013425273294
0.2458147167114705   0.032419275209480805   0.012288013425273294
0.2458147167114705   0.032419275209480805   0.012288013425273294
0.2458147167114705   0.032419275209480805   0.012288013425273294
0.09192772920828195   -0.027344117543019197   -0.017022607187899854
0.09192772920828195   -0.027344117543019197   -0.017022607187899854
0.09192772920828195   -0.027344117543019197   -0.017022607187899854
0.09192772920828195   -0.027344117543019197   -0.017022607187899854
0.11061574199571123   0.012952530331791674   0.009416933247972357
0.11061574199571123   0.012952530331791674   0.009416933247972357
0.11061574199571123   0.012952530331791674   0.009416933247972357
0.11061574199571123   0.012952530331791674   0.009416933247972357
0.24994322604752806   0.012717496342492508   -0.020916448028943768
0.24994322604752806   0.012717496342492508   -0.020916448028943768
0.24994322604752806   0.012717496342492508   -0.020916448028943768
0.24994322604752806   0.012717496342492508   -0.020916448028943768
0.1653100875231837   0.005100788462787269   -0.003768839608635126
0.1653100875231837   0.005100788462787269   -0.003768839608635126
0.1653100875231837   0.005100788462787269   -0.003768839608635126
0.1653100875231837   0.005100788462787269   -0.003768839608635126
0.0935891808683595   0.011169558106965008   0.014892064119764984
0.0935891808683595   0.011169558106965008   0.014892064119764984
0.0935891808683595   0.011169558106965008   0.014892064119764984
0.0935891808683595   0.011169558106965008   0.014892064119764984
-0.04645338427394259   -0.0329251664355545   -0.006370716523119668
-0.04645338427394259   -0.0329251664355545   -0.006370716523119668
-0.04645338427394259   -0.0329251664355545   -0.006370716523119668
-0.04645338427394259   -0.0329251664355545   -0.006370716523119668
-0.03424936003318071   -0.009851556647615362   0.004430027886191903
-0.03424936003318071   -0.009851556647615362   0.004430027886191903
-0.03424936003318071   -0.009851556647615362   0.004430027886191903
-0.03424936003318071   -0.009851556647615362   0.004430027886191903
0.09406032487338473   0.0008460782220743521   -0.0018526095714938504
0.09406032487338473   0.0008460782220743521   -0.0018526095714938504
0.09406032487338473   0.0008460782220743521   -0.0018526095714938504
0.09406032487338473   0.0008460782220743521   -0.0018526095714938504
0.025499875076945344   -0.006792382777685367   -0.005774148837937975
0.025499875076945344   -0.006792382777685367   -0.005774148837937975
0.025499875076945344   -0.006792382777685367   -0.005774148837937975
0.025499875076945344   -0.006792382777685367   -0.005774148837937975
0.10070518206447032   0.018914080929898467   0.01330367367611001
0.10070518206447032   0.018914080929898467   0.01330367367611001
0.10070518206447032   0.018914080929898467   0.01330367367611001
0.10070518206447032   0.018914080929898467   0.01330367367611001
-0.04033034457174363   -0.027355686702916965   -0.008470764751322087
-0.04033034457174363   -0.027355686702916965   -0.008470764751322087
-0.04033034457174363   -0.027355686702916965   -0.008470764751322087
-0.04033034457174363   -0.027355686702916965   -0.008470764751322087
-0.027829021488495104   -0.002010859877753647   0.0027807871977154775
-0.027829021488495104   -0.002010859877753647   0.0027807871977154775
-0.027829021488495104   -0.002010859877753647   0.0027807871977154775
-0.027829021488495104   -0.002010859877753647   0.0027807871977154775
0.10167024533557557   0.007850395828658697   -0.003504539923109667
0.10167024533557557   0.007850395828658697   -0.003504539923109667
0.10167024533557557   0.007850395828658697   -0.003504539923109667
0.10167024533557557   0.007850395828658697   -0.003504539923109667
0.03168145726494461   -0.000613834030061846   -0.002287151876273095
0.03168145726494461   -0.000613834030061846   -0.002287151876273095
0.03168145726494461   -0.000613834030061846   -0.002287151876273095
0.03168145726494461   -0.000613834030061846   -0.002287151876273095
0.10858510066131608   0.02708319468292968   0.011836937851320926
0.10858510066131608   0.02708319468292968   0.011836937851320926
0.10858510066131608   0.02708319468292968   0.011836937851320926
0.10858510066131608   0.02708319468292968   0.011836937851320926
-0.034181196593211415   -0.02068097851099803   -0.010309969692621677
-0.034181196593211415   -0.02068097851099803   -0.010309969692621677
-0.034181196593211415   -0.02068097851099803   -0.010309969692621677
-0.034181196593211415   -0.02068097851099803   -0.010309969692621677
-0.021479495756297238   0.007120153209777868   0.001143562210828304
-0.021479495756297238   0.007120153209777868   0.001143562210828304
-0.021479495756297238   0.007120153209777868   0.001143562210828304
-0.021479495756297238   0.007120153209777868   0.001143562210828304
0.10838500534919775   0.01623175733192455   -0.005015976984727946
0.10838500534919775   0.01623175733192455   -0.005015976984727946
0.10838500534919775   0.01623175733192455   -0.005015976984727946
0.10838500534919775   0.01623175733192455   -0.005015976984727946
0.03941705636429148   0.0070031298270420705   0.0017961851128587988
0.03941705636429148   0.0070031298270420705   0.0017961851128587988
0.03941705636429148   0.0070031298270420705   0.0017961851128587988
0.03941705636429148   0.0070031298270420705   0.0017961851128587988
-0.036816371563951546   0.002501869734767525   0.006387310856514505
-0.036816371563951546   0.002501869734767525   0.006387310856514505
-0.036816371563951546   0.002501869734767525   0.006387310856514505
-0.036816371563951546   0.002501869734767525   0.006387310856514505
-0.16934349789056194   -0.02917892227368527   -0.0009100616485761507
-0.16934349789056194   -0.02917892227368527   -0.0009100616485761507
-0.16934349789056194   -0.02917892227368527   -0.0009100616485761507
-0.16934349789056194   -0.02917892227368527   -0.0009100616485761507
-0.1617775839310171   -0.017491636765200963   -0.003956028928831602
-0.1617775839310171   -0.017491636765200963   -0.003956028928831602
-0.1617775839310171   -0.017491636765200963   -0.003956028928831602
-0.1617775839310171   -0.017491636765200963   -0.003956028928831602
-0.031361476026237935   0.004820994049797749   0.0041968972234917145
-0.031361476026237935   0.004820994049797749   0.0041968972234917145
-0.031361476026237935   0.004820994049797749   0.0041968972234917145
-0.031361476026237935   0.004820994049797749   0.0041968972234917145
-0.09999433227462876   -0.008915413432194298   -0.003619165211316306
-0.09999433227462876   -0.008915413432194298   -0.003619165211316306
-0.09999433227462876   -0.008915413432194298   -0.003619165211316306
-0.09999433227462876   -0.008915413432194298   -0.003619165211316306
-0.03007121329051385   0.010612236782540148   0.004856968169370679
-0.03007121329051385   0.010612236782540148   0.004856968169370679
-0.03007121329051385   0.010612236782540148   0.004856968169370679
-0.03007121329051385   0.010612236782540148   0.004856968169370679
-0.16267731883379913   -0.02289235166500115   -0.003053988542941558
-0.16267731883379913   -0.02289235166500115   -0.003053988542941558
-0.16267731883379913   -0.02289235166500115   -0.003053988542941558
-0.16267731883379913   -0.02289235166500115   -0.003053988542941558
-0.15469234830974452   -0.008888412126652628   -0.005338848167700931
-0.15469234830974452   -0.008888412126652628   -0.005338848167700931
-0.15469234830974452   -0.008888412126652628   -0.005338848167700931
-0.15469234830974452   -0.008888412126652628   -0.005338848167700931
-0.025117653956621265   0.011903211889204218   0.0024235530901268168
-0.025117653956621265   0.011903211889204218   0.0024235530901268168
-0.025117653956621265   0.011903211889204218   0.0024235530901268168
-0.025117653956621265   0.011903211889204218   0.0024235530901268168
-0.09284102758802495   -0.0017234344369443412   -4.7158375649574216e-05
-0.09284102758802495   -0.0017234344369443412   -4.7158375649574216e-05
-0.09284102758802495   -0.0017234344369443412   -4.7158375649574216e-05
-0.09284102758802495   -0.0017234344369443412   -4.7158375649574216e-05
-0.023555213866939286   0.019028814567497325   0.0031101508602435933
-0.023555213866939286   0.019028814567497325   0.0031101508602435933
-0.023555213866939286   0.019028814567497325   0.0031101508602435933
-0.023555213866939286   0.019028814567497325   0.0031101508602435933
-0.1558949566193955   -0.015654183024917306   -0.004586118817691212
-0.1558949566193955   -0.015654183024917306   -0.004586118817691212
-0.1558949566193955   -0.015654183024917306   -0.004586118817691212
-0.1558949566193955   -0.015654183024917306   -0.004586118817691212
-0.1480913767888392   -0.000301580105048542   -0.006975355675344902
-0.1480913767888392   -0.000301580105048542   -0.006975355675344902
-0.1480913767888392   -0.000301580105048542   -0.006975355675344902
-0.1480913767888392   -0.000301580105048542   -0.006975355675344902
-0.01917712815415252   0.019123761444950843   0.0006517919863798759
-0.01917712815415252   0.019123761444950843   0.0006517919863798759
-0.01917712815415252   0.019123761444950843   0.0006517919863798759
-0.01917712815415252   0.019123761444950843   0.0006517919863798759
-0.08628126513681134   0.005444473683967912   0.0033460729428330047
-0.08628126513681134   0.005444473683967912   0.0033460729428330047
-0.08628126513681134   0.005444473683967912   0.0033460729428330047
-0.08628126513681134   0.005444473683967912   0.0033460729428330047
-0.16504316746638883   -0.006230427932107239   -0.0023569038692870066
-0.16504316746638883   -0.006230427932107239   -0.0023569038692870066
-0.16504316746638883   -0.006230427932107239   -0.0023569038692870066
-0.16504316746638883   -0.006230427932107239   -0.0023569038692870066
-0.2899210291650602   -0.023834675215837445   0.005275659314802837
-0.2899210291650602   -0.023834675215837445   0.005275659314802837
-0.2899210291650602   -0.023834675215837445   0.005275659314802837
-0.2899210291650602   -0.023834675215837445   0.005275659314802837
-0.28649097124640294   -0.02487379839702903   -0.011862039862592077
-0.28649097124640294   -0.02487379839702903   -0.011862039862592077
-0.28649097124640294   -0.02487379839702903   -0.011862039862592077
-0.28649097124640294   -0.02487379839702903   -0.011862039862592077
-0.15313456251032176   0.011333276272696848   0.010434165136748497
-0.15313456251032176   0.011333276272696848   0.010434165136748497
-0.15313456251032176   0.011333276272696848   0.010434165136748497
-0.15313456251032176   0.011333276272696848   0.010434165136748497
-0.22210195939794755   -0.009570371720888128   -0.0012764961352835936
-0.22210195939794755   -0.009570371720888128   -0.0012764961352835936
-0.22210195939794755   -0.009570371720888128   -0.0012764961352835936
-0.22210195939794755   -0.009570371720888128   -0.0012764961352835936
-0.1577161376179153   0.002521241229568698   -0.0036616753580910166
-0.1577161376179153   0.002521241229568698   -0.0036616753580910166
-0.1577161376179153   0.002521241229568698   -0.0036616753580910166
-0.1577161376179153   0.002521241229568698   -0.0036616753580910166
-0.2818488827936337   -0.016001250008724772   0.0024758540129523054
-0.2818488827936337   -0.016001250008724772   0.0024758540129523054
-0.2818488827936337   -0.016001250008724772   0.0024758540129523054
-0.2818488827936337   -0.016001250008724772   0.0024758540129523054
-0.27718358752862826   -0.0164895251833677   -0.013122829099603286
-0.27718358752862826   -0.0164895251833677   -0.013122829099603286
-0.27718358752862826   -0.0164895251833677   -0.013122829099603286
-0.27718358752862826   -0.0164895251833677   -0.013122829099603286
-0.1465624201792179   0.018062432364421913   0.008359947993859107
-0.1465624201792179   0.018062432364421913   0.008359947993859107
-0.1465624201792179   0.018062432364421913   0.008359947993859107
-0.1465624201792179   0.018062432364421913   0.008359947993859107
-0.2125818201089788   -0.0016333941925691237   0.0023238512494914067
-0.2125818201089788   -0.0016333941925691237   0.0023238512494914067
-0.2125818201089788   -0.0016333941925691237   0.0023238512494914067
-0.2125818201089788   -0.0016333941925691237   0.0023238512494914067
-0.1508646086549401   0.010317603339353706   -0.0054061653596844395
-0.1508646086549401   0.010317603339353706   -0.0054061653596844395
-0.1508646086549401   0.010317603339353706   -0.0054061653596844395
-0.1508646086549401   0.010317603339353706   -0.0054061653596844395
-0.27261227392343423   -0.00847557102882774   0.0017197847718271268
-0.27261227392343423   -0.00847557102882774   0.0017197847718271268
-0.27261227392343423   -0.00847557102882774   0.0017197847718271268
-0.27261227392343423   -0.00847557102882774   0.0017197847718271268
-0.2688662806349683   -0.007434230470846938   -0.013811124876949797
-0.2688662806349683   -0.007434230470846938   -0.013811124876949797
-0.2688662806349683   -0.007434230470846938   -0.013811124876949797
-0.2688662806349683   -0.007434230470846938   -0.013811124876949797
-0.14019784270421806   0.02542216172698819   0.006768572915725184
-0.14019784270421806   0.02542216172698819   0.006768572915725184
-0.14019784270421806   0.02542216172698819   0.006768572915725184
-0.14019784270421806   0.02542216172698819   0.006768572915725184
-0.2062850650800581   0.005121195896311388   0.005418545506100625
-0.2062850650800581   0.005121195896311388   0.005418545506100625
-0.2062850650800581   0.005121195896311388   0.005418545506100625
-0.2062850650800581   0.005121195896311388   0.005418545506100625
-0.29097363830422873   -0.013365206668439267   -0.010456854928438137
-0.29097363830422873   -0.013365206668439267   -0.010456854928438137
-0.29097363830422873   -0.013365206668439267   -0.010456854928438137
-0.29097363830422873   -0.013365206668439267   -0.010456854928438137
-0.41569135843265764   -0.015130376104652843   0.018062215162427488
-0.41569135843265764   -0.015130376104652843   0.018062215162427488
-0.41569135843265764   -0.015130376104652843   0.018062215162427488
-0.41569135843265764   -0.015130376104652843   0.018062215162427488
-0.40833597106572583   -0.029672089919673593   -0.014013469955828353
-0.40833597106572583   -0.029672089919673593   -0.014013469955828353
-0.40833597106572583   -0.029672089919673593   -0.014013469955828353
-0.40833597106572583   -0.029672089919673593   -0.014013469955828353
-0.2708715567516559   0.022923954477885894   0.018437279736228173
-0.2708715567516559   0.022923954477885894   0.018437279736228173
-0.2708715567516559   0.022923954477885894   0.018437279736228173
-0.2708715567516559   0.022923954477885894   0.018437279736228173
-0.33106490148416734   -0.004078242457142459   0.004045844069460715
-0.33106490148416734   -0.004078242457142459   0.004045844069460715
-0.33106490148416734   -0.004078242457142459   0.004045844069460715
-0.33106490148416734   -0.004078242457142459   0.004045844069460715
-0.28226822851402267   -0.003983560281425859   -0.011638564316292841
-0.28226822851402267   -0.003983560281425859   -0.011638564316292841
-0.28226822851402267   -0.003983560281425859   -0.011638564316292841
-0.28226822851402267   -0.003983560281425859   -0.011638564316292841
-0.39671754580097934   -0.002542821657979949   0.01694938810620707
-0.39671754580097934   -0.002542821657979949   0.01694938810620707
-0.39671754580097934   -0.002542821657979949   0.01694938810620707
-0.39671754580097934   -0.002542821657979949   0.01694938810620707
-0.39408770322181463   -0.024490398485174605   -0.016533074083019003
-0.39408770322181463   -0.024490398485174605   -0.016533074083019003
-0.39408770322181463   -0.024490398485174605   -0.016533074083019003
-0.39408770322181463   -0.024490398485174605   -0.016533074083019003
-0.26310865617892326   0.026115127606595602   0.014647174858958462
-0.26310865617892326   0.026115127606595602   0.014647174858958462
-0.26310865617892326   0.026115127606595602   0.014647174858958462
-0.26310865617892326   0.026115127606595602   0.014647174858958462
-0.3240216821522259   0.001591433154129393   0.006987579362384144
-0.3240216821522259   0.001591433154129393   0.006987579362384144
-0.3240216821522259   0.001591433154129393   0.006987579362384144
-0.3240216821522259   0.001591433154129393   0.006987579362384144
-0.27387825899114726   0.00020080238204121803   -0.01328651397760719
-0.27387825899114726   0.00020080238204121803   -0.01328651397760719
-0.27387825899114726   0.00020080238204121803   -0.01328651397760719
-0.27387825899114726   0.00020080238204121803   -0.01328651397760719
-0.38308995994405176   0.001652067204914967   0.012313176615699122
-0.38308995994405176   0.001652067204914967   0.012313176615699122
-0.38308995994405176   0.001652067204914967   0.012313176615699122
-0.38308995994405176   0.001652067204914967   0.012313176615699122
-0.37841939690584786   -0.01835089643305285   -0.018886191513405683
-0.37841939690584786   -0.01835089643305285   -0.018886191513405683
-0.37841939690584786   -0.01835089643305285   -0.018886191513405683
-0.37841939690584786   -0.01835089643305285   -0.018886191513405683
-0.25633199685953   0.02896259094918449   0.012463472580210418
-0.25633199685953   0.02896259094918449   0.012463472580210418
-0.25633199685953   0.02896259094918449   0.012463472580210418
-0.25633199685953   0.02896259094918449   0.012463472580210418
-0.30807568154677556   0.006266802410181946   0.011522506172653157
-0.30807568154677556   0.006266802410181946   0.011522506172653157
-0.30807568154677556   0.006266802410181946   0.011522506172653157
-0.30807568154677556   0.006266802410181946   0.011522506172653157
0.3594549354737945   0.027001854439218327   0.018624658476962
0.3594549354737945   0.027001854439218327   0.018624658476962
0.3594549354737945   0.027001854439218327   0.018624658476962
0.3594549354737945   0.027001854439218327   0.018624658476962
0.1578643933454498   -0.0415440794209211   -0.008737902663984713
0.1578643933454498   -0.0415440794209211   -0.008737902663984713
0.1578643933454498   -0.0415440794209211   -0.008737902663984713
0.1578643933454498   -0.0415440794209211   -0.008737902663984713
0.1754339460663322   -0.0076421849861411095   0.012724462025452358
0.1754339460663322   -0.0076421849861411095   0.012724462025452358
0.1754339460663322   -0.0076421849861411095   0.012724462025452358
0.1754339460663322   -0.0076421849861411095   0.012724462025452358
0.3630829946188944   0.00012733231858860772   -0.013571451821001276
0.3630829946188944   0.00012733231858860772   -0.013571451821001276
0.3630829946188944   0.00012733231858860772   -0.013571451821001276
0.3630829946188944   0.00012733231858860772   -0.013571451821001276
0.24853443163485234   -0.007215763817158799   -0.019156202419028427
0.24853443163485234   -0.007215763817158799   -0.019156202419028427
0.24853443163485234   -0.007215763817158799   -0.019156202419028427
0.24853443163485234   -0.007215763817158799   -0.019156202419028427
0.3754729151664432   0.032934844229880106   0.015570639005447397
0.3754729151664432   0.032934844229880106   0.015570639005447397
0.3754729151664432   0.032934844229880106   0.015570639005447397
0.3754729151664432   0.032934844229880106   0.015570639005447397
0.16424110832928748   -0.039252614086928976   -0.011629297558982347
0.16424110832928748   -0.039252614086928976   -0.011629297558982347
0.16424110832928748   -0.039252614086928976   -0.011629297558982347
0.16424110832928748   -0.039252614086928976   -0.011629297558982347
0.1821740280269404   -0.0038386550539804   0.01025840643863567
0.1821740280269404   -0.0038386550539804   0.01025840643863567
0.1821740280269404   -0.0038386550539804   0.01025840643863567
0.1821740280269404   -0.0038386550539804   0.01025840643863567
0.3750567382977086   0.004308400233180479   -0.016873558354958802
0.3750567382977086   0.004308400233180479   -0.016873558354958802
0.3750567382977086   0.004308400233180479   -0.016873558354958802
0.3750567382977086   0.004308400233180479   -0.016873558354958802
0.26370215411546155   -0.0027759146644765337   -0.013079939033464019
0.26370215411546155   -0.0027759146644765337   -0.013079939033464019
0.26370215411546155   -0.0027759146644765337   -0.013079939033464019
0.26370215411546155   -0.0027759146644765337   -0.013079939033464019
0.38736259589839267   0.037450169340759426   0.01151396054088254
0.38736259589839267   0.037450169340759426   0.01151396054088254
0.38736259589839267   0.037450169340759426   0.01151396054088254
0.38736259589839267   0.037450169340759426   0.01151396054088254
0.17090845338556337   -0.03594014120225233   -0.013967980619977595
0.17090845338556337   -0.03594014120225233   -0.013967980619977595
0.17090845338556337   -0.03594014120225233   -0.013967980619977595
0.17090845338556337   -0.03594014120225233   -0.013967980619977595
0.1882973548609455   0.006370458334595923   0.00899423311815588
0.1882973548609455   0.006370458334595923   0.00899423311815588
0.1882973548609455   0.006370458334595923   0.00899423311815588
0.1882973548609455   0.006370458334595923   0.00899423311815588
0.38985134554513506   0.01656897279857135   -0.01764075903197696
0.38985134554513506   0.01656897279857135   -0.01764075903197696
0.38985134554513506   0.01656897279857135   -0.01764075903197696
0.38985134554513506   0.01656897279857135   -0.01764075903197696
0.26911505428652194   0.003251007939588234   -0.008919465151686349
0.26911505428652194   0.003251007939588234   -0.008919465151686349
0.26911505428652194   0.003251007939588234   -0.008919465151686349
0.26911505428652194   0.003251007939588234   -0.008919465151686349
0.17458025627305465   0.016012642907576972   0.017284689645540467
0.17458025627305465   0.016012642907576972   0.017284689645540467
0.17458025627305465   0.016012642907576972   0.017284689645540467
0.17458025627305465   0.016012642907576972   0.017284689645540467
-0.022971978310345326   -0.05086875040581477   -0.005023264806555983
-0.022971978310345326   -0.05086875040581477   -0.005023264806555983
-0.022971978310345326   -0.05086875040581477   -0.005023264806555983
-0.022971978310345326   -0.05086875040581477   -0.005023264806555983
-0.007981048658416135   -0.018343664367258067   0.0042400510136449115
-0.007981048658416135   -0.018343664367258067   0.0042400510136449115
-0.007981048658416135   -0.018343664367258067   0.0042400510136449115
-0.007981048658416135   -0.018343664367258067   0.0042400510136449115
0.17297280893056372   -0.008180004147294459   0.0009565955077634001
0.17297280893056372   -0.008180004147294459   0.0009565955077634001
0.17297280893056372   -0.008180004147294459   0.0009565955077634001
0.17297280893056372   -0.008180004147294459   0.0009565955077634001
0.07699794067820646   -0.013829229981736437   -0.008979574411773245
0.07699794067820646   -0.013829229981736437   -0.008979574411773245
0.07699794067820646   -0.013829229981736437   -0.008979574411773245
0.07699794067820646   -0.013829229981736437   -0.008979574411773245
0.18185161934433877   0.021840823097027312   0.015329820332316887
0.18185161934433877   0.021840823097027312   0.015329820332316887
0.18185161934433877   0.021840823097027312   0.015329820332316887
0.18185161934433877   0.021840823097027312   0.015329820332316887
-0.016214542581409436   -0.04771917512079809   -0.007551907847781579
-0.016214542581409436   -0.04771917512079809   -0.007551907847781579
-0.016214542581409436   -0.04771917512079809   -0.007551907847781579
-0.016214542581409436   -0.04771917512079809   -0.007551907847781579
-0.0011156358135040278   -0.011497093279531601   0.0025438956850031007
-0.0011156358135040278   -0.011497093279531601   0.0025438956850031007
-0.0011156358135040278   -0.011497093279531601   0.0025438956850031007
-0.0011156358135040278   -0.011497093279531601   0.0025438956850031007
0.18004344500729713   -0.003012380256305236   -0.0012207834572558595
0.18004344500729713   -0.003012380256305236   -0.0012207834572558595
0.18004344500729713   -0.003012380256305236   -0.0012207834572558595
0.18004344500729713   -0.003012380256305236   -0.0012207834572558595
0.08290870350240208   -0.009613278981351447   -0.005792661963449881
0.08290870350240208   -0.009613278981351447   -0.005792661963449881
0.08290870350240208   -0.009613278981351447   -0.005792661963449881
0.08290870350240208   -0.009613278981351447   -0.005792661963449881
0.18939951006257044   0.028838824226036473   0.013708337336768977
0.18939951006257044   0.028838824226036473   0.013708337336768977
0.18939951006257044   0.028838824226036473   0.013708337336768977
0.18939951006257044   0.028838824226036473   0.013708337336768977
-0.010075089036046031   -0.042951685929142   -0.010798777778096513
-0.010075089036046031   -0.042951685929142   -0.010798777778096513
-0.010075089036046031   -0.042951685929142   -0.010798777778096513
-0.010075089036046031   -0.042951685929142   -0.010798777778096513
0.0042819232922016014   -0.003418639255413524   0.0008351221355778267
0.0042819232922016014   -0.003418639255413524   0.0008351221355778267
0.0042819232922016014   -0.003418639255413524   0.0008351221355778267
0.0042819232922016014   -0.003418639255413524   0.0008351221355778267
0.18531301642822395   0.0036183658834477023   -0.003175366594305666
0.18531301642822395   0.0036183658834477023   -0.003175366594305666
0.18531301642822395   0.0036183658834477023   -0.003175366594305666
0.18531301642822395   0.0036183658834477023   -0.003175366594305666
0.09029850976851446   -0.0032832748093430987   -0.0023347985769093804
0.09029850976851446   -0.0032832748093430987   -0.0023347985769093804
0.09029850976851446   -0.0032832748093430987   -0.0023347985769093804
0.09029850976851446   -0.0032832748093430987   -0.0023347985769093804
-0.009110421616267392   0.004777382468743881   0.008638385789275048
-0.009110421616267392   0.004777382468743881   0.008638385789275048
-0.009110421616267392   0.004777382468743881   0.008638385789275048
-0.009110421616267392   0.004777382468743881   0.008638385789275048
-0.20234968684814236   -0.06350920896708807   -0.0039497496967166685
-0.20234968684814236   -0.06350920896708807   -0.0039497496967166685
-0.20234968684814236   -0.06350920896708807   -0.0039497496967166685
-0.20234968684814236   -0.06350920896708807   -0.0039497496967166685
-0.18735992267987267   -0.028076653287466453   -0.004292892809194536
-0.18735992267987267   -0.028076653287466453   -0.004292892809194536
-0.18735992267987267   -0.028076653287466453   -0.004292892809194536
-0.18735992267987267   -0.028076653287466453   -0.004292892809194536
-0.008441247177373884   -0.020384364541335968   0.003979758592934066
-0.008441247177373884   -0.020384364541335968   0.003979758592934066
-0.008441247177373884   -0.020384364541335968   0.003979758592934066
-0.008441247177373884   -0.020384364541335968   0.003979758592934066
-0.10224916371207929   -0.025356351464726937   -0.007980301012521653
-0.10224916371207929   -0.025356351464726937   -0.007980301012521653
-0.10224916371207929   -0.025356351464726937   -0.007980301012521653
-0.10224916371207929   -0.025356351464726937   -0.007980301012521653
-0.0014780423991166821   0.01136715409924784   0.007044263843636265
-0.0014780423991166821   0.01136715409924784   0.007044263843636265
-0.0014780423991166821   0.01136715409924784   0.007044263843636265
-0.0014780423991166821   0.01136715409924784   0.007044263843636265
-0.193851558889354   -0.05935660335927693   -0.005471123784790631
-0.193851558889354   -0.05935660335927693   -0.005471123784790631
-0.193851558889354   -0.05935660335927693   -0.005471123784790631
-0.193851558889354   -0.05935660335927693   -0.005471123784790631
-0.17883147538751737   -0.020484930124104662   -0.005803335545506104
-0.17883147538751737   -0.020484930124104662   -0.005803335545506104
-0.17883147538751737   -0.020484930124104662   -0.005803335545506104
-0.17883147538751737   -0.020484930124104662   -0.005803335545506104
-0.0020580942878961157   -0.015407255667974702   0.001741765701485762
-0.0020580942878961157   -0.015407255667974702   0.001741765701485762
-0.0020580942878961157   -0.015407255667974702   0.001741765701485762
-0.0020580942878961157   -0.015407255667974702   0.001741765701485762
-0.09396983440652472   -0.019877132690790618   -0.00437976797282544
-0.09396983440652472   -0.019877132690790618   -0.00437976797282544
-0.09396983440652472   -0.019877132690790618   -0.00437976797282544
-0.09396983440652472   -0.019877132690790618   -0.00437976797282544
0.005501253392313038   0.01864044368989501   0.005490804744661821
0.005501253392313038   0.01864044368989501   0.005490804744661821
0.005501253392313038   0.01864044368989501   0.005490804744661821
0.005501253392313038   0.01864044368989501   0.005490804744661821
-0.18636169206659814   -0.0545034984808432   -0.009435850584170033
-0.18636169206659814   -0.0545034984808432   -0.009435850584170033
-0.18636169206659814   -0.0545034984808432   -0.009435850584170033
-0.18636169206659814   -0.0545034984808432   -0.009435850584170033
-0.17279735967611587   -0.01322687064742202   -0.007481136953536421
-0.17279735967611587   -0.01322687064742202   -0.007481136953536421
-0.17279735967611587   -0.01322687064742202   -0.007481136953536421
-0.17279735967611587   -0.01322687064742202   -0.007481136953536421
0.002114181739174502   -0.011376365373123455   -0.0020458595118486977
0.002114181739174502   -0.011376365373123455   -0.0020458595118486977
0.002114181739174502   -0.011376365373123455   -0.0020458595118486977
0.002114181739174502   -0.011376365373123455   -0.0020458595118486977
-0.087905336330708   -0.014738962439277498   -0.002086798505329366
-0.087905336330708   -0.014738962439277498   -0.002086798505329366
-0.087905336330708   -0.014738962439277498   -0.002086798505329366
-0.087905336330708   -0.014738962439277498   -0.002086798505329366
-0.18987298870084363   -0.004912743809514369   -0.00016272411779831054
-0.18987298870084363   -0.004912743809514369   -0.00016272411779831054
-0.18987298870084363   -0.004912743809514369   -0.00016272411779831054
-0.18987298870084363   -0.004912743809514369   -0.00016272411779831054
-0.38286616426722686   -0.06827984555756059   -0.003089126043278215
-0.38286616426722686   -0.06827984555756059   -0.003089126043278215
-0.38286616426722686   -0.06827984555756059   -0.003089126043278215
-0.38286616426722686   -0.06827984555756059   -0.003089126043278215
-0.3669469990138921   -0.03602975414346471   -0.012568550440489004
-0.3669469990138921   -0.03602975414346471   -0.012568550440489004
-0.3669469990138921   -0.03602975414346471   -0.012568550440489004
-0.3669469990138921   -0.03602975414346471   -0.012568550440489004
-0.18347634987303277   -0.021232034628488158   0.008280352566025231
-0.18347634987303277   -0.021232034628488158   0.008280352566025231
-0.18347634987303277   -0.021232034628488158   0.008280352566025231
-0.18347634987303277   -0.021232034628488158   0.008280352566025231
-0.27837854674052   -0.030658052372133322   -0.00560186110835454
-0.27837854674052   -0.030658052372133322   -0.00560186110835454
-0.27837854674052   -0.030658052372133322   -0.00560186110835454
-0.27837854674052   -0.030658052372133322   -0.00560186110835454
-0.1804474312605363   0.0035187097460900943   -0.001325798746070743
-0.1804474312605363   0.0035187097460900943   -0.001325798746070743
-0.1804474312605363   0.0035187097460900943   -0.001325798746070743
-0.1804474312605363   0.0035187097460900943   -0.001325798746070743
-0.3700715362519593   -0.06087611714361321   -0.0033448736306734275
-0.3700715362519593   -0.06087611714361321   -0.0033448736306734275
-0.3700715362519593   -0.06087611714361321   -0.0033448736306734275
-0.3700715362519593   -0.06087611714361321   -0.0033448736306734275
-0.35470614543385603   -0.028143095820778126   -0.014523967677503016
-0.35470614543385603   -0.028143095820778126   -0.014523967677503016
-0.35470614543385603   -0.028143095820778126   -0.014523967677503016
-0.35470614543385603   -0.028143095820778126   -0.014523967677503016
-0.17523103354204295   -0.015341965332303406   0.007055908890066284
-0.17523103354204295   -0.015341965332303406   0.007055908890066284
-0.17523103354204295   -0.015341965332303406   0.007055908890066284
-0.17523103354204295   -0.015341965332303406   0.007055908890066284
-0.2657170502092425   -0.023087927264359   -0.0017276503065703826
-0.2657170502092425   -0.023087927264359   -0.0017276503065703826
-0.2657170502092425   -0.023087927264359   -0.0017276503065703826
-0.2657170502092425   -0.023087927264359   -0.0017276503065703826
-0.17190795919492075   0.01082266501765309   -0.00249334972428218
-0.17190795919492075   0.01082266501765309   -0.00249334972428218
-0.17190795919492075   0.01082266501765309   -0.00249334972428218
-0.17190795919492075   0.01082266501765309   -0.00249334972428218
-0.35857442614935403   -0.05485293253911051   -0.007155534536658119
-0.35857442614935403   -0.05485293253911051   -0.007155534536658119
-0.35857442614935403   -0.05485293253911051   -0.007155534536658119
-0.35857442614935403   -0.05485293253911051   -0.007155534536658119
-0.34486076735595206   -0.019865726800300902   -0.015007945068970891
-0.34486076735595206   -0.019865726800300902   -0.015007945068970891
-0.34486076735595206   -0.019865726800300902   -0.015007945068970891
-0.34486076735595206   -0.019865726800300902   -0.015007945068970891
-0.17051207853383846   -0.01159697809010058   0.0023153762005304283
-0.17051207853383846   -0.01159697809010058   0.0023153762005304283
-0.17051207853383846   -0.01159697809010058   0.0023153762005304283
-0.17051207853383846   -0.01159697809010058   0.0023153762005304283
-0.258959968840508   -0.018489904191303877   -0.0004380008812891606
-0.258959968840508   -0.018489904191303877   -0.0004380008812891606
-0.258959968840508   -0.018489904191303877   -0.0004380008812891606
-0.258959968840508   -0.018489904191303877   -0.0004380008812891606
-0.37276311862440525   -0.011939933210695017   -0.00891381017603577
-0.37276311862440525   -0.011939933210695017   -0.00891381017603577
-0.37276311862440525   -0.011939933210695017   -0.00891381017603577
-0.37276311862440525   -0.011939933210695017   -0.00891381017603577
-0.5622739916600455   -0.046947940346603045   0.020395729579618403
-0.5622739916600455   -0.046947940346603045   0.020395729579618403
-0.5622739916600455   -0.046947940346603045   0.020395729579618403
-0.5622739916600455   -0.046947940346603045   0.020395729579618403
-0.5439887230986559   -0.03781372005075516   -0.012133926559992427
-0.5439887230986559   -0.03781372005075516   -0.012133926559992427
-0.5439887230986559   -0.03781372005075516   -0.012133926559992427
-0.5439887230986559   -0.03781372005075516   -0.012133926559992427
-0.3513534410970969   0.01041674774813324   0.01895273725188616
-0.3513534410970969   0.01041674774813324   0.01895273725188616
-0.3513534410970969   0.01041674774813324   0.01895273725188616
-0.3513534410970969   0.01041674774813324   0.01895273725188616
-0.437029808621546   -0.014500346659863175   0.0025684972974729797
-0.437029808621546   -0.014500346659863175   0.0025684972974729797
-0.437029808621546   -0.014500346659863175   0.0025684972974729797
-0.437029808621546   -0.014500346659863175   0.0025684972974729797
-0.35929240609278035   -0.00042728277771944545   -0.009898057200674038
-0.35929240609278035   -0.00042728277771944545   -0.009898057200674038
-0.35929240609278035   -0.00042728277771944545   -0.009898057200674038
-0.35929240609278035   -0.00042728277771944545   -0.009898057200674038
-0.5347728404774106   -0.025692771899342423   0.02182453839482151
-0.5347728404774106   -0.025692771899342423   0.02182453839482151
-0.5347728404774106   -0.025692771899342423   0.02182453839482151
-0.5347728404774106   -0.025692771899342423   0.02182453839482151
-0.5243141046969874   -0.03194548847613389   -0.014450457036624922
-0.5243141046969874   -0.03194548847613389   -0.014450457036624922
-0.5243141046969874   -0.03194548847613389   -0.014450457036624922
-0.5243141046969874   -0.03194548847613389   -0.014450457036624922
-0.3392871072578398   0.016200743154105843   0.0182273842276943
-0.3392871072578398   0.016200743154105843   0.0182273842276943
-0.3392871072578398   0.016200743154105843   0.0182273842276943
-0.3392871072578398   0.016200743154105843   0.0182273842276943
-0.42583994404387365   -0.00584299449210704   0.008836392372572222
-0.42583994404387365   -0.00584299449210704   0.008836392372572222
-0.42583994404387365   -0.00584299449210704   0.008836392372572222
-0.42583994404387365   -0.00584299449210704   0.008836392372572222
-0.34748504258442625   0.004165087919561911   -0.010726637170691628
-0.34748504258442625   0.004165087919561911   -0.010726637170691628
-0.34748504258442625   0.004165087919561911   -0.010726637170691628
-0.34748504258442625   0.004165087919561911   -0.010726637170691628
-0.5158292900050585   -0.019622953876252888   0.015651081823134655
-0.5158292900050585   -0.019622953876252888   0.015651081823134655
-0.5158292900050585   -0.019622953876252888   0.015651081823134655
-0.5158292900050585   -0.019622953876252888   0.015651081823134655
-0.5039216480903472   -0.02654661323326009   -0.01749289710119519
-0.5039216480903472   -0.02654661323326009   -0.01749289710119519
-0.5039216480903472   -0.02654661323326009   -0.01749289710119519
-0.5039216480903472   -0.02654661323326009   -0.01749289710119519
-0.33050634551708863   0.022891474356190517   0.01400696296885498
-0.33050634551708863   0.022891474356190517   0.01400696296885498
-0.33050634551708863   0.022891474356190517   0.01400696296885498
-0.33050634551708863   0.022891474356190517   0.01400696296885498
-0.40367466433451354   0.0015046798198678907   0.015255366034457377
-0.40367466433451354   0.0015046798198678907   0.015255366034457377
-0.40367466433451354   0.0015046798198678907   0.015255366034457377
-0.40367466433451354   0.0015046798198678907   0.015255366034457377
0.48751935011479997   0.029575586488164857   0.017205470112094903
0.48751935011479997   0.029575586488164857   0.017205470112094903
0.48751935011479997   0.029575586488164857   0.017205470112094903
0.48751935011479997   0.029575586488164857   0.017205470112094903
0.23149338223973748   -0.04280526696621945   0.003373007007147353
0.23149338223973748   -0.04280526696621945   0.003373007007147353
0.23149338223973748   -0.04280526696621945   0.003373007007147353
0.23149338223973748   -0.04280526696621945   0.003373007007147353
0.24384514614286337   -0.018388056517167586   0.013089452476248705
0.24384514614286337   -0.018388056517167586   0.013089452476248705
0.24384514614286337   -0.018388056517167586   0.013089452476248705
0.24384514614286337   -0.018388056517167586   0.013089452476248705
0.4898310526694739   0.005092382172898424   -0.004230343119894214
0.4898310526694739   0.005092382172898424   -0.004230343119894214
0.4898310526694739   0.005092382172898424   -0.004230343119894214
0.4898310526694739   0.005092382172898424   -0.004230343119894214
0.34222650560337153   -0.008925155420682868   -0.02242493463287707
0.34222650560337153   -0.008925155420682868   -0.02242493463287707
0.34222650560337153   -0.008925155420682868   -0.02242493463287707
0.34222650560337153   -0.008925155420682868   -0.02242493463287707
0.498920282537046   0.03272559828716011   0.013582590103704596
0.498920282537046   0.03272559828716011   0.013582590103704596
0.498920282537046   0.03272559828716011   0.013582590103704596
0.498920282537046   0.03272559828716011   0.013582590103704596
0.23690509555232186   -0.043872093354398664   0.0038732363607723065
0.23690509555232186   -0.043872093354398664   0.0038732363607723065
0.23690509555232186   -0.043872093354398664   0.0038732363607723065
0.23690509555232186   -0.043872093354398664   0.0038732363607723065
0.2484205264263865   -0.015659071556799548   0.009925294566463155
0.2484205264263865   -0.015659071556799548   0.009925294566463155
0.2484205264263865   -0.015659071556799548   0.009925294566463155
0.2484205264263865   -0.015659071556799548   0.009925294566463155
0.49808528688551135   0.00815138659527076   -0.001673995041621544
0.49808528688551135   0.00815138659527076   -0.001673995041621544
0.49808528688551135   0.00815138659527076   -0.001673995041621544
0.49808528688551135   0.00815138659527076   -0.001673995041621544
0.3560122169502051   -0.006989971833738132   -0.015412232947466326
0.3560122169502051   -0.006989971833738132   -0.015412232947466326
0.3560122169502051   -0.006989971833738132   -0.015412232947466326
0.3560122169502051   -0.006989971833738132   -0.015412232947466326
0.5058072710675106   0.03570890079238476   0.009378411671260627
0.5058072710675106   0.03570890079238476   0.009378411671260627
0.5058072710675106   0.03570890079238476   0.009378411671260627
0.5058072710675106   0.03570890079238476   0.009378411671260627
0.24219263520459713   -0.04172249279370367   0.00484925969442046
0.24219263520459713   -0.04172249279370367   0.00484925969442046
0.24219263520459713   -0.04172249279370367   0.00484925969442046
0.24219263520459713   -0.04172249279370367   0.00484925969442046
0.2552023900782104   -0.005017603642310187   0.009075314230540053
0.2552023900782104   -0.005017603642310187   0.009075314230540053
0.2552023900782104   -0.005017603642310187   0.009075314230540053
0.2552023900782104   -0.005017603642310187   0.009075314230540053
0.506744139122038   0.015333280954348466   -0.0006897427880165688
0.506744139122038   0.015333280954348466   -0.0006897427880165688
0.506744139122038   0.015333280954348466   -0.0006897427880165688
0.506744139122038   0.015333280954348466   -0.0006897427880165688
0.3574259940943855   -0.003028193610894764   -0.011647754545683793
0.3574259940943855   -0.003028193610894764   -0.011647754545683793
0.3574259940943855   -0.003028193610894764   -0.011647754545683793
0.3574259940943855   -0.003028193610894764   -0.011647754545683793
0.24451324158191187   0.007305294903589846   0.01836174184820989
0.24451324158191187   0.007305294903589846   0.01836174184820989
0.24451324158191187   0.007305294903589846   0.01836174184820989
0.24451324158191187   0.007305294903589846   0.01836174184820989
0.010638946690685241   -0.08395365231896688   0.008172452273764202
0.010638946690685241   -0.08395365231896688   0.008172452273764202
0.010638946690685241   -0.08395365231896688   0.008172452273764202
0.010638946690685241   -0.08395365231896688   0.008172452273764202
0.026553811425469254   -0.03608749385991159   0.007838144449787568
0.026553811425469254   -0.03608749385991159   0.007838144449787568
0.026553811425469254   -0.03608749385991159   0.007838144449787568
0.026553811425469254   -0.03608749385991159   0.007838144449787568
0.23836519146443952   -0.038338999731976485   0.005640622298936353
0.23836519146443952   -0.038338999731976485   0.005640622298936353
0.23836519146443952   -0.038338999731976485   0.005640622298936353
0.23836519146443952   -0.038338999731976485   0.005640622298936353
0.12584820122271434   -0.03694608448658997   -0.014010417555498415
0.12584820122271434   -0.03694608448658997   -0.014010417555498415
0.12584820122271434   -0.03694608448658997   -0.014010417555498415
0.12584820122271434   -0.03694608448658997   -0.014010417555498415
0.25000738510049253   0.010115091778820286   0.015397498968408323
0.25000738510049253   0.010115091778820286   0.015397498968408323
0.25000738510049253   0.010115091778820286   0.015397498968408323
0.25000738510049253   0.010115091778820286   0.015397498968408323
0.01798998701665524   -0.08146321614346619   0.010394744689272095
0.01798998701665524   -0.08146321614346619   0.010394744689272095
0.01798998701665524   -0.08146321614346619   0.010394744689272095
0.01798998701665524   -0.08146321614346619   0.010394744689272095
0.03288777561741675   -0.031080082582921408   0.005596374299558993
0.03288777561741675   -0.031080082582921408   0.005596374299558993
0.03288777561741675   -0.031080082582921408   0.005596374299558993
0.03288777561741675   -0.031080082582921408   0.005596374299558993
0.2438152119645111   -0.03565835634483598   0.006898007045122695
0.2438152119645111   -0.03565835634483598   0.006898007045122695
0.2438152119645111   -0.03565835634483598   0.006898007045122695
0.2438152119645111   -0.03565835634483598   0.006898007045122695
0.1311704560884569   -0.03498381174631529   -0.007012447425264839
0.1311704560884569   -0.03498381174631529   -0.007012447425264839
0.1311704560884569   -0.03498381174631529   -0.007012447425264839
0.1311704560884569   -0.03498381174631529   -0.007012447425264839
0.25514738102079493   0.014860552361822231   0.013039943619883637
0.25514738102079493   0.014860552361822231   0.013039943619883637
0.25514738102079493   0.014860552361822231   0.013039943619883637
0.25514738102079493   0.014860552361822231   0.013039943619883637
0.024511458391885885   -0.0786431394588241   0.01127784504780733
0.024511458391885885   -0.0786431394588241   0.01127784504780733
0.024511458391885885   -0.0786431394588241   0.01127784504780733
0.024511458391885885   -0.0786431394588241   0.01127784504780733
0.04265303610927753   -0.023553249973039647   0.0036265344421886683
0.04265303610927753   -0.023553249973039647   0.0036265344421886683
0.04265303610927753   -0.023553249973039647   0.0036265344421886683
0.04265303610927753   -0.023553249973039647   0.0036265344421886683
0.24974533580573197   -0.03160988262295793   0.008382321848796576
0.24974533580573197   -0.03160988262295793   0.008382321848796576
0.24974533580573197   -0.03160988262295793   0.008382321848796576
0.24974533580573197   -0.03160988262295793   0.008382321848796576
0.14074548321416466   -0.03030721809396375   0.0011584100257009122
0.14074548321416466   -0.03030721809396375   0.0011584100257009122
0.14074548321416466   -0.03030721809396375   0.0011584100257009122
0.14074548321416466   -0.03030721809396375   0.0011584100257009122
0.025187862799295243   -0.01484922749890647   0.01181260799675379
0.025187862799295243   -0.01484922749890647   0.01181260799675379
0.025187862799295243   -0.01484922749890647   0.01181260799675379
0.025187862799295243   -0.01484922749890647   0.01181260799675379
-0.21168372191472773   -0.1432268864066089   0.012169796206157612
-0.21168372191472773   -0.1432268864066089   0.012169796206157612
-0.21168372191472773   -0.1432268864066089   0.012169796206157612
-0.21168372191472773   -0.1432268864066089   0.012169796206157612
-0.18669887234314805   -0.05672436488910169   0.0005373820198796616
-0.18669887234314805   -0.05672436488910169   0.0005373820198796616
-0.18669887234314805   -0.05672436488910169   0.0005373820198796616
-0.18669887234314805   -0.05672436488910169   0.0005373820198796616
0.012842631181711875   -0.10184097522056151   0.005035724591650602
0.012842631181711875   -0.10184097522056151   0.005035724591650602
0.012842631181711875   -0.10184097522056151   0.005035724591650602
0.012842631181711875   -0.10184097522056151   0.005035724591650602
-0.09270552821664835   -0.07970540276949603   -0.01679290231433963
-0.09270552821664835   -0.07970540276949603   -0.01679290231433963
-0.09270552821664835   -0.07970540276949603   -0.01679290231433963
-0.09270552821664835   -0.07970540276949603   -0.01679290231433963
0.0318215261383856   -0.01125826397156612   0.009347488126023821
0.0318215261383856   -0.01125826397156612   0.009347488126023821
0.0318215261383856   -0.01125826397156612   0.009347488126023821
0.0318215261383856   -0.01125826397156612   0.009347488126023821
-0.20116878333759244   -0.14279809217586742   0.014261554334425358
-0.20116878333759244   -0.14279809217586742   0.014261554334425358
-0.20116878333759244   -0.14279809217586742   0.014261554334425358
-0.20116878333759244   -0.14279809217586742   0.014261554334425358
-0.17705083151578946   -0.05083550810572079   -0.0004067592593666857
-0.17705083151578946   -0.05083550810572079   -0.0004067592593666857
-0.17705083151578946   -0.05083550810572079   -0.0004067592593666857
-0.17705083151578946   -0.05083550810572079   -0.0004067592593666857
0.019537834767864814   -0.09935864166610782   0.00712522913498569
0.019537834767864814   -0.09935864166610782   0.00712522913498569
0.019537834767864814   -0.09935864166610782   0.00712522913498569
0.019537834767864814   -0.09935864166610782   0.00712522913498569
-0.08288674239711576   -0.07675027475141806   -0.006121948414804151
-0.08288674239711576   -0.07675027475141806   -0.006121948414804151
-0.08288674239711576   -0.07675027475141806   -0.006121948414804151
-0.08288674239711576   -0.07675027475141806   -0.006121948414804151
0.03788907121127928   -0.006551351476038943   0.006074121161989161
0.03788907121127928   -0.006551351476038943   0.006074121161989161
0.03788907121127928   -0.006551351476038943   0.006074121161989161
0.03788907121127928   -0.006551351476038943   0.006074121161989161
-0.19138145743893464   -0.13962218777552243   0.01672679079471198
-0.19138145743893464   -0.13962218777552243   0.01672679079471198
-0.19138145743893464   -0.13962218777552243   0.01672679079471198
-0.19138145743893464   -0.13962218777552243   0.01672679079471198
-0.16111676700322097   -0.044073558744063615   -0.0023008776241386806
-0.16111676700322097   -0.044073558744063615   -0.0023008776241386806
-0.16111676700322097   -0.044073558744063615   -0.0023008776241386806
-0.16111676700322097   -0.044073558744063615   -0.0023008776241386806
0.029974858305251477   -0.09284729789435558   0.009529693343374342
0.029974858305251477   -0.09284729789435558   0.009529693343374342
0.029974858305251477   -0.09284729789435558   0.009529693343374342
0.029974858305251477   -0.09284729789435558   0.009529693343374342
-0.0701976472683789   -0.07048743569626065   0.004905537358462025
-0.0701976472683789   -0.07048743569626065   0.004905537358462025
-0.0701976472683789   -0.07048743569626065   0.004905537358462025
-0.0701976472683789   -0.07048743569626065   0.004905537358462025
-0.18993221486879877   -0.02794595121948154   0.0056463962486735485
-0.18993221486879877   -0.02794595121948154   0.0056463962486735485
-0.18993221486879877   -0.02794595121948154   0.0056463962486735485
-0.18993221486879877   -0.02794595121948154   0.0056463962486735485
-0.4663669859217201   -0.22155112456793286   -0.009408020662537583
-0.4663669859217201   -0.22155112456793286   -0.009408020662537583
-0.4663669859217201   -0.22155112456793286   -0.009408020662537583
-0.4663669859217201   -0.22155112456793286   -0.009408020662537583
-0.4253231409231502   -0.07379413937948631   -0.012683380138848038
-0.4253231409231502   -0.07379413937948631   -0.012683380138848038
-0.4253231409231502   -0.07379413937948631   -0.012683380138848038
-0.4253231409231502   -0.07379413937948631   -0.012683380138848038
-0.2113392599974637   -0.18356082250977687   0.00417190136897664
-0.2113392599974637   -0.18356082250977687   0.00417190136897664
-0.2113392599974637   -0.18356082250977687   0.00417190136897664
-0.2113392599974637   -0.18356082250977687   0.00417190136897664
-0.3229143605606609   -0.13113799303625046   -0.01774709582863949
-0.3229143605606609   -0.13113799303625046   -0.01774709582863949
-0.3229143605606609   -0.13113799303625046   -0.01774709582863949
-0.3229143605606609   -0.13113799303625046   -0.01774709582863949
-0.17857450821649054   -0.02085064104797636   0.005285478812041986
-0.17857450821649054   -0.02085064104797636   0.005285478812041986
-0.17857450821649054   -0.02085064104797636   0.005285478812041986
-0.17857450821649054   -0.02085064104797636   0.005285478812041986
-0.4568224622280133   -0.23523889036517676   -0.008735235677473092
-0.4568224622280133   -0.23523889036517676   -0.008735235677473092
-0.4568224622280133   -0.23523889036517676   -0.008735235677473092
-0.4568224622280133   -0.23523889036517676   -0.008735235677473092
-0.41235567543937013   -0.06677434489340492   -0.012981347018114119
-0.41235567543937013   -0.06677434489340492   -0.012981347018114119
-0.41235567543937013   -0.06677434489340492   -0.012981347018114119
-0.41235567543937013   -0.06677434489340492   -0.012981347018114119
-0.20189996786157816   -0.18180240413235937   0.00631445503832944
-0.20189996786157816   -0.18180240413235937   0.00631445503832944
-0.20189996786157816   -0.18180240413235937   0.00631445503832944
-0.20189996786157816   -0.18180240413235937   0.00631445503832944
-0.3091143279936943   -0.1272150995441727   -0.011924735759832383
-0.3091143279936943   -0.1272150995441727   -0.011924735759832383
-0.3091143279936943   -0.1272150995441727   -0.011924735759832383
-0.3091143279936943   -0.1272150995441727   -0.011924735759832383
-0.1694942402910217   -0.015248042256968367   0.0017887310157202255
-0.1694942402910217   -0.015248042256968367   0.0017887310157202255
-0.1694942402910217   -0.015248042256968367   0.0017887310157202255
-0.1694942402910217   -0.015248042256968367   0.0017887310157202255
-0.44455220869927753   -0.23311951245814633   -0.007618845752905938
-0.44455220869927753   -0.23311951245814633   -0.007618845752905938
-0.44455220869927753   -0.23311951245814633   -0.007618845752905938
-0.44455220869927753   -0.23311951245814633   -0.007618845752905938
-0.39201299781918414   -0.05930705172899285   -0.014734072708600603
-0.39201299781918414   -0.05930705172899285   -0.014734072708600603
-0.39201299781918414   -0.05930705172899285   -0.014734072708600603
-0.39201299781918414   -0.05930705172899285   -0.014734072708600603
-0.18145972566761448   -0.16227067032853953   0.014181440638372594
-0.18145972566761448   -0.16227067032853953   0.014181440638372594
-0.18145972566761448   -0.16227067032853953   0.014181440638372594
-0.18145972566761448   -0.16227067032853953   0.014181440638372594
-0.29388514455822656   -0.1146231700380566   -0.0059839634123459925
-0.29388514455822656   -0.1146231700380566   -0.0059839634123459925
-0.29388514455822656   -0.1146231700380566   -0.0059839634123459925
-0.29388514455822656   -0.1146231700380566   -0.0059839634123459925
-0.4255924554198174   -0.024256731298893663   -0.0028297614220629333
-0.4255924554198174   -0.024256731298893663   -0.0028297614220629333
-0.4255924554198174   -0.024256731298893663   -0.0028297614220629333
-0.4255924554198174   -0.024256731298893663   -0.0028297614220629333
-0.7460088765754477   -0.1476642132845602   0.0076878101526466625
-0.7460088765754477   -0.1476642132845602   0.0076878101526466625
-0.7460088765754477   -0.1476642132845602   0.0076878101526466625
-0.7460088765754477   -0.1476642132845602   0.0076878101526466625
-0.7173682027629392   -0.06960776765597952   -0.015155078102835399
-0.7173682027629392   -0.06960776765597952   -0.015155078102835399
-0.7173682027629392   -0.06960776765597952   -0.015155078102835399
-0.7173682027629392   -0.06960776765597952   -0.015155078102835399
-0.4177597074007049   -0.07773667655113606   0.029076324645024618
-0.4177597074007049   -0.07773667655113606   0.029076324645024618
-0.4177597074007049   -0.07773667655113606   0.029076324645024618
-0.4177597074007049   -0.07773667655113606   0.029076324645024618
-0.5534373273124005   -0.0852323075823798   0.007262621973342889
-0.5534373273124005   -0.0852323075823798   0.007262621973342889
-0.5534373273124005   -0.0852323075823798   0.007262621973342889
-0.5534373273124005   -0.0852323075823798   0.007262621973342889
-0.40899138958675435   -0.004887618306205668   6.885546984907939e-05
-0.40899138958675435   -0.004887618306205668   6.885546984907939e-05
-0.40899138958675435   -0.004887618306205668   6.885546984907939e-05
-0.40899138958675435   -0.004887618306205668   6.885546984907939e-05
-0.7287172870228376   -0.14503759234685848   0.003529325288545132
-0.7287172870228376   -0.14503759234685848   0.003529325288545132
-0.7287172870228376   -0.14503759234685848   0.003529325288545132
-0.7287172870228376   -0.14503759234685848   0.003529325288545132
-0.7020366842614185   -0.06384644196726469   -0.019258964375564153
-0.7020366842614185   -0.06384644196726469   -0.019258964375564153
-0.7020366842614185   -0.06384644196726469   -0.019258964375564153
-0.7020366842614185   -0.06384644196726469   -0.019258964375564153
-0.40442808705197314   -0.0740909728377506   0.03397322286322017
-0.40442808705197314   -0.0740909728377506   0.03397322286322017
-0.40442808705197314   -0.0740909728377506   0.03397322286322017
-0.40442808705197314   -0.0740909728377506   0.03397322286322017
-0.5457187914098386   -0.07035830521909428   0.007135750023804512
-0.5457187914098386   -0.07035830521909428   0.007135750023804512
-0.5457187914098386   -0.07035830521909428   0.007135750023804512
-0.5457187914098386   -0.07035830521909428   0.007135750023804512
-0.3971320897964171   0.00021559755124865576   -0.003853361247998899
-0.3971320897964171   0.00021559755124865576   -0.003853361247998899
-0.3971320897964171   0.00021559755124865576   -0.003853361247998899
-0.3971320897964171   0.00021559755124865576   -0.003853361247998899
-0.7101496679727732   -0.13896999881206348   0.015299673912455874
-0.7101496679727732   -0.13896999881206348   0.015299673912455874
-0.7101496679727732   -0.13896999881206348   0.015299673912455874
-0.7101496679727732   -0.13896999881206348   0.015299673912455874
-0.6701543143917134   -0.05218476923780685   -0.021726286126507052
-0.6701543143917134   -0.05218476923780685   -0.021726286126507052
-0.6701543143917134   -0.05218476923780685   -0.021726286126507052
-0.6701543143917134   -0.05218476923780685   -0.021726286126507052
-0.38358433145780146   -0.06924702068141309   0.037349228050736025
-0.38358433145780146   -0.06924702068141309   0.037349228050736025
-0.38358433145780146   -0.06924702068141309   0.037349228050736025
-0.38358433145780146   -0.06924702068141309   0.037349228050736025
-0.5141830607942871   -0.053905573763647914   0.015262866817564386
-0.5141830607942871   -0.053905573763647914   0.015262866817564386
-0.5141830607942871   -0.053905573763647914   0.015262866817564386
-0.5141830607942871   -0.053905573763647914   0.015262866817564386
0.5340893233767223   0.01849988205952416   0.0073028109988806204
0.5340893233767223   0.01849988205952416   0.0073028109988806204
0.5340893233767223   0.01849988205952416   0.0073028109988806204
0.5340893233767223   0.01849988205952416   0.0073028109988806204
0.2711961243462627   -0.014908027411792757   0.004967001937749193
0.2711961243462627   -0.014908027411792757   0.004967001937749193
0.2711961243462627   -0.014908027411792757   0.004967001937749193
0.2711961243462627   -0.014908027411792757   0.004967001937749193
0.26107439181774095   -0.03775294678153222   0.01029967295968549
0.26107439181774095   -0.03775294678153222   0.01029967295968549
0.26107439181774095   -0.03775294678153222   0.01029967295968549
0.26107439181774095   -0.03775294678153222   0.01029967295968549
0.5302732619536031   0.0298061844410782   0.0034463042488303876
0.5302732619536031   0.0298061844410782   0.0034463042488303876
0.5302732619536031   0.0298061844410782   0.0034463042488303876
0.5302732619536031   0.0298061844410782   0.0034463042488303876
0.3778944242419856   -0.005105692562745956   -0.014043184939559923
0.3778944242419856   -0.005105692562745956   -0.014043184939559923
0.3778944242419856   -0.005105692562745956   -0.014043184939559923
0.3778944242419856   -0.005105692562745956   -0.014043184939559923
0.5276505464965806   0.01460844320271483   0.005530468202081116
0.5276505464965806   0.01460844320271483   0.005530468202081116
0.5276505464965806   0.01460844320271483   0.005530468202081116
0.5276505464965806   0.01460844320271483   0.005530468202081116
0.2628956202407861   -0.023356692577146218   0.00500956087052527
0.2628956202407861   -0.023356692577146218   0.00500956087052527
0.2628956202407861   -0.023356692577146218   0.00500956087052527
0.2628956202407861   -0.023356692577146218   0.00500956087052527
0.2545414130028451   -0.03852875569644461   0.008469167382467772
0.2545414130028451   -0.03852875569644461   0.008469167382467772
0.2545414130028451   -0.03852875569644461   0.008469167382467772
0.2545414130028451   -0.03852875569644461   0.008469167382467772
0.5243662903923417   0.028628487760783652   0.00622844833945637
0.5243662903923417   0.028628487760783652   0.00622844833945637
0.5243662903923417   0.028628487760783652   0.00622844833945637
0.5243662903923417   0.028628487760783652   0.00622844833945637
0.3771237776921369   -0.007024247551657592   -0.016023701908471272
0.3771237776921369   -0.007024247551657592   -0.016023701908471272
0.3771237776921369   -0.007024247551657592   -0.016023701908471272
0.3771237776921369   -0.007024247551657592   -0.016023701908471272
0.5203731983645492   0.013268385909714409   0.001623090051558869
0.5203731983645492   0.013268385909714409   0.001623090051558869
0.5203731983645492   0.013268385909714409   0.001623090051558869
0.5203731983645492   0.013268385909714409   0.001623090051558869
0.25706147254533734   -0.024641686330676406   0.007182395729160455
0.25706147254533734   -0.024641686330676406   0.007182395729160455
0.25706147254533734   -0.024641686330676406   0.007182395729160455
0.25706147254533734   -0.024641686330676406   0.007182395729160455
0.24769494837742678   -0.03487475464523443   0.007319269958680048
0.24769494837742678   -0.03487475464523443   0.007319269958680048
0.24769494837742678   -0.03487475464523443   0.007319269958680048
0.24769494837742678   -0.03487475464523443   0.007319269958680048
0.5153163707164367   0.029270685539058622   0.009168380397564325
0.5153163707164367   0.029270685539058622   0.009168380397564325
0.5153163707164367   0.029270685539058622   0.009168380397564325
0.5153163707164367   0.029270685539058622   0.009168380397564325
0.3632942718253724   -0.0069532794926049635   -0.021426867943555798
0.3632942718253724   -0.0069532794926049635   -0.021426867943555798
0.3632942718253724   -0.0069532794926049635   -0.021426867943555798
0.3632942718253724   -0.0069532794926049635   -0.021426867943555798
0.26962688044579797   -0.031123337514975494   0.013336092538608436
0.26962688044579797   -0.031123337514975494   0.013336092538608436
0.26962688044579797   -0.031123337514975494   0.013336092538608436
0.26962688044579797   -0.031123337514975494   0.013336092538608436
0.04875129478628648   -0.03203754752830065   0.002409113347141594
0.04875129478628648   -0.03203754752830065   0.002409113347141594
0.04875129478628648   -0.03203754752830065   0.002409113347141594
0.04875129478628648   -0.03203754752830065   0.002409113347141594
0.031256128705460656   -0.07819959678693437   0.013446699783125786
0.031256128705460656   -0.07819959678693437   0.013446699783125786
0.031256128705460656   -0.07819959678693437   0.013446699783125786
0.031256128705460656   -0.07819959678693437   0.013446699783125786
0.27089260906357315   0.011458256703120374   0.010179555704193911
0.27089260906357315   0.011458256703120374   0.010179555704193911
0.27089260906357315   0.011458256703120374   0.010179555704193911
0.27089260906357315   0.011458256703120374   0.010179555704193911
0.1527302350325413   -0.03261374995159764   -0.0006600427826580109
0.1527302350325413   -0.03261374995159764   -0.0006600427826580109
0.1527302350325413   -0.03261374995159764   -0.0006600427826580109
0.1527302350325413   -0.03261374995159764   -0.0006600427826580109
0.26232962771249385   -0.03242471317647458   0.011247618828391523
0.26232962771249385   -0.03242471317647458   0.011247618828391523
0.26232962771249385   -0.03242471317647458   0.011247618828391523
0.26232962771249385   -0.03242471317647458   0.011247618828391523
0.037647943727146714   -0.0364877932367328   0.0036939713413544906
0.037647943727146714   -0.0364877932367328   0.0036939713413544906
0.037647943727146714   -0.0364877932367328   0.0036939713413544906
0.037647943727146714   -0.0364877932367328   0.0036939713413544906
0.023359593273234322   -0.07872585381068714   0.012016138407143724
0.023359593273234322   -0.07872585381068714   0.012016138407143724
0.023359593273234322   -0.07872585381068714   0.012016138407143724
0.023359593273234322   -0.07872585381068714   0.012016138407143724
0.2648750761501222   0.009609947378822238   0.011998780043586182
0.2648750761501222   0.009609947378822238   0.011998780043586182
0.2648750761501222   0.009609947378822238   0.011998780043586182
0.2648750761501222   0.009609947378822238   0.011998780043586182
0.1419489379203694   -0.0347010399288325   -0.007141859593447493
0.1419489379203694   -0.0347010399288325   -0.007141859593447493
0.1419489379203694   -0.0347010399288325   -0.007141859593447493
0.1419489379203694   -0.0347010399288325   -0.007141859593447493
0.2558798760355675   -0.03274873297476895   0.00938145982440148
0.2558798760355675   -0.03274873297476895   0.00938145982440148
0.2558798760355675   -0.03274873297476895   0.00938145982440148
0.2558798760355675   -0.03274873297476895   0.00938145982440148
0.029988036902749524   -0.03873392994213585   0.005166432686168445
0.029988036902749524   -0.03873392994213585   0.005166432686168445
0.029988036902749524   -0.03873392994213585   0.005166432686168445
0.029988036902749524   -0.03873392994213585   0.005166432686168445
0.014539883876701905   -0.07846354767835016   0.00931944850086552
0.014539883876701905   -0.07846354767835016   0.00931944850086552
0.014539883876701905   -0.07846354767835016   0.00931944850086552
0.014539883876701905   -0.07846354767835016   0.00931944850086552
0.2580451340909159   0.00990664881373405   0.01428879506715807
0.2580451340909159   0.00990664881373405   0.01428879506715807
0.2580451340909159   0.00990664881373405   0.01428879506715807
0.2580451340909159   0.00990664881373405   0.01428879506715807
0.13547761584181706   -0.03424895007625205   -0.012605867711714226
0.13547761584181706   -0.03424895007625205   -0.012605867711714226
0.13547761584181706   -0.03424895007625205   -0.012605867711714226
0.13547761584181706   -0.03424895007625205   -0.012605867711714226
0.0383942273957221   -0.09327334167712238   0.01185957054314048
0.0383942273957221   -0.09327334167712238   0.01185957054314048
0.0383942273957221   -0.09327334167712238   0.01185957054314048
0.0383942273957221   -0.09327334167712238   0.01185957054314048
-0.16535654438729902   -0.04918835784708414   -0.00020216730382260645
-0.16535654438729902   -0.04918835784708414   -0.00020216730382260645
-0.16535654438729902   -0.04918835784708414   -0.00020216730382260645
-0.16535654438729902   -0.04918835784708414   -0.00020216730382260645
-0.1970036477882031   -0.14173660236491434   0.015403867839801452
-0.1970036477882031   -0.14173660236491434   0.015403867839801452
-0.1970036477882031   -0.14173660236491434   0.015403867839801452
-0.1970036477882031   -0.14173660236491434   0.015403867839801452
0.0441586417106959   -0.006782020179429971   0.006541688201797615
0.0441586417106959   -0.006782020179429971   0.006541688201797615
0.0441586417106959   -0.006782020179429971   0.006541688201797615
0.0441586417106959   -0.006782020179429971   0.006541688201797615
-0.06908725649496146   -0.07170756545206687   0.0027793607104626937
-0.06908725649496146   -0.07170756545206687   0.0027793607104626937
-0.06908725649496146   -0.07170756545206687   0.0027793607104626937
-0.06908725649496146   -0.07170756545206687   0.0027793607104626937
0.02624988237896938   -0.09843624635557761   0.008652117719312645
0.02624988237896938   -0.09843624635557761   0.008652117719312645
0.02624988237896938   -0.09843624635557761   0.008652117719312645
0.02624988237896938   -0.09843624635557761   0.008652117719312645
-0.1821675485132116   -0.05315503624550198   0.001002798095345041
-0.1821675485132116   -0.05315503624550198   0.001002798095345041
-0.1821675485132116   -0.05315503624550198   0.001002798095345041
-0.1821675485132116   -0.05315503624550198   0.001002798095345041
-0.20794201121105252   -0.14373578255198652   0.01271937068450953
-0.20794201121105252   -0.14373578255198652   0.01271937068450953
-0.20794201121105252   -0.14373578255198652   0.01271937068450953
-0.20794201121105252   -0.14373578255198652   0.01271937068450953
0.03674562843596904   -0.008825505433612796   0.009045965843742957
0.03674562843596904   -0.008825505433612796   0.009045965843742957
0.03674562843596904   -0.008825505433612796   0.009045965843742957
0.03674562843596904   -0.008825505433612796   0.009045965843742957
-0.08278774479388692   -0.07590797299895413   -0.0063316065608234225
-0.08278774479388692   -0.07590797299895413   -0.0063316065608234225
-0.08278774479388692   -0.07590797299895413   -0.0063316065608234225
-0.08278774479388692   -0.07590797299895413   -0.0063316065608234225
0.017838631175079448   -0.09998869449210722   0.005674168597789419
0.017838631175079448   -0.09998869449210722   0.005674168597789419
0.017838631175079448   -0.09998869449210722   0.005674168597789419
0.017838631175079448   -0.09998869449210722   0.005674168597789419
-0.19274114578191853   -0.05627872532525034   0.0012666406034427735
-0.19274114578191853   -0.05627872532525034   0.0012666406034427735
-0.19274114578191853   -0.05627872532525034   0.0012666406034427735
-0.19274114578191853   -0.05627872532525034   0.0012666406034427735
-0.21986763228648248   -0.14263639167220404   0.010426715045866092
-0.21986763228648248   -0.14263639167220404   0.010426715045866092
-0.21986763228648248   -0.14263639167220404   0.010426715045866092
-0.21986763228648248   -0.14263639167220404   0.010426715045866092
0.028514393777938664   -0.009908366434111743   0.0106368167628109
0.028514393777938664   -0.009908366434111743   0.0106368167628109
0.028514393777938664   -0.009908366434111743   0.0106368167628109
0.028514393777938664   -0.009908366434111743   0.0106368167628109
-0.0939575017923431   -0.07743813820822493   -0.015542628299527291
-0.0939575017923431   -0.07743813820822493   -0.015542628299527291
-0.0939575017923431   -0.07743813820822493   -0.015542628299527291
-0.0939575017923431   -0.07743813820822493   -0.015542628299527291
-0.1847661007803134   -0.16053083735861617   0.014092530242639026
-0.1847661007803134   -0.16053083735861617   0.014092530242639026
-0.1847661007803134   -0.16053083735861617   0.014092530242639026
-0.1847661007803134   -0.16053083735861617   0.014092530242639026
-0.4069294896887661   -0.06107683457463993   -0.0091546353045757
-0.4069294896887661   -0.06107683457463993   -0.0091546353045757
-0.4069294896887661   -0.06107683457463993   -0.0091546353045757
-0.4069294896887661   -0.06107683457463993   -0.0091546353045757
-0.4623868162320211   -0.23694277749238118   -0.011690317309487448
-0.4623868162320211   -0.23694277749238118   -0.011690317309487448
-0.4623868162320211   -0.23694277749238118   -0.011690317309487448
-0.4623868162320211   -0.23694277749238118   -0.011690317309487448
-0.17305074681980284   -0.012220744551838775   0.005652514868725707
-0.17305074681980284   -0.012220744551838775   0.005652514868725707
-0.17305074681980284   -0.012220744551838775   0.005652514868725707
-0.17305074681980284   -0.012220744551838775   0.005652514868725707
-0.3037488742497789   -0.11281522531633834   -0.008987422034550238
-0.3037488742497789   -0.11281522531633834   -0.008987422034550238
-0.3037488742497789   -0.11281522531633834   -0.008987422034550238
-0.3037488742497789   -0.11281522531633834   -0.008987422034550238
-0.20722800691102344   -0.18255321516177256   0.005098685022557947
-0.20722800691102344   -0.18255321516177256   0.005098685022557947
-0.20722800691102344   -0.18255321516177256   0.005098685022557947
-0.20722800691102344   -0.18255321516177256   0.005098685022557947
-0.4274690201873934   -0.06586977092904005   -0.008174343649690094
-0.4274690201873934   -0.06586977092904005   -0.008174343649690094
-0.4274690201873934   -0.06586977092904005   -0.008174343649690094
-0.4274690201873934   -0.06586977092904005   -0.008174343649690094
-0.47546550357786926   -0.24048084943558884   -0.013512235761526693
-0.47546550357786926   -0.24048084943558884   -0.013512235761526693
-0.47546550357786926   -0.24048084943558884   -0.013512235761526693
-0.47546550357786926   -0.24048084943558884   -0.013512235761526693
-0.18321075137771306   -0.015654397893604514   0.008294285192824245
-0.18321075137771306   -0.015654397893604514   0.008294285192824245
-0.18321075137771306   -0.015654397893604514   0.008294285192824245
-0.18321075137771306   -0.015654397893604514   0.008294285192824245
-0.3198088016665473   -0.12531156252611658   -0.013365710243726413
-0.3198088016665473   -0.12531156252611658   -0.013365710243726413
-0.3198088016665473   -0.12531156252611658   -0.013365710243726413
-0.3198088016665473   -0.12531156252611658   -0.013365710243726413
-0.21853130474453702   -0.18598678201966445   0.0020239024847629114
-0.21853130474453702   -0.18598678201966445   0.0020239024847629114
-0.21853130474453702   -0.18598678201966445   0.0020239024847629114
-0.21853130474453702   -0.18598678201966445   0.0020239024847629114
-0.4404231467948955   -0.07042666189338001   -0.008354639388870811
-0.4404231467948955   -0.07042666189338001   -0.008354639388870811
-0.4404231467948955   -0.07042666189338001   -0.008354639388870811
-0.4404231467948955   -0.07042666189338001   -0.008354639388870811
-0.4865370853163563   -0.22916751469052177   -0.015225421522796788
-0.4865370853163563   -0.22916751469052177   -0.015225421522796788
-0.4865370853163563   -0.22916751469052177   -0.015225421522796788
-0.4865370853163563   -0.22916751469052177   -0.015225421522796788
-0.1959800544866556   -0.020538659628960097   0.007766872001753216
-0.1959800544866556   -0.020538659628960097   0.007766872001753216
-0.1959800544866556   -0.020538659628960097   0.007766872001753216
-0.1959800544866556   -0.020538659628960097   0.007766872001753216
-0.33476712257244234   -0.12945348536613588   -0.01768651284384188
-0.33476712257244234   -0.12945348536613588   -0.01768651284384188
-0.33476712257244234   -0.12945348536613588   -0.01768651284384188
-0.33476712257244234   -0.12945348536613588   -0.01768651284384188
-0.4009325503934149   -0.07352988729931359   0.03328311389684693
-0.4009325503934149   -0.07352988729931359   0.03328311389684693
-0.4009325503934149   -0.07352988729931359   0.03328311389684693
-0.4009325503934149   -0.07352988729931359   0.03328311389684693
-0.6989071722946771   -0.05147228816160719   -0.011640299398055404
-0.6989071722946771   -0.05147228816160719   -0.011640299398055404
-0.6989071722946771   -0.05147228816160719   -0.011640299398055404
-0.6989071722946771   -0.05147228816160719   -0.011640299398055404
-0.7405579951033209   -0.1463014929165285   0.009050530520678363
-0.7405579951033209   -0.1463014929165285   0.009050530520678363
-0.7405579951033209   -0.1463014929165285   0.009050530520678363
-0.7405579951033209   -0.1463014929165285   0.009050530520678363
-0.41060425655501703   0.006628271121705012   0.0036514324614428974
-0.41060425655501703   0.006628271121705012   0.0036514324614428974
-0.41060425655501703   0.006628271121705012   0.0036514324614428974
-0.41060425655501703   0.006628271121705012   0.0036514324614428974
-0.5359652581444934   -0.051337420673143085   0.010602494324955697
-0.5359652581444934   -0.051337420673143085   0.010602494324955697
-0.5359652581444934   -0.051337420673143085   0.010602494324955697
-0.5359652581444934   -0.051337420673143085   0.010602494324955697
-0.4224899317348389   -0.07860643400846704   0.029457761692503734
-0.4224899317348389   -0.07860643400846704   0.029457761692503734
-0.4224899317348389   -0.07860643400846704   0.029457761692503734
-0.4224899317348389   -0.07860643400846704   0.029457761692503734
-0.7269868761259998   -0.05938134398885643   -0.010014023520381565
-0.7269868761259998   -0.05938134398885643   -0.010014023520381565
-0.7269868761259998   -0.05938134398885643   -0.010014023520381565
-0.7269868761259998   -0.05938134398885643   -0.010014023520381565
-0.7577680400111306   -0.15230028059393175   -0.003733362958528136
-0.7577680400111306   -0.15230028059393175   -0.003733362958528136
-0.7577680400111306   -0.15230028059393175   -0.003733362958528136
-0.7577680400111306   -0.15230028059393175   -0.003733362958528136
-0.42283672850474163   0.00268726774655878   0.006463522421959845
-0.42283672850474163   0.00268726774655878   0.006463522421959845
-0.42283672850474163   0.00268726774655878   0.006463522421959845
-0.42283672850474163   0.00268726774655878   0.006463522421959845
-0.5669404094902959   -0.0675300398861601   0.004202739048692096
-0.5669404094902959   -0.0675300398861601   0.004202739048692096
-0.5669404094902959   -0.0675300398861601   0.004202739048692096
-0.5669404094902959   -0.0675300398861601   0.004202739048692096
-0.43632001324311187   -0.08243094112774076   0.024165307604408104
-0.43632001324311187   -0.08243094112774076   0.024165307604408104
-0.43632001324311187   -0.08243094112774076   0.024165307604408104
-0.43632001324311187   -0.08243094112774076   0.024165307604408104
-0.7407516541812116   -0.06364897062808138   -0.007302743774770953
-0.7407516541812116   -0.06364897062808138   -0.007302743774770953
-0.7407516541812116   -0.06364897062808138   -0.007302743774770953
-0.7407516541812116   -0.06364897062808138   -0.007302743774770953
-0.7722769307986586   -0.1545018145185348   -0.00023214179401545576
-0.7722769307986586   -0.1545018145185348   -0.00023214179401545576
-0.7722769307986586   -0.1545018145185348   -0.00023214179401545576
-0.7722769307986586   -0.1545018145185348   -0.00023214179401545576
-0.4401083304217725   -0.015035681670691262   0.0027865199302917233
-0.4401083304217725   -0.015035681670691262   0.0027865199302917233
-0.4401083304217725   -0.015035681670691262   0.0027865199302917233
-0.4401083304217725   -0.015035681670691262   0.0027865199302917233
-0.5730889794752997   -0.08130774164139161   0.006577066665437569
-0.5730889794752997   -0.08130774164139161   0.006577066665437569
-0.5730889794752997   -0.08130774164139161   0.006577066665437569
-0.5730889794752997   -0.08130774164139161   0.006577066665437569
0.4719179196897441   0.022297636511377353   -0.009726473789881684
0.4719179196897441   0.022297636511377353   -0.009726473789881684
0.4719179196897441   0.022297636511377353   -0.009726473789881684
0.4719179196897441   0.022297636511377353   -0.009726473789881684
0.23634600946416082   -0.005504573497972717   0.004570231681016418
0.23634600946416082   -0.005504573497972717   0.004570231681016418
0.23634600946416082   -0.005504573497972717   0.004570231681016418
0.23634600946416082   -0.005504573497972717   0.004570231681016418
0.22191984473229717   -0.034307384951544846   -0.008768125492994324
0.22191984473229717   -0.034307384951544846   -0.008768125492994324
0.22191984473229717   -0.034307384951544846   -0.008768125492994324
0.22191984473229717   -0.034307384951544846   -0.008768125492994324
0.46662263705544466   0.033755780464282986   0.00534699103970045
0.46662263705544466   0.033755780464282986   0.00534699103970045
0.46662263705544466   0.033755780464282986   0.00534699103970045
0.46662263705544466   0.033755780464282986   0.00534699103970045
0.3309026260988538   0.0008264312668006812   -0.012763150259659593
0.3309026260988538   0.0008264312668006812   -0.012763150259659593
0.3309026260988538   0.0008264312668006812   -0.012763150259659593
0.3309026260988538   0.0008264312668006812   -0.012763150259659593
0.45941669303555965   0.012966850073849123   -0.009893798669286944
0.45941669303555965   0.012966850073849123   -0.009893798669286944
0.45941669303555965   0.012966850073849123   -0.009893798669286944
0.45941669303555965   0.012966850073849123   -0.009893798669286944
0.22874317920837828   -0.013901064104914623   0.004942226040778781
0.22874317920837828   -0.013901064104914623   0.004942226040778781
0.22874317920837828   -0.013901064104914623   0.004942226040778781
0.22874317920837828   -0.013901064104914623   0.004942226040778781
0.21412649149451227   -0.036124736415972455   -0.007297873646494743
0.21412649149451227   -0.036124736415972455   -0.007297873646494743
0.21412649149451227   -0.036124736415972455   -0.007297873646494743
0.21412649149451227   -0.036124736415972455   -0.007297873646494743
0.4558484749247792   0.03113970995352512   0.007952662628539702
0.4558484749247792   0.03113970995352512   0.007952662628539702
0.4558484749247792   0.03113970995352512   0.007952662628539702
0.4558484749247792   0.03113970995352512   0.007952662628539702
0.32692994320226026   -0.0031152649220406586   -0.01503472325559281
0.32692994320226026   -0.0031152649220406586   -0.01503472325559281
0.32692994320226026   -0.0031152649220406586   -0.01503472325559281
0.32692994320226026   -0.0031152649220406586   -0.01503472325559281
0.44857791966509847   0.010644202670146583   -0.007904606386485734
0.44857791966509847   0.010644202670146583   -0.007904606386485734
0.44857791966509847   0.010644202670146583   -0.007904606386485734
0.44857791966509847   0.010644202670146583   -0.007904606386485734
0.22084551603589772   -0.01618075985088927   0.006353272495349258
0.22084551603589772   -0.01618075985088927   0.006353272495349258
0.22084551603589772   -0.01618075985088927   0.006353272495349258
0.22084551603589772   -0.01618075985088927   0.006353272495349258
0.20661864724800533   -0.03531052254893189   -0.005039936573956849
0.20661864724800533   -0.03531052254893189   -0.005039936573956849
0.20661864724800533   -0.03531052254893189   -0.005039936573956849
0.20661864724800533   -0.03531052254893189   -0.005039936573956849
0.44254545827147096   0.0295990730873706   0.010476761313820984
0.44254545827147096   0.0295990730873706   0.010476761313820984
0.44254545827147096   0.0295990730873706   0.010476761313820984
0.44254545827147096   0.0295990730873706   0.010476761313820984
0.3112388875522072   -0.005380466936128939   -0.019618730081352866
0.3112388875522072   -0.005380466936128939   -0.019618730081352866
0.3112388875522072   -0.005380466936128939   -0.019618730081352866
0.3112388875522072   -0.005380466936128939   -0.019618730081352866
0.23821424019613188   0.0058788177106805645   0.0025279941322175984
0.23821424019613188   0.0058788177106805645   0.0025279941322175984
0.23821424019613188   0.0058788177106805645   0.0025279941322175984
0.23821424019613188   0.0058788177106805645   0.0025279941322175984
0.020728657381428844   -0.014679500249928763   -0.0007829788016057802
0.020728657381428844   -0.014679500249928763   -0.0007829788016057802
0.020728657381428844   -0.014679500249928763   -0.0007829788016057802
0.020728657381428844   -0.014679500249928763   -0.0007829788016057802
0.0071285114436404895   -0.04503339658838587   -0.008514613133404647
0.0071285114436404895   -0.04503339658838587   -0.008514613133404647
0.0071285114436404895   -0.04503339658838587   -0.008514613133404647
0.0071285114436404895   -0.04503339658838587   -0.008514613133404647
0.23838545920619317   0.02764460466326772   0.011607957261670979
0.23838545920619317   0.02764460466326772   0.011607957261670979
0.23838545920619317   0.02764460466326772   0.011607957261670979
0.23838545920619317   0.02764460466326772   0.011607957261670979
0.12380419966274778   -0.005987481683357006   -0.004738895427170507
0.12380419966274778   -0.005987481683357006   -0.004738895427170507
0.12380419966274778   -0.005987481683357006   -0.004738895427170507
0.12380419966274778   -0.005987481683357006   -0.004738895427170507
0.23180149621449586   0.002392226988130658   0.0039405199783226
0.23180149621449586   0.002392226988130658   0.0039405199783226
0.23180149621449586   0.002392226988130658   0.0039405199783226
0.23180149621449586   0.002392226988130658   0.0039405199783226
0.013977327564253322   -0.019516165784333094   0.00021223666560672792
0.013977327564253322   -0.019516165784333094   0.00021223666560672792
0.013977327564253322   -0.019516165784333094   0.00021223666560672792
0.013977327564253322   -0.019516165784333094   0.00021223666560672792
-0.0003872017880190669   -0.047047254208739245   -0.006024949956079956
-0.0003872017880190669   -0.047047254208739245   -0.006024949956079956
-0.0003872017880190669   -0.047047254208739245   -0.006024949956079956
-0.0003872017880190669   -0.047047254208739245   -0.006024949956079956
0.23014310286529138   0.02388168599856994   0.012778760792858316
0.23014310286529138   0.02388168599856994   0.012778760792858316
0.23014310286529138   0.02388168599856994   0.012778760792858316
0.23014310286529138   0.02388168599856994   0.012778760792858316
0.11508039562886477   -0.009484628708578396   -0.006706350006943109
0.11508039562886477   -0.009484628708578396   -0.006706350006943109
0.11508039562886477   -0.009484628708578396   -0.006706350006943109
0.11508039562886477   -0.009484628708578396   -0.006706350006943109
0.22393824129286946   0.00012504348709883872   0.0055110954422219315
0.22393824129286946   0.00012504348709883872   0.0055110954422219315
0.22393824129286946   0.00012504348709883872   0.0055110954422219315
0.22393824129286946   0.00012504348709883872   0.0055110954422219315
0.005791089830420404   -0.023317181651250237   0.0011364355786283881
0.005791089830420404   -0.023317181651250237   0.0011364355786283881
0.005791089830420404   -0.023317181651250237   0.0011364355786283881
0.005791089830420404   -0.023317181651250237   0.0011364355786283881
-0.00843166357828291   -0.047083972935270314   -0.004187516008664937
-0.00843166357828291   -0.047083972935270314   -0.004187516008664937
-0.00843166357828291   -0.047083972935270314   -0.004187516008664937
-0.00843166357828291   -0.047083972935270314   -0.004187516008664937
0.2218237784786013   0.021575100063353104   0.01410009696673845
0.2218237784786013   0.021575100063353104   0.01410009696673845
0.2218237784786013   0.021575100063353104   0.01410009696673845
0.2218237784786013   0.021575100063353104   0.01410009696673845
0.10839021212068202   -0.010759762193067894   -0.008347239322645127
0.10839021212068202   -0.010759762193067894   -0.008347239322645127
0.10839021212068202   -0.010759762193067894   -0.008347239322645127
0.10839021212068202   -0.010759762193067894   -0.008347239322645127
0.02174287809823074   -0.011505262485596347   0.0011138870180713075
0.02174287809823074   -0.011505262485596347   0.0011138870180713075
0.02174287809823074   -0.011505262485596347   0.0011138870180713075
0.02174287809823074   -0.011505262485596347   0.0011138870180713075
-0.18794299772925038   -0.021574755513862526   -0.005871528156234867
-0.18794299772925038   -0.021574755513862526   -0.005871528156234867
-0.18794299772925038   -0.021574755513862526   -0.005871528156234867
-0.18794299772925038   -0.021574755513862526   -0.005871528156234867
-0.20306540174897447   -0.05949627078444977   -0.009805521363631015
-0.20306540174897447   -0.05949627078444977   -0.009805521363631015
-0.20306540174897447   -0.05949627078444977   -0.009805521363631015
-0.20306540174897447   -0.05949627078444977   -0.009805521363631015
0.023282503989406685   0.020465218697554077   0.006756734309486356
0.023282503989406685   0.020465218697554077   0.006756734309486356
0.023282503989406685   0.020465218697554077   0.006756734309486356
0.023282503989406685   0.020465218697554077   0.006756734309486356
-0.08672254837866993   -0.017172601439374782   -0.004651665528954537
-0.08672254837866993   -0.017172601439374782   -0.004651665528954537
-0.08672254837866993   -0.017172601439374782   -0.004651665528954537
-0.08672254837866993   -0.017172601439374782   -0.004651665528954537
0.016081196842593938   -0.012885636115678945   0.004101053388654707
0.016081196842593938   -0.012885636115678945   0.004101053388654707
0.016081196842593938   -0.012885636115678945   0.004101053388654707
0.016081196842593938   -0.012885636115678945   0.004101053388654707
-0.195299194953019   -0.025580516322076738   -0.004890241846226714
-0.195299194953019   -0.025580516322076738   -0.004890241846226714
-0.195299194953019   -0.025580516322076738   -0.004890241846226714
-0.195299194953019   -0.025580516322076738   -0.004890241846226714
-0.2118611184576607   -0.061684405947891846   -0.006641789834022555
-0.2118611184576607   -0.061684405947891846   -0.006641789834022555
-0.2118611184576607   -0.061684405947891846   -0.006641789834022555
-0.2118611184576607   -0.061684405947891846   -0.006641789834022555
0.015040284043239937   0.016447636561004297   0.00761758843047153
0.015040284043239937   0.016447636561004297   0.00761758843047153
0.015040284043239937   0.016447636561004297   0.00761758843047153
0.015040284043239937   0.016447636561004297   0.00761758843047153
-0.09401737031343815   -0.01951909453154524   -0.0055631091658844166
-0.09401737031343815   -0.01951909453154524   -0.0055631091658844166
-0.09401737031343815   -0.01951909453154524   -0.0055631091658844166
-0.09401737031343815   -0.01951909453154524   -0.0055631091658844166
0.00828909532896378   -0.015220124116452861   0.0055294055365478914
0.00828909532896378   -0.015220124116452861   0.0055294055365478914
0.00828909532896378   -0.015220124116452861   0.0055294055365478914
0.00828909532896378   -0.015220124116452861   0.0055294055365478914
-0.20498152784693216   -0.029888243373982614   -0.004039999354290933
-0.20498152784693216   -0.029888243373982614   -0.004039999354290933
-0.20498152784693216   -0.029888243373982614   -0.004039999354290933
-0.20498152784693216   -0.029888243373982614   -0.004039999354290933
-0.22160048416338127   -0.06323812685051859   -0.0058971073779034225
-0.22160048416338127   -0.06323812685051859   -0.0058971073779034225
-0.22160048416338127   -0.06323812685051859   -0.0058971073779034225
-0.22160048416338127   -0.06323812685051859   -0.0058971073779034225
0.006122253468659794   0.01302665971187663   0.008471436578901639
0.006122253468659794   0.01302665971187663   0.008471436578901639
0.006122253468659794   0.01302665971187663   0.008471436578901639
0.006122253468659794   0.01302665971187663   0.008471436578901639
-0.10347148033667526   -0.022326031258599666   -0.007784195102329081
-0.10347148033667526   -0.022326031258599666   -0.007784195102329081
-0.10347148033667526   -0.022326031258599666   -0.007784195102329081
-0.10347148033667526   -0.022326031258599666   -0.007784195102329081
-0.18471337789273204   -0.01421860171001399   0.0029204172225046326
-0.18471337789273204   -0.01421860171001399   0.0029204172225046326
-0.18471337789273204   -0.01421860171001399   0.0029204172225046326
-0.18471337789273204   -0.01421860171001399   0.0029204172225046326
-0.39232852245644256   -0.025289702317731796   -0.010196374801143656
-0.39232852245644256   -0.025289702317731796   -0.010196374801143656
-0.39232852245644256   -0.025289702317731796   -0.010196374801143656
-0.39232852245644256   -0.025289702317731796   -0.010196374801143656
-0.40945503494186797   -0.06262602149796932   -0.009969581739861955
-0.40945503494186797   -0.06262602149796932   -0.009969581739861955
-0.40945503494186797   -0.06262602149796932   -0.009969581739861955
-0.40945503494186797   -0.06262602149796932   -0.009969581739861955
-0.18562790847507754   0.01581602785335738   0.0020696463680436837
-0.18562790847507754   0.01581602785335738   0.0020696463680436837
-0.18562790847507754   0.01581602785335738   0.0020696463680436837
-0.18562790847507754   0.01581602785335738   0.0020696463680436837
-0.2906511884544131   -0.020587797565072653   -0.0038030240754174435
-0.2906511884544131   -0.020587797565072653   -0.0038030240754174435
-0.2906511884544131   -0.020587797565072653   -0.0038030240754174435
-0.2906511884544131   -0.020587797565072653   -0.0038030240754174435
-0.19097054344221312   -0.015583922477434314   0.006756421863158273
-0.19097054344221312   -0.015583922477434314   0.006756421863158273
-0.19097054344221312   -0.015583922477434314   0.006756421863158273
-0.19097054344221312   -0.015583922477434314   0.006756421863158273
-0.40302911416744336   -0.030142785359889096   -0.010323214005822885
-0.40302911416744336   -0.030142785359889096   -0.010323214005822885
-0.40302911416744336   -0.030142785359889096   -0.010323214005822885
-0.40302911416744336   -0.030142785359889096   -0.010323214005822885
-0.421574885775946   -0.06640666075847339   -0.007102894733287267
-0.421574885775946   -0.06640666075847339   -0.007102894733287267
-0.421574885775946   -0.06640666075847339   -0.007102894733287267
-0.421574885775946   -0.06640666075847339   -0.007102894733287267
-0.19541715157632833   0.011409473776015623   0.0024841648487298907
-0.19541715157632833   0.011409473776015623   0.0024841648487298907
-0.19541715157632833   0.011409473776015623   0.0024841648487298907
-0.19541715157632833   0.011409473776015623   0.0024841648487298907
-0.29818588060390266   -0.022602040998388827   -0.003762896738859404
-0.29818588060390266   -0.022602040998388827   -0.003762896738859404
-0.29818588060390266   -0.022602040998388827   -0.003762896738859404
-0.29818588060390266   -0.022602040998388827   -0.003762896738859404
-0.2006622241769056   -0.019391578639696695   0.007059854261555895
-0.2006622241769056   -0.019391578639696695   0.007059854261555895
-0.2006622241769056   -0.019391578639696695   0.007059854261555895
-0.2006622241769056   -0.019391578639696695   0.007059854261555895
-0.4155989970122047   -0.034874792179597096   -0.008755319493457354
-0.4155989970122047   -0.034874792179597096   -0.008755319493457354
-0.4155989970122047   -0.034874792179597096   -0.008755319493457354
-0.4155989970122047   -0.034874792179597096   -0.008755319493457354
-0.43524895199933933   -0.07145073660632004   -0.007524615372347401
-0.43524895199933933   -0.07145073660632004   -0.007524615372347401
-0.43524895199933933   -0.07145073660632004   -0.007524615372347401
-0.43524895199933933   -0.07145073660632004   -0.007524615372347401
-0.2060054057681474   0.005922736676234948   0.0029174210715094354
-0.2060054057681474   0.005922736676234948   0.0029174210715094354
-0.2060054057681474   0.005922736676234948   0.0029174210715094354
-0.2060054057681474   0.005922736676234948   0.0029174210715094354
-0.31194158286396434   -0.02786766354752629   -0.006251692607004075
-0.31194158286396434   -0.02786766354752629   -0.006251692607004075
-0.31194158286396434   -0.02786766354752629   -0.006251692607004075
-0.31194158286396434   -0.02786766354752629   -0.006251692607004075
-0.37940038677934035   0.017156707561998635   0.011997893704636952
-0.37940038677934035   0.017156707561998635   0.011997893704636952
-0.37940038677934035   0.017156707561998635   0.011997893704636952
-0.37940038677934035   0.017156707561998635   0.011997893704636952
-0.5876286166195974   -0.02921736383014152   -0.0074586543015087055
-0.5876286166195974   -0.02921736383014152   -0.0074586543015087055
-0.5876286166195974   -0.02921736383014152   -0.0074586543015087055
-0.5876286166195974   -0.02921736383014152   -0.0074586543015087055
-0.6013048725207181   -0.029799182214495082   0.012214781746158834
-0.6013048725207181   -0.029799182214495082   0.012214781746158834
-0.6013048725207181   -0.029799182214495082   0.012214781746158834
-0.6013048725207181   -0.029799182214495082   0.012214781746158834
-0.39296146044043484   0.012614409336438648   -0.002742140067108014
-0.39296146044043484   0.012614409336438648   -0.002742140067108014
-0.39296146044043484   0.012614409336438648   -0.002742140067108014
-0.39296146044043484   0.012614409336438648   -0.002742140067108014
-0.4674295622766974   0.00016845425644999856   0.011961217247661322
-0.4674295622766974   0.00016845425644999856   0.011961217247661322
-0.4674295622766974   0.00016845425644999856   0.011961217247661322
-0.4674295622766974   0.00016845425644999856   0.011961217247661322
-0.3892309462953296   0.013231345566937558   0.015293494427918195
-0.3892309462953296   0.013231345566937558   0.015293494427918195
-0.3892309462953296   0.013231345566937558   0.015293494427918195
-0.3892309462953296   0.013231345566937558   0.015293494427918195
-0.6047667782072551   -0.030147509986423446   -0.004746418914598188
-0.6047667782072551   -0.030147509986423446   -0.004746418914598188
-0.6047667782072551   -0.030147509986423446   -0.004746418914598188
-0.6047667782072551   -0.030147509986423446   -0.004746418914598188
-0.6184816094222102   -0.03439765958093799   0.01668376670195984
-0.6184816094222102   -0.03439765958093799   0.01668376670195984
-0.6184816094222102   -0.03439765958093799   0.01668376670195984
-0.6184816094222102   -0.03439765958093799   0.01668376670195984
-0.40555843375550327   0.009477687884922287   -0.0029049832744725973
-0.40555843375550327   0.009477687884922287   -0.0029049832744725973
-0.40555843375550327   0.009477687884922287   -0.0029049832744725973
-0.40555843375550327   0.009477687884922287   -0.0029049832744725973
-0.48998581802598606   -0.005169978368797193   0.006865774798174771
-0.48998581802598606   -0.005169978368797193   0.006865774798174771
-0.48998581802598606   -0.005169978368797193   0.006865774798174771
-0.48998581802598606   -0.005169978368797193   0.006865774798174771
-0.4021429631662426   0.008552773201014344   0.015097284355738639
-0.4021429631662426   0.008552773201014344   0.015097284355738639
-0.4021429631662426   0.008552773201014344   0.015097284355738639
-0.4021429631662426   0.008552773201014344   0.015097284355738639
-0.6225411683295207   -0.0341168332150773   -0.0038948542004531017
-0.6225411683295207   -0.0341168332150773   -0.0038948542004531017
-0.6225411683295207   -0.0341168332150773   -0.0038948542004531017
-0.6225411683295207   -0.0341168332150773   -0.0038948542004531017
-0.6430036345138476   -0.053309078769066875   0.014314838530504082
-0.6430036345138476   -0.053309078769066875   0.014314838530504082
-0.6430036345138476   -0.053309078769066875   0.014314838530504082
-0.6430036345138476   -0.053309078769066875   0.014314838530504082
-0.4200876038598876   -0.00040877404528422145   -0.0027598372361317264
-0.4200876038598876   -0.00040877404528422145   -0.0027598372361317264
-0.4200876038598876   -0.00040877404528422145   -0.0027598372361317264
-0.4200876038598876   -0.00040877404528422145   -0.0027598372361317264
-0.4989631742317178   -0.012001424660705556   0.00254465532615537
-0.4989631742317178   -0.012001424660705556   0.00254465532615537
-0.4989631742317178   -0.012001424660705556   0.00254465532615537
-0.4989631742317178   -0.012001424660705556   0.00254465532615537
0.38688117835477875   0.021060336026343454   -0.013140389588020725
0.38688117835477875   0.021060336026343454   -0.013140389588020725
0.38688117835477875   0.021060336026343454   -0.013140389588020725
0.38688117835477875   0.021060336026343454   -0.013140389588020725
0.1907830668803325   -0.0009003397654122752   0.004577852266543621
0.1907830668803325   -0.0009003397654122752   0.004577852266543621
0.1907830668803325   -0.0009003397654122752   0.004577852266543621
0.1907830668803325   -0.0009003397654122752   0.004577852266543621
0.17507350212251716   -0.028062620570610562   -0.012195879201839791
0.17507350212251716   -0.028062620570610562   -0.012195879201839791
0.17507350212251716   -0.028062620570610562   -0.012195879201839791
0.17507350212251716   -0.028062620570610562   -0.012195879201839791
0.3799434352155828   0.030951745114274537   0.0057647138227365086
0.3799434352155828   0.030951745114274537   0.0057647138227365086
0.3799434352155828   0.030951745114274537   0.0057647138227365086
0.3799434352155828   0.030951745114274537   0.0057647138227365086
0.26853037650006356   0.0023394363077586383   -0.0088559796993713
0.26853037650006356   0.0023394363077586383   -0.0088559796993713
0.26853037650006356   0.0023394363077586383   -0.0088559796993713
0.26853037650006356   0.0023394363077586383   -0.0088559796993713
0.3723104039474591   0.01127849679502077   -0.01272719419862511
0.3723104039474591   0.01127849679502077   -0.01272719419862511
0.3723104039474591   0.01127849679502077   -0.01272719419862511
0.3723104039474591   0.01127849679502077   -0.01272719419862511
0.18239304826299124   -0.008702857379006404   0.005042088308923373
0.18239304826299124   -0.008702857379006404   0.005042088308923373
0.18239304826299124   -0.008702857379006404   0.005042088308923373
0.18239304826299124   -0.008702857379006404   0.005042088308923373
0.1672231507985962   -0.030304375793185803   -0.010642441978831869
0.1672231507985962   -0.030304375793185803   -0.010642441978831869
0.1672231507985962   -0.030304375793185803   -0.010642441978831869
0.1672231507985962   -0.030304375793185803   -0.010642441978831869
0.36822315811530126   0.027836507588892778   0.00798166295318763
0.36822315811530126   0.027836507588892778   0.00798166295318763
0.36822315811530126   0.027836507588892778   0.00798166295318763
0.36822315811530126   0.027836507588892778   0.00798166295318763
0.2626445076855945   -0.0017759401553321397   -0.011420501984652515
0.2626445076855945   -0.0017759401553321397   -0.011420501984652515
0.2626445076855945   -0.0017759401553321397   -0.011420501984652515
0.2626445076855945   -0.0017759401553321397   -0.011420501984652515
0.3607403981979027   0.008507030227883877   -0.010102659272790002
0.3607403981979027   0.008507030227883877   -0.010102659272790002
0.3607403981979027   0.008507030227883877   -0.010102659272790002
0.3607403981979027   0.008507030227883877   -0.010102659272790002
0.1744125069815137   -0.011268302166657182   0.006268265309225456
0.1744125069815137   -0.011268302166657182   0.006268265309225456
0.1744125069815137   -0.011268302166657182   0.006268265309225456
0.1744125069815137   -0.011268302166657182   0.006268265309225456
0.16008770044459192   -0.030729435907621054   -0.008708025834258261
0.16008770044459192   -0.030729435907621054   -0.008708025834258261
0.16008770044459192   -0.030729435907621054   -0.008708025834258261
0.16008770044459192   -0.030729435907621054   -0.008708025834258261
0.3550112731311676   0.02528795055343977   0.010027272164902568
0.3550112731311676   0.02528795055343977   0.010027272164902568
0.3550112731311676   0.02528795055343977   0.010027272164902568
0.3550112731311676   0.02528795055343977   0.010027272164902568
0.24809706207892795   -0.004532436950773731   -0.015409417187138168
0.24809706207892795   -0.004532436950773731   -0.015409417187138168
0.24809706207892795   -0.004532436950773731   -0.015409417187138168
0.24809706207892795   -0.004532436950773731   -0.015409417187138168
0.19442321278953067   0.02049304583453098   0.0013851962125911287
0.19442321278953067   0.02049304583453098   0.0013851962125911287
0.19442321278953067   0.02049304583453098   0.0013851962125911287
0.19442321278953067   0.02049304583453098   0.0013851962125911287
0.005169114041767385   -0.006877392576400911   -0.0009818315620677464
0.005169114041767385   -0.006877392576400911   -0.0009818315620677464
0.005169114041767385   -0.006877392576400911   -0.0009818315620677464
0.005169114041767385   -0.006877392576400911   -0.0009818315620677464
-0.006680906550139153   -0.025370894008249607   -0.008403170339583356
-0.006680906550139153   -0.025370894008249607   -0.008403170339583356
-0.006680906550139153   -0.025370894008249607   -0.008403170339583356
-0.006680906550139153   -0.025370894008249607   -0.008403170339583356
0.19083963596153397   0.028169112822303402   0.01040305660032705
0.19083963596153397   0.028169112822303402   0.01040305660032705
0.19083963596153397   0.028169112822303402   0.01040305660032705
0.19083963596153397   0.028169112822303402   0.01040305660032705
0.09443606045284808   0.004022477174729651   -0.0010029770512368268
0.09443606045284808   0.004022477174729651   -0.0010029770512368268
0.09443606045284808   0.004022477174729651   -0.0010029770512368268
0.09443606045284808   0.004022477174729651   -0.0010029770512368268
0.18670014797161522   0.015467414048857108   0.0024073154241805164
0.18670014797161522   0.015467414048857108   0.0024073154241805164
0.18670014797161522   0.015467414048857108   0.0024073154241805164
0.18670014797161522   0.015467414048857108   0.0024073154241805164
-0.0024627187942203024   -0.012590495468800504   -9.263009943820356e-05
-0.0024627187942203024   -0.012590495468800504   -9.263009943820356e-05
-0.0024627187942203024   -0.012590495468800504   -9.263009943820356e-05
-0.0024627187942203024   -0.012590495468800504   -9.263009943820356e-05
-0.014114839618010935   -0.02898567435360221   -0.007300098484700137
-0.014114839618010935   -0.02898567435360221   -0.007300098484700137
-0.014114839618010935   -0.02898567435360221   -0.007300098484700137
-0.014114839618010935   -0.02898567435360221   -0.007300098484700137
0.18241337324679682   0.023514641406248645   0.0114896530627355
0.18241337324679682   0.023514641406248645   0.0114896530627355
0.18241337324679682   0.023514641406248645   0.0114896530627355
0.18241337324679682   0.023514641406248645   0.0114896530627355
0.08528682203888704   -0.0005909678369715975   -0.0036138541575703115
0.08528682203888704   -0.0005909678369715975   -0.0036138541575703115
0.08528682203888704   -0.0005909678369715975   -0.0036138541575703115
0.08528682203888704   -0.0005909678369715975   -0.0036138541575703115
0.17843546998257956   0.011672802410863117   0.0034419757370360102
0.17843546998257956   0.011672802410863117   0.0034419757370360102
0.17843546998257956   0.011672802410863117   0.0034419757370360102
0.17843546998257956   0.011672802410863117   0.0034419757370360102
-0.010131638601868751   -0.01713853760629155   0.0007687698487001196
-0.010131638601868751   -0.01713853760629155   0.0007687698487001196
-0.010131638601868751   -0.01713853760629155   0.0007687698487001196
-0.010131638601868751   -0.01713853760629155   0.0007687698487001196
-0.021462862497556124   -0.03107544920475984   -0.005866008397668839
-0.021462862497556124   -0.03107544920475984   -0.005866008397668839
-0.021462862497556124   -0.03107544920475984   -0.005866008397668839
-0.021462862497556124   -0.03107544920475984   -0.005866008397668839
0.17439652338588457   0.01965660328429238   0.012450049680289548
0.17439652338588457   0.01965660328429238   0.012450049680289548
0.17439652338588457   0.01965660328429238   0.012450049680289548
0.17439652338588457   0.01965660328429238   0.012450049680289548
0.07863170553742382   -0.003447749700835827   -0.005506697877170421
0.07863170553742382   -0.003447749700835827   -0.005506697877170421
0.07863170553742382   -0.003447749700835827   -0.005506697877170421
0.07863170553742382   -0.003447749700835827   -0.005506697877170421
0.01171088192032658   0.0204168742484738   0.004432741005854472
0.01171088192032658   0.0204168742484738   0.004432741005854472
0.01171088192032658   0.0204168742484738   0.004432741005854472
0.01171088192032658   0.0204168742484738   0.004432741005854472
-0.1748911771627414   -0.011671860034319206   -0.0059706841420809065
-0.1748911771627414   -0.011671860034319206   -0.0059706841420809065
-0.1748911771627414   -0.011671860034319206   -0.0059706841420809065
-0.1748911771627414   -0.011671860034319206   -0.0059706841420809065
-0.1841323692435644   -0.023466659460627544   -0.005487783248450678
-0.1841323692435644   -0.023466659460627544   -0.005487783248450678
-0.1841323692435644   -0.023466659460627544   -0.005487783248450678
-0.1841323692435644   -0.023466659460627544   -0.005487783248450678
0.005718984522832929   0.023101474973001586   0.005123916044025861
0.005718984522832929   0.023101474973001586   0.005123916044025861
0.005718984522832929   0.023101474973001586   0.005123916044025861
0.005718984522832929   0.023101474973001586   0.005123916044025861
-0.08528634142308297   0.0024478158308290504   0.00037118754141551597
-0.08528634142308297   0.0024478158308290504   0.00037118754141551597
-0.08528634142308297   0.0024478158308290504   0.00037118754141551597
-0.08528634142308297   0.0024478158308290504   0.00037118754141551597
0.004464722395863255   0.016450942994486614   0.005503137387692465
0.004464722395863255   0.016450942994486614   0.005503137387692465
0.004464722395863255   0.016450942994486614   0.005503137387692465
0.004464722395863255   0.016450942994486614   0.005503137387692465
-0.18267202110408726   -0.016610041469605107   -0.005042660542087417
-0.18267202110408726   -0.016610041469605107   -0.005042660542087417
-0.18267202110408726   -0.016610041469605107   -0.005042660542087417
-0.18267202110408726   -0.016610041469605107   -0.005042660542087417
-0.1921038306296712   -0.027428872086566324   -0.004620840134455073
-0.1921038306296712   -0.027428872086566324   -0.004620840134455073
-0.1921038306296712   -0.027428872086566324   -0.004620840134455073
-0.1921038306296712   -0.027428872086566324   -0.004620840134455073
-0.00195585547634517   0.01831858851010796   0.006190559359918516
-0.00195585547634517   0.01831858851010796   0.006190559359918516
-0.00195585547634517   0.01831858851010796   0.006190559359918516
-0.00195585547634517   0.01831858851010796   0.006190559359918516
-0.09293006161465778   -0.0014700428199250874   -0.0015701734045368313
-0.09293006161465778   -0.0014700428199250874   -0.0015701734045368313
-0.09293006161465778   -0.0014700428199250874   -0.0015701734045368313
-0.09293006161465778   -0.0014700428199250874   -0.0015701734045368313
-0.0030202844978737516   0.012624504765969973   0.006562497996413598
-0.0030202844978737516   0.012624504765969973   0.006562497996413598
-0.0030202844978737516   0.012624504765969973   0.006562497996413598
-0.0030202844978737516   0.012624504765969973   0.006562497996413598
-0.1908675016801263   -0.02156288841440913   -0.004305179058885806
-0.1908675016801263   -0.02156288841440913   -0.004305179058885806
-0.1908675016801263   -0.02156288841440913   -0.004305179058885806
-0.1908675016801263   -0.02156288841440913   -0.004305179058885806
-0.2000119691361985   -0.030529333242025954   -0.0031743055857529636
-0.2000119691361985   -0.030529333242025954   -0.0031743055857529636
-0.2000119691361985   -0.030529333242025954   -0.0031743055857529636
-0.2000119691361985   -0.030529333242025954   -0.0031743055857529636
-0.009911309797519708   0.013813135639104229   0.007003170258649181
-0.009911309797519708   0.013813135639104229   0.007003170258649181
-0.009911309797519708   0.013813135639104229   0.007003170258649181
-0.009911309797519708   0.013813135639104229   0.007003170258649181
-0.10115815404200691   -0.005451690088702714   -0.003702701473333612
-0.10115815404200691   -0.005451690088702714   -0.003702701473333612
-0.10115815404200691   -0.005451690088702714   -0.003702701473333612
-0.10115815404200691   -0.005451690088702714   -0.003702701473333612
-0.16505649268990963   0.023758461861129877   0.007772416326631764
-0.16505649268990963   0.023758461861129877   0.007772416326631764
-0.16505649268990963   0.023758461861129877   0.007772416326631764
-0.16505649268990963   0.023758461861129877   0.007772416326631764
-0.34964112287861804   -0.015939061862993015   -0.009701616761393972
-0.34964112287861804   -0.015939061862993015   -0.009701616761393972
-0.34964112287861804   -0.015939061862993015   -0.009701616761393972
-0.34964112287861804   -0.015939061862993015   -0.009701616761393972
-0.356825332480225   -0.019213484885157922   -0.0018804933193853658
-0.356825332480225   -0.019213484885157922   -0.0018804933193853658
-0.356825332480225   -0.019213484885157922   -0.0018804933193853658
-0.356825332480225   -0.019213484885157922   -0.0018804933193853658
-0.17484558846240444   0.01758887965989412   -0.00010941846317065809
-0.17484558846240444   0.01758887965989412   -0.00010941846317065809
-0.17484558846240444   0.01758887965989412   -0.00010941846317065809
-0.17484558846240444   0.01758887965989412   -0.00010941846317065809
-0.2596941844069858   0.002296595258042801   0.0019297403754830866
-0.2596941844069858   0.002296595258042801   0.0019297403754830866
-0.2596941844069858   0.002296595258042801   0.0019297403754830866
-0.2596941844069858   0.002296595258042801   0.0019297403754830866
-0.17265348392317778   0.01973748355724997   0.008702500335606874
-0.17265348392317778   0.01973748355724997   0.008702500335606874
-0.17265348392317778   0.01973748355724997   0.008702500335606874
-0.17265348392317778   0.01973748355724997   0.008702500335606874
-0.3587522572769136   -0.021096909039976006   -0.009631693148012151
-0.3587522572769136   -0.021096909039976006   -0.009631693148012151
-0.3587522572769136   -0.021096909039976006   -0.009631693148012151
-0.3587522572769136   -0.021096909039976006   -0.009631693148012151
-0.36663134635123834   -0.023680436273784543   -0.0017511906253609693
-0.36663134635123834   -0.023680436273784543   -0.0017511906253609693
-0.36663134635123834   -0.023680436273784543   -0.0017511906253609693
-0.36663134635123834   -0.023680436273784543   -0.0017511906253609693
-0.1829219674709383   0.013025204245151321   0.000834399327493662
-0.1829219674709383   0.013025204245151321   0.000834399327493662
-0.1829219674709383   0.013025204245151321   0.000834399327493662
-0.1829219674709383   0.013025204245151321   0.000834399327493662
-0.2664676894010718   -0.0012335461589767435   0.0003463346298298534
-0.2664676894010718   -0.0012335461589767435   0.0003463346298298534
-0.2664676894010718   -0.0012335461589767435   0.0003463346298298534
-0.2664676894010718   -0.0012335461589767435   0.0003463346298298534
-0.18051264631401143   0.015895653108490573   0.010010556248787753
-0.18051264631401143   0.015895653108490573   0.010010556248787753
-0.18051264631401143   0.015895653108490573   0.010010556248787753
-0.18051264631401143   0.015895653108490573   0.010010556248787753
-0.36848144641744957   -0.025991664046408854   -0.008690463183795927
-0.36848144641744957   -0.025991664046408854   -0.008690463183795927
-0.36848144641744957   -0.025991664046408854   -0.008690463183795927
-0.36848144641744957   -0.025991664046408854   -0.008690463183795927
-0.37563876363405935   -0.028484460403785605   0.0005147935373339303
-0.37563876363405935   -0.028484460403785605   0.0005147935373339303
-0.37563876363405935   -0.028484460403785605   0.0005147935373339303
-0.37563876363405935   -0.028484460403785605   0.0005147935373339303
-0.19148255701399655   0.007549195188343974   0.0013942265948907653
-0.19148255701399655   0.007549195188343974   0.0013942265948907653
-0.19148255701399655   0.007549195188343974   0.0013942265948907653
-0.19148255701399655   0.007549195188343974   0.0013942265948907653
-0.277291699232126   -0.006311676438896373   -0.001827495429078287
-0.277291699232126   -0.006311676438896373   -0.001827495429078287
-0.277291699232126   -0.006311676438896373   -0.001827495429078287
-0.277291699232126   -0.006311676438896373   -0.001827495429078287
-0.3374790522519971   0.024448512337852737   0.01072116217086216
-0.3374790522519971   0.024448512337852737   0.01072116217086216
-0.3374790522519971   0.024448512337852737   0.01072116217086216
-0.3374790522519971   0.024448512337852737   0.01072116217086216
-0.5167350362667721   -0.023996258123238426   -0.008673915448466438
-0.5167350362667721   -0.023996258123238426   -0.008673915448466438
-0.5167350362667721   -0.023996258123238426   -0.008673915448466438
-0.5167350362667721   -0.023996258123238426   -0.008673915448466438
-0.5233819873490815   -0.011119207466817244   0.009010302825259182
-0.5233819873490815   -0.011119207466817244   0.009010302825259182
-0.5233819873490815   -0.011119207466817244   0.009010302825259182
-0.5233819873490815   -0.011119207466817244   0.009010302825259182
-0.35135715285063807   0.010919941938825534   -0.004673021995434276
-0.35135715285063807   0.010919941938825534   -0.004673021995434276
-0.35135715285063807   0.010919941938825534   -0.004673021995434276
-0.35135715285063807   0.010919941938825534   -0.004673021995434276
-0.41306270470140893   0.0049050988373504495   0.009668526260555966
-0.41306270470140893   0.0049050988373504495   0.009668526260555966
-0.41306270470140893   0.0049050988373504495   0.009668526260555966
-0.41306270470140893   0.0049050988373504495   0.009668526260555966
-0.34509995889435324   0.025201429670032457   0.01233146005477945
-0.34509995889435324   0.025201429670032457   0.01233146005477945
-0.34509995889435324   0.025201429670032457   0.01233146005477945
-0.34509995889435324   0.025201429670032457   0.01233146005477945
-0.529271915158186   -0.025033429050842868   -0.006525114636228416
-0.529271915158186   -0.025033429050842868   -0.006525114636228416
-0.529271915158186   -0.025033429050842868   -0.006525114636228416
-0.529271915158186   -0.025033429050842868   -0.006525114636228416
-0.5355777657631484   -0.013459379945222658   0.012429009582463107
-0.5355777657631484   -0.013459379945222658   0.012429009582463107
-0.5355777657631484   -0.013459379945222658   0.012429009582463107
-0.5355777657631484   -0.013459379945222658   0.012429009582463107
-0.36071369069723624   0.008301041162455253   -0.004144389791590319
-0.36071369069723624   0.008301041162455253   -0.004144389791590319
-0.36071369069723624   0.008301041162455253   -0.004144389791590319
-0.36071369069723624   0.008301041162455253   -0.004144389791590319
-0.4302101843162799   0.0024566907550332695   0.006410427786045059
-0.4302101843162799   0.0024566907550332695   0.006410427786045059
-0.4302101843162799   0.0024566907550332695   0.006410427786045059
-0.4302101843162799   0.0024566907550332695   0.006410427786045059
-0.3537972984027268   0.023465528482545434   0.015273084360866648
-0.3537972984027268   0.023465528482545434   0.015273084360866648
-0.3537972984027268   0.023465528482545434   0.015273084360866648
-0.3537972984027268   0.023465528482545434   0.015273084360866648
-0.5421309016842529   -0.028260610891903848   -0.005535439076368998
-0.5421309016842529   -0.028260610891903848   -0.005535439076368998
-0.5421309016842529   -0.028260610891903848   -0.005535439076368998
-0.5421309016842529   -0.028260610891903848   -0.005535439076368998
-0.5521332502940208   -0.023816579869741755   0.012246780075713878
-0.5521332502940208   -0.023816579869741755   0.012246780075713878
-0.5521332502940208   -0.023816579869741755   0.012246780075713878
-0.5521332502940208   -0.023816579869741755   0.012246780075713878
-0.3707890974100886   0.0001936040220367058   -0.003914939768634416
-0.3707890974100886   0.0001936040220367058   -0.003914939768634416
-0.3707890974100886   0.0001936040220367058   -0.003914939768634416
-0.3707890974100886   0.0001936040220367058   -0.003914939768634416
-0.4347062397441731   -0.0011806998140923564   0.005437600058772085
-0.4347062397441731   -0.0011806998140923564   0.005437600058772085
-0.4347062397441731   -0.0011806998140923564   0.005437600058772085
-0.4347062397441731   -0.0011806998140923564   0.005437600058772085
0.29751034143700605   0.016819889480673936   -0.013548276059698869
0.29751034143700605   0.016819889480673936   -0.013548276059698869
0.29751034143700605   0.016819889480673936   -0.013548276059698869
0.29751034143700605   0.016819889480673936   -0.013548276059698869
0.14080787846086903   0.0022107057603138122   0.005019197627859176
0.14080787846086903   0.0022107057603138122   0.005019197627859176
0.14080787846086903   0.0022107057603138122   0.005019197627859176
0.14080787846086903   0.0022107057603138122   0.005019197627859176
0.125828069564768   -0.023615506905347   -0.012956180624556321
0.125828069564768   -0.023615506905347   -0.012956180624556321
0.125828069564768   -0.023615506905347   -0.012956180624556321
0.125828069564768   -0.023615506905347   -0.012956180624556321
0.29144097704529687   0.027014663445530746   0.0062281612057037625
0.29144097704529687   0.027014663445530746   0.0062281612057037625
0.29144097704529687   0.027014663445530746   0.0062281612057037625
0.29144097704529687   0.027014663445530746   0.0062281612057037625
0.2028497337267457   0.002718498039117334   -0.006015050335504311
0.2028497337267457   0.002718498039117334   -0.006015050335504311
0.2028497337267457   0.002718498039117334   -0.006015050335504311
0.2028497337267457   0.002718498039117334   -0.006015050335504311
0.2838193037719887   0.008000723098289308   -0.012866264813595568
0.2838193037719887   0.008000723098289308   -0.012866264813595568
0.2838193037719887   0.008000723098289308   -0.012866264813595568
0.2838193037719887   0.008000723098289308   -0.012866264813595568
0.13330439996799504   -0.0047469094281868615   0.005556873914417646
0.13330439996799504   -0.0047469094281868615   0.005556873914417646
0.13330439996799504   -0.0047469094281868615   0.005556873914417646
0.13330439996799504   -0.0047469094281868615   0.005556873914417646
0.11885911240111162   -0.02585152043970096   -0.01109443147559137
0.11885911240111162   -0.02585152043970096   -0.01109443147559137
0.11885911240111162   -0.02585152043970096   -0.01109443147559137
0.11885911240111162   -0.02585152043970096   -0.01109443147559137
0.2805970036396262   0.02379770974755758   0.008273624361334086
0.2805970036396262   0.02379770974755758   0.008273624361334086
0.2805970036396262   0.02379770974755758   0.008273624361334086
0.2805970036396262   0.02379770974755758   0.008273624361334086
0.19681511490327283   -0.00121340601311936   -0.008269972076792519
0.19681511490327283   -0.00121340601311936   -0.008269972076792519
0.19681511490327283   -0.00121340601311936   -0.008269972076792519
0.19681511490327283   -0.00121340601311936   -0.008269972076792519
0.2731371994651572   0.005147871596280176   -0.010375558359731248
0.2731371994651572   0.005147871596280176   -0.010375558359731248
0.2731371994651572   0.005147871596280176   -0.010375558359731248
0.2731371994651572   0.005147871596280176   -0.010375558359731248
0.12612324003776468   -0.007397358826239309   0.006772045094211121
0.12612324003776468   -0.007397358826239309   0.006772045094211121
0.12612324003776468   -0.007397358826239309   0.006772045094211121
0.12612324003776468   -0.007397358826239309   0.006772045094211121
0.11260657437261332   -0.027048224778225223   -0.00924890573486813
0.11260657437261332   -0.027048224778225223   -0.00924890573486813
0.11260657437261332   -0.027048224778225223   -0.00924890573486813
0.11260657437261332   -0.027048224778225223   -0.00924890573486813
0.2683430898264783   0.02044586437853934   0.009898408829120008
0.2683430898264783   0.02044586437853934   0.009898408829120008
0.2683430898264783   0.02044586437853934   0.009898408829120008
0.2683430898264783   0.02044586437853934   0.009898408829120008
0.18426237781373173   -0.004121004404334105   -0.01171425694101195
0.18426237781373173   -0.004121004404334105   -0.01171425694101195
0.18426237781373173   -0.004121004404334105   -0.01171425694101195
0.18426237781373173   -0.004121004404334105   -0.01171425694101195
0.14342612469559848   0.020862168982619514   -0.000541034420796727
0.14342612469559848   0.020862168982619514   -0.000541034420796727
0.14342612469559848   0.020862168982619514   -0.000541034420796727
0.14342612469559848   0.020862168982619514   -0.000541034420796727
-0.010032633468122928   -0.0024772790380780305   -0.0002484464339235939
-0.010032633468122928   -0.0024772790380780305   -0.0002484464339235939
-0.010032633468122928   -0.0024772790380780305   -0.0002484464339235939
-0.010032633468122928   -0.0024772790380780305   -0.0002484464339235939
-0.02058995932673439   -0.017863594895326317   -0.008330886699553182
-0.02058995932673439   -0.017863594895326317   -0.008330886699553182
-0.02058995932673439   -0.017863594895326317   -0.008330886699553182
-0.02058995932673439   -0.017863594895326317   -0.008330886699553182
0.13993757864715217   0.024644051140802932   0.009331806741213628
0.13993757864715217   0.024644051140802932   0.009331806741213628
0.13993757864715217   0.024644051140802932   0.009331806741213628
0.13993757864715217   0.024644051140802932   0.009331806741213628
0.06220244481875365   0.005999964476271179   0.0004897729042317033
0.06220244481875365   0.005999964476271179   0.0004897729042317033
0.06220244481875365   0.005999964476271179   0.0004897729042317033
0.06220244481875365   0.005999964476271179   0.0004897729042317033
0.13633173686806999   0.015313542900722177   0.000633106085884929
0.13633173686806999   0.015313542900722177   0.000633106085884929
0.13633173686806999   0.015313542900722177   0.000633106085884929
0.13633173686806999   0.015313542900722177   0.000633106085884929
-0.01692566540651539   -0.008474634514108507   0.0006016225203239974
-0.01692566540651539   -0.008474634514108507   0.0006016225203239974
-0.01692566540651539   -0.008474634514108507   0.0006016225203239974
-0.01692566540651539   -0.008474634514108507   0.0006016225203239974
-0.027147866445746623   -0.022081092970837317   -0.00692777913015083
-0.027147866445746623   -0.022081092970837317   -0.00692777913015083
-0.027147866445746623   -0.022081092970837317   -0.00692777913015083
-0.027147866445746623   -0.022081092970837317   -0.00692777913015083
0.1321952910791567   0.019542089543870444   0.010192851931061443
0.1321952910791567   0.019542089543870444   0.010192851931061443
0.1321952910791567   0.019542089543870444   0.010192851931061443
0.1321952910791567   0.019542089543870444   0.010192851931061443
0.05406037023838973   0.0009346701034068598   -0.002046487032367039
0.05406037023838973   0.0009346701034068598   -0.002046487032367039
0.05406037023838973   0.0009346701034068598   -0.002046487032367039
0.05406037023838973   0.0009346701034068598   -0.002046487032367039
0.1287129643409102   0.010784408807720285   0.0015388989759803516
0.1287129643409102   0.010784408807720285   0.0015388989759803516
0.1287129643409102   0.010784408807720285   0.0015388989759803516
0.1287129643409102   0.010784408807720285   0.0015388989759803516
-0.023723073822341345   -0.013380946349528171   0.0014960373655664057
-0.023723073822341345   -0.013380946349528171   0.0014960373655664057
-0.023723073822341345   -0.013380946349528171   0.0014960373655664057
-0.023723073822341345   -0.013380946349528171   0.0014960373655664057
-0.033611360096506115   -0.025557163264622346   -0.005610899581893415
-0.033611360096506115   -0.025557163264622346   -0.005610899581893415
-0.033611360096506115   -0.025557163264622346   -0.005610899581893415
-0.033611360096506115   -0.025557163264622346   -0.005610899581893415
0.12504597279005245   0.0148864984701544   0.011013363103947411
0.12504597279005245   0.0148864984701544   0.011013363103947411
0.12504597279005245   0.0148864984701544   0.011013363103947411
0.12504597279005245   0.0148864984701544   0.011013363103947411
0.04790811418098129   -0.0028229912290410695   -0.004132031917052017
0.04790811418098129   -0.0028229912290410695   -0.004132031917052017
0.04790811418098129   -0.0028229912290410695   -0.004132031917052017
0.04790811418098129   -0.0028229912290410695   -0.004132031917052017
-0.003913782534273301   0.0244095512993693   0.003458977897878158
-0.003913782534273301   0.0244095512993693   0.003458977897878158
-0.003913782534273301   0.0244095512993693   0.003458977897878158
-0.003913782534273301   0.0244095512993693   0.003458977897878158
-0.15770394815651012   -0.007257644237455313   -0.005225493796271198
-0.15770394815651012   -0.007257644237455313   -0.005225493796271198
-0.15770394815651012   -0.007257644237455313   -0.005225493796271198
-0.15770394815651012   -0.007257644237455313   -0.005225493796271198
-0.16450030001347768   -0.012790408837644329   -0.004116218472893086
-0.16450030001347768   -0.012790408837644329   -0.004116218472893086
-0.16450030001347768   -0.012790408837644329   -0.004116218472893086
-0.16450030001347768   -0.012790408837644329   -0.004116218472893086
-0.010548718706566885   0.019889940983295586   0.0041217805226624335
-0.010548718706566885   0.019889940983295586   0.0041217805226624335
-0.010548718706566885   0.019889940983295586   0.0041217805226624335
-0.010548718706566885   0.019889940983295586   0.0041217805226624335
-0.08396439599427247   0.006084502576532955   0.00163848023241088
-0.08396439599427247   0.006084502576532955   0.00163848023241088
-0.08396439599427247   0.006084502576532955   0.00163848023241088
-0.08396439599427247   0.006084502576532955   0.00163848023241088
-0.010431484560622541   0.01980514699553183   0.004792745240147911
-0.010431484560622541   0.01980514699553183   0.004792745240147911
-0.010431484560622541   0.01980514699553183   0.004792745240147911
-0.010431484560622541   0.01980514699553183   0.004792745240147911
-0.16449447972075443   -0.012582560411215526   -0.00429496543570561
-0.16449447972075443   -0.012582560411215526   -0.00429496543570561
-0.16449447972075443   -0.012582560411215526   -0.00429496543570561
-0.16449447972075443   -0.012582560411215526   -0.00429496543570561
-0.17121991431848246   -0.017352480529700284   -0.002900726996985397
-0.17121991431848246   -0.017352480529700284   -0.002900726996985397
-0.17121991431848246   -0.017352480529700284   -0.002900726996985397
-0.17121991431848246   -0.017352480529700284   -0.002900726996985397
-0.017392165835388867   0.014638651344524689   0.005130979606275942
-0.017392165835388867   0.014638651344524689   0.005130979606275942
-0.017392165835388867   0.014638651344524689   0.005130979606275942
-0.017392165835388867   0.014638651344524689   0.005130979606275942
-0.09075354906323764   0.0015500205097799188   -0.0004047488051295931
-0.09075354906323764   0.0015500205097799188   -0.0004047488051295931
-0.09075354906323764   0.0015500205097799188   -0.0004047488051295931
-0.09075354906323764   0.0015500205097799188   -0.0004047488051295931
-0.017136087577352917   0.01521202888843232   0.005837993352548061
-0.017136087577352917   0.01521202888843232   0.005837993352548061
-0.017136087577352917   0.01521202888843232   0.005837993352548061
-0.017136087577352917   0.01521202888843232   0.005837993352548061
-0.17144611711365934   -0.017895982610748835   -0.0034882388918212196
-0.17144611711365934   -0.017895982610748835   -0.0034882388918212196
-0.17144611711365934   -0.017895982610748835   -0.0034882388918212196
-0.17144611711365934   -0.017895982610748835   -0.0034882388918212196
-0.17785004061332574   -0.02151361084199542   -0.0016918313310430415
-0.17785004061332574   -0.02151361084199542   -0.0016918313310430415
-0.17785004061332574   -0.02151361084199542   -0.0016918313310430415
-0.17785004061332574   -0.02151361084199542   -0.0016918313310430415
-0.024270781439974843   0.009560121103496032   0.005974709332644547
-0.024270781439974843   0.009560121103496032   0.005974709332644547
-0.024270781439974843   0.009560121103496032   0.005974709332644547
-0.024270781439974843   0.009560121103496032   0.005974709332644547
-0.0978614253117347   -0.003018110818926188   -0.0026861744874237953
-0.0978614253117347   -0.003018110818926188   -0.0026861744874237953
-0.0978614253117347   -0.003018110818926188   -0.0026861744874237953
-0.0978614253117347   -0.003018110818926188   -0.0026861744874237953
-0.14821052023242165   0.02773681861322337   0.007247182973491556
-0.14821052023242165   0.02773681861322337   0.007247182973491556
-0.14821052023242165   0.02773681861322337   0.007247182973491556
-0.14821052023242165   0.02773681861322337   0.007247182973491556
-0.3024761346435503   -0.012174554267934692   -0.009325121435270155
-0.3024761346435503   -0.012174554267934692   -0.009325121435270155
-0.3024761346435503   -0.012174554267934692   -0.009325121435270155
-0.3024761346435503   -0.012174554267934692   -0.009325121435270155
-0.30616963536674   -0.008560361880857098   0.0004684207374088152
-0.30616963536674   -0.008560361880857098   0.0004684207374088152
-0.30616963536674   -0.008560361880857098   0.0004684207374088152
-0.30616963536674   -0.008560361880857098   0.0004684207374088152
-0.15845920391296503   0.014353224410081515   -0.001054371218054814
-0.15845920391296503   0.014353224410081515   -0.001054371218054814
-0.15845920391296503   0.014353224410081515   -0.001054371218054814
-0.15845920391296503   0.014353224410081515   -0.001054371218054814
-0.22731768359519589   0.005601758424005038   0.0027673308492844953
-0.22731768359519589   0.005601758424005038   0.0027673308492844953
-0.22731768359519589   0.005601758424005038   0.0027673308492844953
-0.22731768359519589   0.005601758424005038   0.0027673308492844953
-0.15474507366328263   0.023337306000369373   0.008532198440068407
-0.15474507366328263   0.023337306000369373   0.008532198440068407
-0.15474507366328263   0.023337306000369373   0.008532198440068407
-0.15474507366328263   0.023337306000369373   0.008532198440068407
-0.30986146125449693   -0.017522139109217065   -0.009028931473015851
-0.30986146125449693   -0.017522139109217065   -0.009028931473015851
-0.30986146125449693   -0.017522139109217065   -0.009028931473015851
-0.30986146125449693   -0.017522139109217065   -0.009028931473015851
-0.31400173929729674   -0.013177157848372735   0.000902360686231873
-0.31400173929729674   -0.013177157848372735   0.000902360686231873
-0.31400173929729674   -0.013177157848372735   0.000902360686231873
-0.31400173929729674   -0.013177157848372735   0.000902360686231873
-0.16527961889152082   0.00948645899645019   -3.818938832574753e-05
-0.16527961889152082   0.00948645899645019   -3.818938832574753e-05
-0.16527961889152082   0.00948645899645019   -3.818938832574753e-05
-0.16527961889152082   0.00948645899645019   -3.818938832574753e-05
-0.23297717796484876   0.0016028674904890738   0.0008758016401147657
-0.23297717796484876   0.0016028674904890738   0.0008758016401147657
-0.23297717796484876   0.0016028674904890738   0.0008758016401147657
-0.23297717796484876   0.0016028674904890738   0.0008758016401147657
-0.1614037428940891   0.01910624934506574   0.009721400250216517
-0.1614037428940891   0.01910624934506574   0.009721400250216517
-0.1614037428940891   0.01910624934506574   0.009721400250216517
-0.1614037428940891   0.01910624934506574   0.009721400250216517
-0.3176830792291789   -0.02260241213143878   -0.008079084690112537
-0.3176830792291789   -0.02260241213143878   -0.008079084690112537
-0.3176830792291789   -0.02260241213143878   -0.008079084690112537
-0.3176830792291789   -0.02260241213143878   -0.008079084690112537
-0.3210821014867459   -0.01817917844047779   0.002351902923531225
-0.3210821014867459   -0.01817917844047779   0.002351902923531225
-0.3210821014867459   -0.01817917844047779   0.002351902923531225
-0.3210821014867459   -0.01817917844047779   0.002351902923531225
-0.17229498239386998   0.0038738869582964283   0.0006959619659458061
-0.17229498239386998   0.0038738869582964283   0.0006959619659458061
-0.17229498239386998   0.0038738869582964283   0.0006959619659458061
-0.17229498239386998   0.0038738869582964283   0.0006959619659458061
-0.2418130991552475   -0.0035085318078237546   -0.0015634975396385826
-0.2418130991552475   -0.0035085318078237546   -0.0015634975396385826
-0.2418130991552475   -0.0035085318078237546   -0.0015634975396385826
-0.2418130991552475   -0.0035085318078237546   -0.0015634975396385826
-0.2911680126680278   0.024883430434237755   0.010157503740170045
-0.2911680126680278   0.024883430434237755   0.010157503740170045
-0.2911680126680278   0.024883430434237755   0.010157503740170045
-0.2911680126680278   0.024883430434237755   0.010157503740170045
-0.4411125620611515   -0.020478361913344248   -0.010008756248867167
-0.4411125620611515   -0.020478361913344248   -0.010008756248867167
-0.4411125620611515   -0.020478361913344248   -0.010008756248867167
-0.4411125620611515   -0.020478361913344248   -0.010008756248867167
-0.44569509570629806   -0.005152476432879555   0.009302829001700166
-0.44569509570629806   -0.005152476432879555   0.009302829001700166
-0.44569509570629806   -0.005152476432879555   0.009302829001700166
-0.44569509570629806   -0.005152476432879555   0.009302829001700166
-0.3041754724941817   0.007590792809293853   -0.005711919589950636
-0.3041754724941817   0.007590792809293853   -0.005711919589950636
-0.3041754724941817   0.007590792809293853   -0.005711919589950636
-0.3041754724941817   0.007590792809293853   -0.005711919589950636
-0.35408158293642333   0.005401987968857602   0.008811814282039431
-0.35408158293642333   0.005401987968857602   0.008811814282039431
-0.35408158293642333   0.005401987968857602   0.008811814282039431
-0.35408158293642333   0.005401987968857602   0.008811814282039431
-0.2971502420913317   0.02508077794707661   0.011924247286514755
-0.2971502420913317   0.02508077794707661   0.011924247286514755
-0.2971502420913317   0.02508077794707661   0.011924247286514755
-0.2971502420913317   0.02508077794707661   0.011924247286514755
-0.45261384158993684   -0.022535977051450842   -0.007907399797918952
-0.45261384158993684   -0.022535977051450842   -0.007907399797918952
-0.45261384158993684   -0.022535977051450842   -0.007907399797918952
-0.45261384158993684   -0.022535977051450842   -0.007907399797918952
-0.45597704265794803   -0.007598585558928658   0.011620828562201937
-0.45597704265794803   -0.007598585558928658   0.011620828562201937
-0.45597704265794803   -0.007598585558928658   0.011620828562201937
-0.45597704265794803   -0.007598585558928658   0.011620828562201937
-0.3115366219589235   0.004925271101485926   -0.004874481571760576
-0.3115366219589235   0.004925271101485926   -0.004874481571760576
-0.3115366219589235   0.004925271101485926   -0.004874481571760576
-0.3115366219589235   0.004925271101485926   -0.004874481571760576
-0.36875263895516486   0.0026956210322812285   0.005528001825556773
-0.36875263895516486   0.0026956210322812285   0.005528001825556773
-0.36875263895516486   0.0026956210322812285   0.005528001825556773
-0.36875263895516486   0.0026956210322812285   0.005528001825556773
-0.3040861953584106   0.02326333557916377   0.014039586953126598
-0.3040861953584106   0.02326333557916377   0.014039586953126598
-0.3040861953584106   0.02326333557916377   0.014039586953126598
-0.3040861953584106   0.02326333557916377   0.014039586953126598
-0.463238623514337   -0.025747804292482177   -0.006537856986187619
-0.463238623514337   -0.025747804292482177   -0.006537856986187619
-0.463238623514337   -0.025747804292482177   -0.006537856986187619
-0.463238623514337   -0.025747804292482177   -0.006537856986187619
-0.46955561787021527   -0.016510795982602036   0.011329580668298627
-0.46955561787021527   -0.016510795982602036   0.011329580668298627
-0.46955561787021527   -0.016510795982602036   0.011329580668298627
-0.46955561787021527   -0.016510795982602036   0.011329580668298627
-0.31933899486047995   -0.0026849641629433096   -0.004426778222673653
-0.31933899486047995   -0.0026849641629433096   -0.004426778222673653
-0.31933899486047995   -0.0026849641629433096   -0.004426778222673653
-0.31933899486047995   -0.0026849641629433096   -0.004426778222673653
-0.37213101289966083   -0.0007466740835317259   0.00450379035291891
-0.37213101289966083   -0.0007466740835317259   0.00450379035291891
-0.37213101289966083   -0.0007466740835317259   0.00450379035291891
-0.37213101289966083   -0.0007466740835317259   0.00450379035291891
0.2083965294769797   0.012049858581827114   -0.013373689280700308
0.2083965294769797   0.012049858581827114   -0.013373689280700308
0.2083965294769797   0.012049858581827114   -0.013373689280700308
0.2083965294769797   0.012049858581827114   -0.013373689280700308
0.08897962644074624   0.005075578492826423   0.005615796213585947
0.08897962644074624   0.005075578492826423   0.005615796213585947
0.08897962644074624   0.005075578492826423   0.005615796213585947
0.08897962644074624   0.005075578492826423   0.005615796213585947
0.07528967930646288   -0.019965151056660194   -0.01251961356641686
0.07528967930646288   -0.019965151056660194   -0.01251961356641686
0.07528967930646288   -0.019965151056660194   -0.01251961356641686
0.07528967930646288   -0.019965151056660194   -0.01251961356641686
0.2038522552395006   0.023252238254810858   0.006837905044331234
0.2038522552395006   0.023252238254810858   0.006837905044331234
0.2038522552395006   0.023252238254810858   0.006837905044331234
0.2038522552395006   0.023252238254810858   0.006837905044331234
0.13651078762280594   0.002992824767480036   -0.0037181524574365988
0.13651078762280594   0.002992824767480036   -0.0037181524574365988
0.13651078762280594   0.002992824767480036   -0.0037181524574365988
0.13651078762280594   0.002992824767480036   -0.0037181524574365988
0.19617011772164394   0.0042089587346923266   -0.012529503024835319
0.19617011772164394   0.0042089587346923266   -0.012529503024835319
0.19617011772164394   0.0042089587346923266   -0.012529503024835319
0.19617011772164394   0.0042089587346923266   -0.012529503024835319
0.08282646152793281   -0.0010672268329284355   0.006266373317202521
0.08282646152793281   -0.0010672268329284355   0.006266373317202521
0.08282646152793281   -0.0010672268329284355   0.006266373317202521
0.08282646152793281   -0.0010672268329284355   0.006266373317202521
0.06949267724698174   -0.022217810575070447   -0.01069965085916163
0.06949267724698174   -0.022217810575070447   -0.01069965085916163
0.06949267724698174   -0.022217810575070447   -0.01069965085916163
0.06949267724698174   -0.022217810575070447   -0.01069965085916163
0.1942925055434642   0.02004870667739608   0.008884831964454436
0.1942925055434642   0.02004870667739608   0.008884831964454436
0.1942925055434642   0.02004870667739608   0.008884831964454436
0.1942925055434642   0.02004870667739608   0.008884831964454436
0.13067230805652785   -0.0007620750235118497   -0.005898467862386829
0.13067230805652785   -0.0007620750235118497   -0.005898467862386829
0.13067230805652785   -0.0007620750235118497   -0.005898467862386829
0.13067230805652785   -0.0007620750235118497   -0.005898467862386829
0.18671872038773885   0.0013168756646314075   -0.010252262801409473
0.18671872038773885   0.0013168756646314075   -0.010252262801409473
0.18671872038773885   0.0013168756646314075   -0.010252262801409473
0.18671872038773885   0.0013168756646314075   -0.010252262801409473
0.0768443693454857   -0.003708072619527391   0.007549071677815571
0.0768443693454857   -0.003708072619527391   0.007549071677815571
0.0768443693454857   -0.003708072619527391   0.007549071677815571
0.0768443693454857   -0.003708072619527391   0.007549071677815571
0.06433262816411188   -0.024122115440429446   -0.008931028603357467
0.06433262816411188   -0.024122115440429446   -0.008931028603357467
0.06433262816411188   -0.024122115440429446   -0.008931028603357467
0.06433262816411188   -0.024122115440429446   -0.008931028603357467
0.1830940614172172   0.015935116310638903   0.0101983234149037
0.1830940614172172   0.015935116310638903   0.0101983234149037
0.1830940614172172   0.015935116310638903   0.0101983234149037
0.1830940614172172   0.015935116310638903   0.0101983234149037
0.12034131201778847   -0.0037873856697913134   -0.008969496702389583
0.12034131201778847   -0.0037873856697913134   -0.008969496702389583
0.12034131201778847   -0.0037873856697913134   -0.008969496702389583
0.12034131201778847   -0.0037873856697913134   -0.008969496702389583
0.08982217325661311   0.01710349445899987   -0.0021993856732547973
0.08982217325661311   0.01710349445899987   -0.0021993856732547973
0.08982217325661311   0.01710349445899987   -0.0021993856732547973
0.08982217325661311   0.01710349445899987   -0.0021993856732547973
-0.02681888473731926   0.0010937153997456674   0.0006328957654513935
-0.02681888473731926   0.0010937153997456674   0.0006328957654513935
-0.02681888473731926   0.0010937153997456674   0.0006328957654513935
-0.02681888473731926   0.0010937153997456674   0.0006328957654513935
-0.036180444621434125   -0.014002526492240708   -0.007783058155418273
-0.036180444621434125   -0.014002526492240708   -0.007783058155418273
-0.036180444621434125   -0.014002526492240708   -0.007783058155418273
-0.036180444621434125   -0.014002526492240708   -0.007783058155418273
0.08756646482212922   0.020484262303299087   0.008414900651957076
0.08756646482212922   0.020484262303299087   0.008414900651957076
0.08756646482212922   0.020484262303299087   0.008414900651957076
0.08756646482212922   0.020484262303299087   0.008414900651957076
0.02797707977869173   0.005862951473067615   0.0010921979307862222
0.02797707977869173   0.005862951473067615   0.0010921979307862222
0.02797707977869173   0.005862951473067615   0.0010921979307862222
0.02797707977869173   0.005862951473067615   0.0010921979307862222
0.08382835522052741   0.011331306747237034   -0.0011226917999910976
0.08382835522052741   0.011331306747237034   -0.0011226917999910976
0.08382835522052741   0.011331306747237034   -0.0011226917999910976
0.08382835522052741   0.011331306747237034   -0.0011226917999910976
-0.03250410928249936   -0.004911345198844617   0.0015074372458594642
-0.03250410928249936   -0.004911345198844617   0.0015074372458594642
-0.03250410928249936   -0.004911345198844617   0.0015074372458594642
-0.03250410928249936   -0.004911345198844617   0.0015074372458594642
-0.041564317536047585   -0.018515248714515466   -0.006334230745663833
-0.041564317536047585   -0.018515248714515466   -0.006334230745663833
-0.041564317536047585   -0.018515248714515466   -0.006334230745663833
-0.041564317536047585   -0.018515248714515466   -0.006334230745663833
0.08095195428174155   0.015228338754181213   0.009150584985386198
0.08095195428174155   0.015228338754181213   0.009150584985386198
0.08095195428174155   0.015228338754181213   0.009150584985386198
0.08095195428174155   0.015228338754181213   0.009150584985386198
0.021290871770157017   0.0006934094513128021   -0.0013901457480735774
0.021290871770157017   0.0006934094513128021   -0.0013901457480735774
0.021290871770157017   0.0006934094513128021   -0.0013901457480735774
0.021290871770157017   0.0006934094513128021   -0.0013901457480735774
0.07733222442473506   0.006489133931400479   -0.00020885947686675056
0.07733222442473506   0.006489133931400479   -0.00020885947686675056
0.07733222442473506   0.006489133931400479   -0.00020885947686675056
0.07733222442473506   0.006489133931400479   -0.00020885947686675056
-0.03809325523300878   -0.009924711445702618   0.002430543500717366
-0.03809325523300878   -0.009924711445702618   0.002430543500717366
-0.03809325523300878   -0.009924711445702618   0.002430543500717366
-0.03809325523300878   -0.009924711445702618   0.002430543500717366
-0.04687028020874263   -0.022698820498703892   -0.004996978741548994
-0.04687028020874263   -0.022698820498703892   -0.004996978741548994
-0.04687028020874263   -0.022698820498703892   -0.004996978741548994
-0.04687028020874263   -0.022698820498703892   -0.004996978741548994
0.07498350101499524   0.010235589729173829   0.009965630481457724
0.07498350101499524   0.010235589729173829   0.009965630481457724
0.07498350101499524   0.010235589729173829   0.009965630481457724
0.07498350101499524   0.010235589729173829   0.009965630481457724
0.01599447628876692   -0.0035252967367003004   -0.003560767679096535
0.01599447628876692   -0.0035252967367003004   -0.003560767679096535
0.01599447628876692   -0.0035252967367003004   -0.003560767679096535
0.01599447628876692   -0.0035252967367003004   -0.003560767679096535
-0.022520846572505367   0.0212228626970416   0.0019939392922239396
-0.022520846572505367   0.0212228626970416   0.0019939392922239396
-0.022520846572505367   0.0212228626970416   0.0019939392922239396
-0.022520846572505367   0.0212228626970416   0.0019939392922239396
-0.14082949135869247   -0.003947806451241039   -0.004324351134914335
-0.14082949135869247   -0.003947806451241039   -0.004324351134914335
-0.14082949135869247   -0.003947806451241039   -0.004324351134914335
-0.14082949135869247   -0.003947806451241039   -0.004324351134914335
-0.14616937752307915   -0.008699955259331399   -0.003207041873960219
-0.14616937752307915   -0.008699955259331399   -0.003207041873960219
-0.14616937752307915   -0.008699955259331399   -0.003207041873960219
-0.14616937752307915   -0.008699955259331399   -0.003207041873960219
-0.028045366389908687   0.015600791795819163   0.003289014714148112
-0.028045366389908687   0.015600791795819163   0.003289014714148112
-0.028045366389908687   0.015600791795819163   0.003289014714148112
-0.028045366389908687   0.015600791795819163   0.003289014714148112
-0.08417981650565212   0.005932349123735553   0.001698034901450058
-0.08417981650565212   0.005932349123735553   0.001698034901450058
-0.08417981650565212   0.005932349123735553   0.001698034901450058
-0.08417981650565212   0.005932349123735553   0.001698034901450058
-0.027898972123078902   0.0162665748035701   0.0033552030405470164
-0.027898972123078902   0.0162665748035701   0.0033552030405470164
-0.027898972123078902   0.0162665748035701   0.0033552030405470164
-0.027898972123078902   0.0162665748035701   0.0033552030405470164
-0.14633880238264818   -0.009388768859822684   -0.003365352571313974
-0.14633880238264818   -0.009388768859822684   -0.003365352571313974
-0.14633880238264818   -0.009388768859822684   -0.003365352571313974
-0.14633880238264818   -0.009388768859822684   -0.003365352571313974
-0.15161379232744243   -0.013617013593855445   -0.001925718593571193
-0.15161379232744243   -0.013617013593855445   -0.001925718593571193
-0.15161379232744243   -0.013617013593855445   -0.001925718593571193
-0.15161379232744243   -0.013617013593855445   -0.001925718593571193
-0.0336978864141409   0.01019310440837839   0.004289571740975758
-0.0336978864141409   0.01019310440837839   0.004289571740975758
-0.0336978864141409   0.01019310440837839   0.004289571740975758
-0.0336978864141409   0.01019310440837839   0.004289571740975758
-0.08977479643398902   0.0011222402826145013   -0.00042443791937100007
-0.08977479643398902   0.0011222402826145013   -0.00042443791937100007
-0.08977479643398902   0.0011222402826145013   -0.00042443791937100007
-0.08977479643398902   0.0011222402826145013   -0.00042443791937100007
-0.03343609905159981   0.01130165947703269   0.0044899534850268855
-0.03343609905159981   0.01130165947703269   0.0044899534850268855
-0.03343609905159981   0.01130165947703269   0.0044899534850268855
-0.03343609905159981   0.01130165947703269   0.0044899534850268855
-0.15197367690519942   -0.014823665877725666   -0.002518489198485991
-0.15197367690519942   -0.014823665877725666   -0.002518489198485991
-0.15197367690519942   -0.014823665877725666   -0.002518489198485991
-0.15197367690519942   -0.014823665877725666   -0.002518489198485991
-0.1569568173036347   -0.01830652543468554   -0.0006724874946034388
-0.1569568173036347   -0.01830652543468554   -0.0006724874946034388
-0.1569568173036347   -0.01830652543468554   -0.0006724874946034388
-0.1569568173036347   -0.01830652543468554   -0.0006724874946034388
-0.03931071618143287   0.004941689413435693   0.00516033148286021
-0.03931071618143287   0.004941689413435693   0.00516033148286021
-0.03931071618143287   0.004941689413435693   0.00516033148286021
-0.03931071618143287   0.004941689413435693   0.00516033148286021
-0.09560876355671173   -0.003689735074840536   -0.0027302014027952492
-0.09560876355671173   -0.003689735074840536   -0.0027302014027952492
-0.09560876355671173   -0.003689735074840536   -0.0027302014027952492
-0.09560876355671173   -0.003689735074840536   -0.0027302014027952492
-0.13298547714874845   0.02481515350899388   0.006132759954570882
-0.13298547714874845   0.02481515350899388   0.006132759954570882
-0.13298547714874845   0.02481515350899388   0.006132759954570882
-0.13298547714874845   0.02481515350899388   0.006132759954570882
-0.253184474663841   -0.009008435115036822   -0.008684078673987745
-0.253184474663841   -0.009008435115036822   -0.008684078673987745
-0.253184474663841   -0.009008435115036822   -0.008684078673987745
-0.253184474663841   -0.009008435115036822   -0.008684078673987745
-0.2551647561255042   -0.00444020704628139   0.0016840237126698136
-0.2551647561255042   -0.00444020704628139   0.0016840237126698136
-0.2551647561255042   -0.00444020704628139   0.0016840237126698136
-0.2551647561255042   -0.00444020704628139   0.0016840237126698136
-0.14209602938171284   0.010206534185672668   -0.00174679061213567
-0.14209602938171284   0.010206534185672668   -0.00174679061213567
-0.14209602938171284   0.010206534185672668   -0.00174679061213567
-0.14209602938171284   0.010206534185672668   -0.00174679061213567
-0.19466289103109508   0.0054355770937160805   0.0024409881149852295
-0.19466289103109508   0.0054355770937160805   0.0024409881149852295
-0.19466289103109508   0.0054355770937160805   0.0024409881149852295
-0.19466289103109508   0.0054355770937160805   0.0024409881149852295
-0.13827098065519708   0.020098950622058194   0.007486036584060602
-0.13827098065519708   0.020098950622058194   0.007486036584060602
-0.13827098065519708   0.020098950622058194   0.007486036584060602
-0.13827098065519708   0.020098950622058194   0.007486036584060602
-0.2591691293989133   -0.014511948029559046   -0.008266101671101547
-0.2591691293989133   -0.014511948029559046   -0.008266101671101547
-0.2591691293989133   -0.014511948029559046   -0.008266101671101547
-0.2591691293989133   -0.014511948029559046   -0.008266101671101547
-0.26159647677062686   -0.009316225054776625   0.0022652482346462444
-0.26159647677062686   -0.009316225054776625   0.0022652482346462444
-0.26159647677062686   -0.009316225054776625   0.0022652482346462444
-0.26159647677062686   -0.009316225054776625   0.0022652482346462444
-0.14760171679194173   0.005214855976068446   -0.0006972104859944567
-0.14760171679194173   0.005214855976068446   -0.0006972104859944567
-0.14760171679194173   0.005214855976068446   -0.0006972104859944567
-0.14760171679194173   0.005214855976068446   -0.0006972104859944567
-0.19931376592302172   0.001107637238213069   0.0003224409810903342
-0.19931376592302172   0.001107637238213069   0.0003224409810903342
-0.19931376592302172   0.001107637238213069   0.0003224409810903342
-0.19931376592302172   0.001107637238213069   0.0003224409810903342
-0.14363632829287432   0.015576393825772666   0.008768194159640183
-0.14363632829287432   0.015576393825772666   0.008768194159640183
-0.14363632829287432   0.015576393825772666   0.008768194159640183
-0.14363632829287432   0.015576393825772666   0.008768194159640183
-0.26558400349939026   -0.01969990113417687   -0.007288709329772446
-0.26558400349939026   -0.01969990113417687   -0.007288709329772446
-0.26558400349939026   -0.01969990113417687   -0.007288709329772446
-0.26558400349939026   -0.01969990113417687   -0.007288709329772446
-0.26729951433015586   -0.014544364248910362   0.0036092378661977485
-0.26729951433015586   -0.014544364248910362   0.0036092378661977485
-0.26729951433015586   -0.014544364248910362   0.0036092378661977485
-0.26729951433015586   -0.014544364248910362   0.0036092378661977485
-0.15320831429791285   -0.0003631786659999067   0.00012668076531637505
-0.15320831429791285   -0.0003631786659999067   0.00012668076531637505
-0.15320831429791285   -0.0003631786659999067   0.00012668076531637505
-0.15320831429791285   -0.0003631786659999067   0.00012668076531637505
-0.2064617695024568   -0.003993198198047339   -0.0021671756355015354
-0.2064617695024568   -0.003993198198047339   -0.0021671756355015354
-0.2064617695024568   -0.003993198198047339   -0.0021671756355015354
-0.2064617695024568   -0.003993198198047339   -0.0021671756355015354
-0.2431202693134605   0.023039625398785762   0.009588887564091892
-0.2431202693134605   0.023039625398785762   0.009588887564091892
-0.2431202693134605   0.023039625398785762   0.009588887564091892
-0.2431202693134605   0.023039625398785762   0.009588887564091892
-0.359792145843303   -0.016720222030149626   -0.01101369770175007
-0.359792145843303   -0.016720222030149626   -0.01101369770175007
-0.359792145843303   -0.016720222030149626   -0.01101369770175007
-0.359792145843303   -0.016720222030149626   -0.01101369770175007
-0.36303981249177736   -0.0011452063153123415   0.009472424784614044
-0.36303981249177736   -0.0011452063153123415   0.009472424784614044
-0.36303981249177736   -0.0011452063153123415   0.009472424784614044
-0.36303981249177736   -0.0011452063153123415   0.009472424784614044
-0.25515818953033337   0.003794820222098226   -0.006518170579859312
-0.25515818953033337   0.003794820222098226   -0.006518170579859312
-0.25515818953033337   0.003794820222098226   -0.006518170579859312
-0.25515818953033337   0.003794820222098226   -0.006518170579859312
-0.29178357276421846   0.005153187092436784   0.007512772331772846
-0.29178357276421846   0.005153187092436784   0.007512772331772846
-0.29178357276421846   0.005153187092436784   0.007512772331772846
-0.29178357276421846   0.005153187092436784   0.007512772331772846
-0.2478994494470223   0.022252042790396206   0.011318307268401728
-0.2478994494470223   0.022252042790396206   0.011318307268401728
-0.2478994494470223   0.022252042790396206   0.011318307268401728
-0.2478994494470223   0.022252042790396206   0.011318307268401728
-0.3704556125924096   -0.01975948890093151   -0.008992293132924078
-0.3704556125924096   -0.01975948890093151   -0.008992293132924078
-0.3704556125924096   -0.01975948890093151   -0.008992293132924078
-0.3704556125924096   -0.01975948890093151   -0.008992293132924078
-0.3721665968268946   -0.0038416444216252676   0.011920915680654516
-0.3721665968268946   -0.0038416444216252676   0.011920915680654516
-0.3721665968268946   -0.0038416444216252676   0.011920915680654516
-0.3721665968268946   -0.0038416444216252676   0.011920915680654516
-0.26108104301165064   0.001060238968738629   -0.005534046993989477
-0.26108104301165064   0.001060238968738629   -0.005534046993989477
-0.26108104301165064   0.001060238968738629   -0.005534046993989477
-0.26108104301165064   0.001060238968738629   -0.005534046993989477
-0.304322848519699   0.0020758870296086335   0.0041067491369365695
-0.304322848519699   0.0020758870296086335   0.0041067491369365695
-0.304322848519699   0.0020758870296086335   0.0041067491369365695
-0.304322848519699   0.0020758870296086335   0.0041067491369365695
-0.25348878339910264   0.020172694279416994   0.013314795758073865
-0.25348878339910264   0.020172694279416994   0.013314795758073865
-0.25348878339910264   0.020172694279416994   0.013314795758073865
-0.25348878339910264   0.020172694279416994   0.013314795758073865
-0.3798704959471695   -0.0230657392400302   -0.007374485102314742
-0.3798704959471695   -0.0230657392400302   -0.007374485102314742
-0.3798704959471695   -0.0230657392400302   -0.007374485102314742
-0.3798704959471695   -0.0230657392400302   -0.007374485102314742
-0.3843749303354602   -0.012426986574778975   0.011899045193128285
-0.3843749303354602   -0.012426986574778975   0.011899045193128285
-0.3843749303354602   -0.012426986574778975   0.011899045193128285
-0.3843749303354602   -0.012426986574778975   0.011899045193128285
-0.2672981277816653   -0.006030533067391264   -0.004897660572870333
-0.2672981277816653   -0.006030533067391264   -0.004897660572870333
-0.2672981277816653   -0.006030533067391264   -0.004897660572870333
-0.2672981277816653   -0.006030533067391264   -0.004897660572870333
-0.30755084531758536   -0.001494460431945288   0.0025461291711408526
-0.30755084531758536   -0.001494460431945288   0.0025461291711408526
-0.30755084531758536   -0.001494460431945288   0.0025461291711408526
-0.30755084531758536   -0.001494460431945288   0.0025461291711408526
0.11911919213484325   0.007321355566058497   -0.013294884114350704
0.11911919213484325   0.007321355566058497   -0.013294884114350704
0.11911919213484325   0.007321355566058497   -0.013294884114350704
0.11911919213484325   0.007321355566058497   -0.013294884114350704
0.03598673737594413   0.007775271294140697   0.006248687738832617
0.03598673737594413   0.007775271294140697   0.006248687738832617
0.03598673737594413   0.007775271294140697   0.006248687738832617
0.03598673737594413   0.007775271294140697   0.006248687738832617
0.023677583916992668   -0.016502315225523947   -0.011760191034834888
0.023677583916992668   -0.016502315225523947   -0.011760191034834888
0.023677583916992668   -0.016502315225523947   -0.011760191034834888
0.023677583916992668   -0.016502315225523947   -0.011760191034834888
0.11614436494536368   0.019498650765621132   0.007513217980037045
0.11614436494536368   0.019498650765621132   0.007513217980037045
0.11614436494536368   0.019498650765621132   0.007513217980037045
0.11614436494536368   0.019498650765621132   0.007513217980037045
0.06948323601084276   0.0032806206346558345   -0.0015647187205030926
0.06948323601084276   0.0032806206346558345   -0.0015647187205030926
0.06948323601084276   0.0032806206346558345   -0.0015647187205030926
0.06948323601084276   0.0032806206346558345   -0.0015647187205030926
0.10836076680645994   0.0003376126413034905   -0.012243734590164975
0.10836076680645994   0.0003376126413034905   -0.012243734590164975
0.10836076680645994   0.0003376126413034905   -0.012243734590164975
0.10836076680645994   0.0003376126413034905   -0.012243734590164975
0.03121904988634499   0.002416590729242162   0.007028232857160876
0.03121904988634499   0.002416590729242162   0.007028232857160876
0.03121904988634499   0.002416590729242162   0.007028232857160876
0.03121904988634499   0.002416590729242162   0.007028232857160876
0.019046451613690337   -0.018784069959649135   -0.010032997290990112
0.019046451613690337   -0.018784069959649135   -0.010032997290990112
0.019046451613690337   -0.018784069959649135   -0.010032997290990112
0.019046451613690337   -0.018784069959649135   -0.010032997290990112
0.1078158841179887   0.016356208196126255   0.0097150021073696
0.1078158841179887   0.016356208196126255   0.0097150021073696
0.1078158841179887   0.016356208196126255   0.0097150021073696
0.1078158841179887   0.016356208196126255   0.0097150021073696
0.06380120131522886   -0.00030962869611534174   -0.0038550134309728095
0.06380120131522886   -0.00030962869611534174   -0.0038550134309728095
0.06380120131522886   -0.00030962869611534174   -0.0038550134309728095
0.06380120131522886   -0.00030962869611534174   -0.0038550134309728095
0.10005897090952869   -0.0025980314917023774   -0.010115324247102361
0.10005897090952869   -0.0025980314917023774   -0.010115324247102361
0.10005897090952869   -0.0025980314917023774   -0.010115324247102361
0.10005897090952869   -0.0025980314917023774   -0.010115324247102361
0.026473887868597425   -0.00015930722537215586   0.008479421249268829
0.026473887868597425   -0.00015930722537215586   0.008479421249268829
0.026473887868597425   -0.00015930722537215586   0.008479421249268829
0.026473887868597425   -0.00015930722537215586   0.008479421249268829
0.014918715189157876   -0.02141511098318862   -0.008377466826182239
0.014918715189157876   -0.02141511098318862   -0.008377466826182239
0.014918715189157876   -0.02141511098318862   -0.008377466826182239
0.014918715189157876   -0.02141511098318862   -0.008377466826182239
0.0974675864240527   0.011411291742903541   0.010837870239796115
0.0974675864240527   0.011411291742903541   0.010837870239796115
0.0974675864240527   0.011411291742903541   0.010837870239796115
0.0974675864240527   0.011411291742903541   0.010837870239796115
0.05562692300307105   -0.0034551250676265848   -0.006712026884102559
0.05562692300307105   -0.0034551250676265848   -0.006712026884102559
0.05562692300307105   -0.0034551250676265848   -0.006712026884102559
0.05562692300307105   -0.0034551250676265848   -0.006712026884102559
0.03496206963844089   0.012586209325747711   -0.0036855889802908663
0.03496206963844089   0.012586209325747711   -0.0036855889802908663
0.03496206963844089   0.012586209325747711   -0.0036855889802908663
0.03496206963844089   0.012586209325747711   -0.0036855889802908663
-0.04488250171505234   0.0037051944849396945   0.0014268149201420253
-0.04488250171505234   0.0037051944849396945   0.0014268149201420253
-0.04488250171505234   0.0037051944849396945   0.0014268149201420253
-0.04488250171505234   0.0037051944849396945   0.0014268149201420253
-0.05282580901400529   -0.010661061487798166   -0.006919444467394674
-0.05282580901400529   -0.010661061487798166   -0.006919444467394674
-0.05282580901400529   -0.010661061487798166   -0.006919444467394674
-0.05282580901400529   -0.010661061487798166   -0.006919444467394674
0.033923539287972884   0.01557189727677669   0.0073953733177658035
0.033923539287972884   0.01557189727677669   0.0073953733177658035
0.033923539287972884   0.01557189727677669   0.0073953733177658035
0.033923539287972884   0.01557189727677669   0.0073953733177658035
-0.007500482955736676   0.00506974935767408   0.0013730551598793782
-0.007500482955736676   0.00506974935767408   0.0013730551598793782
-0.007500482955736676   0.00506974935767408   0.0013730551598793782
-0.007500482955736676   0.00506974935767408   0.0013730551598793782
0.0301452378508174   0.006776824550333195   -0.002701061141568235
0.0301452378508174   0.006776824550333195   -0.002701061141568235
0.0301452378508174   0.006776824550333195   -0.002701061141568235
0.0301452378508174   0.006776824550333195   -0.002701061141568235
-0.04925967241483088   -0.002078153599334496   0.002328330640013645
-0.04925967241483088   -0.002078153599334496   0.002328330640013645
-0.04925967241483088   -0.002078153599334496   0.002328330640013645
-0.04925967241483088   -0.002078153599334496   0.002328330640013645
-0.05696376142841968   -0.015276423139207716   -0.00545750877139722
-0.05696376142841968   -0.015276423139207716   -0.00545750877139722
-0.05696376142841968   -0.015276423139207716   -0.00545750877139722
-0.05696376142841968   -0.015276423139207716   -0.00545750877139722
0.02849588538077637   0.0103581831454937   0.0080719184392977
0.02849588538077637   0.0103581831454937   0.0080719184392977
0.02849588538077637   0.0103581831454937   0.0080719184392977
0.02849588538077637   0.0103581831454937   0.0080719184392977
-0.012640008140367245   4.074158788879142e-05   -0.0010425481393706343
-0.012640008140367245   4.074158788879142e-05   -0.0010425481393706343
-0.012640008140367245   4.074158788879142e-05   -0.0010425481393706343
-0.012640008140367245   4.074158788879142e-05   -0.0010425481393706343
0.024824750969070088   0.0018230558331846533   -0.0017486263069251425
0.024824750969070088   0.0018230558331846533   -0.0017486263069251425
0.024824750969070088   0.0018230558331846533   -0.0017486263069251425
0.024824750969070088   0.0018230558331846533   -0.0017486263069251425
-0.053568060989362995   -0.007016729799549469   0.0032613000842288934
-0.053568060989362995   -0.007016729799549469   0.0032613000842288934
-0.053568060989362995   -0.007016729799549469   0.0032613000842288934
-0.053568060989362995   -0.007016729799549469   0.0032613000842288934
-0.0610667932758016   -0.019795249571894533   -0.00413827173307958
-0.0610667932758016   -0.019795249571894533   -0.00413827173307958
-0.0610667932758016   -0.019795249571894533   -0.00413827173307958
-0.0610667932758016   -0.019795249571894533   -0.00413827173307958
0.023742431664225263   0.005300844260414519   0.009025160305551923
0.023742431664225263   0.005300844260414519   0.009025160305551923
0.023742431664225263   0.005300844260414519   0.009025160305551923
0.023742431664225263   0.005300844260414519   0.009025160305551923
-0.0170371385852996   -0.004392155741509264   -0.0033043348450050407
-0.0170371385852996   -0.004392155741509264   -0.0033043348450050407
-0.0170371385852996   -0.004392155741509264   -0.0033043348450050407
-0.0170371385852996   -0.004392155741509264   -0.0033043348450050407
-0.04243742297328567   0.016722465063005176   0.0006349380509099176
-0.04243742297328567   0.016722465063005176   0.0006349380509099176
-0.04243742297328567   0.016722465063005176   0.0006349380509099176
-0.04243742297328567   0.016722465063005176   0.0006349380509099176
-0.12453010423967963   -0.0018061701627738354   -0.0035019014863038973
-0.12453010423967963   -0.0018061701627738354   -0.0035019014863038973
-0.12453010423967963   -0.0018061701627738354   -0.0035019014863038973
-0.12453010423967963   -0.0018061701627738354   -0.0035019014863038973
-0.12827881812389108   -0.005529825555572528   -0.0021306203088202573
-0.12827881812389108   -0.005529825555572528   -0.0021306203088202573
-0.12827881812389108   -0.005529825555572528   -0.0021306203088202573
-0.12827881812389108   -0.005529825555572528   -0.0021306203088202573
-0.04678263764585513   0.01027466837380293   0.0023606825117540673
-0.04678263764585513   0.01027466837380293   0.0023606825117540673
-0.04678263764585513   0.01027466837380293   0.0023606825117540673
-0.04678263764585513   0.01027466837380293   0.0023606825117540673
-0.08529561673421299   0.004794884042657752   0.0013996113740166669
-0.08529561673421299   0.004794884042657752   0.0013996113740166669
-0.08529561673421299   0.004794884042657752   0.0013996113740166669
-0.08529561673421299   0.004794884042657752   0.0013996113740166669
-0.046582289171880245   0.011635852456400142   0.0020012407990322393
-0.046582289171880245   0.011635852456400142   0.0020012407990322393
-0.046582289171880245   0.011635852456400142   0.0020012407990322393
-0.046582289171880245   0.011635852456400142   0.0020012407990322393
-0.1286671214828921   -0.0070789645231945884   -0.002522998136204226
-0.1286671214828921   -0.0070789645231945884   -0.002522998136204226
-0.1286671214828921   -0.0070789645231945884   -0.002522998136204226
-0.1286671214828921   -0.0070789645231945884   -0.002522998136204226
-0.13240316064322552   -0.010568707162423592   -0.0008142118839495277
-0.13240316064322552   -0.010568707162423592   -0.0008142118839495277
-0.13240316064322552   -0.010568707162423592   -0.0008142118839495277
-0.13240316064322552   -0.010568707162423592   -0.0008142118839495277
-0.051146912400318434   0.004986499889265233   0.0033638133406360318
-0.051146912400318434   0.004986499889265233   0.0033638133406360318
-0.051146912400318434   0.004986499889265233   0.0033638133406360318
-0.051146912400318434   0.004986499889265233   0.0033638133406360318
-0.08959357983569748   -3.437921855860976e-06   -0.0007579644322307571
-0.08959357983569748   -3.437921855860976e-06   -0.0007579644322307571
-0.08959357983569748   -3.437921855860976e-06   -0.0007579644322307571
-0.08959357983569748   -3.437921855860976e-06   -0.0007579644322307571
-0.050877498890479024   0.00653228643394623   0.003165094345153086
-0.050877498890479024   0.00653228643394623   0.003165094345153086
-0.050877498890479024   0.00653228643394623   0.003165094345153086
-0.050877498890479024   0.00653228643394623   0.003165094345153086
-0.13293887924717424   -0.012380798801215186   -0.0016807132649025724
-0.13293887924717424   -0.012380798801215186   -0.0016807132649025724
-0.13293887924717424   -0.012380798801215186   -0.0016807132649025724
-0.13293887924717424   -0.012380798801215186   -0.0016807132649025724
-0.13644049550623905   -0.015422663225757648   0.00046834761169968746
-0.13644049550623905   -0.015422663225757648   0.00046834761169968746
-0.13644049550623905   -0.015422663225757648   0.00046834761169968746
-0.13644049550623905   -0.015422663225757648   0.00046834761169968746
-0.05544607522848127   -9.914522057376945e-05   0.0042692141522003325
-0.05544607522848127   -9.914522057376945e-05   0.0042692141522003325
-0.05544607522848127   -9.914522057376945e-05   0.0042692141522003325
-0.05544607522848127   -9.914522057376945e-05   0.0042692141522003325
-0.09412251506813615   -0.004808898352769146   -0.003104192734297178
-0.09412251506813615   -0.004808898352769146   -0.003104192734297178
-0.09412251506813615   -0.004808898352769146   -0.003104192734297178
-0.09412251506813615   -0.004808898352769146   -0.003104192734297178
-0.11829932657218195   0.020728811313145537   0.005117005375265084
-0.11829932657218195   0.020728811313145537   0.005117005375265084
-0.11829932657218195   0.020728811313145537   0.005117005375265084
-0.11829932657218195   0.020728811313145537   0.005117005375265084
-0.20274472250908948   -0.006425270233446856   -0.007865619129387292
-0.20274472250908948   -0.006425270233446856   -0.007865619129387292
-0.20274472250908948   -0.006425270233446856   -0.007865619129387292
-0.20274472250908948   -0.006425270233446856   -0.007865619129387292
-0.20310456830878734   -0.001061559951361965   0.002921277629757947
-0.20310456830878734   -0.001061559951361965   0.002921277629757947
-0.20310456830878734   -0.001061559951361965   0.002921277629757947
-0.20310456830878734   -0.001061559951361965   0.002921277629757947
-0.12616181983520536   0.005326296793240155   -0.002401751214206294
-0.12616181983520536   0.005326296793240155   -0.002401751214206294
-0.12616181983520536   0.005326296793240155   -0.002401751214206294
-0.12616181983520536   0.005326296793240155   -0.002401751214206294
-0.16171029794316172   0.004617878544004507   0.0017992814840483828
-0.16171029794316172   0.004617878544004507   0.0017992814840483828
-0.16171029794316172   0.004617878544004507   0.0017992814840483828
-0.16171029794316172   0.004617878544004507   0.0017992814840483828
-0.12228657109511834   0.015814951517762032   0.006485837761708937
-0.12228657109511834   0.015814951517762032   0.006485837761708937
-0.12228657109511834   0.015814951517762032   0.006485837761708937
-0.12228657109511834   0.015814951517762032   0.006485837761708937
-0.20733671005401097   -0.011907107681020115   -0.007393883366702042
-0.20733671005401097   -0.011907107681020115   -0.007393883366702042
-0.20733671005401097   -0.011907107681020115   -0.007393883366702042
-0.20733671005401097   -0.011907107681020115   -0.007393883366702042
-0.2081908620155773   -0.006038690301211173   0.0036242033512354135
-0.2081908620155773   -0.006038690301211173   0.0036242033512354135
-0.2081908620155773   -0.006038690301211173   0.0036242033512354135
-0.2081908620155773   -0.006038690301211173   0.0036242033512354135
-0.130307825340115   0.00044091956015620756   -0.0013471620909786498
-0.130307825340115   0.00044091956015620756   -0.0013471620909786498
-0.130307825340115   0.00044091956015620756   -0.0013471620909786498
-0.130307825340115   0.00044091956015620756   -0.0013471620909786498
-0.16532559988702386   0.0001670758264191302   -0.00045634685748628147
-0.16532559988702386   0.0001670758264191302   -0.00045634685748628147
-0.16532559988702386   0.0001670758264191302   -0.00045634685748628147
-0.16532559988702386   0.0001670758264191302   -0.00045634685748628147
-0.12633074626279092   0.011170268958549154   0.00780888389725067
-0.12633074626279092   0.011170268958549154   0.00780888389725067
-0.12633074626279092   0.011170268958549154   0.00780888389725067
-0.12633074626279092   0.011170268958549154   0.00780888389725067
-0.2123916822001944   -0.01699178080689778   -0.006426807066169187
-0.2123916822001944   -0.01699178080689778   -0.006426807066169187
-0.2123916822001944   -0.01699178080689778   -0.006426807066169187
-0.2123916822001944   -0.01699178080689778   -0.006426807066169187
-0.2125649271750253   -0.011259187668852567   0.005003248628165513
-0.2125649271750253   -0.011259187668852567   0.005003248628165513
-0.2125649271750253   -0.011259187668852567   0.005003248628165513
-0.2125649271750253   -0.011259187668852567   0.005003248628165513
-0.1345104722199988   -0.004821105903029314   -0.00048309327983030864
-0.1345104722199988   -0.004821105903029314   -0.00048309327983030864
-0.1345104722199988   -0.004821105903029314   -0.00048309327983030864
-0.1345104722199988   -0.004821105903029314   -0.00048309327983030864
-0.17081307517765712   -0.004745300786976443   -0.002939051231420995
-0.17081307517765712   -0.004745300786976443   -0.002939051231420995
-0.17081307517765712   -0.004745300786976443   -0.002939051231420995
-0.17081307517765712   -0.004745300786976443   -0.002939051231420995
-0.19398631349595688   0.02045326260019678   0.00904789310263588
-0.19398631349595688   0.02045326260019678   0.00904789310263588
-0.19398631349595688   0.02045326260019678   0.00904789310263588
-0.19398631349595688   0.02045326260019678   0.00904789310263588
-0.27474052607509286   -0.012832900413090514   -0.011671583636639886
-0.27474052607509286   -0.012832900413090514   -0.011671583636639886
-0.27474052607509286   -0.012832900413090514   -0.011671583636639886
-0.27474052607509286   -0.012832900413090514   -0.011671583636639886
-0.2766478389153387   0.0027003813323354595   0.00949928435633981
-0.2766478389153387   0.0027003813323354595   0.00949928435633981
-0.2766478389153387   0.0027003813323354595   0.00949928435633981
-0.2766478389153387   0.0027003813323354595   0.00949928435633981
-0.20495065103549162   -0.0002907876392922448   -0.0070799083158367936
-0.20495065103549162   -0.0002907876392922448   -0.0070799083158367936
-0.20495065103549162   -0.0002907876392922448   -0.0070799083158367936
-0.20495065103549162   -0.0002907876392922448   -0.0070799083158367936
-0.22730199426786954   0.004711965288300722   0.005650474952386096
-0.22730199426786954   0.004711965288300722   0.005650474952386096
-0.22730199426786954   0.004711965288300722   0.005650474952386096
-0.22730199426786954   0.004711965288300722   0.005650474952386096
-0.19758495592198191   0.018753880818520523   0.010703898793900731
-0.19758495592198191   0.018753880818520523   0.010703898793900731
-0.19758495592198191   0.018753880818520523   0.010703898793900731
-0.19758495592198191   0.018753880818520523   0.010703898793900731
-0.28439668188117556   -0.016727434977802005   -0.009817114162701628
-0.28439668188117556   -0.016727434977802005   -0.009817114162701628
-0.28439668188117556   -0.016727434977802005   -0.009817114162701628
-0.28439668188117556   -0.016727434977802005   -0.009817114162701628
-0.2846065513934742   -0.00011684367856078931   0.01210604815133706
-0.2846065513934742   -0.00011684367856078931   0.01210604815133706
-0.2846065513934742   -0.00011684367856078931   0.01210604815133706
-0.2846065513934742   -0.00011684367856078931   0.01210604815133706
-0.2095217020416456   -0.0030160223769148814   -0.006052664703408012
-0.2095217020416456   -0.0030160223769148814   -0.006052664703408012
-0.2095217020416456   -0.0030160223769148814   -0.006052664703408012
-0.2095217020416456   -0.0030160223769148814   -0.006052664703408012
-0.23762675303121847   0.0014025549597677309   0.0022339749998228544
-0.23762675303121847   0.0014025549597677309   0.0022339749998228544
-0.23762675303121847   0.0014025549597677309   0.0022339749998228544
-0.23762675303121847   0.0014025549597677309   0.0022339749998228544
-0.2018557027598665   0.016553648569673847   0.012707660758902553
-0.2018557027598665   0.016553648569673847   0.012707660758902553
-0.2018557027598665   0.016553648569673847   0.012707660758902553
-0.2018557027598665   0.016553648569673847   0.012707660758902553
-0.2926287169903039   -0.020042680940198537   -0.008078942571168007
-0.2926287169903039   -0.020042680940198537   -0.008078942571168007
-0.2926287169903039   -0.020042680940198537   -0.008078942571168007
-0.2926287169903039   -0.020042680940198537   -0.008078942571168007
-0.2955811107539489   -0.008216968323338847   0.012453146119667639
-0.2955811107539489   -0.008216968323338847   0.012453146119667639
-0.2955811107539489   -0.008216968323338847   0.012453146119667639
-0.2955811107539489   -0.008216968323338847   0.012453146119667639
-0.2142496122903082   -0.009399439745244334   -0.005279924871861262
-0.2142496122903082   -0.009399439745244334   -0.005279924871861262
-0.2142496122903082   -0.009399439745244334   -0.005279924871861262
-0.2142496122903082   -0.009399439745244334   -0.005279924871861262
-0.24076452454103264   -0.0021650922505443704   0.0002517918887101969
-0.24076452454103264   -0.0021650922505443704   0.0002517918887101969
-0.24076452454103264   -0.0021650922505443704   0.0002517918887101969
-0.24076452454103264   -0.0021650922505443704   0.0002517918887101969
0.0284193675266852   0.002318497338704457   -0.013467812189081985
0.0284193675266852   0.002318497338704457   -0.013467812189081985
0.0284193675266852   0.002318497338704457   -0.013467812189081985
0.0284193675266852   0.002318497338704457   -0.013467812189081985
-0.017823970241537382   0.009929916325220618   0.006785918159763796
-0.017823970241537382   0.009929916325220618   0.006785918159763796
-0.017823970241537382   0.009929916325220618   0.006785918159763796
-0.017823970241537382   0.009929916325220618   0.006785918159763796
-0.028810321676372673   -0.013175089396692995   -0.010900796209797245
-0.028810321676372673   -0.013175089396692995   -0.010900796209797245
-0.028810321676372673   -0.013175089396692995   -0.010900796209797245
-0.028810321676372673   -0.013175089396692995   -0.010900796209797245
0.026756038285452605   0.014882098551476406   0.00827536517379104
0.026756038285452605   0.014882098551476406   0.00827536517379104
0.026756038285452605   0.014882098551476406   0.00827536517379104
0.026756038285452605   0.014882098551476406   0.00827536517379104
0.0013864349795702693   0.0032765365676357444   0.001129987249893703
0.0013864349795702693   0.0032765365676357444   0.001129987249893703
0.0013864349795702693   0.0032765365676357444   0.001129987249893703
0.0013864349795702693   0.0032765365676357444   0.001129987249893703
0.018929416662967796   -0.0038684261369139787   -0.012107218250242628
0.018929416662967796   -0.0038684261369139787   -0.012107218250242628
0.018929416662967796   -0.0038684261369139787   -0.012107218250242628
0.018929416662967796   -0.0038684261369139787   -0.012107218250242628
-0.021431912076576375   0.005127223269008878   0.007688939123482376
-0.021431912076576375   0.005127223269008878   0.007688939123482376
-0.021431912076576375   0.005127223269008878   0.007688939123482376
-0.021431912076576375   0.005127223269008878   0.007688939123482376
-0.03246403405012222   -0.015501162785589585   -0.009291934633098676
-0.03246403405012222   -0.015501162785589585   -0.009291934633098676
-0.03246403405012222   -0.015501162785589585   -0.009291934633098676
-0.03246403405012222   -0.015501162785589585   -0.009291934633098676
0.019315370468269494   0.01174587257655282   0.011413768436608369
0.019315370468269494   0.01174587257655282   0.011413768436608369
0.019315370468269494   0.01174587257655282   0.011413768436608369
0.019315370468269494   0.01174587257655282   0.011413768436608369
-0.004370943380841841   -0.00021691466669807795   -0.0015269603098947964
-0.004370943380841841   -0.00021691466669807795   -0.0015269603098947964
-0.004370943380841841   -0.00021691466669807795   -0.0015269603098947964
-0.004370943380841841   -0.00021691466669807795   -0.0015269603098947964
0.011290526283335676   -0.0069039831454832095   -0.01006059676602469
0.011290526283335676   -0.0069039831454832095   -0.01006059676602469
0.011290526283335676   -0.0069039831454832095   -0.01006059676602469
0.011290526283335676   -0.0069039831454832095   -0.01006059676602469
-0.025067808235587696   0.002520074566047129   0.009667957087937105
-0.025067808235587696   0.002520074566047129   0.009667957087937105
-0.025067808235587696   0.002520074566047129   0.009667957087937105
-0.025067808235587696   0.002520074566047129   0.009667957087937105
-0.035806515417026376   -0.01895839819357057   -0.0077364776014953755
-0.035806515417026376   -0.01895839819357057   -0.0077364776014953755
-0.035806515417026376   -0.01895839819357057   -0.0077364776014953755
-0.035806515417026376   -0.01895839819357057   -0.0077364776014953755
0.008978196643496621   0.0052512217724831264   0.013072248535539743
0.008978196643496621   0.0052512217724831264   0.013072248535539743
0.008978196643496621   0.0052512217724831264   0.013072248535539743
0.008978196643496621   0.0052512217724831264   0.013072248535539743
-0.010810306014568697   -0.0036842011338674655   -0.004639803196792819
-0.010810306014568697   -0.0036842011338674655   -0.004639803196792819
-0.010810306014568697   -0.0036842011338674655   -0.004639803196792819
-0.010810306014568697   -0.0036842011338674655   -0.004639803196792819
-0.020771091862611373   0.0071984656227673674   -0.005218239243152912
-0.020771091862611373   0.0071984656227673674   -0.005218239243152912
-0.020771091862611373   0.0071984656227673674   -0.005218239243152912
-0.020771091862611373   0.0071984656227673674   -0.005218239243152912
-0.06351690483760163   0.002696936559988856   0.0017149203046953115
-0.06351690483760163   0.002696936559988856   0.0017149203046953115
-0.06351690483760163   0.002696936559988856   0.0017149203046953115
-0.06351690483760163   0.002696936559988856   0.0017149203046953115
-0.069249612240843   -0.00768680928014632   -0.005725007938033358
-0.069249612240843   -0.00768680928014632   -0.005725007938033358
-0.069249612240843   -0.00768680928014632   -0.005725007938033358
-0.069249612240843   -0.00768680928014632   -0.005725007938033358
-0.021466639720138042   0.007142602646402817   0.005499921528280105
-0.021466639720138042   0.007142602646402817   0.005499921528280105
-0.021466639720138042   0.007142602646402817   0.005499921528280105
-0.021466639720138042   0.007142602646402817   0.005499921528280105
-0.043685965520378074   0.0021922747618291633   0.001212035704359531
-0.043685965520378074   0.0021922747618291633   0.001212035704359531
-0.043685965520378074   0.0021922747618291633   0.001212035704359531
-0.043685965520378074   0.0021922747618291633   0.001212035704359531
-0.0245475996473961   0.001538449778190236   -0.0043007252397974875
-0.0245475996473961   0.001538449778190236   -0.0043007252397974875
-0.0245475996473961   0.001538449778190236   -0.0043007252397974875
-0.0245475996473961   0.001538449778190236   -0.0043007252397974875
-0.06654665944703002   -0.0024606635453789435   0.0025636102962632765
-0.06654665944703002   -0.0024606635453789435   0.0025636102962632765
-0.06654665944703002   -0.0024606635453789435   0.0025636102962632765
-0.06654665944703002   -0.0024606635453789435   0.0025636102962632765
-0.07210923458752073   -0.012231682032246621   -0.004272287481106796
-0.07210923458752073   -0.012231682032246621   -0.004272287481106796
-0.07210923458752073   -0.012231682032246621   -0.004272287481106796
-0.07210923458752073   -0.012231682032246621   -0.004272287481106796
-0.02584195627068808   0.0021131715396867194   0.006204119938795603
-0.02584195627068808   0.0021131715396867194   0.006204119938795603
-0.02584195627068808   0.0021131715396867194   0.006204119938795603
-0.02584195627068808   0.0021131715396867194   0.006204119938795603
-0.04729487300528142   -0.002406800907436231   -0.0011099737666757188
-0.04729487300528142   -0.002406800907436231   -0.0011099737666757188
-0.04729487300528142   -0.002406800907436231   -0.0011099737666757188
-0.04729487300528142   -0.002406800907436231   -0.0011099737666757188
-0.02882236965650984   -0.003364005533290294   -0.00322076991733606
-0.02882236965650984   -0.003364005533290294   -0.00322076991733606
-0.02882236965650984   -0.003364005533290294   -0.00322076991733606
-0.02882236965650984   -0.003364005533290294   -0.00322076991733606
-0.0695367803641964   -0.007162464121767026   0.003520765725035211
-0.0695367803641964   -0.007162464121767026   0.003520765725035211
-0.0695367803641964   -0.007162464121767026   0.003520765725035211
-0.0695367803641964   -0.007162464121767026   0.003520765725035211
-0.07498761893944898   -0.016847969823548335   -0.0029888595105880774
-0.07498761893944898   -0.016847969823548335   -0.0029888595105880774
-0.07498761893944898   -0.016847969823548335   -0.0029888595105880774
-0.07498761893944898   -0.016847969823548335   -0.0029888595105880774
-0.02951063662718658   -0.0029090486185623828   0.007693566772695427
-0.02951063662718658   -0.0029090486185623828   0.007693566772695427
-0.02951063662718658   -0.0029090486185623828   0.007693566772695427
-0.02951063662718658   -0.0029090486185623828   0.007693566772695427
-0.0508574950176778   -0.006881666590744322   -0.00345179779831193
-0.0508574950176778   -0.006881666590744322   -0.00345179779831193
-0.0508574950176778   -0.006881666590744322   -0.00345179779831193
-0.0508574950176778   -0.006881666590744322   -0.00345179779831193
-0.062259610414879346   0.011239978912588261   -0.0005416499342937109
-0.062259610414879346   0.011239978912588261   -0.0005416499342937109
-0.062259610414879346   0.011239978912588261   -0.0005416499342937109
-0.062259610414879346   0.011239978912588261   -0.0005416499342937109
-0.1085349369334219   -0.0038644549015583347   -0.003155558473089828
-0.1085349369334219   -0.0038644549015583347   -0.003155558473089828
-0.1085349369334219   -0.0038644549015583347   -0.003155558473089828
-0.1085349369334219   -0.0038644549015583347   -0.003155558473089828
-0.1097310436250129   -0.0029409587401469546   -0.0007690470788452265
-0.1097310436250129   -0.0029409587401469546   -0.0007690470788452265
-0.1097310436250129   -0.0029409587401469546   -0.0007690470788452265
-0.1097310436250129   -0.0029409587401469546   -0.0007690470788452265
-0.06617826186571653   0.0010847275586476583   0.0008602070988040908
-0.06617826186571653   0.0010847275586476583   0.0008602070988040908
-0.06617826186571653   0.0010847275586476583   0.0008602070988040908
-0.06617826186571653   0.0010847275586476583   0.0008602070988040908
-0.08648510040615015   0.00128006430065725   0.0004923151036371641
-0.08648510040615015   0.00128006430065725   0.0004923151036371641
-0.08648510040615015   0.00128006430065725   0.0004923151036371641
-0.08648510040615015   0.00128006430065725   0.0004923151036371641
-0.06514278887371003   0.006295801291149594   0.000826498326334634
-0.06514278887371003   0.006295801291149594   0.000826498326334634
-0.06514278887371003   0.006295801291149594   0.000826498326334634
-0.06514278887371003   0.006295801291149594   0.000826498326334634
-0.11113369110660991   -0.008519206962239404   -0.0022040362647378206
-0.11113369110660991   -0.008519206962239404   -0.0022040362647378206
-0.11113369110660991   -0.008519206962239404   -0.0022040362647378206
-0.11113369110660991   -0.008519206962239404   -0.0022040362647378206
-0.11242087154812766   -0.007825672559737325   0.0005769102434401603
-0.11242087154812766   -0.007825672559737325   0.0005769102434401603
-0.11242087154812766   -0.007825672559737325   0.0005769102434401603
-0.11242087154812766   -0.007825672559737325   0.0005769102434401603
-0.06919754086661771   -0.00372588969188317   0.0017803887830448932
-0.06919754086661771   -0.00372588969188317   0.0017803887830448932
-0.06919754086661771   -0.00372588969188317   0.0017803887830448932
-0.06919754086661771   -0.00372588969188317   0.0017803887830448932
-0.08938887022472762   -0.0031631906548786337   -0.0016380039324484863
-0.08938887022472762   -0.0031631906548786337   -0.0016380039324484863
-0.08938887022472762   -0.0031631906548786337   -0.0016380039324484863
-0.08938887022472762   -0.0031631906548786337   -0.0016380039324484863
-0.06814232911005198   0.0013173045449911512   0.0020132533289991747
-0.06814232911005198   0.0013173045449911512   0.0020132533289991747
-0.06814232911005198   0.0013173045449911512   0.0020132533289991747
-0.06814232911005198   0.0013173045449911512   0.0020132533289991747
-0.11391998482131548   -0.013312768313232774   -0.0014315603690053633
-0.11391998482131548   -0.013312768313232774   -0.0014315603690053633
-0.11391998482131548   -0.013312768313232774   -0.0014315603690053633
-0.11391998482131548   -0.013312768313232774   -0.0014315603690053633
-0.11503662845403334   -0.01249574933888594   0.0018767467861915514
-0.11503662845403334   -0.01249574933888594   0.0018767467861915514
-0.11503662845403334   -0.01249574933888594   0.0018767467861915514
-0.11503662845403334   -0.01249574933888594   0.0018767467861915514
-0.07211122035708983   -0.008244339144292954   0.0027895027219513382
-0.07211122035708983   -0.008244339144292954   0.0027895027219513382
-0.07211122035708983   -0.008244339144292954   0.0027895027219513382
-0.07211122035708983   -0.008244339144292954   0.0027895027219513382
-0.09251324604732088   -0.007625812781757299   -0.003954426252264139
-0.09251324604732088   -0.007625812781757299   -0.003954426252264139
-0.09251324604732088   -0.007625812781757299   -0.003954426252264139
-0.09251324604732088   -0.007625812781757299   -0.003954426252264139
-0.10307266265153757   0.015950447642413372   0.004340910392361957
-0.10307266265153757   0.015950447642413372   0.004340910392361957
-0.10307266265153757   0.015950447642413372   0.004340910392361957
-0.10307266265153757   0.015950447642413372   0.004340910392361957
-0.15204343568777462   -0.006567944325255447   -0.007020846234377097
-0.15204343568777462   -0.006567944325255447   -0.007020846234377097
-0.15204343568777462   -0.006567944325255447   -0.007020846234377097
-0.15204343568777462   -0.006567944325255447   -0.007020846234377097
-0.15013713348784422   0.0018747654686066054   0.004315905815272457
-0.15013713348784422   0.0018747654686066054   0.004315905815272457
-0.15013713348784422   0.0018747654686066054   0.004315905815272457
-0.15013713348784422   0.0018747654686066054   0.004315905815272457
-0.10998095576667213   -0.0019064127232167744   -0.003053153804071517
-0.10998095576667213   -0.0019064127232167744   -0.003053153804071517
-0.10998095576667213   -0.0019064127232167744   -0.003053153804071517
-0.10998095576667213   -0.0019064127232167744   -0.003053153804071517
-0.12831996947587418   0.0023392533325639307   0.0007118700708690128
-0.12831996947587418   0.0023392533325639307   0.0007118700708690128
-0.12831996947587418   0.0023392533325639307   0.0007118700708690128
-0.12831996947587418   0.0023392533325639307   0.0007118700708690128
-0.10563637216020064   0.01105367239341351   0.005709679111655734
-0.10563637216020064   0.01105367239341351   0.005709679111655734
-0.10563637216020064   0.01105367239341351   0.005709679111655734
-0.10563637216020064   0.01105367239341351   0.005709679111655734
-0.1550191506637742   -0.011622753217479954   -0.0065966613782930126
-0.1550191506637742   -0.011622753217479954   -0.0065966613782930126
-0.1550191506637742   -0.011622753217479954   -0.0065966613782930126
-0.1550191506637742   -0.011622753217479954   -0.0065966613782930126
-0.15372587963339318   -0.002949289614142765   0.005119846330796988
-0.15372587963339318   -0.002949289614142765   0.005119846330796988
-0.15372587963339318   -0.002949289614142765   0.005119846330796988
-0.15372587963339318   -0.002949289614142765   0.005119846330796988
-0.112645978923668   -0.006309705631914398   -0.002064593562084484
-0.112645978923668   -0.006309705631914398   -0.002064593562084484
-0.112645978923668   -0.006309705631914398   -0.002064593562084484
-0.112645978923668   -0.006309705631914398   -0.002064593562084484
-0.13074724287879466   -0.001936506991551356   -0.0015961170995657048
-0.13074724287879466   -0.001936506991551356   -0.0015961170995657048
-0.13074724287879466   -0.001936506991551356   -0.0015961170995657048
-0.13074724287879466   -0.001936506991551356   -0.0015961170995657048
-0.1082581491523114   0.00652771429039091   0.007037135372391261
-0.1082581491523114   0.00652771429039091   0.007037135372391261
-0.1082581491523114   0.00652771429039091   0.007037135372391261
-0.1082581491523114   0.00652771429039091   0.007037135372391261
-0.15853815285934117   -0.01621115299104108   -0.005679656422044707
-0.15853815285934117   -0.01621115299104108   -0.005679656422044707
-0.15853815285934117   -0.01621115299104108   -0.005679656422044707
-0.15853815285934117   -0.01621115299104108   -0.005679656422044707
-0.15663828410986025   -0.007839170710812575   0.006554394571114827
-0.15663828410986025   -0.007839170710812575   0.006554394571114827
-0.15663828410986025   -0.007839170710812575   0.006554394571114827
-0.15663828410986025   -0.007839170710812575   0.006554394571114827
-0.11532632679967068   -0.01084768264904118   -0.0012198116318380666
-0.11532632679967068   -0.01084768264904118   -0.0012198116318380666
-0.11532632679967068   -0.01084768264904118   -0.0012198116318380666
-0.11532632679967068   -0.01084768264904118   -0.0012198116318380666
-0.13443897708194646   -0.006346311154371356   -0.003980422991024598
-0.13443897708194646   -0.006346311154371356   -0.003980422991024598
-0.13443897708194646   -0.006346311154371356   -0.003980422991024598
-0.13443897708194646   -0.006346311154371356   -0.003980422991024598
-0.14413466926528237   0.01734466332230443   0.008610378230524338
-0.14413466926528237   0.01734466332230443   0.008610378230524338
-0.14413466926528237   0.01734466332230443   0.008610378230524338
-0.14413466926528237   0.01734466332230443   0.008610378230524338
-0.18790789557267962   -0.009587178037242183   -0.011504717818223643
-0.18790789557267962   -0.009587178037242183   -0.011504717818223643
-0.18790789557267962   -0.009587178037242183   -0.011504717818223643
-0.18790789557267962   -0.009587178037242183   -0.011504717818223643
-0.18813121810980135   0.0063879710591879454   0.009494452250873916
-0.18813121810980135   0.0063879710591879454   0.009494452250873916
-0.18813121810980135   0.0063879710591879454   0.009494452250873916
-0.18813121810980135   0.0063879710591879454   0.009494452250873916
-0.15375590802731368   -0.00487787464686373   -0.007025326766606659
-0.15375590802731368   -0.00487787464686373   -0.007025326766606659
-0.15375590802731368   -0.00487787464686373   -0.007025326766606659
-0.15375590802731368   -0.00487787464686373   -0.007025326766606659
-0.16158616619552216   0.003927134252841795   0.003307544444705048
-0.16158616619552216   0.003927134252841795   0.003307544444705048
-0.16158616619552216   0.003927134252841795   0.003307544444705048
-0.16158616619552216   0.003927134252841795   0.003307544444705048
-0.14636968515755625   0.014872474822103347   0.010155438113213504
-0.14636968515755625   0.014872474822103347   0.010155438113213504
-0.14636968515755625   0.014872474822103347   0.010155438113213504
-0.14636968515755625   0.014872474822103347   0.010155438113213504
-0.196082762753182   -0.013927700183403953   -0.009947599723431785
-0.196082762753182   -0.013927700183403953   -0.009947599723431785
-0.196082762753182   -0.013927700183403953   -0.009947599723431785
-0.196082762753182   -0.013927700183403953   -0.009947599723431785
-0.19465060951140156   0.003608590136642373   0.012199305334141906
-0.19465060951140156   0.003608590136642373   0.012199305334141906
-0.19465060951140156   0.003608590136642373   0.012199305334141906
-0.19465060951140156   0.003608590136642373   0.012199305334141906
-0.1568679795092172   -0.0074150551321502285   -0.006124887530315666
-0.1568679795092172   -0.0074150551321502285   -0.006124887530315666
-0.1568679795092172   -0.0074150551321502285   -0.006124887530315666
-0.1568679795092172   -0.0074150551321502285   -0.006124887530315666
-0.16942568907112118   0.0005704292603197006   5.0719678562754014e-05
-0.16942568907112118   0.0005704292603197006   5.0719678562754014e-05
-0.16942568907112118   0.0005704292603197006   5.0719678562754014e-05
-0.16942568907112118   0.0005704292603197006   5.0719678562754014e-05
-0.1491920076109864   0.012690360679696845   0.012149556148991388
-0.1491920076109864   0.012690360679696845   0.012149556148991388
-0.1491920076109864   0.012690360679696845   0.012149556148991388
-0.1491920076109864   0.012690360679696845   0.012149556148991388
-0.20289345901709613   -0.0170637032826662   -0.008342648775016608
-0.20289345901709613   -0.0170637032826662   -0.008342648775016608
-0.20289345901709613   -0.0170637032826662   -0.008342648775016608
-0.20289345901709613   -0.0170637032826662   -0.008342648775016608
-0.20419386554904967   -0.0037593673349957113   0.012864690438123265
-0.20419386554904967   -0.0037593673349957113   0.012864690438123265
-0.20419386554904967   -0.0037593673349957113   0.012864690438123265
-0.20419386554904967   -0.0037593673349957113   0.012864690438123265
-0.1599985517250726   -0.012797173848982338   -0.0052889403667793
-0.1599985517250726   -0.012797173848982338   -0.0052889403667793
-0.1599985517250726   -0.012797173848982338   -0.0052889403667793
-0.1599985517250726   -0.012797173848982338   -0.0052889403667793
-0.17231319341957244   -0.002794520241002553   -0.002220150784825148
-0.17231319341957244   -0.002794520241002553   -0.002220150784825148
-0.17231319341957244   -0.002794520241002553   -0.002220150784825148
-0.17231319341957244   -0.002794520241002553   -0.002220150784825148
-0.0678272400982435   -0.004324440959085475   -0.014482598405060554
-0.0678272400982435   -0.004324440959085475   -0.014482598405060554
-0.0678272400982435   -0.004324440959085475   -0.014482598405060554
-0.0678272400982435   -0.004324440959085475   -0.014482598405060554
-0.07147091898507248   0.010804314900956614   0.006444660871244206
-0.07147091898507248   0.010804314900956614   0.006444660871244206
-0.07147091898507248   0.010804314900956614   0.006444660871244206
-0.07147091898507248   0.010804314900956614   0.006444660871244206
-0.08114639260764138   -0.01033996935166752   -0.009932543448834628
-0.08114639260764138   -0.01033996935166752   -0.009932543448834628
-0.08114639260764138   -0.01033996935166752   -0.009932543448834628
-0.08114639260764138   -0.01033996935166752   -0.009932543448834628
-0.06954063995221492   0.006415662894656508   0.009492588593298226
-0.06954063995221492   0.006415662894656508   0.009492588593298226
-0.06954063995221492   0.006415662894656508   0.009492588593298226
-0.06954063995221492   0.006415662894656508   0.009492588593298226
-0.0688358256806349   0.0020034389673897566   0.006579608236163988
-0.0688358256806349   0.0020034389673897566   0.006579608236163988
-0.0688358256806349   0.0020034389673897566   0.006579608236163988
-0.0688358256806349   0.0020034389673897566   0.006579608236163988
-0.07716995091998642   -0.01000486082879036   -0.012233442522111438
-0.07716995091998642   -0.01000486082879036   -0.012233442522111438
-0.07716995091998642   -0.01000486082879036   -0.012233442522111438
-0.07716995091998642   -0.01000486082879036   -0.012233442522111438
-0.07441783290606582   0.005179803105584822   0.0081904826017907
-0.07441783290606582   0.005179803105584822   0.0081904826017907
-0.07441783290606582   0.005179803105584822   0.0081904826017907
-0.07441783290606582   0.005179803105584822   0.0081904826017907
-0.08418109990766855   -0.01293067063048496   -0.008472477222634825
-0.08418109990766855   -0.01293067063048496   -0.008472477222634825
-0.08418109990766855   -0.01293067063048496   -0.008472477222634825
-0.08418109990766855   -0.01293067063048496   -0.008472477222634825
-0.07703894080312426   0.002936638898450217   0.01785827947539285
-0.07703894080312426   0.002936638898450217   0.01785827947539285
-0.07703894080312426   0.002936638898450217   0.01785827947539285
-0.07703894080312426   0.002936638898450217   0.01785827947539285
-0.07562026151120031   -0.002427917401893102   0.0027150975170412406
-0.07562026151120031   -0.002427917401893102   0.0027150975170412406
-0.07562026151120031   -0.002427917401893102   0.0027150975170412406
-0.07562026151120031   -0.002427917401893102   0.0027150975170412406
-0.08582369118434754   -0.013492050123122296   -0.00963678340915016
-0.08582369118434754   -0.013492050123122296   -0.00963678340915016
-0.08582369118434754   -0.013492050123122296   -0.00963678340915016
-0.08582369118434754   -0.013492050123122296   -0.00963678340915016
-0.07759609236827748   0.0012982755492567562   0.01022361429457876
-0.07759609236827748   0.0012982755492567562   0.01022361429457876
-0.07759609236827748   0.0012982755492567562   0.01022361429457876
-0.07759609236827748   0.0012982755492567562   0.01022361429457876
-0.08669113944015605   -0.017842958296450582   -0.006729315725476109
-0.08669113944015605   -0.017842958296450582   -0.006729315725476109
-0.08669113944015605   -0.017842958296450582   -0.006729315725476109
-0.08669113944015605   -0.017842958296450582   -0.006729315725476109
-0.08863521979471409   -0.008564010347143379   0.016676972116741993
-0.08863521979471409   -0.008564010347143379   0.016676972116741993
-0.08863521979471409   -0.008564010347143379   0.016676972116741993
-0.08863521979471409   -0.008564010347143379   0.016676972116741993
-0.08176836251873396   -0.007640889757644598   -0.0035166542709142356
-0.08176836251873396   -0.007640889757644598   -0.0035166542709142356
-0.08176836251873396   -0.007640889757644598   -0.0035166542709142356
-0.08176836251873396   -0.007640889757644598   -0.0035166542709142356
-0.07673910948568094   -0.001757403147277438   -0.007334573583564524
-0.07673910948568094   -0.001757403147277438   -0.007334573583564524
-0.07673910948568094   -0.001757403147277438   -0.007334573583564524
-0.07673910948568094   -0.001757403147277438   -0.007334573583564524
-0.08102191195651764   -0.010085983164046011   -0.0004474949658041954
-0.08102191195651764   -0.010085983164046011   -0.0004474949658041954
-0.08102191195651764   -0.010085983164046011   -0.0004474949658041954
-0.08102191195651764   -0.010085983164046011   -0.0004474949658041954
-0.08184883235285315   -0.006804156966527889   -0.003851683903658317
-0.08184883235285315   -0.006804156966527889   -0.003851683903658317
-0.08184883235285315   -0.006804156966527889   -0.003851683903658317
-0.08184883235285315   -0.006804156966527889   -0.003851683903658317
-0.07970789343385183   -0.013097016610709597   1.699967915509183e-05
-0.07970789343385183   -0.013097016610709597   1.699967915509183e-05
-0.07970789343385183   -0.013097016610709597   1.699967915509183e-05
-0.07970789343385183   -0.013097016610709597   1.699967915509183e-05
-0.07916244627581884   -0.008287409227500007   -8.079020172570457e-05
-0.07916244627581884   -0.008287409227500007   -8.079020172570457e-05
-0.07916244627581884   -0.008287409227500007   -8.079020172570457e-05
-0.07916244627581884   -0.008287409227500007   -8.079020172570457e-05
-0.07974492695010924   -0.006888396673179824   -0.006376787839661911
-0.07974492695010924   -0.006888396673179824   -0.006376787839661911
-0.07974492695010924   -0.006888396673179824   -0.006376787839661911
-0.07974492695010924   -0.006888396673179824   -0.006376787839661911
-0.08233296148279642   -0.013533939550258382   0.00045745303035575797
-0.08233296148279642   -0.013533939550258382   0.00045745303035575797
-0.08233296148279642   -0.013533939550258382   0.00045745303035575797
-0.08233296148279642   -0.013533939550258382   0.00045745303035575797
-0.08342764182330169   -0.011155083596435598   -0.002551470189202369
-0.08342764182330169   -0.011155083596435598   -0.002551470189202369
-0.08342764182330169   -0.011155083596435598   -0.002551470189202369
-0.08342764182330169   -0.011155083596435598   -0.002551470189202369
-0.08291770771778269   -0.017117278268350748   0.0020310913646602153
-0.08291770771778269   -0.017117278268350748   0.0020310913646602153
-0.08291770771778269   -0.017117278268350748   0.0020310913646602153
-0.08291770771778269   -0.017117278268350748   0.0020310913646602153
-0.08124101321857032   -0.011838722381091725   -0.0021448589841556874
-0.08124101321857032   -0.011838722381091725   -0.0021448589841556874
-0.08124101321857032   -0.011838722381091725   -0.0021448589841556874
-0.08124101321857032   -0.011838722381091725   -0.0021448589841556874
-0.08316212186674107   -0.011544447580816249   -0.004763810067666234
-0.08316212186674107   -0.011544447580816249   -0.004763810067666234
-0.08316212186674107   -0.011544447580816249   -0.004763810067666234
-0.08316212186674107   -0.011544447580816249   -0.004763810067666234
-0.08384666813506288   -0.017391354744689672   0.0015896694002457737
-0.08384666813506288   -0.017391354744689672   0.0015896694002457737
-0.08384666813506288   -0.017391354744689672   0.0015896694002457737
-0.08384666813506288   -0.017391354744689672   0.0015896694002457737
-0.08487421654008484   -0.015774295513372293   -0.0012690877884635285
-0.08487421654008484   -0.015774295513372293   -0.0012690877884635285
-0.08487421654008484   -0.015774295513372293   -0.0012690877884635285
-0.08487421654008484   -0.015774295513372293   -0.0012690877884635285
-0.08540462020779752   -0.022118276230798213   0.003978598370663759
-0.08540462020779752   -0.022118276230798213   0.003978598370663759
-0.08540462020779752   -0.022118276230798213   0.003978598370663759
-0.08540462020779752   -0.022118276230798213   0.003978598370663759
-0.08398704907763517   -0.016029705829208745   -0.004726455674887248
-0.08398704907763517   -0.016029705829208745   -0.004726455674887248
-0.08398704907763517   -0.016029705829208745   -0.004726455674887248
-0.08398704907763517   -0.016029705829208745   -0.004726455674887248
-0.07869675199506411   0.0024606317635111133   -0.0013683100860927087
-0.07869675199506411   0.0024606317635111133   -0.0013683100860927087
-0.07869675199506411   0.0024606317635111133   -0.0013683100860927087
-0.07869675199506411   0.0024606317635111133   -0.0013683100860927087
-0.09176917430109029   -0.017456685918662066   -0.00447101805364355
-0.09176917430109029   -0.017456685918662066   -0.00447101805364355
-0.09176917430109029   -0.017456685918662066   -0.00447101805364355
-0.09176917430109029   -0.017456685918662066   -0.00447101805364355
-0.08823883591803283   -0.0032959563849130034   0.0010173614333170962
-0.08823883591803283   -0.0032959563849130034   0.0010173614333170962
-0.08823883591803283   -0.0032959563849130034   0.0010173614333170962
-0.08823883591803283   -0.0032959563849130034   0.0010173614333170962
-0.08390918213062101   -0.018291531159341574   -0.00266605859968397
-0.08390918213062101   -0.018291531159341574   -0.00266605859968397
-0.08390918213062101   -0.018291531159341574   -0.00266605859968397
-0.08390918213062101   -0.018291531159341574   -0.00266605859968397
-0.0855917604470801   -0.009443803957967364   -0.001816741335983646
-0.0855917604470801   -0.009443803957967364   -0.001816741335983646
-0.0855917604470801   -0.009443803957967364   -0.001816741335983646
-0.0855917604470801   -0.009443803957967364   -0.001816741335983646
-0.08009923425235788   -0.0018775653433195094   -3.028502439038957e-05
-0.08009923425235788   -0.0018775653433195094   -3.028502439038957e-05
-0.08009923425235788   -0.0018775653433195094   -3.028502439038957e-05
-0.08009923425235788   -0.0018775653433195094   -3.028502439038957e-05
-0.0925265211427701   -0.020187659547409205   -0.0035293615278730404
-0.0925265211427701   -0.020187659547409205   -0.0035293615278730404
-0.0925265211427701   -0.020187659547409205   -0.0035293615278730404
-0.0925265211427701   -0.020187659547409205   -0.0035293615278730404
-0.08943168495785614   -0.00766745312004965   0.002306715733450936
-0.08943168495785614   -0.00766745312004965   0.002306715733450936
-0.08943168495785614   -0.00766745312004965   0.002306715733450936
-0.08943168495785614   -0.00766745312004965   0.002306715733450936
-0.0853887848896335   -0.021721121146947527   -0.0017911479703494983
-0.0853887848896335   -0.021721121146947527   -0.0017911479703494983
-0.0853887848896335   -0.021721121146947527   -0.0017911479703494983
-0.0853887848896335   -0.021721121146947527   -0.0017911479703494983
-0.08683733732761244   -0.012756008895318891   -0.0035882249232138752
-0.08683733732761244   -0.012756008895318891   -0.0035882249232138752
-0.08683733732761244   -0.012756008895318891   -0.0035882249232138752
-0.08683733732761244   -0.012756008895318891   -0.0035882249232138752
-0.08170199136601071   -0.006332098206840756   0.0012537967076576497
-0.08170199136601071   -0.006332098206840756   0.0012537967076576497
-0.08170199136601071   -0.006332098206840756   0.0012537967076576497
-0.08170199136601071   -0.006332098206840756   0.0012537967076576497
-0.09365241793524205   -0.02359041551392179   -0.002873986759608428
-0.09365241793524205   -0.02359041551392179   -0.002873986759608428
-0.09365241793524205   -0.02359041551392179   -0.002873986759608428
-0.09365241793524205   -0.02359041551392179   -0.002873986759608428
-0.0904383269714605   -0.01175228754045462   0.0035768673555213325
-0.0904383269714605   -0.01175228754045462   0.0035768673555213325
-0.0904383269714605   -0.01175228754045462   0.0035768673555213325
-0.0904383269714605   -0.01175228754045462   0.0035768673555213325
-0.0865513070139034   -0.024963206870286858   -0.0004656288006417552
-0.0865513070139034   -0.024963206870286858   -0.0004656288006417552
-0.0865513070139034   -0.024963206870286858   -0.0004656288006417552
-0.0865513070139034   -0.024963206870286858   -0.0004656288006417552
-0.08829477580307377   -0.01621065112406305   -0.005531732080828204
-0.08829477580307377   -0.01621065112406305   -0.005531732080828204
-0.08829477580307377   -0.01621065112406305   -0.005531732080828204
-0.08829477580307377   -0.01621065112406305   -0.005531732080828204
-0.08471258390928764   0.009144537395549084   0.004210710591158554
-0.08471258390928764   0.009144537395549084   0.004210710591158554
-0.08471258390928764   0.009144537395549084   0.004210710591158554
-0.08471258390928764   0.009144537395549084   0.004210710591158554
-0.10250447696838919   -0.013347905996001353   -0.0063368833432735795
-0.10250447696838919   -0.013347905996001353   -0.0063368833432735795
-0.10250447696838919   -0.013347905996001353   -0.0063368833432735795
-0.10250447696838919   -0.013347905996001353   -0.0063368833432735795
-0.09730420566201159   0.0023830060267671788   0.0057171898411800355
-0.09730420566201159   0.0023830060267671788   0.0057171898411800355
-0.09730420566201159   0.0023830060267671788   0.0057171898411800355
-0.09730420566201159   0.0023830060267671788   0.0057171898411800355
-0.09139179927271689   -0.014282671550649696   -0.0037607401743664417
-0.09139179927271689   -0.014282671550649696   -0.0037607401743664417
-0.09139179927271689   -0.014282671550649696   -0.0037607401743664417
-0.09139179927271689   -0.014282671550649696   -0.0037607401743664417
-0.09393080105009562   -0.003938135737926538   -0.0010820029668296418
-0.09393080105009562   -0.003938135737926538   -0.0010820029668296418
-0.09393080105009562   -0.003938135737926538   -0.0010820029668296418
-0.09393080105009562   -0.003938135737926538   -0.0010820029668296418
-0.08575153199191407   0.004651406440290603   0.005506518238707302
-0.08575153199191407   0.004651406440290603   0.005506518238707302
-0.08575153199191407   0.004651406440290603   0.005506518238707302
-0.08575153199191407   0.004651406440290603   0.005506518238707302
-0.10358485829582022   -0.017191457317179575   -0.006111609983916331
-0.10358485829582022   -0.017191457317179575   -0.006111609983916331
-0.10358485829582022   -0.017191457317179575   -0.006111609983916331
-0.10358485829582022   -0.017191457317179575   -0.006111609983916331
-0.09923772997874501   -0.0019148983854907625   0.0065011937251107125
-0.09923772997874501   -0.0019148983854907625   0.0065011937251107125
-0.09923772997874501   -0.0019148983854907625   0.0065011937251107125
-0.09923772997874501   -0.0019148983854907625   0.0065011937251107125
-0.09245446459128574   -0.017497681038045283   -0.002976954515703383
-0.09245446459128574   -0.017497681038045283   -0.002976954515703383
-0.09245446459128574   -0.017497681038045283   -0.002976954515703383
-0.09245446459128574   -0.017497681038045283   -0.002976954515703383
-0.09497892752513776   -0.007545878925778819   -0.003165870534818565
-0.09497892752513776   -0.007545878925778819   -0.003165870534818565
-0.09497892752513776   -0.007545878925778819   -0.003165870534818565
-0.09497892752513776   -0.007545878925778819   -0.003165870534818565
-0.08688631966639032   0.0006069689550867521   0.0067591201156435915
-0.08688631966639032   0.0006069689550867521   0.0067591201156435915
-0.08688631966639032   0.0006069689550867521   0.0067591201156435915
-0.08688631966639032   0.0006069689550867521   0.0067591201156435915
-0.1053595459522294   -0.02057321942721081   -0.005449565100591193
-0.1053595459522294   -0.02057321942721081   -0.005449565100591193
-0.1053595459522294   -0.02057321942721081   -0.005449565100591193
-0.1053595459522294   -0.02057321942721081   -0.005449565100591193
-0.10056562036478674   -0.006062669688208712   0.007944546737432652
-0.10056562036478674   -0.006062669688208712   0.007944546737432652
-0.10056562036478674   -0.006062669688208712   0.007944546737432652
-0.10056562036478674   -0.006062669688208712   0.007944546737432652
-0.09340111417644704   -0.020736427754002393   -0.0022529284558655337
-0.09340111417644704   -0.020736427754002393   -0.0022529284558655337
-0.09340111417644704   -0.020736427754002393   -0.0022529284558655337
-0.09340111417644704   -0.020736427754002393   -0.0022529284558655337
-0.0967246823460521   -0.010984184189371672   -0.005199290439179734
-0.0967246823460521   -0.010984184189371672   -0.005199290439179734
-0.0967246823460521   -0.010984184189371672   -0.005199290439179734
-0.0967246823460521   -0.010984184189371672   -0.005199290439179734
-0.09424258388693638   0.0131431358976229   0.008481540170366224
-0.09424258388693638   0.0131431358976229   0.008481540170366224
-0.09424258388693638   0.0131431358976229   0.008481540170366224
-0.09424258388693638   0.0131431358976229   0.008481540170366224
-0.10358646945176649   -0.008330562122547406   -0.009090566261102273
-0.10358646945176649   -0.008330562122547406   -0.009090566261102273
-0.10358646945176649   -0.008330562122547406   -0.009090566261102273
-0.10358646945176649   -0.008330562122547406   -0.009090566261102273
-0.10160574875470511   0.00884567915785595   0.009442282984390836
-0.10160574875470511   0.00884567915785595   0.009442282984390836
-0.10160574875470511   0.00884567915785595   0.009442282984390836
-0.10160574875470511   0.00884567915785595   0.009442282984390836
-0.10202748257215286   -0.009953571181612476   -0.005562617501148563
-0.10202748257215286   -0.009953571181612476   -0.005562617501148563
-0.10202748257215286   -0.009953571181612476   -0.005562617501148563
-0.10202748257215286   -0.009953571181612476   -0.005562617501148563
-0.0968592472433278   0.0021824812379984994   0.000601982564227623
-0.0968592472433278   0.0021824812379984994   0.000601982564227623
-0.0968592472433278   0.0021824812379984994   0.000601982564227623
-0.0968592472433278   0.0021824812379984994   0.000601982564227623
-0.0949130243423679   0.010255823280566255   0.00980027918559749
-0.0949130243423679   0.010255823280566255   0.00980027918559749
-0.0949130243423679   0.010255823280566255   0.00980027918559749
-0.0949130243423679   0.010255823280566255   0.00980027918559749
-0.1092559066870209   -0.011899415006853617   -0.008063412512482377
-0.1092559066870209   -0.011899415006853617   -0.008063412512482377
-0.1092559066870209   -0.011899415006853617   -0.008063412512482377
-0.1092559066870209   -0.011899415006853617   -0.008063412512482377
-0.10607197201053516   0.006392857881255185   0.012118670038029366
-0.10607197201053516   0.006392857881255185   0.012118670038029366
-0.10607197201053516   0.006392857881255185   0.012118670038029366
-0.10607197201053516   0.006392857881255185   0.012118670038029366
-0.10353553842281936   -0.01186607694572782   -0.005036669935025809
-0.10353553842281936   -0.01186607694572782   -0.005036669935025809
-0.10353553842281936   -0.01186607694572782   -0.005036669935025809
-0.10353553842281936   -0.01186607694572782   -0.005036669935025809
-0.10170331385963106   -0.0007685973573676522   -0.0019213059426637352
-0.10170331385963106   -0.0007685973573676522   -0.0019213059426637352
-0.10170331385963106   -0.0007685973573676522   -0.0019213059426637352
-0.10170331385963106   -0.0007685973573676522   -0.0019213059426637352
-0.09615728698969025   0.008291469112330242   0.011697041172559743
-0.09615728698969025   0.008291469112330242   0.011697041172559743
-0.09615728698969025   0.008291469112330242   0.011697041172559743
-0.09615728698969025   0.008291469112330242   0.011697041172559743
-0.1141313089493164   -0.014445773682455336   -0.007339383092166347
-0.1141313089493164   -0.014445773682455336   -0.007339383092166347
-0.1141313089493164   -0.014445773682455336   -0.007339383092166347
-0.1141313089493164   -0.014445773682455336   -0.007339383092166347
-0.11370999984346532   0.00010383473327450765   0.0129275506628976
-0.11370999984346532   0.00010383473327450765   0.0129275506628976
-0.11370999984346532   0.00010383473327450765   0.0129275506628976
-0.11370999984346532   0.00010383473327450765   0.0129275506628976
-0.10493189138672472   -0.015583406465349808   -0.004366071595118081
-0.10493189138672472   -0.015583406465349808   -0.004366071595118081
-0.10493189138672472   -0.015583406465349808   -0.004366071595118081
-0.10493189138672472   -0.015583406465349808   -0.004366071595118081
-0.10398445076946983   -0.0035223490060482705   -0.004154237564542258
-0.10398445076946983   -0.0035223490060482705   -0.004154237564542258
-0.10398445076946983   -0.0035223490060482705   -0.004154237564542258
-0.10398445076946983   -0.0035223490060482705   -0.004154237564542258
-0.18653736340776647   -0.01722487905539473   -0.01863486448782235
-0.18653736340776647   -0.01722487905539473   -0.01863486448782235
-0.18653736340776647   -0.01722487905539473   -0.01863486448782235
-0.18653736340776647   -0.01722487905539473   -0.01863486448782235
-0.12057840271924944   0.00944272586536677   0.00432237848072896
-0.12057840271924944   0.00944272586536677   0.00432237848072896
-0.12057840271924944   0.00944272586536677   0.00432237848072896
-0.12057840271924944   0.00944272586536677   0.00432237848072896
-0.12686351465485038   -0.008652472930323712   -0.008525215828967436
-0.12686351465485038   -0.008652472930323712   -0.008525215828967436
-0.12686351465485038   -0.008652472930323712   -0.008525215828967436
-0.12686351465485038   -0.008652472930323712   -0.008525215828967436
-0.19948448482476105   -0.023687817505716833   0.02037470254013868
-0.19948448482476105   -0.023687817505716833   0.02037470254013868
-0.19948448482476105   -0.023687817505716833   0.02037470254013868
-0.19948448482476105   -0.023687817505716833   0.02037470254013868
-0.14531147113489426   -0.0059416859529851825   0.020022473917235363
-0.14531147113489426   -0.0059416859529851825   0.020022473917235363
-0.14531147113489426   -0.0059416859529851825   0.020022473917235363
-0.14531147113489426   -0.0059416859529851825   0.020022473917235363
-0.20671762063994853   -0.02567834147487655   -0.013800452566637318
-0.20671762063994853   -0.02567834147487655   -0.013800452566637318
-0.20671762063994853   -0.02567834147487655   -0.013800452566637318
-0.20671762063994853   -0.02567834147487655   -0.013800452566637318
-0.12475020168816532   -0.011781771809665508   0.005170647883799568
-0.12475020168816532   -0.011781771809665508   0.005170647883799568
-0.12475020168816532   -0.011781771809665508   0.005170647883799568
-0.12475020168816532   -0.011781771809665508   0.005170647883799568
-0.12922631402368606   -0.012327006759698715   -0.006272575594790011
-0.12922631402368606   -0.012327006759698715   -0.006272575594790011
-0.12922631402368606   -0.012327006759698715   -0.006272575594790011
-0.12922631402368606   -0.012327006759698715   -0.006272575594790011
-0.20643111510758713   -0.032937327707646076   0.00017929527927965138
-0.20643111510758713   -0.032937327707646076   0.00017929527927965138
-0.20643111510758713   -0.032937327707646076   0.00017929527927965138
-0.20643111510758713   -0.032937327707646076   0.00017929527927965138
-0.16172115608684276   -0.01986197800475225   0.004740797389188076
-0.16172115608684276   -0.01986197800475225   0.004740797389188076
-0.16172115608684276   -0.01986197800475225   0.004740797389188076
-0.16172115608684276   -0.01986197800475225   0.004740797389188076
-0.20795234588292966   -0.02907544606133742   -0.011288740243739919
-0.20795234588292966   -0.02907544606133742   -0.011288740243739919
-0.20795234588292966   -0.02907544606133742   -0.011288740243739919
-0.20795234588292966   -0.02907544606133742   -0.011288740243739919
-0.12921483214528615   -0.01769863730294991   -0.0008435356595405115
-0.12921483214528615   -0.01769863730294991   -0.0008435356595405115
-0.12921483214528615   -0.01769863730294991   -0.0008435356595405115
-0.12921483214528615   -0.01769863730294991   -0.0008435356595405115
-0.12969756440127547   -0.021044938266852588   -0.004665322875242664
-0.12969756440127547   -0.021044938266852588   -0.004665322875242664
-0.12969756440127547   -0.021044938266852588   -0.004665322875242664
-0.12969756440127547   -0.021044938266852588   -0.004665322875242664
-0.212103042133129   -0.050027674842933384   0.002812748360463595
-0.212103042133129   -0.050027674842933384   0.002812748360463595
-0.212103042133129   -0.050027674842933384   0.002812748360463595
-0.212103042133129   -0.050027674842933384   0.002812748360463595
-0.16201697803834064   -0.027204380366003235   0.0004956045121417671
-0.16201697803834064   -0.027204380366003235   0.0004956045121417671
-0.16201697803834064   -0.027204380366003235   0.0004956045121417671
-0.16201697803834064   -0.027204380366003235   0.0004956045121417671
-0.13014994845705263   -0.022200513616313325   -0.011892110726605778
-0.13014994845705263   -0.022200513616313325   -0.011892110726605778
-0.13014994845705263   -0.022200513616313325   -0.011892110726605778
-0.13014994845705263   -0.022200513616313325   -0.011892110726605778
-0.09121908326475231   -0.06100099005585213   -0.011338586426719293
-0.09121908326475231   -0.06100099005585213   -0.011338586426719293
-0.09121908326475231   -0.06100099005585213   -0.011338586426719293
-0.09121908326475231   -0.06100099005585213   -0.011338586426719293
-0.08000635446850642   -0.013339110542239668   -0.0008950089438406697
-0.08000635446850642   -0.013339110542239668   -0.0008950089438406697
-0.08000635446850642   -0.013339110542239668   -0.0008950089438406697
-0.08000635446850642   -0.013339110542239668   -0.0008950089438406697
-0.13907595184748003   -0.06414516517037416   -0.014094709552065349
-0.13907595184748003   -0.06414516517037416   -0.014094709552065349
-0.13907595184748003   -0.06414516517037416   -0.014094709552065349
-0.13907595184748003   -0.06414516517037416   -0.014094709552065349
-0.10887958671500086   -0.0425165246345212   -0.003227757536438741
-0.10887958671500086   -0.0425165246345212   -0.003227757536438741
-0.10887958671500086   -0.0425165246345212   -0.003227757536438741
-0.10887958671500086   -0.0425165246345212   -0.003227757536438741
-0.13023129358607013   -0.025007011050051764   -0.009009572365337436
-0.13023129358607013   -0.025007011050051764   -0.009009572365337436
-0.13023129358607013   -0.025007011050051764   -0.009009572365337436
-0.13023129358607013   -0.025007011050051764   -0.009009572365337436
-0.0893692604206818   -0.052995512353327556   -0.00805313689363056
-0.0893692604206818   -0.052995512353327556   -0.00805313689363056
-0.0893692604206818   -0.052995512353327556   -0.00805313689363056
-0.0893692604206818   -0.052995512353327556   -0.00805313689363056
-0.08127806886713415   -0.017208880081713656   -6.655655280285325e-05
-0.08127806886713415   -0.017208880081713656   -6.655655280285325e-05
-0.08127806886713415   -0.017208880081713656   -6.655655280285325e-05
-0.08127806886713415   -0.017208880081713656   -6.655655280285325e-05
-0.13991659080595326   -0.06378724224000087   -0.008263724025825092
-0.13991659080595326   -0.06378724224000087   -0.008263724025825092
-0.13991659080595326   -0.06378724224000087   -0.008263724025825092
-0.13991659080595326   -0.06378724224000087   -0.008263724025825092
-0.10791627406562562   -0.03984432488256676   -0.0034335008995507003
-0.10791627406562562   -0.03984432488256676   -0.0034335008995507003
-0.10791627406562562   -0.03984432488256676   -0.0034335008995507003
-0.10791627406562562   -0.03984432488256676   -0.0034335008995507003
-0.13263399098624903   -0.02882862219036399   -0.006809344976939655
-0.13263399098624903   -0.02882862219036399   -0.006809344976939655
-0.13263399098624903   -0.02882862219036399   -0.006809344976939655
-0.13263399098624903   -0.02882862219036399   -0.006809344976939655
-0.08966781072821947   -0.05327464217273159   -0.005949503767212434
-0.08966781072821947   -0.05327464217273159   -0.005949503767212434
-0.08966781072821947   -0.05327464217273159   -0.005949503767212434
-0.08966781072821947   -0.05327464217273159   -0.005949503767212434
-0.08166068720898606   -0.02194185624821756   0.0011167652847555714
-0.08166068720898606   -0.02194185624821756   0.0011167652847555714
-0.08166068720898606   -0.02194185624821756   0.0011167652847555714
-0.08166068720898606   -0.02194185624821756   0.0011167652847555714
-0.13994696644948995   -0.06458919693614817   -0.012368074447020927
-0.13994696644948995   -0.06458919693614817   -0.012368074447020927
-0.13994696644948995   -0.06458919693614817   -0.012368074447020927
-0.13994696644948995   -0.06458919693614817   -0.012368074447020927
-0.10994420024644957   -0.04277601112219806   -0.006418279058127616
-0.10994420024644957   -0.04277601112219806   -0.006418279058127616
-0.10994420024644957   -0.04277601112219806   -0.006418279058127616
-0.10994420024644957   -0.04277601112219806   -0.006418279058127616
-0.07984423201732212   -0.014392131583553812   -0.0010731886618666128
-0.07984423201732212   -0.014392131583553812   -0.0010731886618666128
-0.07984423201732212   -0.014392131583553812   -0.0010731886618666128
-0.07984423201732212   -0.014392131583553812   -0.0010731886618666128
-0.06879468487290137   -0.04705189412170867   -0.008117749886788367
-0.06879468487290137   -0.04705189412170867   -0.008117749886788367
-0.06879468487290137   -0.04705189412170867   -0.008117749886788367
-0.06879468487290137   -0.04705189412170867   -0.008117749886788367
-0.05937195709993675   -0.012240543665837518   0.0030516538371520453
-0.05937195709993675   -0.012240543665837518   0.0030516538371520453
-0.05937195709993675   -0.012240543665837518   0.0030516538371520453
-0.05937195709993675   -0.012240543665837518   0.0030516538371520453
-0.08906594602617365   -0.05068693025548686   -0.008845147018930554
-0.08906594602617365   -0.05068693025548686   -0.008845147018930554
-0.08906594602617365   -0.05068693025548686   -0.008845147018930554
-0.08906594602617365   -0.05068693025548686   -0.008845147018930554
-0.07396671618885549   -0.03146330972708388   -0.003711890733262468
-0.07396671618885549   -0.03146330972708388   -0.003711890733262468
-0.07396671618885549   -0.03146330972708388   -0.003711890733262468
-0.07396671618885549   -0.03146330972708388   -0.003711890733262468
-0.08055104779485403   -0.01706517482984605   0.00010758871202669139
-0.08055104779485403   -0.01706517482984605   0.00010758871202669139
-0.08055104779485403   -0.01706517482984605   0.00010758871202669139
-0.08055104779485403   -0.01706517482984605   0.00010758871202669139
-0.06835984934914864   -0.04633529310937093   -0.007793057965373986
-0.06835984934914864   -0.04633529310937093   -0.007793057965373986
-0.06835984934914864   -0.04633529310937093   -0.007793057965373986
-0.06835984934914864   -0.04633529310937093   -0.007793057965373986
-0.05972811677945356   -0.015434570499986682   0.003980937154274795
-0.05972811677945356   -0.015434570499986682   0.003980937154274795
-0.05972811677945356   -0.015434570499986682   0.003980937154274795
-0.05972811677945356   -0.015434570499986682   0.003980937154274795
-0.08968261068229913   -0.05148453436254484   -0.0078136113477975
-0.08968261068229913   -0.05148453436254484   -0.0078136113477975
-0.08968261068229913   -0.05148453436254484   -0.0078136113477975
-0.08968261068229913   -0.05148453436254484   -0.0078136113477975
-0.07412109578990896   -0.032619042058723804   -0.004825302352007066
-0.07412109578990896   -0.032619042058723804   -0.004825302352007066
-0.07412109578990896   -0.032619042058723804   -0.004825302352007066
-0.07412109578990896   -0.032619042058723804   -0.004825302352007066
-0.08159438521102168   -0.020312846073289204   0.0014558277193341255
-0.08159438521102168   -0.020312846073289204   0.0014558277193341255
-0.08159438521102168   -0.020312846073289204   0.0014558277193341255
-0.08159438521102168   -0.020312846073289204   0.0014558277193341255
-0.06808154781944807   -0.04687146435796001   -0.00634932418772444
-0.06808154781944807   -0.04687146435796001   -0.00634932418772444
-0.06808154781944807   -0.04687146435796001   -0.00634932418772444
-0.06808154781944807   -0.04687146435796001   -0.00634932418772444
-0.059404370016680474   -0.018439533880559418   0.005005799150776362
-0.059404370016680474   -0.018439533880559418   0.005005799150776362
-0.059404370016680474   -0.018439533880559418   0.005005799150776362
-0.059404370016680474   -0.018439533880559418   0.005005799150776362
-0.08901759745187336   -0.052037591250417944   -0.005572050927480501
-0.08901759745187336   -0.052037591250417944   -0.005572050927480501
-0.08901759745187336   -0.052037591250417944   -0.005572050927480501
-0.08901759745187336   -0.052037591250417944   -0.005572050927480501
-0.07427352325646613   -0.03419829407319708   -0.00564900827190351
-0.07427352325646613   -0.03419829407319708   -0.00564900827190351
-0.07427352325646613   -0.03419829407319708   -0.00564900827190351
-0.07427352325646613   -0.03419829407319708   -0.00564900827190351
-0.05701347339671338   -0.0018625382821027391   0.005598951654543697
-0.05701347339671338   -0.0018625382821027391   0.005598951654543697
-0.05701347339671338   -0.0018625382821027391   0.005598951654543697
-0.05701347339671338   -0.0018625382821027391   0.005598951654543697
-0.05574248719423691   -0.025279832775474964   -0.005027997733357477
-0.05574248719423691   -0.025279832775474964   -0.005027997733357477
-0.05574248719423691   -0.025279832775474964   -0.005027997733357477
-0.05574248719423691   -0.025279832775474964   -0.005027997733357477
-0.04839082088472646   -0.003645043774631749   0.006426420317732861
-0.04839082088472646   -0.003645043774631749   0.006426420317732861
-0.04839082088472646   -0.003645043774631749   0.006426420317732861
-0.04839082088472646   -0.003645043774631749   0.006426420317732861
-0.0639799241803231   -0.028736921922238486   -0.0034918033083787244
-0.0639799241803231   -0.028736921922238486   -0.0034918033083787244
-0.0639799241803231   -0.028736921922238486   -0.0034918033083787244
-0.0639799241803231   -0.028736921922238486   -0.0034918033083787244
-0.056454766039745745   -0.014713405208847096   -0.0020335178534078373
-0.056454766039745745   -0.014713405208847096   -0.0020335178534078373
-0.056454766039745745   -0.014713405208847096   -0.0020335178534078373
-0.056454766039745745   -0.014713405208847096   -0.0020335178534078373
-0.057326501552185785   -0.005424821991380265   0.006463209901449612
-0.057326501552185785   -0.005424821991380265   0.006463209901449612
-0.057326501552185785   -0.005424821991380265   0.006463209901449612
-0.057326501552185785   -0.005424821991380265   0.006463209901449612
-0.05556706338866418   -0.02747996358129038   -0.005619872395297115
-0.05556706338866418   -0.02747996358129038   -0.005619872395297115
-0.05556706338866418   -0.02747996358129038   -0.005619872395297115
-0.05556706338866418   -0.02747996358129038   -0.005619872395297115
-0.048779879686368204   -0.006781080951706597   0.006931461011068665
-0.048779879686368204   -0.006781080951706597   0.006931461011068665
-0.048779879686368204   -0.006781080951706597   0.006931461011068665
-0.048779879686368204   -0.006781080951706597   0.006931461011068665
-0.06430310024866466   -0.030511584306970287   -0.003816966384797094
-0.06430310024866466   -0.030511584306970287   -0.003816966384797094
-0.06430310024866466   -0.030511584306970287   -0.003816966384797094
-0.06430310024866466   -0.030511584306970287   -0.003816966384797094
-0.05650352266255452   -0.01720181662023435   -0.0034820272366878112
-0.05650352266255452   -0.01720181662023435   -0.0034820272366878112
-0.05650352266255452   -0.01720181662023435   -0.0034820272366878112
-0.05650352266255452   -0.01720181662023435   -0.0034820272366878112
-0.05766288270212933   -0.008474555290742562   0.007347092331649962
-0.05766288270212933   -0.008474555290742562   0.007347092331649962
-0.05766288270212933   -0.008474555290742562   0.007347092331649962
-0.05766288270212933   -0.008474555290742562   0.007347092331649962
-0.05573823612791394   -0.029136248862945035   -0.005505153285421552
-0.05573823612791394   -0.029136248862945035   -0.005505153285421552
-0.05573823612791394   -0.029136248862945035   -0.005505153285421552
-0.05573823612791394   -0.029136248862945035   -0.005505153285421552
-0.04871004056367345   -0.009738157674751433   0.008047348327611848
-0.04871004056367345   -0.009738157674751433   0.008047348327611848
-0.04871004056367345   -0.009738157674751433   0.008047348327611848
-0.04871004056367345   -0.009738157674751433   0.008047348327611848
-0.06367875505463155   -0.03225932263030773   -0.0025463372892307375
-0.06367875505463155   -0.03225932263030773   -0.0025463372892307375
-0.06367875505463155   -0.03225932263030773   -0.0025463372892307375
-0.06367875505463155   -0.03225932263030773   -0.0025463372892307375
-0.05670047676222426   -0.019400958256069342   -0.004533896394808255
-0.05670047676222426   -0.019400958256069342   -0.004533896394808255
-0.05670047676222426   -0.019400958256069342   -0.004533896394808255
-0.05670047676222426   -0.019400958256069342   -0.004533896394808255
-0.04657923502784745   0.0066589033992331854   0.008849526923881648
-0.04657923502784745   0.0066589033992331854   0.008849526923881648
-0.04657923502784745   0.0066589033992331854   0.008849526923881648
-0.04657923502784745   0.0066589033992331854   0.008849526923881648
-0.033450874254215716   -0.0085903963637183   -0.0032154982393810907
-0.033450874254215716   -0.0085903963637183   -0.0032154982393810907
-0.033450874254215716   -0.0085903963637183   -0.0032154982393810907
-0.033450874254215716   -0.0085903963637183   -0.0032154982393810907
-0.029892120584119084   0.007342612399594334   0.008782938416855556
-0.029892120584119084   0.007342612399594334   0.008782938416855556
-0.029892120584119084   0.007342612399594334   0.008782938416855556
-0.029892120584119084   0.007342612399594334   0.008782938416855556
-0.051792579147485716   -0.01253780433481907   -0.001689610435876082
-0.051792579147485716   -0.01253780433481907   -0.001689610435876082
-0.051792579147485716   -0.01253780433481907   -0.001689610435876082
-0.051792579147485716   -0.01253780433481907   -0.001689610435876082
-0.03977102116403968   -0.0008902609851141607   -0.001454986743115351
-0.03977102116403968   -0.0008902609851141607   -0.001454986743115351
-0.03977102116403968   -0.0008902609851141607   -0.001454986743115351
-0.03977102116403968   -0.0008902609851141607   -0.001454986743115351
-0.04616118966712647   0.004265097854868935   0.00966443477623212
-0.04616118966712647   0.004265097854868935   0.00966443477623212
-0.04616118966712647   0.004265097854868935   0.00966443477623212
-0.04616118966712647   0.004265097854868935   0.00966443477623212
-0.035601098165203564   -0.009537877890818268   -0.0028814591981542277
-0.035601098165203564   -0.009537877890818268   -0.0028814591981542277
-0.035601098165203564   -0.009537877890818268   -0.0028814591981542277
-0.035601098165203564   -0.009537877890818268   -0.0028814591981542277
-0.031467170871234136   0.0057601813354203404   0.011026253919129769
-0.031467170871234136   0.0057601813354203404   0.011026253919129769
-0.031467170871234136   0.0057601813354203404   0.011026253919129769
-0.031467170871234136   0.0057601813354203404   0.011026253919129769
-0.051903647299089965   -0.013397717952602068   -0.0020707400516446588
-0.051903647299089965   -0.013397717952602068   -0.0020707400516446588
-0.051903647299089965   -0.013397717952602068   -0.0020707400516446588
-0.051903647299089965   -0.013397717952602068   -0.0020707400516446588
-0.041313079196928705   -0.002608887948644274   -0.00224678232370501
-0.041313079196928705   -0.002608887948644274   -0.00224678232370501
-0.041313079196928705   -0.002608887948644274   -0.00224678232370501
-0.041313079196928705   -0.002608887948644274   -0.00224678232370501
-0.046015130581062345   0.0028668031056725152   0.011107322480218859
-0.046015130581062345   0.0028668031056725152   0.011107322480218859
-0.046015130581062345   0.0028668031056725152   0.011107322480218859
-0.046015130581062345   0.0028668031056725152   0.011107322480218859
-0.03775922968823518   -0.010907881821828311   -0.0037659770086306615
-0.03775922968823518   -0.010907881821828311   -0.0037659770086306615
-0.03775922968823518   -0.010907881821828311   -0.0037659770086306615
-0.03775922968823518   -0.010907881821828311   -0.0037659770086306615
-0.035879113338852166   0.0013962558505539926   0.011479461936528365
-0.035879113338852166   0.0013962558505539926   0.011479461936528365
-0.035879113338852166   0.0013962558505539926   0.011479461936528365
-0.035879113338852166   0.0013962558505539926   0.011479461936528365
-0.05156792488595693   -0.014280324745096488   -0.0016999062134604888
-0.05156792488595693   -0.014280324745096488   -0.0016999062134604888
-0.05156792488595693   -0.014280324745096488   -0.0016999062134604888
-0.05156792488595693   -0.014280324745096488   -0.0016999062134604888
-0.04218829510154521   -0.0039162803951659445   -0.003409679772086338
-0.04218829510154521   -0.0039162803951659445   -0.003409679772086338
-0.04218829510154521   -0.0039162803951659445   -0.003409679772086338
-0.04218829510154521   -0.0039162803951659445   -0.003409679772086338
-0.4535567469662246   -0.06578943328914141   -0.038860073044838725
-0.4535567469662246   -0.06578943328914141   -0.038860073044838725
-0.4535567469662246   -0.06578943328914141   -0.038860073044838725
-0.4535567469662246   -0.06578943328914141   -0.038860073044838725
-0.15948627580559077   -0.26720378274430173   -0.030099270037871342
-0.15948627580559077   -0.26720378274430173   -0.030099270037871342
-0.15948627580559077   -0.26720378274430173   -0.030099270037871342
-0.15948627580559077   -0.26720378274430173   -0.030099270037871342
-0.12098139959013827   -0.01207447310429669   -6.166068738147927e-05
-0.12098139959013827   -0.01207447310429669   -6.166068738147927e-05
-0.12098139959013827   -0.01207447310429669   -6.166068738147927e-05
-0.12098139959013827   -0.01207447310429669   -6.166068738147927e-05
-0.4886760459683912   -0.3106209505603991   -0.15985939930575807
-0.4886760459683912   -0.3106209505603991   -0.15985939930575807
-0.4886760459683912   -0.3106209505603991   -0.15985939930575807
-0.4886760459683912   -0.3106209505603991   -0.15985939930575807
-0.29795116362066165   -0.15403989001745858   -0.022508451669338514
-0.29795116362066165   -0.15403989001745858   -0.022508451669338514
-0.29795116362066165   -0.15403989001745858   -0.022508451669338514
-0.29795116362066165   -0.15403989001745858   -0.022508451669338514
-0.4217035503297507   -0.08277512120777879   -0.052842750465179514
-0.4217035503297507   -0.08277512120777879   -0.052842750465179514
-0.4217035503297507   -0.08277512120777879   -0.052842750465179514
-0.4217035503297507   -0.08277512120777879   -0.052842750465179514
-0.1728965799989549   -0.22486298722709358   -0.046849048608666614
-0.1728965799989549   -0.22486298722709358   -0.046849048608666614
-0.1728965799989549   -0.22486298722709358   -0.046849048608666614
-0.1728965799989549   -0.22486298722709358   -0.046849048608666614
-0.12401334893160375   -0.015577873925933678   0.004558798011858267
-0.12401334893160375   -0.015577873925933678   0.004558798011858267
-0.12401334893160375   -0.015577873925933678   0.004558798011858267
-0.12401334893160375   -0.015577873925933678   0.004558798011858267
-0.45768352393632616   -0.27896823886821664   -0.14733035256090857
-0.45768352393632616   -0.27896823886821664   -0.14733035256090857
-0.45768352393632616   -0.27896823886821664   -0.14733035256090857
-0.45768352393632616   -0.27896823886821664   -0.14733035256090857
-0.28096156283637336   -0.13951563976692247   0.010897485951308315
-0.28096156283637336   -0.13951563976692247   0.010897485951308315
-0.28096156283637336   -0.13951563976692247   0.010897485951308315
-0.28096156283637336   -0.13951563976692247   0.010897485951308315
-0.39615091516341955   -0.07887021357298962   -0.03976533399160569
-0.39615091516341955   -0.07887021357298962   -0.03976533399160569
-0.39615091516341955   -0.07887021357298962   -0.03976533399160569
-0.39615091516341955   -0.07887021357298962   -0.03976533399160569
-0.16875270907799958   -0.19888265059465027   -0.03583322605140326
-0.16875270907799958   -0.19888265059465027   -0.03583322605140326
-0.16875270907799958   -0.19888265059465027   -0.03583322605140326
-0.16875270907799958   -0.19888265059465027   -0.03583322605140326
-0.1438988586757748   -0.03853907346308844   -0.007948428197665924
-0.1438988586757748   -0.03853907346308844   -0.007948428197665924
-0.1438988586757748   -0.03853907346308844   -0.007948428197665924
-0.1438988586757748   -0.03853907346308844   -0.007948428197665924
-0.41738402290587023   -0.2369075408808519   -0.13085831275734444
-0.41738402290587023   -0.2369075408808519   -0.13085831275734444
-0.41738402290587023   -0.2369075408808519   -0.13085831275734444
-0.41738402290587023   -0.2369075408808519   -0.13085831275734444
-0.2606255043401665   -0.12141692206907628   0.04881228871783744
-0.2606255043401665   -0.12141692206907628   0.04881228871783744
-0.2606255043401665   -0.12141692206907628   0.04881228871783744
-0.2606255043401665   -0.12141692206907628   0.04881228871783744
-0.11501183423963232   -0.06539832662996715   -0.00953251832241438
-0.11501183423963232   -0.06539832662996715   -0.00953251832241438
-0.11501183423963232   -0.06539832662996715   -0.00953251832241438
-0.11501183423963232   -0.06539832662996715   -0.00953251832241438
-0.05504208588030997   -0.08976436609238482   -0.013688463145576334
-0.05504208588030997   -0.08976436609238482   -0.013688463145576334
-0.05504208588030997   -0.08976436609238482   -0.013688463145576334
-0.05504208588030997   -0.08976436609238482   -0.013688463145576334
-0.047390467199984646   -0.042774645178104906   0.0010724057617836555
-0.047390467199984646   -0.042774645178104906   0.0010724057617836555
-0.047390467199984646   -0.042774645178104906   0.0010724057617836555
-0.047390467199984646   -0.042774645178104906   0.0010724057617836555
-0.14380576371279602   -0.12727961944542798   0.0010216650404623467
-0.14380576371279602   -0.12727961944542798   0.0010216650404623467
-0.14380576371279602   -0.12727961944542798   0.0010216650404623467
-0.14380576371279602   -0.12727961944542798   0.0010216650404623467
-0.07639712934785238   -0.061229485542340464   0.02513883944373787
-0.07639712934785238   -0.061229485542340464   0.02513883944373787
-0.07639712934785238   -0.061229485542340464   0.02513883944373787
-0.07639712934785238   -0.061229485542340464   0.02513883944373787
-0.13201407823175246   -0.06114479494730432   -0.006154732052445605
-0.13201407823175246   -0.06114479494730432   -0.006154732052445605
-0.13201407823175246   -0.06114479494730432   -0.006154732052445605
-0.13201407823175246   -0.06114479494730432   -0.006154732052445605
-0.06344699913399476   -0.11317431612919547   -0.008810582957176384
-0.06344699913399476   -0.11317431612919547   -0.008810582957176384
-0.06344699913399476   -0.11317431612919547   -0.008810582957176384
-0.06344699913399476   -0.11317431612919547   -0.008810582957176384
-0.05173355806804485   -0.04425340591431429   0.0012224248646994784
-0.05173355806804485   -0.04425340591431429   0.0012224248646994784
-0.05173355806804485   -0.04425340591431429   0.0012224248646994784
-0.05173355806804485   -0.04425340591431429   0.0012224248646994784
-0.1516579981077958   -0.1263446558416821   -0.022897665953352443
-0.1516579981077958   -0.1263446558416821   -0.022897665953352443
-0.1516579981077958   -0.1263446558416821   -0.022897665953352443
-0.1516579981077958   -0.1263446558416821   -0.022897665953352443
-0.0921559165800433   -0.07791106452501531   0.010974042585424146
-0.0921559165800433   -0.07791106452501531   0.010974042585424146
-0.0921559165800433   -0.07791106452501531   0.010974042585424146
-0.0921559165800433   -0.07791106452501531   0.010974042585424146
-0.13690282112185923   -0.063854192392573   -0.011612244472779719
-0.13690282112185923   -0.063854192392573   -0.011612244472779719
-0.13690282112185923   -0.063854192392573   -0.011612244472779719
-0.13690282112185923   -0.063854192392573   -0.011612244472779719
-0.06611921939825885   -0.10637435370770083   -0.008584933992982977
-0.06611921939825885   -0.10637435370770083   -0.008584933992982977
-0.06611921939825885   -0.10637435370770083   -0.008584933992982977
-0.06611921939825885   -0.10637435370770083   -0.008584933992982977
-0.05860523952942093   -0.04548296758469983   0.00182134539015367
-0.05860523952942093   -0.04548296758469983   0.00182134539015367
-0.05860523952942093   -0.04548296758469983   0.00182134539015367
-0.05860523952942093   -0.04548296758469983   0.00182134539015367
-0.1631739083032683   -0.1232681783505788   -0.019594571447642647
-0.1631739083032683   -0.1232681783505788   -0.019594571447642647
-0.1631739083032683   -0.1232681783505788   -0.019594571447642647
-0.1631739083032683   -0.1232681783505788   -0.019594571447642647
-0.0971656339056317   -0.07355084238859462   0.011509271727891249
-0.0971656339056317   -0.07355084238859462   0.011509271727891249
-0.0971656339056317   -0.07355084238859462   0.011509271727891249
-0.0971656339056317   -0.07355084238859462   0.011509271727891249
-0.0416583497397889   -0.039423255687333056   0.0028891071519772053
-0.0416583497397889   -0.039423255687333056   0.0028891071519772053
-0.0416583497397889   -0.039423255687333056   0.0028891071519772053
-0.0416583497397889   -0.039423255687333056   0.0028891071519772053
-0.02699343333299437   -0.030795029274616147   -0.006823646464280664
-0.02699343333299437   -0.030795029274616147   -0.006823646464280664
-0.02699343333299437   -0.030795029274616147   -0.006823646464280664
-0.02699343333299437   -0.030795029274616147   -0.006823646464280664
-0.025643038940691268   -0.035675758135214154   0.0027878064969525194
-0.025643038940691268   -0.035675758135214154   0.0027878064969525194
-0.025643038940691268   -0.035675758135214154   0.0027878064969525194
-0.025643038940691268   -0.035675758135214154   0.0027878064969525194
-0.04762950880135698   -0.040536977426561815   -0.0023604699966211073
-0.04762950880135698   -0.040536977426561815   -0.0023604699966211073
-0.04762950880135698   -0.040536977426561815   -0.0023604699966211073
-0.04762950880135698   -0.040536977426561815   -0.0023604699966211073
-0.029779626181882568   -0.030727426425741798   0.012729381008421893
-0.029779626181882568   -0.030727426425741798   0.012729381008421893
-0.029779626181882568   -0.030727426425741798   0.012729381008421893
-0.029779626181882568   -0.030727426425741798   0.012729381008421893
-0.04635693645893776   -0.03973584673372625   0.0032012610226385078
-0.04635693645893776   -0.03973584673372625   0.0032012610226385078
-0.04635693645893776   -0.03973584673372625   0.0032012610226385078
-0.04635693645893776   -0.03973584673372625   0.0032012610226385078
-0.02743929370906504   -0.037000571254004425   -0.004868654226126073
-0.02743929370906504   -0.037000571254004425   -0.004868654226126073
-0.02743929370906504   -0.037000571254004425   -0.004868654226126073
-0.02743929370906504   -0.037000571254004425   -0.004868654226126073
-0.02629971997704101   -0.036737529839322255   0.002538520563057284
-0.02629971997704101   -0.036737529839322255   0.002538520563057284
-0.02629971997704101   -0.036737529839322255   0.002538520563057284
-0.02629971997704101   -0.036737529839322255   0.002538520563057284
-0.05114101379806858   -0.046961447529650396   0.006893187829917916
-0.05114101379806858   -0.046961447529650396   0.006893187829917916
-0.05114101379806858   -0.046961447529650396   0.006893187829917916
-0.05114101379806858   -0.046961447529650396   0.006893187829917916
-0.032997859783613984   -0.034362344729638915   0.010416122260577651
-0.032997859783613984   -0.034362344729638915   0.010416122260577651
-0.032997859783613984   -0.034362344729638915   0.010416122260577651
-0.032997859783613984   -0.034362344729638915   0.010416122260577651
-0.050515486271120694   -0.04123042635312388   0.004289804288128864
-0.050515486271120694   -0.04123042635312388   0.004289804288128864
-0.050515486271120694   -0.04123042635312388   0.004289804288128864
-0.050515486271120694   -0.04123042635312388   0.004289804288128864
-0.029260397564523907   -0.044803701076384116   -0.0041986961372953505
-0.029260397564523907   -0.044803701076384116   -0.0041986961372953505
-0.029260397564523907   -0.044803701076384116   -0.0041986961372953505
-0.029260397564523907   -0.044803701076384116   -0.0041986961372953505
-0.02725497225470007   -0.037846457568878916   0.003620992283041368
-0.02725497225470007   -0.037846457568878916   0.003620992283041368
-0.02725497225470007   -0.037846457568878916   0.003620992283041368
-0.02725497225470007   -0.037846457568878916   0.003620992283041368
-0.06078671880710065   -0.056937879541443887   0.0023688609585000957
-0.06078671880710065   -0.056937879541443887   0.0023688609585000957
-0.06078671880710065   -0.056937879541443887   0.0023688609585000957
-0.06078671880710065   -0.056937879541443887   0.0023688609585000957
-0.03749978749378913   -0.03887758688716514   0.004409418178073618
-0.03749978749378913   -0.03887758688716514   0.004409418178073618
-0.03749978749378913   -0.03887758688716514   0.004409418178073618
-0.03749978749378913   -0.03887758688716514   0.004409418178073618
-0.021098045171856254   -0.015811409842473822   0.0076696749092675905
-0.021098045171856254   -0.015811409842473822   0.0076696749092675905
-0.021098045171856254   -0.015811409842473822   0.0076696749092675905
-0.021098045171856254   -0.015811409842473822   0.0076696749092675905
-0.015982600272852882   -0.0025726817084659017   -0.0016081886837334709
-0.015982600272852882   -0.0025726817084659017   -0.0016081886837334709
-0.015982600272852882   -0.0025726817084659017   -0.0016081886837334709
-0.015982600272852882   -0.0025726817084659017   -0.0016081886837334709
-0.015082827896226732   -0.017319960278620372   0.004695908625615477
-0.015082827896226732   -0.017319960278620372   0.004695908625615477
-0.015082827896226732   -0.017319960278620372   0.004695908625615477
-0.015082827896226732   -0.017319960278620372   0.004695908625615477
-0.020323160632289092   -0.005798311689195316   -0.0004902484070554432
-0.020323160632289092   -0.005798311689195316   -0.0004902484070554432
-0.020323160632289092   -0.005798311689195316   -0.0004902484070554432
-0.020323160632289092   -0.005798311689195316   -0.0004902484070554432
-0.016693906654269536   -0.009709080451350579   0.003797993126903424
-0.016693906654269536   -0.009709080451350579   0.003797993126903424
-0.016693906654269536   -0.009709080451350579   0.003797993126903424
-0.016693906654269536   -0.009709080451350579   0.003797993126903424
-0.021210666763978876   -0.01802493994019486   0.0072988491854951805
-0.021210666763978876   -0.01802493994019486   0.0072988491854951805
-0.021210666763978876   -0.01802493994019486   0.0072988491854951805
-0.021210666763978876   -0.01802493994019486   0.0072988491854951805
-0.013883328099762697   -0.004781338362846577   -0.0018452143078381438
-0.013883328099762697   -0.004781338362846577   -0.0018452143078381438
-0.013883328099762697   -0.004781338362846577   -0.0018452143078381438
-0.013883328099762697   -0.004781338362846577   -0.0018452143078381438
-0.014157849201961024   -0.01884119603021857   0.0043897239522578515
-0.014157849201961024   -0.01884119603021857   0.0043897239522578515
-0.014157849201961024   -0.01884119603021857   0.0043897239522578515
-0.014157849201961024   -0.01884119603021857   0.0043897239522578515
-0.020904523438295238   -0.009217867217804085   0.001994840635267961
-0.020904523438295238   -0.009217867217804085   0.001994840635267961
-0.020904523438295238   -0.009217867217804085   0.001994840635267961
-0.020904523438295238   -0.009217867217804085   0.001994840635267961
-0.015735273768247862   -0.01122035919748874   0.004249052551473798
-0.015735273768247862   -0.01122035919748874   0.004249052551473798
-0.015735273768247862   -0.01122035919748874   0.004249052551473798
-0.015735273768247862   -0.01122035919748874   0.004249052551473798
-0.021690545894353996   -0.01954692327642861   0.008393784413600627
-0.021690545894353996   -0.01954692327642861   0.008393784413600627
-0.021690545894353996   -0.01954692327642861   0.008393784413600627
-0.021690545894353996   -0.01954692327642861   0.008393784413600627
-0.01357877651518295   -0.008719089740874406   -0.00283701890319594
-0.01357877651518295   -0.008719089740874406   -0.00283701890319594
-0.01357877651518295   -0.008719089740874406   -0.00283701890319594
-0.01357877651518295   -0.008719089740874406   -0.00283701890319594
-0.012436681415476582   -0.020526207248645425   0.0048771659799257926
-0.012436681415476582   -0.020526207248645425   0.0048771659799257926
-0.012436681415476582   -0.020526207248645425   0.0048771659799257926
-0.012436681415476582   -0.020526207248645425   0.0048771659799257926
-0.023306048904245952   -0.017028135286336697   0.002547286752769732
-0.023306048904245952   -0.017028135286336697   0.002547286752769732
-0.023306048904245952   -0.017028135286336697   0.002547286752769732
-0.023306048904245952   -0.017028135286336697   0.002547286752769732
-0.015664026884524597   -0.013991198465833816   0.0033366244898449847
-0.015664026884524597   -0.013991198465833816   0.0033366244898449847
-0.015664026884524597   -0.013991198465833816   0.0033366244898449847
-0.015664026884524597   -0.013991198465833816   0.0033366244898449847
-0.014073988995018348   -0.002499568720506622   0.007861754717479926
-0.014073988995018348   -0.002499568720506622   0.007861754717479926
-0.014073988995018348   -0.002499568720506622   0.007861754717479926
-0.014073988995018348   -0.002499568720506622   0.007861754717479926
-0.0033415851719528185   0.0011760178674949044   -0.0001595443849699195
-0.0033415851719528185   0.0011760178674949044   -0.0001595443849699195
-0.0033415851719528185   0.0011760178674949044   -0.0001595443849699195
-0.0033415851719528185   0.0011760178674949044   -0.0001595443849699195
-0.00021341365482925145   -0.0008896192900672798   0.004972149295226407
-0.00021341365482925145   -0.0008896192900672798   0.004972149295226407
-0.00021341365482925145   -0.0008896192900672798   0.004972149295226407
-0.00021341365482925145   -0.0008896192900672798   0.004972149295226407
-0.012499675984805406   0.0005739794904437777   -0.0002822715863420391
-0.012499675984805406   0.0005739794904437777   -0.0002822715863420391
-0.012499675984805406   0.0005739794904437777   -0.0002822715863420391
-0.012499675984805406   0.0005739794904437777   -0.0002822715863420391
-0.007608331029951961   -0.0006691437175835059   -0.0005137675318813666
-0.007608331029951961   -0.0006691437175835059   -0.0005137675318813666
-0.007608331029951961   -0.0006691437175835059   -0.0005137675318813666
-0.007608331029951961   -0.0006691437175835059   -0.0005137675318813666
-0.011412195467209986   -0.0024816528443107845   0.008210763336389617
-0.011412195467209986   -0.0024816528443107845   0.008210763336389617
-0.011412195467209986   -0.0024816528443107845   0.008210763336389617
-0.011412195467209986   -0.0024816528443107845   0.008210763336389617
-0.0009019361055060714   0.0025649711116058813   -0.0019250533598308536
-0.0009019361055060714   0.0025649711116058813   -0.0019250533598308536
-0.0009019361055060714   0.0025649711116058813   -0.0019250533598308536
-0.0009019361055060714   0.0025649711116058813   -0.0019250533598308536
0.0011526086252693162   -0.0011426533435217377   0.006148327069399629
0.0011526086252693162   -0.0011426533435217377   0.006148327069399629
0.0011526086252693162   -0.0011426533435217377   0.006148327069399629
0.0011526086252693162   -0.0011426533435217377   0.006148327069399629
-0.011339603390824033   1.663222600444209e-05   -0.0003768752482801955
-0.011339603390824033   1.663222600444209e-05   -0.0003768752482801955
-0.011339603390824033   1.663222600444209e-05   -0.0003768752482801955
-0.011339603390824033   1.663222600444209e-05   -0.0003768752482801955
-0.005519132463059018   -0.00036964079063616154   0.0006820972873401817
-0.005519132463059018   -0.00036964079063616154   0.0006820972873401817
-0.005519132463059018   -0.00036964079063616154   0.0006820972873401817
-0.005519132463059018   -0.00036964079063616154   0.0006820972873401817
-0.010056476643105682   -0.002835881389844232   0.008891272106160236
-0.010056476643105682   -0.002835881389844232   0.008891272106160236
-0.010056476643105682   -0.002835881389844232   0.008891272106160236
-0.010056476643105682   -0.002835881389844232   0.008891272106160236
0.0001897440123078462   0.0020301224070841378   -0.0018387717460135958
0.0001897440123078462   0.0020301224070841378   -0.0018387717460135958
0.0001897440123078462   0.0020301224070841378   -0.0018387717460135958
0.0001897440123078462   0.0020301224070841378   -0.0018387717460135958
0.0023523182069664222   -0.001946576142566955   0.006048593706261908
0.0023523182069664222   -0.001946576142566955   0.006048593706261908
0.0023523182069664222   -0.001946576142566955   0.006048593706261908
0.0023523182069664222   -0.001946576142566955   0.006048593706261908
-0.00949834906193448   -0.000566886697198134   -0.00039049280381099155
-0.00949834906193448   -0.000566886697198134   -0.00039049280381099155
-0.00949834906193448   -0.000566886697198134   -0.00039049280381099155
-0.00949834906193448   -0.000566886697198134   -0.00039049280381099155
-0.0037309098400063454   -0.00031743081901718274   0.0016266556488366884
-0.0037309098400063454   -0.00031743081901718274   0.0016266556488366884
-0.0037309098400063454   -0.00031743081901718274   0.0016266556488366884
-0.0037309098400063454   -0.00031743081901718274   0.0016266556488366884
              </DataArray>   
             <DataArray type="Float64" NumberOfComponents="3" Name="Displacements" format="ascii">   
0.0   0.0   0.0
-0.0012764379319285793   -0.0008472885273222603   -0.00042820432395452256
0.0   0.0   0.0
0.0   0.0   0.0
-0.0012764379319285793   -0.0008472885273222603   -0.00042820432395452256
-0.0008112765137483265   -0.0007632067323966575   -0.0003147183452417182
0.0   0.0   0.0
-0.0007945801714610944   -0.000800932308524192   -0.0002638752789495349
0.0   0.0   0.0
0.0   0.0   0.0
-0.0007945801714610944   -0.000800932308524192   -0.0002638752789495349
0.0   0.0   0.0
0.0   0.0   0.0
-0.0007945801714610944   -0.000800932308524192   -0.0002638752789495349
-0.0013350465400415528   -0.0009021978842275667   -0.00034410226122320983
-0.0012764379319285793   -0.0008472885273222603   -0.00042820432395452256
0.0   0.0   0.0
-0.0007945801714610944   -0.000800932308524192   -0.0002638752789495349
-0.0012764379319285793   -0.0008472885273222603   -0.00042820432395452256
0.0   0.0   0.0
0.0   0.0   0.0
-0.0013350465400415528   -0.0009021978842275667   -0.00034410226122320983
0.0   0.0   0.0
0.0   0.0   0.0
-0.0013350465400415528   -0.0009021978842275667   -0.00034410226122320983
-0.0007945801714610944   -0.000800932308524192   -0.0002638752789495349
0.0   0.0   0.0
-0.0007961160905698294   -0.0008203465751509233   -0.00021318582121915245
0.0   0.0   0.0
0.0   0.0   0.0
-0.0007961160905698294   -0.0008203465751509233   -0.00021318582121915245
0.0   0.0   0.0
0.0   0.0   0.0
-0.0007961160905698294   -0.0008203465751509233   -0.00021318582121915245
-0.0013758831684198972   -0.0009289362856759714   -0.0002636719500579161
-0.0013350465400415528   -0.0009021978842275667   -0.00034410226122320983
0.0   0.0   0.0
-0.0007961160905698294   -0.0008203465751509233   -0.00021318582121915245
-0.0013350465400415528   -0.0009021978842275667   -0.00034410226122320983
0.0   0.0   0.0
0.0   0.0   0.0
-0.0013758831684198972   -0.0009289362856759714   -0.0002636719500579161
0.0   0.0   0.0
0.0   0.0   0.0
-0.0013758831684198972   -0.0009289362856759714   -0.0002636719500579161
-0.0007961160905698294   -0.0008203465751509233   -0.00021318582121915245
0.0   0.0   0.0
-0.0007949029728295491   -0.0008254464286451267   -0.00016087246840003125
0.0   0.0   0.0
0.0   0.0   0.0
-0.0007949029728295491   -0.0008254464286451267   -0.00016087246840003125
0.0   0.0   0.0
0.0   0.0   0.0
-0.0007949029728295491   -0.0008254464286451267   -0.00016087246840003125
-0.0014645560896721671   -0.000949461227077575   -0.00017046059450691575
-0.0013758831684198972   -0.0009289362856759714   -0.0002636719500579161
0.0   0.0   0.0
-0.0007949029728295491   -0.0008254464286451267   -0.00016087246840003125
-0.0013758831684198972   -0.0009289362856759714   -0.0002636719500579161
0.0   0.0   0.0
0.0   0.0   0.0
-0.0008112765137483265   -0.0007632067323966575   -0.0003147183452417182
0.0   0.0   0.0
0.0   0.0   0.0
-0.0008112765137483265   -0.0007632067323966575   -0.0003147183452417182
-0.00037027492032706193   -0.0007325156876433992   -0.0002396836263372291
0.0   0.0   0.0
-0.00035543812080444264   -0.0007569870372858607   -0.0002155962195978709
0.0   0.0   0.0
0.0   0.0   0.0
-0.00035543812080444264   -0.0007569870372858607   -0.0002155962195978709
0.0   0.0   0.0
0.0   0.0   0.0
-0.00035543812080444264   -0.0007569870372858607   -0.0002155962195978709
-0.0007945801714610944   -0.000800932308524192   -0.0002638752789495349
-0.0008112765137483265   -0.0007632067323966575   -0.0003147183452417182
0.0   0.0   0.0
-0.00035543812080444264   -0.0007569870372858607   -0.0002155962195978709
-0.0008112765137483265   -0.0007632067323966575   -0.0003147183452417182
0.0   0.0   0.0
0.0   0.0   0.0
-0.0007945801714610944   -0.000800932308524192   -0.0002638752789495349
0.0   0.0   0.0
0.0   0.0   0.0
-0.0007945801714610944   -0.000800932308524192   -0.0002638752789495349
-0.00035543812080444264   -0.0007569870372858607   -0.0002155962195978709
0.0   0.0   0.0
-0.0003468171566193918   -0.0007663434846585637   -0.0001922170147552114
0.0   0.0   0.0
0.0   0.0   0.0
-0.0003468171566193918   -0.0007663434846585637   -0.0001922170147552114
0.0   0.0   0.0
0.0   0.0   0.0
-0.0003468171566193918   -0.0007663434846585637   -0.0001922170147552114
-0.0007961160905698294   -0.0008203465751509233   -0.00021318582121915245
-0.0007945801714610944   -0.000800932308524192   -0.0002638752789495349
0.0   0.0   0.0
-0.0003468171566193918   -0.0007663434846585637   -0.0001922170147552114
-0.0007945801714610944   -0.000800932308524192   -0.0002638752789495349
0.0   0.0   0.0
0.0   0.0   0.0
-0.0007961160905698294   -0.0008203465751509233   -0.00021318582121915245
0.0   0.0   0.0
0.0   0.0   0.0
-0.0007961160905698294   -0.0008203465751509233   -0.00021318582121915245
-0.0003468171566193918   -0.0007663434846585637   -0.0001922170147552114
0.0   0.0   0.0
-0.00033885064174034405   -0.0007625072039310009   -0.000168129735197084
0.0   0.0   0.0
0.0   0.0   0.0
-0.00033885064174034405   -0.0007625072039310009   -0.000168129735197084
0.0   0.0   0.0
0.0   0.0   0.0
-0.00033885064174034405   -0.0007625072039310009   -0.000168129735197084
-0.0007949029728295491   -0.0008254464286451267   -0.00016087246840003125
-0.0007961160905698294   -0.0008203465751509233   -0.00021318582121915245
0.0   0.0   0.0
-0.00033885064174034405   -0.0007625072039310009   -0.000168129735197084
-0.0007961160905698294   -0.0008203465751509233   -0.00021318582121915245
0.0   0.0   0.0
0.0   0.0   0.0
-0.00037027492032706193   -0.0007325156876433992   -0.0002396836263372291
0.0   0.0   0.0
0.0   0.0   0.0
-0.00037027492032706193   -0.0007325156876433992   -0.0002396836263372291
4.578627773136878e-05   -0.0007365581891371148   -0.00019207540712420747
0.0   0.0   0.0
5.558336039185575e-05   -0.0007491476518938515   -0.00019520501151186178
0.0   0.0   0.0
0.0   0.0   0.0
5.558336039185575e-05   -0.0007491476518938515   -0.00019520501151186178
0.0   0.0   0.0
0.0   0.0   0.0
5.558336039185575e-05   -0.0007491476518938515   -0.00019520501151186178
-0.00035543812080444264   -0.0007569870372858607   -0.0002155962195978709
-0.00037027492032706193   -0.0007325156876433992   -0.0002396836263372291
0.0   0.0   0.0
5.558336039185575e-05   -0.0007491476518938515   -0.00019520501151186178
-0.00037027492032706193   -0.0007325156876433992   -0.0002396836263372291
0.0   0.0   0.0
0.0   0.0   0.0
-0.00035543812080444264   -0.0007569870372858607   -0.0002155962195978709
0.0   0.0   0.0
0.0   0.0   0.0
-0.00035543812080444264   -0.0007569870372858607   -0.0002155962195978709
5.558336039185575e-05   -0.0007491476518938515   -0.00019520501151186178
0.0   0.0   0.0
6.340901371598895e-05   -0.0007480217486929895   -0.00019810023203462878
0.0   0.0   0.0
0.0   0.0   0.0
6.340901371598895e-05   -0.0007480217486929895   -0.00019810023203462878
0.0   0.0   0.0
0.0   0.0   0.0
6.340901371598895e-05   -0.0007480217486929895   -0.00019810023203462878
-0.0003468171566193918   -0.0007663434846585637   -0.0001922170147552114
-0.00035543812080444264   -0.0007569870372858607   -0.0002155962195978709
0.0   0.0   0.0
6.340901371598895e-05   -0.0007480217486929895   -0.00019810023203462878
-0.00035543812080444264   -0.0007569870372858607   -0.0002155962195978709
0.0   0.0   0.0
0.0   0.0   0.0
-0.0003468171566193918   -0.0007663434846585637   -0.0001922170147552114
0.0   0.0   0.0
0.0   0.0   0.0
-0.0003468171566193918   -0.0007663434846585637   -0.0001922170147552114
6.340901371598895e-05   -0.0007480217486929895   -0.00019810023203462878
0.0   0.0   0.0
7.370445931890078e-05   -0.000732069382302658   -0.0002011584108103041
0.0   0.0   0.0
0.0   0.0   0.0
7.370445931890078e-05   -0.000732069382302658   -0.0002011584108103041
0.0   0.0   0.0
0.0   0.0   0.0
7.370445931890078e-05   -0.000732069382302658   -0.0002011584108103041
-0.00033885064174034405   -0.0007625072039310009   -0.000168129735197084
-0.0003468171566193918   -0.0007663434846585637   -0.0001922170147552114
0.0   0.0   0.0
7.370445931890078e-05   -0.000732069382302658   -0.0002011584108103041
-0.0003468171566193918   -0.0007663434846585637   -0.0001922170147552114
0.0   0.0   0.0
0.0   0.0   0.0
4.578627773136878e-05   -0.0007365581891371148   -0.00019207540712420747
0.0   0.0   0.0
0.0   0.0   0.0
4.578627773136878e-05   -0.0007365581891371148   -0.00019207540712420747
0.0004980141563257527   -0.0007716076019921069   -0.00016880155743751612
0.0   0.0   0.0
0.0004997776345328907   -0.0007754510501500364   -0.0002005759691350569
0.0   0.0   0.0
0.0   0.0   0.0
0.0004997776345328907   -0.0007754510501500364   -0.0002005759691350569
0.0   0.0   0.0
0.0   0.0   0.0
0.0004997776345328907   -0.0007754510501500364   -0.0002005759691350569
5.558336039185575e-05   -0.0007491476518938515   -0.00019520501151186178
4.578627773136878e-05   -0.0007365581891371148   -0.00019207540712420747
0.0   0.0   0.0
0.0004997776345328907   -0.0007754510501500364   -0.0002005759691350569
4.578627773136878e-05   -0.0007365581891371148   -0.00019207540712420747
0.0   0.0   0.0
0.0   0.0   0.0
5.558336039185575e-05   -0.0007491476518938515   -0.00019520501151186178
0.0   0.0   0.0
0.0   0.0   0.0
5.558336039185575e-05   -0.0007491476518938515   -0.00019520501151186178
0.0004997776345328907   -0.0007754510501500364   -0.0002005759691350569
0.0   0.0   0.0
0.0004983937387066425   -0.000764384191515729   -0.00023115676665087193
0.0   0.0   0.0
0.0   0.0   0.0
0.0004983937387066425   -0.000764384191515729   -0.00023115676665087193
0.0   0.0   0.0
0.0   0.0   0.0
0.0004983937387066425   -0.000764384191515729   -0.00023115676665087193
6.340901371598895e-05   -0.0007480217486929895   -0.00019810023203462878
5.558336039185575e-05   -0.0007491476518938515   -0.00019520501151186178
0.0   0.0   0.0
0.0004983937387066425   -0.000764384191515729   -0.00023115676665087193
5.558336039185575e-05   -0.0007491476518938515   -0.00019520501151186178
0.0   0.0   0.0
0.0   0.0   0.0
6.340901371598895e-05   -0.0007480217486929895   -0.00019810023203462878
0.0   0.0   0.0
0.0   0.0   0.0
6.340901371598895e-05   -0.0007480217486929895   -0.00019810023203462878
0.0004983937387066425   -0.000764384191515729   -0.00023115676665087193
0.0   0.0   0.0
0.0005087730979834691   -0.000735101063499742   -0.000261233642122573
0.0   0.0   0.0
0.0   0.0   0.0
0.0005087730979834691   -0.000735101063499742   -0.000261233642122573
0.0   0.0   0.0
0.0   0.0   0.0
0.0005087730979834691   -0.000735101063499742   -0.000261233642122573
7.370445931890078e-05   -0.000732069382302658   -0.0002011584108103041
6.340901371598895e-05   -0.0007480217486929895   -0.00019810023203462878
0.0   0.0   0.0
0.0005087730979834691   -0.000735101063499742   -0.000261233642122573
6.340901371598895e-05   -0.0007480217486929895   -0.00019810023203462878
0.0   0.0   0.0
0.0   0.0   0.0
0.0004980141563257527   -0.0007716076019921069   -0.00016880155743751612
0.0   0.0   0.0
0.0   0.0   0.0
0.0004980141563257527   -0.0007716076019921069   -0.00016880155743751612
0.0011289800047771701   -0.0008608120701881725   -0.00015995672974734296
0.0   0.0   0.0
0.0010614347787784154   -0.0008510716393990428   -0.00023227510564973895
0.0   0.0   0.0
0.0   0.0   0.0
0.0010614347787784154   -0.0008510716393990428   -0.00023227510564973895
0.0   0.0   0.0
0.0   0.0   0.0
0.0010614347787784154   -0.0008510716393990428   -0.00023227510564973895
0.0004997776345328907   -0.0007754510501500364   -0.0002005759691350569
0.0004980141563257527   -0.0007716076019921069   -0.00016880155743751612
0.0   0.0   0.0
0.0010614347787784154   -0.0008510716393990428   -0.00023227510564973895
0.0004980141563257527   -0.0007716076019921069   -0.00016880155743751612
0.0   0.0   0.0
0.0   0.0   0.0
0.0004997776345328907   -0.0007754510501500364   -0.0002005759691350569
0.0   0.0   0.0
0.0   0.0   0.0
0.0004997776345328907   -0.0007754510501500364   -0.0002005759691350569
0.0010614347787784154   -0.0008510716393990428   -0.00023227510564973895
0.0   0.0   0.0
0.0010306287135292695   -0.0008333856878841786   -0.00029350792395002953
0.0   0.0   0.0
0.0   0.0   0.0
0.0010306287135292695   -0.0008333856878841786   -0.00029350792395002953
0.0   0.0   0.0
0.0   0.0   0.0
0.0010306287135292695   -0.0008333856878841786   -0.00029350792395002953
0.0004983937387066425   -0.000764384191515729   -0.00023115676665087193
0.0004997776345328907   -0.0007754510501500364   -0.0002005759691350569
0.0   0.0   0.0
0.0010306287135292695   -0.0008333856878841786   -0.00029350792395002953
0.0004997776345328907   -0.0007754510501500364   -0.0002005759691350569
0.0   0.0   0.0
0.0   0.0   0.0
0.0004983937387066425   -0.000764384191515729   -0.00023115676665087193
0.0   0.0   0.0
0.0   0.0   0.0
0.0004983937387066425   -0.000764384191515729   -0.00023115676665087193
0.0010306287135292695   -0.0008333856878841786   -0.00029350792395002953
0.0   0.0   0.0
0.0009842383413049512   -0.0007884036717046933   -0.0003584786898289525
0.0   0.0   0.0
0.0   0.0   0.0
0.0009842383413049512   -0.0007884036717046933   -0.0003584786898289525
0.0   0.0   0.0
0.0   0.0   0.0
0.0009842383413049512   -0.0007884036717046933   -0.0003584786898289525
0.0005087730979834691   -0.000735101063499742   -0.000261233642122573
0.0004983937387066425   -0.000764384191515729   -0.00023115676665087193
0.0   0.0   0.0
0.0009842383413049512   -0.0007884036717046933   -0.0003584786898289525
0.0004983937387066425   -0.000764384191515729   -0.00023115676665087193
0.0   0.0   0.0
-0.0012764379319285793   -0.0008472885273222603   -0.00042820432395452256
-0.002376851886143818   -0.0023509291140670226   -0.0005772577030829453
-0.0008112765137483265   -0.0007632067323966575   -0.0003147183452417182
-0.0013350465400415528   -0.0009021978842275667   -0.00034410226122320983
-0.002376851886143818   -0.0023509291140670226   -0.0005772577030829453
-0.0015167190591454526   -0.002275572895199981   -0.00047589652609307846
-0.0008112765137483265   -0.0007632067323966575   -0.0003147183452417182
-0.0015173936094019962   -0.0023140281205005346   -0.00042906451493554044
-0.0013350465400415528   -0.0009021978842275667   -0.00034410226122320983
-0.0007945801714610944   -0.000800932308524192   -0.0002638752789495349
-0.0015173936094019962   -0.0023140281205005346   -0.00042906451493554044
-0.0008112765137483265   -0.0007632067323966575   -0.0003147183452417182
-0.0013350465400415528   -0.0009021978842275667   -0.00034410226122320983
-0.0015173936094019962   -0.0023140281205005346   -0.00042906451493554044
-0.0024465802356701534   -0.0024047066552051353   -0.0005013781245285537
-0.002376851886143818   -0.0023509291140670226   -0.0005772577030829453
-0.0013350465400415528   -0.0009021978842275667   -0.00034410226122320983
-0.0015173936094019962   -0.0023140281205005346   -0.00042906451493554044
-0.002376851886143818   -0.0023509291140670226   -0.0005772577030829453
-0.0008112765137483265   -0.0007632067323966575   -0.0003147183452417182
-0.0013350465400415528   -0.0009021978842275667   -0.00034410226122320983
-0.0024465802356701534   -0.0024047066552051353   -0.0005013781245285537
-0.0007945801714610944   -0.000800932308524192   -0.0002638752789495349
-0.0013758831684198972   -0.0009289362856759714   -0.0002636719500579161
-0.0024465802356701534   -0.0024047066552051353   -0.0005013781245285537
-0.0015173936094019962   -0.0023140281205005346   -0.00042906451493554044
-0.0007945801714610944   -0.000800932308524192   -0.0002638752789495349
-0.0015221689291057554   -0.0023375733421953835   -0.00038413365922961197
-0.0013758831684198972   -0.0009289362856759714   -0.0002636719500579161
-0.0007961160905698294   -0.0008203465751509233   -0.00021318582121915245
-0.0015221689291057554   -0.0023375733421953835   -0.00038413365922961197
-0.0007945801714610944   -0.000800932308524192   -0.0002638752789495349
-0.0013758831684198972   -0.0009289362856759714   -0.0002636719500579161
-0.0015221689291057554   -0.0023375733421953835   -0.00038413365922961197
-0.002494555472172808   -0.0024351763084287255   -0.0004271795933801124
-0.0024465802356701534   -0.0024047066552051353   -0.0005013781245285537
-0.0013758831684198972   -0.0009289362856759714   -0.0002636719500579161
-0.0015221689291057554   -0.0023375733421953835   -0.00038413365922961197
-0.0024465802356701534   -0.0024047066552051353   -0.0005013781245285537
-0.0007945801714610944   -0.000800932308524192   -0.0002638752789495349
-0.0013758831684198972   -0.0009289362856759714   -0.0002636719500579161
-0.002494555472172808   -0.0024351763084287255   -0.0004271795933801124
-0.0007961160905698294   -0.0008203465751509233   -0.00021318582121915245
-0.0014645560896721671   -0.000949461227077575   -0.00017046059450691575
-0.002494555472172808   -0.0024351763084287255   -0.0004271795933801124
-0.0015221689291057554   -0.0023375733421953835   -0.00038413365922961197
-0.0007961160905698294   -0.0008203465751509233   -0.00021318582121915245
-0.0015163883503077516   -0.0023499622202767276   -0.0003421495401659322
-0.0014645560896721671   -0.000949461227077575   -0.00017046059450691575
-0.0007949029728295491   -0.0008254464286451267   -0.00016087246840003125
-0.0015163883503077516   -0.0023499622202767276   -0.0003421495401659322
-0.0007961160905698294   -0.0008203465751509233   -0.00021318582121915245
-0.0014645560896721671   -0.000949461227077575   -0.00017046059450691575
-0.0015163883503077516   -0.0023499622202767276   -0.0003421495401659322
-0.002551209095706093   -0.0024531968397699766   -0.00035983416775888996
-0.002494555472172808   -0.0024351763084287255   -0.0004271795933801124
-0.0014645560896721671   -0.000949461227077575   -0.00017046059450691575
-0.0015163883503077516   -0.0023499622202767276   -0.0003421495401659322
-0.002494555472172808   -0.0024351763084287255   -0.0004271795933801124
-0.0007961160905698294   -0.0008203465751509233   -0.00021318582121915245
-0.0008112765137483265   -0.0007632067323966575   -0.0003147183452417182
-0.0015167190591454526   -0.002275572895199981   -0.00047589652609307846
-0.00037027492032706193   -0.0007325156876433992   -0.0002396836263372291
-0.0007945801714610944   -0.000800932308524192   -0.0002638752789495349
-0.0015167190591454526   -0.002275572895199981   -0.00047589652609307846
-0.0007056892782566431   -0.0022405004176712004   -0.00040681018500316553
-0.00037027492032706193   -0.0007325156876433992   -0.0002396836263372291
-0.0006984631543167371   -0.002264871281780503   -0.0003827062250369105
-0.0007945801714610944   -0.000800932308524192   -0.0002638752789495349
-0.00035543812080444264   -0.0007569870372858607   -0.0002155962195978709
-0.0006984631543167371   -0.002264871281780503   -0.0003827062250369105
-0.00037027492032706193   -0.0007325156876433992   -0.0002396836263372291
-0.0007945801714610944   -0.000800932308524192   -0.0002638752789495349
-0.0006984631543167371   -0.002264871281780503   -0.0003827062250369105
-0.0015173936094019962   -0.0023140281205005346   -0.00042906451493554044
-0.0015167190591454526   -0.002275572895199981   -0.00047589652609307846
-0.0007945801714610944   -0.000800932308524192   -0.0002638752789495349
-0.0006984631543167371   -0.002264871281780503   -0.0003827062250369105
-0.0015167190591454526   -0.002275572895199981   -0.00047589652609307846
-0.00037027492032706193   -0.0007325156876433992   -0.0002396836263372291
-0.0007945801714610944   -0.000800932308524192   -0.0002638752789495349
-0.0015173936094019962   -0.0023140281205005346   -0.00042906451493554044
-0.00035543812080444264   -0.0007569870372858607   -0.0002155962195978709
-0.0007961160905698294   -0.0008203465751509233   -0.00021318582121915245
-0.0015173936094019962   -0.0023140281205005346   -0.00042906451493554044
-0.0006984631543167371   -0.002264871281780503   -0.0003827062250369105
-0.00035543812080444264   -0.0007569870372858607   -0.0002155962195978709
-0.0006919314684824599   -0.0022767298827091934   -0.00036090422374328177
-0.0007961160905698294   -0.0008203465751509233   -0.00021318582121915245
-0.0003468171566193918   -0.0007663434846585637   -0.0001922170147552114
-0.0006919314684824599   -0.0022767298827091934   -0.00036090422374328177
-0.00035543812080444264   -0.0007569870372858607   -0.0002155962195978709
-0.0007961160905698294   -0.0008203465751509233   -0.00021318582121915245
-0.0006919314684824599   -0.0022767298827091934   -0.00036090422374328177
-0.0015221689291057554   -0.0023375733421953835   -0.00038413365922961197
-0.0015173936094019962   -0.0023140281205005346   -0.00042906451493554044
-0.0007961160905698294   -0.0008203465751509233   -0.00021318582121915245
-0.0006919314684824599   -0.0022767298827091934   -0.00036090422374328177
-0.0015173936094019962   -0.0023140281205005346   -0.00042906451493554044
-0.00035543812080444264   -0.0007569870372858607   -0.0002155962195978709
-0.0007961160905698294   -0.0008203465751509233   -0.00021318582121915245
-0.0015221689291057554   -0.0023375733421953835   -0.00038413365922961197
-0.0003468171566193918   -0.0007663434846585637   -0.0001922170147552114
-0.0007949029728295491   -0.0008254464286451267   -0.00016087246840003125
-0.0015221689291057554   -0.0023375733421953835   -0.00038413365922961197
-0.0006919314684824599   -0.0022767298827091934   -0.00036090422374328177
-0.0003468171566193918   -0.0007663434846585637   -0.0001922170147552114
-0.0006827150921753064   -0.002276520337242473   -0.0003419807441638988
-0.0007949029728295491   -0.0008254464286451267   -0.00016087246840003125
-0.00033885064174034405   -0.0007625072039310009   -0.000168129735197084
-0.0006827150921753064   -0.002276520337242473   -0.0003419807441638988
-0.0003468171566193918   -0.0007663434846585637   -0.0001922170147552114
-0.0007949029728295491   -0.0008254464286451267   -0.00016087246840003125
-0.0006827150921753064   -0.002276520337242473   -0.0003419807441638988
-0.0015163883503077516   -0.0023499622202767276   -0.0003421495401659322
-0.0015221689291057554   -0.0023375733421953835   -0.00038413365922961197
-0.0007949029728295491   -0.0008254464286451267   -0.00016087246840003125
-0.0006827150921753064   -0.002276520337242473   -0.0003419807441638988
-0.0015221689291057554   -0.0023375733421953835   -0.00038413365922961197
-0.0003468171566193918   -0.0007663434846585637   -0.0001922170147552114
-0.00037027492032706193   -0.0007325156876433992   -0.0002396836263372291
-0.0007056892782566431   -0.0022405004176712004   -0.00040681018500316553
4.578627773136878e-05   -0.0007365581891371148   -0.00019207540712420747
-0.00035543812080444264   -0.0007569870372858607   -0.0002155962195978709
-0.0007056892782566431   -0.0022405004176712004   -0.00040681018500316553
7.566341683752841e-05   -0.0022416129221085814   -0.00036338785561301247
4.578627773136878e-05   -0.0007365581891371148   -0.00019207540712420747
8.434744254228622e-05   -0.002252994007103178   -0.0003615813297346179
-0.00035543812080444264   -0.0007569870372858607   -0.0002155962195978709
5.558336039185575e-05   -0.0007491476518938515   -0.00019520501151186178
8.434744254228622e-05   -0.002252994007103178   -0.0003615813297346179
4.578627773136878e-05   -0.0007365581891371148   -0.00019207540712420747
-0.00035543812080444264   -0.0007569870372858607   -0.0002155962195978709
8.434744254228622e-05   -0.002252994007103178   -0.0003615813297346179
-0.0006984631543167371   -0.002264871281780503   -0.0003827062250369105
-0.0007056892782566431   -0.0022405004176712004   -0.00040681018500316553
-0.00035543812080444264   -0.0007569870372858607   -0.0002155962195978709
8.434744254228622e-05   -0.002252994007103178   -0.0003615813297346179
-0.0007056892782566431   -0.0022405004176712004   -0.00040681018500316553
4.578627773136878e-05   -0.0007365581891371148   -0.00019207540712420747
-0.00035543812080444264   -0.0007569870372858607   -0.0002155962195978709
-0.0006984631543167371   -0.002264871281780503   -0.0003827062250369105
5.558336039185575e-05   -0.0007491476518938515   -0.00019520501151186178
-0.0003468171566193918   -0.0007663434846585637   -0.0001922170147552114
-0.0006984631543167371   -0.002264871281780503   -0.0003827062250369105
8.434744254228622e-05   -0.002252994007103178   -0.0003615813297346179
5.558336039185575e-05   -0.0007491476518938515   -0.00019520501151186178
9.055182328364549e-05   -0.002252152184318605   -0.0003623831567948499
-0.0003468171566193918   -0.0007663434846585637   -0.0001922170147552114
6.340901371598895e-05   -0.0007480217486929895   -0.00019810023203462878
9.055182328364549e-05   -0.002252152184318605   -0.0003623831567948499
5.558336039185575e-05   -0.0007491476518938515   -0.00019520501151186178
-0.0003468171566193918   -0.0007663434846585637   -0.0001922170147552114
9.055182328364549e-05   -0.002252152184318605   -0.0003623831567948499
-0.0006919314684824599   -0.0022767298827091934   -0.00036090422374328177
-0.0006984631543167371   -0.002264871281780503   -0.0003827062250369105
-0.0003468171566193918   -0.0007663434846585637   -0.0001922170147552114
9.055182328364549e-05   -0.002252152184318605   -0.0003623831567948499
-0.0006984631543167371   -0.002264871281780503   -0.0003827062250369105
5.558336039185575e-05   -0.0007491476518938515   -0.00019520501151186178
-0.0003468171566193918   -0.0007663434846585637   -0.0001922170147552114
-0.0006919314684824599   -0.0022767298827091934   -0.00036090422374328177
6.340901371598895e-05   -0.0007480217486929895   -0.00019810023203462878
-0.00033885064174034405   -0.0007625072039310009   -0.000168129735197084
-0.0006919314684824599   -0.0022767298827091934   -0.00036090422374328177
9.055182328364549e-05   -0.002252152184318605   -0.0003623831567948499
6.340901371598895e-05   -0.0007480217486929895   -0.00019810023203462878
9.712340305285502e-05   -0.0022387200204729875   -0.0003658331465554985
-0.00033885064174034405   -0.0007625072039310009   -0.000168129735197084
7.370445931890078e-05   -0.000732069382302658   -0.0002011584108103041
9.712340305285502e-05   -0.0022387200204729875   -0.0003658331465554985
6.340901371598895e-05   -0.0007480217486929895   -0.00019810023203462878
-0.00033885064174034405   -0.0007625072039310009   -0.000168129735197084
9.712340305285502e-05   -0.0022387200204729875   -0.0003658331465554985
-0.0006827150921753064   -0.002276520337242473   -0.0003419807441638988
-0.0006919314684824599   -0.0022767298827091934   -0.00036090422374328177
-0.00033885064174034405   -0.0007625072039310009   -0.000168129735197084
9.712340305285502e-05   -0.0022387200204729875   -0.0003658331465554985
-0.0006919314684824599   -0.0022767298827091934   -0.00036090422374328177
6.340901371598895e-05   -0.0007480217486929895   -0.00019810023203462878
4.578627773136878e-05   -0.0007365581891371148   -0.00019207540712420747
7.566341683752841e-05   -0.0022416129221085814   -0.00036338785561301247
0.0004980141563257527   -0.0007716076019921069   -0.00016880155743751612
5.558336039185575e-05   -0.0007491476518938515   -0.00019520501151186178
7.566341683752841e-05   -0.0022416129221085814   -0.00036338785561301247
0.0009043104987575005   -0.0022776265061089577   -0.0003435392384028701
0.0004980141563257527   -0.0007716076019921069   -0.00016880155743751612
0.0009098755173169221   -0.002277157754356553   -0.0003647452963427317
5.558336039185575e-05   -0.0007491476518938515   -0.00019520501151186178
0.0004997776345328907   -0.0007754510501500364   -0.0002005759691350569
0.0009098755173169221   -0.002277157754356553   -0.0003647452963427317
0.0004980141563257527   -0.0007716076019921069   -0.00016880155743751612
5.558336039185575e-05   -0.0007491476518938515   -0.00019520501151186178
0.0009098755173169221   -0.002277157754356553   -0.0003647452963427317
8.434744254228622e-05   -0.002252994007103178   -0.0003615813297346179
7.566341683752841e-05   -0.0022416129221085814   -0.00036338785561301247
5.558336039185575e-05   -0.0007491476518938515   -0.00019520501151186178
0.0009098755173169221   -0.002277157754356553   -0.0003647452963427317
7.566341683752841e-05   -0.0022416129221085814   -0.00036338785561301247
0.0004980141563257527   -0.0007716076019921069   -0.00016880155743751612
5.558336039185575e-05   -0.0007491476518938515   -0.00019520501151186178
8.434744254228622e-05   -0.002252994007103178   -0.0003615813297346179
0.0004997776345328907   -0.0007754510501500364   -0.0002005759691350569
6.340901371598895e-05   -0.0007480217486929895   -0.00019810023203462878
8.434744254228622e-05   -0.002252994007103178   -0.0003615813297346179
0.0009098755173169221   -0.002277157754356553   -0.0003647452963427317
0.0004997776345328907   -0.0007754510501500364   -0.0002005759691350569
0.0009069590460262958   -0.002264738026407337   -0.0003889014555968564
6.340901371598895e-05   -0.0007480217486929895   -0.00019810023203462878
0.0004983937387066425   -0.000764384191515729   -0.00023115676665087193
0.0009069590460262958   -0.002264738026407337   -0.0003889014555968564
0.0004997776345328907   -0.0007754510501500364   -0.0002005759691350569
6.340901371598895e-05   -0.0007480217486929895   -0.00019810023203462878
0.0009069590460262958   -0.002264738026407337   -0.0003889014555968564
9.055182328364549e-05   -0.002252152184318605   -0.0003623831567948499
8.434744254228622e-05   -0.002252994007103178   -0.0003615813297346179
6.340901371598895e-05   -0.0007480217486929895   -0.00019810023203462878
0.0009069590460262958   -0.002264738026407337   -0.0003889014555968564
8.434744254228622e-05   -0.002252994007103178   -0.0003615813297346179
0.0004997776345328907   -0.0007754510501500364   -0.0002005759691350569
6.340901371598895e-05   -0.0007480217486929895   -0.00019810023203462878
9.055182328364549e-05   -0.002252152184318605   -0.0003623831567948499
0.0004983937387066425   -0.000764384191515729   -0.00023115676665087193
7.370445931890078e-05   -0.000732069382302658   -0.0002011584108103041
9.055182328364549e-05   -0.002252152184318605   -0.0003623831567948499
0.0009069590460262958   -0.002264738026407337   -0.0003889014555968564
0.0004983937387066425   -0.000764384191515729   -0.00023115676665087193
0.0009057549225619592   -0.0022370223743227416   -0.00041510957044342
7.370445931890078e-05   -0.000732069382302658   -0.0002011584108103041
0.0005087730979834691   -0.000735101063499742   -0.000261233642122573
0.0009057549225619592   -0.0022370223743227416   -0.00041510957044342
0.0004983937387066425   -0.000764384191515729   -0.00023115676665087193
7.370445931890078e-05   -0.000732069382302658   -0.0002011584108103041
0.0009057549225619592   -0.0022370223743227416   -0.00041510957044342
9.712340305285502e-05   -0.0022387200204729875   -0.0003658331465554985
9.055182328364549e-05   -0.002252152184318605   -0.0003623831567948499
7.370445931890078e-05   -0.000732069382302658   -0.0002011584108103041
0.0009057549225619592   -0.0022370223743227416   -0.00041510957044342
9.055182328364549e-05   -0.002252152184318605   -0.0003623831567948499
0.0004983937387066425   -0.000764384191515729   -0.00023115676665087193
0.0004980141563257527   -0.0007716076019921069   -0.00016880155743751612
0.0009043104987575005   -0.0022776265061089577   -0.0003435392384028701
0.0011289800047771701   -0.0008608120701881725   -0.00015995672974734296
0.0004997776345328907   -0.0007754510501500364   -0.0002005759691350569
0.0009043104987575005   -0.0022776265061089577   -0.0003435392384028701
0.0019059225209945862   -0.002344338925343035   -0.0003390169302356766
0.0011289800047771701   -0.0008608120701881725   -0.00015995672974734296
0.0018690517772755415   -0.0023374558613117524   -0.0003868987852592652
0.0004997776345328907   -0.0007754510501500364   -0.0002005759691350569
0.0010614347787784154   -0.0008510716393990428   -0.00023227510564973895
0.0018690517772755415   -0.0023374558613117524   -0.0003868987852592652
0.0011289800047771701   -0.0008608120701881725   -0.00015995672974734296
0.0004997776345328907   -0.0007754510501500364   -0.0002005759691350569
0.0018690517772755415   -0.0023374558613117524   -0.0003868987852592652
0.0009098755173169221   -0.002277157754356553   -0.0003647452963427317
0.0009043104987575005   -0.0022776265061089577   -0.0003435392384028701
0.0004997776345328907   -0.0007754510501500364   -0.0002005759691350569
0.0018690517772755415   -0.0023374558613117524   -0.0003868987852592652
0.0009043104987575005   -0.0022776265061089577   -0.0003435392384028701
0.0011289800047771701   -0.0008608120701881725   -0.00015995672974734296
0.0004997776345328907   -0.0007754510501500364   -0.0002005759691350569
0.0009098755173169221   -0.002277157754356553   -0.0003647452963427317
0.0010614347787784154   -0.0008510716393990428   -0.00023227510564973895
0.0004983937387066425   -0.000764384191515729   -0.00023115676665087193
0.0009098755173169221   -0.002277157754356553   -0.0003647452963427317
0.0018690517772755415   -0.0023374558613117524   -0.0003868987852592652
0.0010614347787784154   -0.0008510716393990428   -0.00023227510564973895
0.0018359385109416434   -0.002318379468096012   -0.0004409725436168549
0.0004983937387066425   -0.000764384191515729   -0.00023115676665087193
0.0010306287135292695   -0.0008333856878841786   -0.00029350792395002953
0.0018359385109416434   -0.002318379468096012   -0.0004409725436168549
0.0010614347787784154   -0.0008510716393990428   -0.00023227510564973895
0.0004983937387066425   -0.000764384191515729   -0.00023115676665087193
0.0018359385109416434   -0.002318379468096012   -0.0004409725436168549
0.0009069590460262958   -0.002264738026407337   -0.0003889014555968564
0.0009098755173169221   -0.002277157754356553   -0.0003647452963427317
0.0004983937387066425   -0.000764384191515729   -0.00023115676665087193
0.0018359385109416434   -0.002318379468096012   -0.0004409725436168549
0.0009098755173169221   -0.002277157754356553   -0.0003647452963427317
0.0010614347787784154   -0.0008510716393990428   -0.00023227510564973895
0.0004983937387066425   -0.000764384191515729   -0.00023115676665087193
0.0009069590460262958   -0.002264738026407337   -0.0003889014555968564
0.0010306287135292695   -0.0008333856878841786   -0.00029350792395002953
0.0005087730979834691   -0.000735101063499742   -0.000261233642122573
0.0009069590460262958   -0.002264738026407337   -0.0003889014555968564
0.0018359385109416434   -0.002318379468096012   -0.0004409725436168549
0.0010306287135292695   -0.0008333856878841786   -0.00029350792395002953
0.0017855092294316766   -0.002276359254990834   -0.0004973877088331857
0.0005087730979834691   -0.000735101063499742   -0.000261233642122573
0.0009842383413049512   -0.0007884036717046933   -0.0003584786898289525
0.0017855092294316766   -0.002276359254990834   -0.0004973877088331857
0.0010306287135292695   -0.0008333856878841786   -0.00029350792395002953
0.0005087730979834691   -0.000735101063499742   -0.000261233642122573
0.0017855092294316766   -0.002276359254990834   -0.0004973877088331857
0.0009057549225619592   -0.0022370223743227416   -0.00041510957044342
0.0009069590460262958   -0.002264738026407337   -0.0003889014555968564
0.0005087730979834691   -0.000735101063499742   -0.000261233642122573
0.0017855092294316766   -0.002276359254990834   -0.0004973877088331857
0.0009069590460262958   -0.002264738026407337   -0.0003889014555968564
0.0010306287135292695   -0.0008333856878841786   -0.00029350792395002953
-0.002376851886143818   -0.0023509291140670226   -0.0005772577030829453
-0.003247609588507456   -0.004389870092703923   -0.0006585621301059774
-0.0015167190591454526   -0.002275572895199981   -0.00047589652609307846
-0.0024465802356701534   -0.0024047066552051353   -0.0005013781245285537
-0.003247609588507456   -0.004389870092703923   -0.0006585621301059774
-0.0020889862486101296   -0.00433259339706666   -0.0005769117810882616
-0.0015167190591454526   -0.002275572895199981   -0.00047589652609307846
-0.0020922023746422764   -0.004365587298296041   -0.0005407640291499716
-0.0024465802356701534   -0.0024047066552051353   -0.0005013781245285537
-0.0015173936094019962   -0.0023140281205005346   -0.00042906451493554044
-0.0020922023746422764   -0.004365587298296041   -0.0005407640291499716
-0.0015167190591454526   -0.002275572895199981   -0.00047589652609307846
-0.0024465802356701534   -0.0024047066552051353   -0.0005013781245285537
-0.0020922023746422764   -0.004365587298296041   -0.0005407640291499716
-0.003303485158793526   -0.0044350398180173   -0.0006023966921620702
-0.003247609588507456   -0.004389870092703923   -0.0006585621301059774
-0.0024465802356701534   -0.0024047066552051353   -0.0005013781245285537
-0.0020922023746422764   -0.004365587298296041   -0.0005407640291499716
-0.003247609588507456   -0.004389870092703923   -0.0006585621301059774
-0.0015167190591454526   -0.002275572895199981   -0.00047589652609307846
-0.0024465802356701534   -0.0024047066552051353   -0.0005013781245285537
-0.003303485158793526   -0.0044350398180173   -0.0006023966921620702
-0.0015173936094019962   -0.0023140281205005346   -0.00042906451493554044
-0.002494555472172808   -0.0024351763084287255   -0.0004271795933801124
-0.003303485158793526   -0.0044350398180173   -0.0006023966921620702
-0.0020922023746422764   -0.004365587298296041   -0.0005407640291499716
-0.0015173936094019962   -0.0023140281205005346   -0.00042906451493554044
-0.0020961559847620143   -0.004388659679501861   -0.0005072818538623224
-0.002494555472172808   -0.0024351763084287255   -0.0004271795933801124
-0.0015221689291057554   -0.0023375733421953835   -0.00038413365922961197
-0.0020961559847620143   -0.004388659679501861   -0.0005072818538623224
-0.0015173936094019962   -0.0023140281205005346   -0.00042906451493554044
-0.002494555472172808   -0.0024351763084287255   -0.0004271795933801124
-0.0020961559847620143   -0.004388659679501861   -0.0005072818538623224
-0.003338083916263633   -0.004463490360002007   -0.0005501337910582569
-0.003303485158793526   -0.0044350398180173   -0.0006023966921620702
-0.002494555472172808   -0.0024351763084287255   -0.0004271795933801124
-0.0020961559847620143   -0.004388659679501861   -0.0005072818538623224
-0.003303485158793526   -0.0044350398180173   -0.0006023966921620702
-0.0015173936094019962   -0.0023140281205005346   -0.00042906451493554044
-0.002494555472172808   -0.0024351763084287255   -0.0004271795933801124
-0.003338083916263633   -0.004463490360002007   -0.0005501337910582569
-0.0015221689291057554   -0.0023375733421953835   -0.00038413365922961197
-0.002551209095706093   -0.0024531968397699766   -0.00035983416775888996
-0.003338083916263633   -0.004463490360002007   -0.0005501337910582569
-0.0020961559847620143   -0.004388659679501861   -0.0005072818538623224
-0.0015221689291057554   -0.0023375733421953835   -0.00038413365922961197
-0.0020907837324247776   -0.004404010113247872   -0.00047589400238778163
-0.002551209095706093   -0.0024531968397699766   -0.00035983416775888996
-0.0015163883503077516   -0.0023499622202767276   -0.0003421495401659322
-0.0020907837324247776   -0.004404010113247872   -0.00047589400238778163
-0.0015221689291057554   -0.0023375733421953835   -0.00038413365922961197
-0.002551209095706093   -0.0024531968397699766   -0.00035983416775888996
-0.0020907837324247776   -0.004404010113247872   -0.00047589400238778163
-0.0033774492047274904   -0.004484228587468549   -0.0005021396092877202
-0.003338083916263633   -0.004463490360002007   -0.0005501337910582569
-0.002551209095706093   -0.0024531968397699766   -0.00035983416775888996
-0.0020907837324247776   -0.004404010113247872   -0.00047589400238778163
-0.003338083916263633   -0.004463490360002007   -0.0005501337910582569
-0.0015221689291057554   -0.0023375733421953835   -0.00038413365922961197
-0.0015167190591454526   -0.002275572895199981   -0.00047589652609307846
-0.0020889862486101296   -0.00433259339706666   -0.0005769117810882616
-0.0007056892782566431   -0.0022405004176712004   -0.00040681018500316553
-0.0015173936094019962   -0.0023140281205005346   -0.00042906451493554044
-0.0020889862486101296   -0.00433259339706666   -0.0005769117810882616
-0.000998480852852025   -0.004303918890082138   -0.0005202450031372741
-0.0007056892782566431   -0.0022405004176712004   -0.00040681018500316553
-0.0009946259296897202   -0.004324913551309726   -0.0004996835347632452
-0.0015173936094019962   -0.0023140281205005346   -0.00042906451493554044
-0.0006984631543167371   -0.002264871281780503   -0.0003827062250369105
-0.0009946259296897202   -0.004324913551309726   -0.0004996835347632452
-0.0007056892782566431   -0.0022405004176712004   -0.00040681018500316553
-0.0015173936094019962   -0.0023140281205005346   -0.00042906451493554044
-0.0009946259296897202   -0.004324913551309726   -0.0004996835347632452
-0.0020922023746422764   -0.004365587298296041   -0.0005407640291499716
-0.0020889862486101296   -0.00433259339706666   -0.0005769117810882616
-0.0015173936094019962   -0.0023140281205005346   -0.00042906451493554044
-0.0009946259296897202   -0.004324913551309726   -0.0004996835347632452
-0.0020889862486101296   -0.00433259339706666   -0.0005769117810882616
-0.0007056892782566431   -0.0022405004176712004   -0.00040681018500316553
-0.0015173936094019962   -0.0023140281205005346   -0.00042906451493554044
-0.0020922023746422764   -0.004365587298296041   -0.0005407640291499716
-0.0006984631543167371   -0.002264871281780503   -0.0003827062250369105
-0.0015221689291057554   -0.0023375733421953835   -0.00038413365922961197
-0.0020922023746422764   -0.004365587298296041   -0.0005407640291499716
-0.0009946259296897202   -0.004324913551309726   -0.0004996835347632452
-0.0006984631543167371   -0.002264871281780503   -0.0003827062250369105
-0.000990216608231206   -0.004337289341870814   -0.0004816518669376021
-0.0015221689291057554   -0.0023375733421953835   -0.00038413365922961197
-0.0006919314684824599   -0.0022767298827091934   -0.00036090422374328177
-0.000990216608231206   -0.004337289341870814   -0.0004816518669376021
-0.0006984631543167371   -0.002264871281780503   -0.0003827062250369105
-0.0015221689291057554   -0.0023375733421953835   -0.00038413365922961197
-0.000990216608231206   -0.004337289341870814   -0.0004816518669376021
-0.0020961559847620143   -0.004388659679501861   -0.0005072818538623224
-0.0020922023746422764   -0.004365587298296041   -0.0005407640291499716
-0.0015221689291057554   -0.0023375733421953835   -0.00038413365922961197
-0.000990216608231206   -0.004337289341870814   -0.0004816518669376021
-0.0020922023746422764   -0.004365587298296041   -0.0005407640291499716
-0.0006984631543167371   -0.002264871281780503   -0.0003827062250369105
-0.0015221689291057554   -0.0023375733421953835   -0.00038413365922961197
-0.0020961559847620143   -0.004388659679501861   -0.0005072818538623224
-0.0006919314684824599   -0.0022767298827091934   -0.00036090422374328177
-0.0015163883503077516   -0.0023499622202767276   -0.0003421495401659322
-0.0020961559847620143   -0.004388659679501861   -0.0005072818538623224
-0.000990216608231206   -0.004337289341870814   -0.0004816518669376021
-0.0006919314684824599   -0.0022767298827091934   -0.00036090422374328177
-0.000983815169191745   -0.004341222894868315   -0.00046614639632729744
-0.0015163883503077516   -0.0023499622202767276   -0.0003421495401659322
-0.0006827150921753064   -0.002276520337242473   -0.0003419807441638988
-0.000983815169191745   -0.004341222894868315   -0.00046614639632729744
-0.0006919314684824599   -0.0022767298827091934   -0.00036090422374328177
-0.0015163883503077516   -0.0023499622202767276   -0.0003421495401659322
-0.000983815169191745   -0.004341222894868315   -0.00046614639632729744
-0.0020907837324247776   -0.004404010113247872   -0.00047589400238778163
-0.0020961559847620143   -0.004388659679501861   -0.0005072818538623224
-0.0015163883503077516   -0.0023499622202767276   -0.0003421495401659322
-0.000983815169191745   -0.004341222894868315   -0.00046614639632729744
-0.0020961559847620143   -0.004388659679501861   -0.0005072818538623224
-0.0006919314684824599   -0.0022767298827091934   -0.00036090422374328177
-0.0007056892782566431   -0.0022405004176712004   -0.00040681018500316553
-0.000998480852852025   -0.004303918890082138   -0.0005202450031372741
7.566341683752841e-05   -0.0022416129221085814   -0.00036338785561301247
-0.0006984631543167371   -0.002264871281780503   -0.0003827062250369105
-0.000998480852852025   -0.004303918890082138   -0.0005202450031372741
5.941927704424063e-05   -0.00430236978125822   -0.00048538384056332986
7.566341683752841e-05   -0.0022416129221085814   -0.00036338785561301247
6.542173880935237e-05   -0.0043115196887328466   -0.0004803338822365148
-0.0006984631543167371   -0.002264871281780503   -0.0003827062250369105
8.434744254228622e-05   -0.002252994007103178   -0.0003615813297346179
6.542173880935237e-05   -0.0043115196887328466   -0.0004803338822365148
7.566341683752841e-05   -0.0022416129221085814   -0.00036338785561301247
-0.0006984631543167371   -0.002264871281780503   -0.0003827062250369105
6.542173880935237e-05   -0.0043115196887328466   -0.0004803338822365148
-0.0009946259296897202   -0.004324913551309726   -0.0004996835347632452
-0.000998480852852025   -0.004303918890082138   -0.0005202450031372741
-0.0006984631543167371   -0.002264871281780503   -0.0003827062250369105
6.542173880935237e-05   -0.0043115196887328466   -0.0004803338822365148
-0.000998480852852025   -0.004303918890082138   -0.0005202450031372741
7.566341683752841e-05   -0.0022416129221085814   -0.00036338785561301247
-0.0006984631543167371   -0.002264871281780503   -0.0003827062250369105
-0.0009946259296897202   -0.004324913551309726   -0.0004996835347632452
8.434744254228622e-05   -0.002252994007103178   -0.0003615813297346179
-0.0006919314684824599   -0.0022767298827091934   -0.00036090422374328177
-0.0009946259296897202   -0.004324913551309726   -0.0004996835347632452
6.542173880935237e-05   -0.0043115196887328466   -0.0004803338822365148
8.434744254228622e-05   -0.002252994007103178   -0.0003615813297346179
6.975282513338903e-05   -0.004312082616992042   -0.0004777522429374598
-0.0006919314684824599   -0.0022767298827091934   -0.00036090422374328177
9.055182328364549e-05   -0.002252152184318605   -0.0003623831567948499
6.975282513338903e-05   -0.004312082616992042   -0.0004777522429374598
8.434744254228622e-05   -0.002252994007103178   -0.0003615813297346179
-0.0006919314684824599   -0.0022767298827091934   -0.00036090422374328177
6.975282513338903e-05   -0.004312082616992042   -0.0004777522429374598
-0.000990216608231206   -0.004337289341870814   -0.0004816518669376021
-0.0009946259296897202   -0.004324913551309726   -0.0004996835347632452
-0.0006919314684824599   -0.0022767298827091934   -0.00036090422374328177
6.975282513338903e-05   -0.004312082616992042   -0.0004777522429374598
-0.0009946259296897202   -0.004324913551309726   -0.0004996835347632452
8.434744254228622e-05   -0.002252994007103178   -0.0003615813297346179
-0.0006919314684824599   -0.0022767298827091934   -0.00036090422374328177
-0.000990216608231206   -0.004337289341870814   -0.0004816518669376021
9.055182328364549e-05   -0.002252152184318605   -0.0003623831567948499
-0.0006827150921753064   -0.002276520337242473   -0.0003419807441638988
-0.000990216608231206   -0.004337289341870814   -0.0004816518669376021
6.975282513338903e-05   -0.004312082616992042   -0.0004777522429374598
9.055182328364549e-05   -0.002252152184318605   -0.0003623831567948499
7.327566345221764e-05   -0.004303932378371573   -0.000477783772090504
-0.0006827150921753064   -0.002276520337242473   -0.0003419807441638988
9.712340305285502e-05   -0.0022387200204729875   -0.0003658331465554985
7.327566345221764e-05   -0.004303932378371573   -0.000477783772090504
9.055182328364549e-05   -0.002252152184318605   -0.0003623831567948499
-0.0006827150921753064   -0.002276520337242473   -0.0003419807441638988
7.327566345221764e-05   -0.004303932378371573   -0.000477783772090504
-0.000983815169191745   -0.004341222894868315   -0.00046614639632729744
-0.000990216608231206   -0.004337289341870814   -0.0004816518669376021
-0.0006827150921753064   -0.002276520337242473   -0.0003419807441638988
7.327566345221764e-05   -0.004303932378371573   -0.000477783772090504
-0.000990216608231206   -0.004337289341870814   -0.0004816518669376021
9.055182328364549e-05   -0.002252152184318605   -0.0003623831567948499
7.566341683752841e-05   -0.0022416129221085814   -0.00036338785561301247
5.941927704424063e-05   -0.00430236978125822   -0.00048538384056332986
0.0009043104987575005   -0.0022776265061089577   -0.0003435392384028701
8.434744254228622e-05   -0.002252994007103178   -0.0003615813297346179
5.941927704424063e-05   -0.00430236978125822   -0.00048538384056332986
0.001162854455760806   -0.004326321487521787   -0.00047177233649536756
0.0009043104987575005   -0.0022776265061089577   -0.0003435392384028701
0.0011684050455504108   -0.004324566926397594   -0.00048254503231865217
8.434744254228622e-05   -0.002252994007103178   -0.0003615813297346179
0.0009098755173169221   -0.002277157754356553   -0.0003647452963427317
0.0011684050455504108   -0.004324566926397594   -0.00048254503231865217
0.0009043104987575005   -0.0022776265061089577   -0.0003435392384028701
8.434744254228622e-05   -0.002252994007103178   -0.0003615813297346179
0.0011684050455504108   -0.004324566926397594   -0.00048254503231865217
6.542173880935237e-05   -0.0043115196887328466   -0.0004803338822365148
5.941927704424063e-05   -0.00430236978125822   -0.00048538384056332986
8.434744254228622e-05   -0.002252994007103178   -0.0003615813297346179
0.0011684050455504108   -0.004324566926397594   -0.00048254503231865217
5.941927704424063e-05   -0.00430236978125822   -0.00048538384056332986
0.0009043104987575005   -0.0022776265061089577   -0.0003435392384028701
8.434744254228622e-05   -0.002252994007103178   -0.0003615813297346179
6.542173880935237e-05   -0.0043115196887328466   -0.0004803338822365148
0.0009098755173169221   -0.002277157754356553   -0.0003647452963427317
9.055182328364549e-05   -0.002252152184318605   -0.0003623831567948499
6.542173880935237e-05   -0.0043115196887328466   -0.0004803338822365148
0.0011684050455504108   -0.004324566926397594   -0.00048254503231865217
0.0009098755173169221   -0.002277157754356553   -0.0003647452963427317
0.0011669858383645826   -0.004314455212076045   -0.0004956046962427198
9.055182328364549e-05   -0.002252152184318605   -0.0003623831567948499
0.0009069590460262958   -0.002264738026407337   -0.0003889014555968564
0.0011669858383645826   -0.004314455212076045   -0.0004956046962427198
0.0009098755173169221   -0.002277157754356553   -0.0003647452963427317
9.055182328364549e-05   -0.002252152184318605   -0.0003623831567948499
0.0011669858383645826   -0.004314455212076045   -0.0004956046962427198
6.975282513338903e-05   -0.004312082616992042   -0.0004777522429374598
6.542173880935237e-05   -0.0043115196887328466   -0.0004803338822365148
9.055182328364549e-05   -0.002252152184318605   -0.0003623831567948499
0.0011669858383645826   -0.004314455212076045   -0.0004956046962427198
6.542173880935237e-05   -0.0043115196887328466   -0.0004803338822365148
0.0009098755173169221   -0.002277157754356553   -0.0003647452963427317
9.055182328364549e-05   -0.002252152184318605   -0.0003623831567948499
6.975282513338903e-05   -0.004312082616992042   -0.0004777522429374598
0.0009069590460262958   -0.002264738026407337   -0.0003889014555968564
9.712340305285502e-05   -0.0022387200204729875   -0.0003658331465554985
6.975282513338903e-05   -0.004312082616992042   -0.0004777522429374598
0.0011669858383645826   -0.004314455212076045   -0.0004956046962427198
0.0009069590460262958   -0.002264738026407337   -0.0003889014555968564
0.0011639958648056075   -0.004293866223747999   -0.0005112264251927761
9.712340305285502e-05   -0.0022387200204729875   -0.0003658331465554985
0.0009057549225619592   -0.0022370223743227416   -0.00041510957044342
0.0011639958648056075   -0.004293866223747999   -0.0005112264251927761
0.0009069590460262958   -0.002264738026407337   -0.0003889014555968564
9.712340305285502e-05   -0.0022387200204729875   -0.0003658331465554985
0.0011639958648056075   -0.004293866223747999   -0.0005112264251927761
7.327566345221764e-05   -0.004303932378371573   -0.000477783772090504
6.975282513338903e-05   -0.004312082616992042   -0.0004777522429374598
9.712340305285502e-05   -0.0022387200204729875   -0.0003658331465554985
0.0011639958648056075   -0.004293866223747999   -0.0005112264251927761
6.975282513338903e-05   -0.004312082616992042   -0.0004777522429374598
0.0009069590460262958   -0.002264738026407337   -0.0003889014555968564
0.0009043104987575005   -0.0022776265061089577   -0.0003435392384028701
0.001162854455760806   -0.004326321487521787   -0.00047177233649536756
0.0019059225209945862   -0.002344338925343035   -0.0003390169302356766
0.0009098755173169221   -0.002277157754356553   -0.0003647452963427317
0.001162854455760806   -0.004326321487521787   -0.00047177233649536756
0.0024203008577421844   -0.004369460496248801   -0.0004731424483729678
0.0019059225209945862   -0.002344338925343035   -0.0003390169302356766
0.0024014999086387164   -0.004361347677758938   -0.0005016253701629863
0.0009098755173169221   -0.002277157754356553   -0.0003647452963427317
0.0018690517772755415   -0.0023374558613117524   -0.0003868987852592652
0.0024014999086387164   -0.004361347677758938   -0.0005016253701629863
0.0019059225209945862   -0.002344338925343035   -0.0003390169302356766
0.0009098755173169221   -0.002277157754356553   -0.0003647452963427317
0.0024014999086387164   -0.004361347677758938   -0.0005016253701629863
0.0011684050455504108   -0.004324566926397594   -0.00048254503231865217
0.001162854455760806   -0.004326321487521787   -0.00047177233649536756
0.0009098755173169221   -0.002277157754356553   -0.0003647452963427317
0.0024014999086387164   -0.004361347677758938   -0.0005016253701629863
0.001162854455760806   -0.004326321487521787   -0.00047177233649536756
0.0019059225209945862   -0.002344338925343035   -0.0003390169302356766
0.0009098755173169221   -0.002277157754356553   -0.0003647452963427317
0.0011684050455504108   -0.004324566926397594   -0.00048254503231865217
0.0018690517772755415   -0.0023374558613117524   -0.0003868987852592652
0.0009069590460262958   -0.002264738026407337   -0.0003889014555968564
0.0011684050455504108   -0.004324566926397594   -0.00048254503231865217
0.0024014999086387164   -0.004361347677758938   -0.0005016253701629863
0.0018690517772755415   -0.0023374558613117524   -0.0003868987852592652
0.0023824157735543834   -0.004345868438099454   -0.0005342334472184085
0.0009069590460262958   -0.002264738026407337   -0.0003889014555968564
0.0018359385109416434   -0.002318379468096012   -0.0004409725436168549
0.0023824157735543834   -0.004345868438099454   -0.0005342334472184085
0.0018690517772755415   -0.0023374558613117524   -0.0003868987852592652
0.0009069590460262958   -0.002264738026407337   -0.0003889014555968564
0.0023824157735543834   -0.004345868438099454   -0.0005342334472184085
0.0011669858383645826   -0.004314455212076045   -0.0004956046962427198
0.0011684050455504108   -0.004324566926397594   -0.00048254503231865217
0.0009069590460262958   -0.002264738026407337   -0.0003889014555968564
0.0023824157735543834   -0.004345868438099454   -0.0005342334472184085
0.0011684050455504108   -0.004324566926397594   -0.00048254503231865217
0.0018690517772755415   -0.0023374558613117524   -0.0003868987852592652
0.0009069590460262958   -0.002264738026407337   -0.0003889014555968564
0.0011669858383645826   -0.004314455212076045   -0.0004956046962427198
0.0018359385109416434   -0.002318379468096012   -0.0004409725436168549
0.0009057549225619592   -0.0022370223743227416   -0.00041510957044342
0.0011669858383645826   -0.004314455212076045   -0.0004956046962427198
0.0023824157735543834   -0.004345868438099454   -0.0005342334472184085
0.0018359385109416434   -0.002318379468096012   -0.0004409725436168549
0.002347056090596239   -0.0043138827208521234   -0.0005709716128884833
0.0009057549225619592   -0.0022370223743227416   -0.00041510957044342
0.0017855092294316766   -0.002276359254990834   -0.0004973877088331857
0.002347056090596239   -0.0043138827208521234   -0.0005709716128884833
0.0018359385109416434   -0.002318379468096012   -0.0004409725436168549
0.0009057549225619592   -0.0022370223743227416   -0.00041510957044342
0.002347056090596239   -0.0043138827208521234   -0.0005709716128884833
0.0011639958648056075   -0.004293866223747999   -0.0005112264251927761
0.0011669858383645826   -0.004314455212076045   -0.0004956046962427198
0.0009057549225619592   -0.0022370223743227416   -0.00041510957044342
0.002347056090596239   -0.0043138827208521234   -0.0005709716128884833
0.0011669858383645826   -0.004314455212076045   -0.0004956046962427198
0.0018359385109416434   -0.002318379468096012   -0.0004409725436168549
-0.003247609588507456   -0.004389870092703923   -0.0006585621301059774
-0.0038683748638119225   -0.006796414252914465   -0.0007038096406167738
-0.0020889862486101296   -0.00433259339706666   -0.0005769117810882616
-0.003303485158793526   -0.0044350398180173   -0.0006023966921620702
-0.0038683748638119225   -0.006796414252914465   -0.0007038096406167738
-0.002513601022570638   -0.006760263837919579   -0.0006377383661852229
-0.0020889862486101296   -0.00433259339706666   -0.0005769117810882616
-0.002515233383469841   -0.00678844679591642   -0.0006120116155795209
-0.003303485158793526   -0.0044350398180173   -0.0006023966921620702
-0.0020922023746422764   -0.004365587298296041   -0.0005407640291499716
-0.002515233383469841   -0.00678844679591642   -0.0006120116155795209
-0.0020889862486101296   -0.00433259339706666   -0.0005769117810882616
-0.003303485158793526   -0.0044350398180173   -0.0006023966921620702
-0.002515233383469841   -0.00678844679591642   -0.0006120116155795209
-0.003905220953731948   -0.006834610837559999   -0.000666868434987225
-0.0038683748638119225   -0.006796414252914465   -0.0007038096406167738
-0.003303485158793526   -0.0044350398180173   -0.0006023966921620702
-0.002515233383469841   -0.00678844679591642   -0.0006120116155795209
-0.0038683748638119225   -0.006796414252914465   -0.0007038096406167738
-0.0020889862486101296   -0.00433259339706666   -0.0005769117810882616
-0.003303485158793526   -0.0044350398180173   -0.0006023966921620702
-0.003905220953731948   -0.006834610837559999   -0.000666868434987225
-0.0020922023746422764   -0.004365587298296041   -0.0005407640291499716
-0.003338083916263633   -0.004463490360002007   -0.0005501337910582569
-0.003905220953731948   -0.006834610837559999   -0.000666868434987225
-0.002515233383469841   -0.00678844679591642   -0.0006120116155795209
-0.0020922023746422764   -0.004365587298296041   -0.0005407640291499716
-0.0025159530587518333   -0.006810908372312327   -0.0005888729786824806
-0.003338083916263633   -0.004463490360002007   -0.0005501337910582569
-0.0020961559847620143   -0.004388659679501861   -0.0005072818538623224
-0.0025159530587518333   -0.006810908372312327   -0.0005888729786824806
-0.0020922023746422764   -0.004365587298296041   -0.0005407640291499716
-0.003338083916263633   -0.004463490360002007   -0.0005501337910582569
-0.0025159530587518333   -0.006810908372312327   -0.0005888729786824806
-0.00392567622193062   -0.006861778194083965   -0.0006335313995788608
-0.003905220953731948   -0.006834610837559999   -0.000666868434987225
-0.003338083916263633   -0.004463490360002007   -0.0005501337910582569
-0.0025159530587518333   -0.006810908372312327   -0.0005888729786824806
-0.003905220953731948   -0.006834610837559999   -0.000666868434987225
-0.0020922023746422764   -0.004365587298296041   -0.0005407640291499716
-0.003338083916263633   -0.004463490360002007   -0.0005501337910582569
-0.00392567622193062   -0.006861778194083965   -0.0006335313995788608
-0.0020961559847620143   -0.004388659679501861   -0.0005072818538623224
-0.0033774492047274904   -0.004484228587468549   -0.0005021396092877202
-0.00392567622193062   -0.006861778194083965   -0.0006335313995788608
-0.0025159530587518333   -0.006810908372312327   -0.0005888729786824806
-0.0020961559847620143   -0.004388659679501861   -0.0005072818538623224
-0.002509339512857713   -0.006829524243119206   -0.0005679696371301254
-0.0033774492047274904   -0.004484228587468549   -0.0005021396092877202
-0.0020907837324247776   -0.004404010113247872   -0.00047589400238778163
-0.002509339512857713   -0.006829524243119206   -0.0005679696371301254
-0.0020961559847620143   -0.004388659679501861   -0.0005072818538623224
-0.0033774492047274904   -0.004484228587468549   -0.0005021396092877202
-0.002509339512857713   -0.006829524243119206   -0.0005679696371301254
-0.003946630730669085   -0.006886373239270938   -0.0006042350140307143
-0.00392567622193062   -0.006861778194083965   -0.0006335313995788608
-0.0033774492047274904   -0.004484228587468549   -0.0005021396092877202
-0.002509339512857713   -0.006829524243119206   -0.0005679696371301254
-0.00392567622193062   -0.006861778194083965   -0.0006335313995788608
-0.0020961559847620143   -0.004388659679501861   -0.0005072818538623224
-0.0020889862486101296   -0.00433259339706666   -0.0005769117810882616
-0.002513601022570638   -0.006760263837919579   -0.0006377383661852229
-0.000998480852852025   -0.004303918890082138   -0.0005202450031372741
-0.0020922023746422764   -0.004365587298296041   -0.0005407640291499716
-0.002513601022570638   -0.006760263837919579   -0.0006377383661852229
-0.0012447005701524618   -0.006741383064015135   -0.0005920315834166521
-0.000998480852852025   -0.004303918890082138   -0.0005202450031372741
-0.0012409839537688503   -0.006758966763478368   -0.0005748866814486216
-0.0020922023746422764   -0.004365587298296041   -0.0005407640291499716
-0.0009946259296897202   -0.004324913551309726   -0.0004996835347632452
-0.0012409839537688503   -0.006758966763478368   -0.0005748866814486216
-0.000998480852852025   -0.004303918890082138   -0.0005202450031372741
-0.0020922023746422764   -0.004365587298296041   -0.0005407640291499716
-0.0012409839537688503   -0.006758966763478368   -0.0005748866814486216
-0.002515233383469841   -0.00678844679591642   -0.0006120116155795209
-0.002513601022570638   -0.006760263837919579   -0.0006377383661852229
-0.0020922023746422764   -0.004365587298296041   -0.0005407640291499716
-0.0012409839537688503   -0.006758966763478368   -0.0005748866814486216
-0.002513601022570638   -0.006760263837919579   -0.0006377383661852229
-0.000998480852852025   -0.004303918890082138   -0.0005202450031372741
-0.0020922023746422764   -0.004365587298296041   -0.0005407640291499716
-0.002515233383469841   -0.00678844679591642   -0.0006120116155795209
-0.0009946259296897202   -0.004324913551309726   -0.0004996835347632452
-0.0020961559847620143   -0.004388659679501861   -0.0005072818538623224
-0.002515233383469841   -0.00678844679591642   -0.0006120116155795209
-0.0012409839537688503   -0.006758966763478368   -0.0005748866814486216
-0.0009946259296897202   -0.004324913551309726   -0.0004996835347632452
-0.001236419991952163   -0.006771743579778918   -0.000560283977753905
-0.0020961559847620143   -0.004388659679501861   -0.0005072818538623224
-0.000990216608231206   -0.004337289341870814   -0.0004816518669376021
-0.001236419991952163   -0.006771743579778918   -0.000560283977753905
-0.0009946259296897202   -0.004324913551309726   -0.0004996835347632452
-0.0020961559847620143   -0.004388659679501861   -0.0005072818538623224
-0.001236419991952163   -0.006771743579778918   -0.000560283977753905
-0.0025159530587518333   -0.006810908372312327   -0.0005888729786824806
-0.002515233383469841   -0.00678844679591642   -0.0006120116155795209
-0.0020961559847620143   -0.004388659679501861   -0.0005072818538623224
-0.001236419991952163   -0.006771743579778918   -0.000560283977753905
-0.002515233383469841   -0.00678844679591642   -0.0006120116155795209
-0.0009946259296897202   -0.004324913551309726   -0.0004996835347632452
-0.0020961559847620143   -0.004388659679501861   -0.0005072818538623224
-0.0025159530587518333   -0.006810908372312327   -0.0005888729786824806
-0.000990216608231206   -0.004337289341870814   -0.0004816518669376021
-0.0020907837324247776   -0.004404010113247872   -0.00047589400238778163
-0.0025159530587518333   -0.006810908372312327   -0.0005888729786824806
-0.001236419991952163   -0.006771743579778918   -0.000560283977753905
-0.000990216608231206   -0.004337289341870814   -0.0004816518669376021
-0.0012302562537216345   -0.00677979873811088   -0.0005482706873468129
-0.0020907837324247776   -0.004404010113247872   -0.00047589400238778163
-0.000983815169191745   -0.004341222894868315   -0.00046614639632729744
-0.0012302562537216345   -0.00677979873811088   -0.0005482706873468129
-0.000990216608231206   -0.004337289341870814   -0.0004816518669376021
-0.0020907837324247776   -0.004404010113247872   -0.00047589400238778163
-0.0012302562537216345   -0.00677979873811088   -0.0005482706873468129
-0.002509339512857713   -0.006829524243119206   -0.0005679696371301254
-0.0025159530587518333   -0.006810908372312327   -0.0005888729786824806
-0.0020907837324247776   -0.004404010113247872   -0.00047589400238778163
-0.0012302562537216345   -0.00677979873811088   -0.0005482706873468129
-0.0025159530587518333   -0.006810908372312327   -0.0005888729786824806
-0.000990216608231206   -0.004337289341870814   -0.0004816518669376021
-0.000998480852852025   -0.004303918890082138   -0.0005202450031372741
-0.0012447005701524618   -0.006741383064015135   -0.0005920315834166521
5.941927704424063e-05   -0.00430236978125822   -0.00048538384056332986
-0.0009946259296897202   -0.004324913551309726   -0.0004996835347632452
-0.0012447005701524618   -0.006741383064015135   -0.0005920315834166521
-1.0591554194785109e-05   -0.0067380134926358776   -0.0005657015338192811
5.941927704424063e-05   -0.00430236978125822   -0.00048538384056332986
-4.753581568505199e-06   -0.006744898446817401   -0.0005572217790211102
-0.0009946259296897202   -0.004324913551309726   -0.0004996835347632452
6.542173880935237e-05   -0.0043115196887328466   -0.0004803338822365148
-4.753581568505199e-06   -0.006744898446817401   -0.0005572217790211102
5.941927704424063e-05   -0.00430236978125822   -0.00048538384056332986
-0.0009946259296897202   -0.004324913551309726   -0.0004996835347632452
-4.753581568505199e-06   -0.006744898446817401   -0.0005572217790211102
-0.0012409839537688503   -0.006758966763478368   -0.0005748866814486216
-0.0012447005701524618   -0.006741383064015135   -0.0005920315834166521
-0.0009946259296897202   -0.004324913551309726   -0.0004996835347632452
-4.753581568505199e-06   -0.006744898446817401   -0.0005572217790211102
-0.0012447005701524618   -0.006741383064015135   -0.0005920315834166521
5.941927704424063e-05   -0.00430236978125822   -0.00048538384056332986
-0.0009946259296897202   -0.004324913551309726   -0.0004996835347632452
-0.0012409839537688503   -0.006758966763478368   -0.0005748866814486216
6.542173880935237e-05   -0.0043115196887328466   -0.0004803338822365148
-0.000990216608231206   -0.004337289341870814   -0.0004816518669376021
-0.0012409839537688503   -0.006758966763478368   -0.0005748866814486216
-4.753581568505199e-06   -0.006744898446817401   -0.0005572217790211102
6.542173880935237e-05   -0.0043115196887328466   -0.0004803338822365148
-2.1062244216142696e-07   -0.006746941654565854   -0.000551256884765496
-0.000990216608231206   -0.004337289341870814   -0.0004816518669376021
6.975282513338903e-05   -0.004312082616992042   -0.0004777522429374598
-2.1062244216142696e-07   -0.006746941654565854   -0.000551256884765496
6.542173880935237e-05   -0.0043115196887328466   -0.0004803338822365148
-0.000990216608231206   -0.004337289341870814   -0.0004816518669376021
-2.1062244216142696e-07   -0.006746941654565854   -0.000551256884765496
-0.001236419991952163   -0.006771743579778918   -0.000560283977753905
-0.0012409839537688503   -0.006758966763478368   -0.0005748866814486216
-0.000990216608231206   -0.004337289341870814   -0.0004816518669376021
-2.1062244216142696e-07   -0.006746941654565854   -0.000551256884765496
-0.0012409839537688503   -0.006758966763478368   -0.0005748866814486216
6.542173880935237e-05   -0.0043115196887328466   -0.0004803338822365148
-0.000990216608231206   -0.004337289341870814   -0.0004816518669376021
-0.001236419991952163   -0.006771743579778918   -0.000560283977753905
6.975282513338903e-05   -0.004312082616992042   -0.0004777522429374598
-0.000983815169191745   -0.004341222894868315   -0.00046614639632729744
-0.001236419991952163   -0.006771743579778918   -0.000560283977753905
-2.1062244216142696e-07   -0.006746941654565854   -0.000551256884765496
6.975282513338903e-05   -0.004312082616992042   -0.0004777522429374598
3.1915519866071424e-06   -0.006744075561748501   -0.0005479140152264809
-0.000983815169191745   -0.004341222894868315   -0.00046614639632729744
7.327566345221764e-05   -0.004303932378371573   -0.000477783772090504
3.1915519866071424e-06   -0.006744075561748501   -0.0005479140152264809
6.975282513338903e-05   -0.004312082616992042   -0.0004777522429374598
-0.000983815169191745   -0.004341222894868315   -0.00046614639632729744
3.1915519866071424e-06   -0.006744075561748501   -0.0005479140152264809
-0.0012302562537216345   -0.00677979873811088   -0.0005482706873468129
-0.001236419991952163   -0.006771743579778918   -0.000560283977753905
-0.000983815169191745   -0.004341222894868315   -0.00046614639632729744
3.1915519866071424e-06   -0.006744075561748501   -0.0005479140152264809
-0.001236419991952163   -0.006771743579778918   -0.000560283977753905
6.975282513338903e-05   -0.004312082616992042   -0.0004777522429374598
5.941927704424063e-05   -0.00430236978125822   -0.00048538384056332986
-1.0591554194785109e-05   -0.0067380134926358776   -0.0005657015338192811
0.001162854455760806   -0.004326321487521787   -0.00047177233649536756
6.542173880935237e-05   -0.0043115196887328466   -0.0004803338822365148
-1.0591554194785109e-05   -0.0067380134926358776   -0.0005657015338192811
0.0012660351837980716   -0.006748796236277143   -0.0005586929214071389
0.001162854455760806   -0.004326321487521787   -0.00047177233649536756
0.0012729836119718672   -0.006745561627289034   -0.000559050142385691
6.542173880935237e-05   -0.0043115196887328466   -0.0004803338822365148
0.0011684050455504108   -0.004324566926397594   -0.00048254503231865217
0.0012729836119718672   -0.006745561627289034   -0.000559050142385691
0.001162854455760806   -0.004326321487521787   -0.00047177233649536756
6.542173880935237e-05   -0.0043115196887328466   -0.0004803338822365148
0.0012729836119718672   -0.006745561627289034   -0.000559050142385691
-4.753581568505199e-06   -0.006744898446817401   -0.0005572217790211102
-1.0591554194785109e-05   -0.0067380134926358776   -0.0005657015338192811
6.542173880935237e-05   -0.0043115196887328466   -0.0004803338822365148
0.0012729836119718672   -0.006745561627289034   -0.000559050142385691
-1.0591554194785109e-05   -0.0067380134926358776   -0.0005657015338192811
0.001162854455760806   -0.004326321487521787   -0.00047177233649536756
6.542173880935237e-05   -0.0043115196887328466   -0.0004803338822365148
-4.753581568505199e-06   -0.006744898446817401   -0.0005572217790211102
0.0011684050455504108   -0.004324566926397594   -0.00048254503231865217
6.975282513338903e-05   -0.004312082616992042   -0.0004777522429374598
-4.753581568505199e-06   -0.006744898446817401   -0.0005572217790211102
0.0012729836119718672   -0.006745561627289034   -0.000559050142385691
0.0011684050455504108   -0.004324566926397594   -0.00048254503231865217
0.0012749728477589506   -0.006737908709909668   -0.0005617831946226352
6.975282513338903e-05   -0.004312082616992042   -0.0004777522429374598
0.0011669858383645826   -0.004314455212076045   -0.0004956046962427198
0.0012749728477589506   -0.006737908709909668   -0.0005617831946226352
0.0011684050455504108   -0.004324566926397594   -0.00048254503231865217
6.975282513338903e-05   -0.004312082616992042   -0.0004777522429374598
0.0012749728477589506   -0.006737908709909668   -0.0005617831946226352
-2.1062244216142696e-07   -0.006746941654565854   -0.000551256884765496
-4.753581568505199e-06   -0.006744898446817401   -0.0005572217790211102
6.975282513338903e-05   -0.004312082616992042   -0.0004777522429374598
0.0012749728477589506   -0.006737908709909668   -0.0005617831946226352
-4.753581568505199e-06   -0.006744898446817401   -0.0005572217790211102
0.0011684050455504108   -0.004324566926397594   -0.00048254503231865217
6.975282513338903e-05   -0.004312082616992042   -0.0004777522429374598
-2.1062244216142696e-07   -0.006746941654565854   -0.000551256884765496
0.0011669858383645826   -0.004314455212076045   -0.0004956046962427198
7.327566345221764e-05   -0.004303932378371573   -0.000477783772090504
-2.1062244216142696e-07   -0.006746941654565854   -0.000551256884765496
0.0012749728477589506   -0.006737908709909668   -0.0005617831946226352
0.0011669858383645826   -0.004314455212076045   -0.0004956046962427198
0.001273680021235882   -0.006723973416555708   -0.0005669873814778947
7.327566345221764e-05   -0.004303932378371573   -0.000477783772090504
0.0011639958648056075   -0.004293866223747999   -0.0005112264251927761
0.001273680021235882   -0.006723973416555708   -0.0005669873814778947
0.0011669858383645826   -0.004314455212076045   -0.0004956046962427198
7.327566345221764e-05   -0.004303932378371573   -0.000477783772090504
0.001273680021235882   -0.006723973416555708   -0.0005669873814778947
3.1915519866071424e-06   -0.006744075561748501   -0.0005479140152264809
-2.1062244216142696e-07   -0.006746941654565854   -0.000551256884765496
7.327566345221764e-05   -0.004303932378371573   -0.000477783772090504
0.001273680021235882   -0.006723973416555708   -0.0005669873814778947
-2.1062244216142696e-07   -0.006746941654565854   -0.000551256884765496
0.0011669858383645826   -0.004314455212076045   -0.0004956046962427198
0.001162854455760806   -0.004326321487521787   -0.00047177233649536756
0.0012660351837980716   -0.006748796236277143   -0.0005586929214071389
0.0024203008577421844   -0.004369460496248801   -0.0004731424483729678
0.0011684050455504108   -0.004324566926397594   -0.00048254503231865217
0.0012660351837980716   -0.006748796236277143   -0.0005586929214071389
0.002675601457598487   -0.006768367587519663   -0.0005670349515568746
0.0024203008577421844   -0.004369460496248801   -0.0004731424483729678
0.0026754739372668542   -0.006758223920784543   -0.0005767677636077491
0.0011684050455504108   -0.004324566926397594   -0.00048254503231865217
0.0024014999086387164   -0.004361347677758938   -0.0005016253701629863
0.0026754739372668542   -0.006758223920784543   -0.0005767677636077491
0.0024203008577421844   -0.004369460496248801   -0.0004731424483729678
0.0011684050455504108   -0.004324566926397594   -0.00048254503231865217
0.0026754739372668542   -0.006758223920784543   -0.0005767677636077491
0.0012729836119718672   -0.006745561627289034   -0.000559050142385691
0.0012660351837980716   -0.006748796236277143   -0.0005586929214071389
0.0011684050455504108   -0.004324566926397594   -0.00048254503231865217
0.0026754739372668542   -0.006758223920784543   -0.0005767677636077491
0.0012660351837980716   -0.006748796236277143   -0.0005586929214071389
0.0024203008577421844   -0.004369460496248801   -0.0004731424483729678
0.0011684050455504108   -0.004324566926397594   -0.00048254503231865217
0.0012729836119718672   -0.006745561627289034   -0.000559050142385691
0.0024014999086387164   -0.004361347677758938   -0.0005016253701629863
0.0011669858383645826   -0.004314455212076045   -0.0004956046962427198
0.0012729836119718672   -0.006745561627289034   -0.000559050142385691
0.0026754739372668542   -0.006758223920784543   -0.0005767677636077491
0.0024014999086387164   -0.004361347677758938   -0.0005016253701629863
0.002670836804011659   -0.006745850101338414   -0.0005903650871864835
0.0011669858383645826   -0.004314455212076045   -0.0004956046962427198
0.0023824157735543834   -0.004345868438099454   -0.0005342334472184085
0.002670836804011659   -0.006745850101338414   -0.0005903650871864835
0.0024014999086387164   -0.004361347677758938   -0.0005016253701629863
0.0011669858383645826   -0.004314455212076045   -0.0004956046962427198
0.002670836804011659   -0.006745850101338414   -0.0005903650871864835
0.0012749728477589506   -0.006737908709909668   -0.0005617831946226352
0.0012729836119718672   -0.006745561627289034   -0.000559050142385691
0.0011669858383645826   -0.004314455212076045   -0.0004956046962427198
0.002670836804011659   -0.006745850101338414   -0.0005903650871864835
0.0012729836119718672   -0.006745561627289034   -0.000559050142385691
0.0024014999086387164   -0.004361347677758938   -0.0005016253701629863
0.0011669858383645826   -0.004314455212076045   -0.0004956046962427198
0.0012749728477589506   -0.006737908709909668   -0.0005617831946226352
0.0023824157735543834   -0.004345868438099454   -0.0005342334472184085
0.0011639958648056075   -0.004293866223747999   -0.0005112264251927761
0.0012749728477589506   -0.006737908709909668   -0.0005617831946226352
0.002670836804011659   -0.006745850101338414   -0.0005903650871864835
0.0023824157735543834   -0.004345868438099454   -0.0005342334472184085
0.0026547809309389685   -0.0067227268629759885   -0.0006077986897382156
0.0011639958648056075   -0.004293866223747999   -0.0005112264251927761
0.002347056090596239   -0.0043138827208521234   -0.0005709716128884833
0.0026547809309389685   -0.0067227268629759885   -0.0006077986897382156
0.0023824157735543834   -0.004345868438099454   -0.0005342334472184085
0.0011639958648056075   -0.004293866223747999   -0.0005112264251927761
0.0026547809309389685   -0.0067227268629759885   -0.0006077986897382156
0.001273680021235882   -0.006723973416555708   -0.0005669873814778947
0.0012749728477589506   -0.006737908709909668   -0.0005617831946226352
0.0011639958648056075   -0.004293866223747999   -0.0005112264251927761
0.0026547809309389685   -0.0067227268629759885   -0.0006077986897382156
0.0012749728477589506   -0.006737908709909668   -0.0005617831946226352
0.0023824157735543834   -0.004345868438099454   -0.0005342334472184085
-0.0038683748638119225   -0.006796414252914465   -0.0007038096406167738
-0.004239732197614114   -0.009405335601814486   -0.0007183154003821274
-0.002513601022570638   -0.006760263837919579   -0.0006377383661852229
-0.003905220953731948   -0.006834610837559999   -0.000666868434987225
-0.004239732197614114   -0.009405335601814486   -0.0007183154003821274
-0.0027904013944782583   -0.009390867172820776   -0.00066612971805662
-0.002513601022570638   -0.006760263837919579   -0.0006377383661852229
-0.0027881067396848124   -0.009414724025368552   -0.0006504526082303549
-0.003905220953731948   -0.006834610837559999   -0.000666868434987225
-0.002515233383469841   -0.00678844679591642   -0.0006120116155795209
-0.0027881067396848124   -0.009414724025368552   -0.0006504526082303549
-0.002513601022570638   -0.006760263837919579   -0.0006377383661852229
-0.003905220953731948   -0.006834610837559999   -0.000666868434987225
-0.0027881067396848124   -0.009414724025368552   -0.0006504526082303549
-0.004256079295131195   -0.009437469065980844   -0.0006995871944737216
-0.004239732197614114   -0.009405335601814486   -0.0007183154003821274
-0.003905220953731948   -0.006834610837559999   -0.000666868434987225
-0.0027881067396848124   -0.009414724025368552   -0.0006504526082303549
-0.004239732197614114   -0.009405335601814486   -0.0007183154003821274
-0.002513601022570638   -0.006760263837919579   -0.0006377383661852229
-0.003905220953731948   -0.006834610837559999   -0.000666868434987225
-0.004256079295131195   -0.009437469065980844   -0.0006995871944737216
-0.002515233383469841   -0.00678844679591642   -0.0006120116155795209
-0.00392567622193062   -0.006861778194083965   -0.0006335313995788608
-0.004256079295131195   -0.009437469065980844   -0.0006995871944737216
-0.0027881067396848124   -0.009414724025368552   -0.0006504526082303549
-0.002515233383469841   -0.00678844679591642   -0.0006120116155795209
-0.0027831773548483542   -0.009436870119088716   -0.0006373829757282983
-0.00392567622193062   -0.006861778194083965   -0.0006335313995788608
-0.0025159530587518333   -0.006810908372312327   -0.0005888729786824806
-0.0027831773548483542   -0.009436870119088716   -0.0006373829757282983
-0.002515233383469841   -0.00678844679591642   -0.0006120116155795209
-0.00392567622193062   -0.006861778194083965   -0.0006335313995788608
-0.0027831773548483542   -0.009436870119088716   -0.0006373829757282983
-0.004260312500692968   -0.00946384563217955   -0.0006846078233471807
-0.004256079295131195   -0.009437469065980844   -0.0006995871944737216
-0.00392567622193062   -0.006861778194083965   -0.0006335313995788608
-0.0027831773548483542   -0.009436870119088716   -0.0006373829757282983
-0.004256079295131195   -0.009437469065980844   -0.0006995871944737216
-0.002515233383469841   -0.00678844679591642   -0.0006120116155795209
-0.00392567622193062   -0.006861778194083965   -0.0006335313995788608
-0.004260312500692968   -0.00946384563217955   -0.0006846078233471807
-0.0025159530587518333   -0.006810908372312327   -0.0005888729786824806
-0.003946630730669085   -0.006886373239270938   -0.0006042350140307143
-0.004260312500692968   -0.00946384563217955   -0.0006846078233471807
-0.0027831773548483542   -0.009436870119088716   -0.0006373829757282983
-0.0025159530587518333   -0.006810908372312327   -0.0005888729786824806
-0.0027728313071663916   -0.009459006547535375   -0.0006267263037096809
-0.003946630730669085   -0.006886373239270938   -0.0006042350140307143
-0.002509339512857713   -0.006829524243119206   -0.0005679696371301254
-0.0027728313071663916   -0.009459006547535375   -0.0006267263037096809
-0.0025159530587518333   -0.006810908372312327   -0.0005888729786824806
-0.003946630730669085   -0.006886373239270938   -0.0006042350140307143
-0.0027728313071663916   -0.009459006547535375   -0.0006267263037096809
-0.004260642081234422   -0.009492707278755097   -0.0006737125229832072
-0.004260312500692968   -0.00946384563217955   -0.0006846078233471807
-0.003946630730669085   -0.006886373239270938   -0.0006042350140307143
-0.0027728313071663916   -0.009459006547535375   -0.0006267263037096809
-0.004260312500692968   -0.00946384563217955   -0.0006846078233471807
-0.0025159530587518333   -0.006810908372312327   -0.0005888729786824806
-0.002513601022570638   -0.006760263837919579   -0.0006377383661852229
-0.0027904013944782583   -0.009390867172820776   -0.00066612971805662
-0.0012447005701524618   -0.006741383064015135   -0.0005920315834166521
-0.002515233383469841   -0.00678844679591642   -0.0006120116155795209
-0.0027904013944782583   -0.009390867172820776   -0.00066612971805662
-0.0014443534977003202   -0.009382297774800135   -0.0006306432310707977
-0.0012447005701524618   -0.006741383064015135   -0.0005920315834166521
-0.0014381649560277331   -0.00939663758990984   -0.0006167834725393309
-0.002515233383469841   -0.00678844679591642   -0.0006120116155795209
-0.0012409839537688503   -0.006758966763478368   -0.0005748866814486216
-0.0014381649560277331   -0.00939663758990984   -0.0006167834725393309
-0.0012447005701524618   -0.006741383064015135   -0.0005920315834166521
-0.002515233383469841   -0.00678844679591642   -0.0006120116155795209
-0.0014381649560277331   -0.00939663758990984   -0.0006167834725393309
-0.0027881067396848124   -0.009414724025368552   -0.0006504526082303549
-0.0027904013944782583   -0.009390867172820776   -0.00066612971805662
-0.002515233383469841   -0.00678844679591642   -0.0006120116155795209
-0.0014381649560277331   -0.00939663758990984   -0.0006167834725393309
-0.0027904013944782583   -0.009390867172820776   -0.00066612971805662
-0.0012447005701524618   -0.006741383064015135   -0.0005920315834166521
-0.002515233383469841   -0.00678844679591642   -0.0006120116155795209
-0.0027881067396848124   -0.009414724025368552   -0.0006504526082303549
-0.0012409839537688503   -0.006758966763478368   -0.0005748866814486216
-0.0025159530587518333   -0.006810908372312327   -0.0005888729786824806
-0.0027881067396848124   -0.009414724025368552   -0.0006504526082303549
-0.0014381649560277331   -0.00939663758990984   -0.0006167834725393309
-0.0012409839537688503   -0.006758966763478368   -0.0005748866814486216
-0.0014308573969852272   -0.009409893422774535   -0.000605527038295894
-0.0025159530587518333   -0.006810908372312327   -0.0005888729786824806
-0.001236419991952163   -0.006771743579778918   -0.000560283977753905
-0.0014308573969852272   -0.009409893422774535   -0.000605527038295894
-0.0012409839537688503   -0.006758966763478368   -0.0005748866814486216
-0.0025159530587518333   -0.006810908372312327   -0.0005888729786824806
-0.0014308573969852272   -0.009409893422774535   -0.000605527038295894
-0.0027831773548483542   -0.009436870119088716   -0.0006373829757282983
-0.0027881067396848124   -0.009414724025368552   -0.0006504526082303549
-0.0025159530587518333   -0.006810908372312327   -0.0005888729786824806
-0.0014308573969852272   -0.009409893422774535   -0.000605527038295894
-0.0027881067396848124   -0.009414724025368552   -0.0006504526082303549
-0.0012409839537688503   -0.006758966763478368   -0.0005748866814486216
-0.0025159530587518333   -0.006810908372312327   -0.0005888729786824806
-0.0027831773548483542   -0.009436870119088716   -0.0006373829757282983
-0.001236419991952163   -0.006771743579778918   -0.000560283977753905
-0.002509339512857713   -0.006829524243119206   -0.0005679696371301254
-0.0027831773548483542   -0.009436870119088716   -0.0006373829757282983
-0.0014308573969852272   -0.009409893422774535   -0.000605527038295894
-0.001236419991952163   -0.006771743579778918   -0.000560283977753905
-0.001422292437324153   -0.009422111198180615   -0.0005969425404495449
-0.002509339512857713   -0.006829524243119206   -0.0005679696371301254
-0.0012302562537216345   -0.00677979873811088   -0.0005482706873468129
-0.001422292437324153   -0.009422111198180615   -0.0005969425404495449
-0.001236419991952163   -0.006771743579778918   -0.000560283977753905
-0.002509339512857713   -0.006829524243119206   -0.0005679696371301254
-0.001422292437324153   -0.009422111198180615   -0.0005969425404495449
-0.0027728313071663916   -0.009459006547535375   -0.0006267263037096809
-0.0027831773548483542   -0.009436870119088716   -0.0006373829757282983
-0.002509339512857713   -0.006829524243119206   -0.0005679696371301254
-0.001422292437324153   -0.009422111198180615   -0.0005969425404495449
-0.0027831773548483542   -0.009436870119088716   -0.0006373829757282983
-0.001236419991952163   -0.006771743579778918   -0.000560283977753905
-0.0012447005701524618   -0.006741383064015135   -0.0005920315834166521
-0.0014443534977003202   -0.009382297774800135   -0.0006306432310707977
-1.0591554194785109e-05   -0.0067380134926358776   -0.0005657015338192811
-0.0012409839537688503   -0.006758966763478368   -0.0005748866814486216
-0.0014443534977003202   -0.009382297774800135   -0.0006306432310707977
-0.00013479690001577687   -0.009377212216847643   -0.0006126049687703542
-1.0591554194785109e-05   -0.0067380134926358776   -0.0005657015338192811
-0.00012657362892692486   -0.009381812835452912   -0.0006007152511788261
-0.0012409839537688503   -0.006758966763478368   -0.0005748866814486216
-4.753581568505199e-06   -0.006744898446817401   -0.0005572217790211102
-0.00012657362892692486   -0.009381812835452912   -0.0006007152511788261
-1.0591554194785109e-05   -0.0067380134926358776   -0.0005657015338192811
-0.0012409839537688503   -0.006758966763478368   -0.0005748866814486216
-0.00012657362892692486   -0.009381812835452912   -0.0006007152511788261
-0.0014381649560277331   -0.00939663758990984   -0.0006167834725393309
-0.0014443534977003202   -0.009382297774800135   -0.0006306432310707977
-0.0012409839537688503   -0.006758966763478368   -0.0005748866814486216
-0.00012657362892692486   -0.009381812835452912   -0.0006007152511788261
-0.0014443534977003202   -0.009382297774800135   -0.0006306432310707977
-1.0591554194785109e-05   -0.0067380134926358776   -0.0005657015338192811
-0.0012409839537688503   -0.006758966763478368   -0.0005748866814486216
-0.0014381649560277331   -0.00939663758990984   -0.0006167834725393309
-4.753581568505199e-06   -0.006744898446817401   -0.0005572217790211102
-0.001236419991952163   -0.006771743579778918   -0.000560283977753905
-0.0014381649560277331   -0.00939663758990984   -0.0006167834725393309
-0.00012657362892692486   -0.009381812835452912   -0.0006007152511788261
-4.753581568505199e-06   -0.006744898446817401   -0.0005572217790211102
-0.00011930384918321164   -0.00938524625369188   -0.0005914115700144993
-0.001236419991952163   -0.006771743579778918   -0.000560283977753905
-2.1062244216142696e-07   -0.006746941654565854   -0.000551256884765496
-0.00011930384918321164   -0.00938524625369188   -0.0005914115700144993
-4.753581568505199e-06   -0.006744898446817401   -0.0005572217790211102
-0.001236419991952163   -0.006771743579778918   -0.000560283977753905
-0.00011930384918321164   -0.00938524625369188   -0.0005914115700144993
-0.0014308573969852272   -0.009409893422774535   -0.000605527038295894
-0.0014381649560277331   -0.00939663758990984   -0.0006167834725393309
-0.001236419991952163   -0.006771743579778918   -0.000560283977753905
-0.00011930384918321164   -0.00938524625369188   -0.0005914115700144993
-0.0014381649560277331   -0.00939663758990984   -0.0006167834725393309
-4.753581568505199e-06   -0.006744898446817401   -0.0005572217790211102
-0.001236419991952163   -0.006771743579778918   -0.000560283977753905
-0.0014308573969852272   -0.009409893422774535   -0.000605527038295894
-2.1062244216142696e-07   -0.006746941654565854   -0.000551256884765496
-0.0012302562537216345   -0.00677979873811088   -0.0005482706873468129
-0.0014308573969852272   -0.009409893422774535   -0.000605527038295894
-0.00011930384918321164   -0.00938524625369188   -0.0005914115700144993
-2.1062244216142696e-07   -0.006746941654565854   -0.000551256884765496
-0.00011346428051854899   -0.009387490940975062   -0.0005847849260538764
-0.0012302562537216345   -0.00677979873811088   -0.0005482706873468129
3.1915519866071424e-06   -0.006744075561748501   -0.0005479140152264809
-0.00011346428051854899   -0.009387490940975062   -0.0005847849260538764
-2.1062244216142696e-07   -0.006746941654565854   -0.000551256884765496
-0.0012302562537216345   -0.00677979873811088   -0.0005482706873468129
-0.00011346428051854899   -0.009387490940975062   -0.0005847849260538764
-0.001422292437324153   -0.009422111198180615   -0.0005969425404495449
-0.0014308573969852272   -0.009409893422774535   -0.000605527038295894
-0.0012302562537216345   -0.00677979873811088   -0.0005482706873468129
-0.00011346428051854899   -0.009387490940975062   -0.0005847849260538764
-0.0014308573969852272   -0.009409893422774535   -0.000605527038295894
-2.1062244216142696e-07   -0.006746941654565854   -0.000551256884765496
-1.0591554194785109e-05   -0.0067380134926358776   -0.0005657015338192811
-0.00013479690001577687   -0.009377212216847643   -0.0006126049687703542
0.0012660351837980716   -0.006748796236277143   -0.0005586929214071389
-4.753581568505199e-06   -0.006744898446817401   -0.0005572217790211102
-0.00013479690001577687   -0.009377212216847643   -0.0006126049687703542
0.00121447040612962   -0.009374725074112517   -0.0006122254889114339
0.0012660351837980716   -0.006748796236277143   -0.0005586929214071389
0.001225086362595591   -0.009369856182263983   -0.0006023985693362732
-4.753581568505199e-06   -0.006744898446817401   -0.0005572217790211102
0.0012729836119718672   -0.006745561627289034   -0.000559050142385691
0.001225086362595591   -0.009369856182263983   -0.0006023985693362732
0.0012660351837980716   -0.006748796236277143   -0.0005586929214071389
-4.753581568505199e-06   -0.006744898446817401   -0.0005572217790211102
0.001225086362595591   -0.009369856182263983   -0.0006023985693362732
-0.00012657362892692486   -0.009381812835452912   -0.0006007152511788261
-0.00013479690001577687   -0.009377212216847643   -0.0006126049687703542
-4.753581568505199e-06   -0.006744898446817401   -0.0005572217790211102
0.001225086362595591   -0.009369856182263983   -0.0006023985693362732
-0.00013479690001577687   -0.009377212216847643   -0.0006126049687703542
0.0012660351837980716   -0.006748796236277143   -0.0005586929214071389
-4.753581568505199e-06   -0.006744898446817401   -0.0005572217790211102
-0.00012657362892692486   -0.009381812835452912   -0.0006007152511788261
0.0012729836119718672   -0.006745561627289034   -0.000559050142385691
-2.1062244216142696e-07   -0.006746941654565854   -0.000551256884765496
-0.00012657362892692486   -0.009381812835452912   -0.0006007152511788261
0.001225086362595591   -0.009369856182263983   -0.0006023985693362732
0.0012729836119718672   -0.006745561627289034   -0.000559050142385691
0.0012326889939889246   -0.00936440118679137   -0.000595079504875277
-2.1062244216142696e-07   -0.006746941654565854   -0.000551256884765496
0.0012749728477589506   -0.006737908709909668   -0.0005617831946226352
0.0012326889939889246   -0.00936440118679137   -0.000595079504875277
0.0012729836119718672   -0.006745561627289034   -0.000559050142385691
-2.1062244216142696e-07   -0.006746941654565854   -0.000551256884765496
0.0012326889939889246   -0.00936440118679137   -0.000595079504875277
-0.00011930384918321164   -0.00938524625369188   -0.0005914115700144993
-0.00012657362892692486   -0.009381812835452912   -0.0006007152511788261
-2.1062244216142696e-07   -0.006746941654565854   -0.000551256884765496
0.0012326889939889246   -0.00936440118679137   -0.000595079504875277
-0.00012657362892692486   -0.009381812835452912   -0.0006007152511788261
0.0012729836119718672   -0.006745561627289034   -0.000559050142385691
-2.1062244216142696e-07   -0.006746941654565854   -0.000551256884765496
-0.00011930384918321164   -0.00938524625369188   -0.0005914115700144993
0.0012749728477589506   -0.006737908709909668   -0.0005617831946226352
3.1915519866071424e-06   -0.006744075561748501   -0.0005479140152264809
-0.00011930384918321164   -0.00938524625369188   -0.0005914115700144993
0.0012326889939889246   -0.00936440118679137   -0.000595079504875277
0.0012749728477589506   -0.006737908709909668   -0.0005617831946226352
0.0012352868881474993   -0.009356640263505715   -0.0005902198809202868
3.1915519866071424e-06   -0.006744075561748501   -0.0005479140152264809
0.001273680021235882   -0.006723973416555708   -0.0005669873814778947
0.0012352868881474993   -0.009356640263505715   -0.0005902198809202868
0.0012749728477589506   -0.006737908709909668   -0.0005617831946226352
3.1915519866071424e-06   -0.006744075561748501   -0.0005479140152264809
0.0012352868881474993   -0.009356640263505715   -0.0005902198809202868
-0.00011346428051854899   -0.009387490940975062   -0.0005847849260538764
-0.00011930384918321164   -0.00938524625369188   -0.0005914115700144993
3.1915519866071424e-06   -0.006744075561748501   -0.0005479140152264809
0.0012352868881474993   -0.009356640263505715   -0.0005902198809202868
-0.00011930384918321164   -0.00938524625369188   -0.0005914115700144993
0.0012749728477589506   -0.006737908709909668   -0.0005617831946226352
0.0012660351837980716   -0.006748796236277143   -0.0005586929214071389
0.00121447040612962   -0.009374725074112517   -0.0006122254889114339
0.002675601457598487   -0.006768367587519663   -0.0005670349515568746
0.0012729836119718672   -0.006745561627289034   -0.000559050142385691
0.00121447040612962   -0.009374725074112517   -0.0006122254889114339
0.0026756143004986743   -0.009370926079296663   -0.0006279390884947262
0.002675601457598487   -0.006768367587519663   -0.0005670349515568746
0.002695929136214629   -0.009358528338459838   -0.000619419933277145
0.0012729836119718672   -0.006745561627289034   -0.000559050142385691
0.0026754739372668542   -0.006758223920784543   -0.0005767677636077491
0.002695929136214629   -0.009358528338459838   -0.000619419933277145
0.002675601457598487   -0.006768367587519663   -0.0005670349515568746
0.0012729836119718672   -0.006745561627289034   -0.000559050142385691
0.002695929136214629   -0.009358528338459838   -0.000619419933277145
0.001225086362595591   -0.009369856182263983   -0.0006023985693362732
0.00121447040612962   -0.009374725074112517   -0.0006122254889114339
0.0012729836119718672   -0.006745561627289034   -0.000559050142385691
0.002695929136214629   -0.009358528338459838   -0.000619419933277145
0.00121447040612962   -0.009374725074112517   -0.0006122254889114339
0.002675601457598487   -0.006768367587519663   -0.0005670349515568746
0.0012729836119718672   -0.006745561627289034   -0.000559050142385691
0.001225086362595591   -0.009369856182263983   -0.0006023985693362732
0.0026754739372668542   -0.006758223920784543   -0.0005767677636077491
0.0012749728477589506   -0.006737908709909668   -0.0005617831946226352
0.001225086362595591   -0.009369856182263983   -0.0006023985693362732
0.002695929136214629   -0.009358528338459838   -0.000619419933277145
0.0026754739372668542   -0.006758223920784543   -0.0005767677636077491
0.002707458450946279   -0.009348862026385697   -0.0006147256110185342
0.0012749728477589506   -0.006737908709909668   -0.0005617831946226352
0.002670836804011659   -0.006745850101338414   -0.0005903650871864835
0.002707458450946279   -0.009348862026385697   -0.0006147256110185342
0.0026754739372668542   -0.006758223920784543   -0.0005767677636077491
0.0012749728477589506   -0.006737908709909668   -0.0005617831946226352
0.002707458450946279   -0.009348862026385697   -0.0006147256110185342
0.0012326889939889246   -0.00936440118679137   -0.000595079504875277
0.001225086362595591   -0.009369856182263983   -0.0006023985693362732
0.0012749728477589506   -0.006737908709909668   -0.0005617831946226352
0.002707458450946279   -0.009348862026385697   -0.0006147256110185342
0.001225086362595591   -0.009369856182263983   -0.0006023985693362732
0.0026754739372668542   -0.006758223920784543   -0.0005767677636077491
0.0012749728477589506   -0.006737908709909668   -0.0005617831946226352
0.0012326889939889246   -0.00936440118679137   -0.000595079504875277
0.002670836804011659   -0.006745850101338414   -0.0005903650871864835
0.001273680021235882   -0.006723973416555708   -0.0005669873814778947
0.0012326889939889246   -0.00936440118679137   -0.000595079504875277
0.002707458450946279   -0.009348862026385697   -0.0006147256110185342
0.002670836804011659   -0.006745850101338414   -0.0005903650871864835
0.0027119554819240313   -0.009333739750247356   -0.0006139219277861602
0.001273680021235882   -0.006723973416555708   -0.0005669873814778947
0.0026547809309389685   -0.0067227268629759885   -0.0006077986897382156
0.0027119554819240313   -0.009333739750247356   -0.0006139219277861602
0.002670836804011659   -0.006745850101338414   -0.0005903650871864835
0.001273680021235882   -0.006723973416555708   -0.0005669873814778947
0.0027119554819240313   -0.009333739750247356   -0.0006139219277861602
0.0012352868881474993   -0.009356640263505715   -0.0005902198809202868
0.0012326889939889246   -0.00936440118679137   -0.000595079504875277
0.001273680021235882   -0.006723973416555708   -0.0005669873814778947
0.0027119554819240313   -0.009333739750247356   -0.0006139219277861602
0.0012326889939889246   -0.00936440118679137   -0.000595079504875277
0.002670836804011659   -0.006745850101338414   -0.0005903650871864835
-0.004239732197614114   -0.009405335601814486   -0.0007183154003821274
-0.004364397535220347   -0.01205122265574346   -0.0007077245105689511
-0.0027904013944782583   -0.009390867172820776   -0.00066612971805662
-0.004256079295131195   -0.009437469065980844   -0.0006995871944737216
-0.004364397535220347   -0.01205122265574346   -0.0007077245105689511
-0.0029212775576612825   -0.012058365958071644   -0.0006695168245701801
-0.0027904013944782583   -0.009390867172820776   -0.00066612971805662
-0.0029126915240620978   -0.012077873616563657   -0.0006636377868707046
-0.004256079295131195   -0.009437469065980844   -0.0006995871944737216
-0.0027881067396848124   -0.009414724025368552   -0.0006504526082303549
-0.0029126915240620978   -0.012077873616563657   -0.0006636377868707046
-0.0027904013944782583   -0.009390867172820776   -0.00066612971805662
-0.004256079295131195   -0.009437469065980844   -0.0006995871944737216
-0.0029126915240620978   -0.012077873616563657   -0.0006636377868707046
-0.004358167683804508   -0.012077372266572864   -0.0007069410765615543
-0.004364397535220347   -0.01205122265574346   -0.0007077245105689511
-0.004256079295131195   -0.009437469065980844   -0.0006995871944737216
-0.0029126915240620978   -0.012077873616563657   -0.0006636377868707046
-0.004364397535220347   -0.01205122265574346   -0.0007077245105689511
-0.0027904013944782583   -0.009390867172820776   -0.00066612971805662
-0.004256079295131195   -0.009437469065980844   -0.0006995871944737216
-0.004358167683804508   -0.012077372266572864   -0.0007069410765615543
-0.0027881067396848124   -0.009414724025368552   -0.0006504526082303549
-0.004260312500692968   -0.00946384563217955   -0.0006846078233471807
-0.004358167683804508   -0.012077372266572864   -0.0007069410765615543
-0.0029126915240620978   -0.012077873616563657   -0.0006636377868707046
-0.0027881067396848124   -0.009414724025368552   -0.0006504526082303549
-0.0028997711405618415   -0.012099660678395532   -0.0006604104875325184
-0.004260312500692968   -0.00946384563217955   -0.0006846078233471807
-0.0027831773548483542   -0.009436870119088716   -0.0006373829757282983
-0.0028997711405618415   -0.012099660678395532   -0.0006604104875325184
-0.0027881067396848124   -0.009414724025368552   -0.0006504526082303549
-0.004260312500692968   -0.00946384563217955   -0.0006846078233471807
-0.0028997711405618415   -0.012099660678395532   -0.0006604104875325184
-0.004343884445789652   -0.012102972743668707   -0.000710116131699521
-0.004358167683804508   -0.012077372266572864   -0.0007069410765615543
-0.004260312500692968   -0.00946384563217955   -0.0006846078233471807
-0.0028997711405618415   -0.012099660678395532   -0.0006604104875325184
-0.004358167683804508   -0.012077372266572864   -0.0007069410765615543
-0.0027881067396848124   -0.009414724025368552   -0.0006504526082303549
-0.004260312500692968   -0.00946384563217955   -0.0006846078233471807
-0.004343884445789652   -0.012102972743668707   -0.000710116131699521
-0.0027831773548483542   -0.009436870119088716   -0.0006373829757282983
-0.004260642081234422   -0.009492707278755097   -0.0006737125229832072
-0.004343884445789652   -0.012102972743668707   -0.000710116131699521
-0.0028997711405618415   -0.012099660678395532   -0.0006604104875325184
-0.0027831773548483542   -0.009436870119088716   -0.0006373829757282983
-0.002883319597509427   -0.012125239499724627   -0.0006597793356287828
-0.004260642081234422   -0.009492707278755097   -0.0006737125229832072
-0.0027728313071663916   -0.009459006547535375   -0.0006267263037096809
-0.002883319597509427   -0.012125239499724627   -0.0006597793356287828
-0.0027831773548483542   -0.009436870119088716   -0.0006373829757282983
-0.004260642081234422   -0.009492707278755097   -0.0006737125229832072
-0.002883319597509427   -0.012125239499724627   -0.0006597793356287828
-0.004321351958916151   -0.012136137698875199   -0.0007174657159955838
-0.004343884445789652   -0.012102972743668707   -0.000710116131699521
-0.004260642081234422   -0.009492707278755097   -0.0006737125229832072
-0.002883319597509427   -0.012125239499724627   -0.0006597793356287828
-0.004343884445789652   -0.012102972743668707   -0.000710116131699521
-0.0027831773548483542   -0.009436870119088716   -0.0006373829757282983
-0.0027904013944782583   -0.009390867172820776   -0.00066612971805662
-0.0029212775576612825   -0.012058365958071644   -0.0006695168245701801
-0.0014443534977003202   -0.009382297774800135   -0.0006306432310707977
-0.0027881067396848124   -0.009414724025368552   -0.0006504526082303549
-0.0029212775576612825   -0.012058365958071644   -0.0006695168245701801
-0.0015986621898053952   -0.01205973000347051   -0.0006441693498421553
-0.0014443534977003202   -0.009382297774800135   -0.0006306432310707977
-0.0015874916364356946   -0.012070820648357227   -0.0006334701738741015
-0.0027881067396848124   -0.009414724025368552   -0.0006504526082303549
-0.0014381649560277331   -0.00939663758990984   -0.0006167834725393309
-0.0015874916364356946   -0.012070820648357227   -0.0006334701738741015
-0.0014443534977003202   -0.009382297774800135   -0.0006306432310707977
-0.0027881067396848124   -0.009414724025368552   -0.0006504526082303549
-0.0015874916364356946   -0.012070820648357227   -0.0006334701738741015
-0.0029126915240620978   -0.012077873616563657   -0.0006636377868707046
-0.0029212775576612825   -0.012058365958071644   -0.0006695168245701801
-0.0027881067396848124   -0.009414724025368552   -0.0006504526082303549
-0.0015874916364356946   -0.012070820648357227   -0.0006334701738741015
-0.0029212775576612825   -0.012058365958071644   -0.0006695168245701801
-0.0014443534977003202   -0.009382297774800135   -0.0006306432310707977
-0.0027881067396848124   -0.009414724025368552   -0.0006504526082303549
-0.0029126915240620978   -0.012077873616563657   -0.0006636377868707046
-0.0014381649560277331   -0.00939663758990984   -0.0006167834725393309
-0.0027831773548483542   -0.009436870119088716   -0.0006373829757282983
-0.0029126915240620978   -0.012077873616563657   -0.0006636377868707046
-0.0015874916364356946   -0.012070820648357227   -0.0006334701738741015
-0.0014381649560277331   -0.00939663758990984   -0.0006167834725393309
-0.0015749936212080034   -0.012084466973412242   -0.0006254279655421537
-0.0027831773548483542   -0.009436870119088716   -0.0006373829757282983
-0.0014308573969852272   -0.009409893422774535   -0.000605527038295894
-0.0015749936212080034   -0.012084466973412242   -0.0006254279655421537
-0.0014381649560277331   -0.00939663758990984   -0.0006167834725393309
-0.0027831773548483542   -0.009436870119088716   -0.0006373829757282983
-0.0015749936212080034   -0.012084466973412242   -0.0006254279655421537
-0.0028997711405618415   -0.012099660678395532   -0.0006604104875325184
-0.0029126915240620978   -0.012077873616563657   -0.0006636377868707046
-0.0027831773548483542   -0.009436870119088716   -0.0006373829757282983
-0.0015749936212080034   -0.012084466973412242   -0.0006254279655421537
-0.0029126915240620978   -0.012077873616563657   -0.0006636377868707046
-0.0014381649560277331   -0.00939663758990984   -0.0006167834725393309
-0.0027831773548483542   -0.009436870119088716   -0.0006373829757282983
-0.0028997711405618415   -0.012099660678395532   -0.0006604104875325184
-0.0014308573969852272   -0.009409893422774535   -0.000605527038295894
-0.0027728313071663916   -0.009459006547535375   -0.0006267263037096809
-0.0028997711405618415   -0.012099660678395532   -0.0006604104875325184
-0.0015749936212080034   -0.012084466973412242   -0.0006254279655421537
-0.0014308573969852272   -0.009409893422774535   -0.000605527038295894
-0.001561575586891589   -0.012100711892183437   -0.0006201354986680356
-0.0027728313071663916   -0.009459006547535375   -0.0006267263037096809
-0.001422292437324153   -0.009422111198180615   -0.0005969425404495449
-0.001561575586891589   -0.012100711892183437   -0.0006201354986680356
-0.0014308573969852272   -0.009409893422774535   -0.000605527038295894
-0.0027728313071663916   -0.009459006547535375   -0.0006267263037096809
-0.001561575586891589   -0.012100711892183437   -0.0006201354986680356
-0.002883319597509427   -0.012125239499724627   -0.0006597793356287828
-0.0028997711405618415   -0.012099660678395532   -0.0006604104875325184
-0.0027728313071663916   -0.009459006547535375   -0.0006267263037096809
-0.001561575586891589   -0.012100711892183437   -0.0006201354986680356
-0.0028997711405618415   -0.012099660678395532   -0.0006604104875325184
-0.0014308573969852272   -0.009409893422774535   -0.000605527038295894
-0.0014443534977003202   -0.009382297774800135   -0.0006306432310707977
-0.0015986621898053952   -0.01205973000347051   -0.0006441693498421553
-0.00013479690001577687   -0.009377212216847643   -0.0006126049687703542
-0.0014381649560277331   -0.00939663758990984   -0.0006167834725393309
-0.0015986621898053952   -0.01205973000347051   -0.0006441693498421553
-0.00031330150686900075   -0.01205249522081572   -0.0006341760143454255
-0.00013479690001577687   -0.009377212216847643   -0.0006126049687703542
-0.00030020603333501494   -0.012054838397959207   -0.0006188989455906318
-0.0014381649560277331   -0.00939663758990984   -0.0006167834725393309
-0.00012657362892692486   -0.009381812835452912   -0.0006007152511788261
-0.00030020603333501494   -0.012054838397959207   -0.0006188989455906318
-0.00013479690001577687   -0.009377212216847643   -0.0006126049687703542
-0.0014381649560277331   -0.00939663758990984   -0.0006167834725393309
-0.00030020603333501494   -0.012054838397959207   -0.0006188989455906318
-0.0015874916364356946   -0.012070820648357227   -0.0006334701738741015
-0.0015986621898053952   -0.01205973000347051   -0.0006441693498421553
-0.0014381649560277331   -0.00939663758990984   -0.0006167834725393309
-0.00030020603333501494   -0.012054838397959207   -0.0006188989455906318
-0.0015986621898053952   -0.01205973000347051   -0.0006441693498421553
-0.00013479690001577687   -0.009377212216847643   -0.0006126049687703542
-0.0014381649560277331   -0.00939663758990984   -0.0006167834725393309
-0.0015874916364356946   -0.012070820648357227   -0.0006334701738741015
-0.00012657362892692486   -0.009381812835452912   -0.0006007152511788261
-0.0014308573969852272   -0.009409893422774535   -0.000605527038295894
-0.0015874916364356946   -0.012070820648357227   -0.0006334701738741015
-0.00030020603333501494   -0.012054838397959207   -0.0006188989455906318
-0.00012657362892692486   -0.009381812835452912   -0.0006007152511788261
-0.00028777565934927157   -0.012059552535322739   -0.000606265507574027
-0.0014308573969852272   -0.009409893422774535   -0.000605527038295894
-0.00011930384918321164   -0.00938524625369188   -0.0005914115700144993
-0.00028777565934927157   -0.012059552535322739   -0.000606265507574027
-0.00012657362892692486   -0.009381812835452912   -0.0006007152511788261
-0.0014308573969852272   -0.009409893422774535   -0.000605527038295894
-0.00028777565934927157   -0.012059552535322739   -0.000606265507574027
-0.0015749936212080034   -0.012084466973412242   -0.0006254279655421537
-0.0015874916364356946   -0.012070820648357227   -0.0006334701738741015
-0.0014308573969852272   -0.009409893422774535   -0.000605527038295894
-0.00028777565934927157   -0.012059552535322739   -0.000606265507574027
-0.0015874916364356946   -0.012070820648357227   -0.0006334701738741015
-0.00012657362892692486   -0.009381812835452912   -0.0006007152511788261
-0.0014308573969852272   -0.009409893422774535   -0.000605527038295894
-0.0015749936212080034   -0.012084466973412242   -0.0006254279655421537
-0.00011930384918321164   -0.00938524625369188   -0.0005914115700144993
-0.001422292437324153   -0.009422111198180615   -0.0005969425404495449
-0.0015749936212080034   -0.012084466973412242   -0.0006254279655421537
-0.00028777565934927157   -0.012059552535322739   -0.000606265507574027
-0.00011930384918321164   -0.00938524625369188   -0.0005914115700144993
-0.0002770783823509398   -0.012066737973782488   -0.0005963650661267317
-0.001422292437324153   -0.009422111198180615   -0.0005969425404495449
-0.00011346428051854899   -0.009387490940975062   -0.0005847849260538764
-0.0002770783823509398   -0.012066737973782488   -0.0005963650661267317
-0.00011930384918321164   -0.00938524625369188   -0.0005914115700144993
-0.001422292437324153   -0.009422111198180615   -0.0005969425404495449
-0.0002770783823509398   -0.012066737973782488   -0.0005963650661267317
-0.001561575586891589   -0.012100711892183437   -0.0006201354986680356
-0.0015749936212080034   -0.012084466973412242   -0.0006254279655421537
-0.001422292437324153   -0.009422111198180615   -0.0005969425404495449
-0.0002770783823509398   -0.012066737973782488   -0.0005963650661267317
-0.0015749936212080034   -0.012084466973412242   -0.0006254279655421537
-0.00011930384918321164   -0.00938524625369188   -0.0005914115700144993
-0.00013479690001577687   -0.009377212216847643   -0.0006126049687703542
-0.00031330150686900075   -0.01205249522081572   -0.0006341760143454255
0.00121447040612962   -0.009374725074112517   -0.0006122254889114339
-0.00012657362892692486   -0.009381812835452912   -0.0006007152511788261
-0.00031330150686900075   -0.01205249522081572   -0.0006341760143454255
0.0010100784920602452   -0.01203651719506214   -0.0006400716303857641
0.00121447040612962   -0.009374725074112517   -0.0006122254889114339
0.0010266605059405653   -0.012030058099011436   -0.000620276163010211
-0.00012657362892692486   -0.009381812835452912   -0.0006007152511788261
0.001225086362595591   -0.009369856182263983   -0.0006023985693362732
0.0010266605059405653   -0.012030058099011436   -0.000620276163010211
0.00121447040612962   -0.009374725074112517   -0.0006122254889114339
-0.00012657362892692486   -0.009381812835452912   -0.0006007152511788261
0.0010266605059405653   -0.012030058099011436   -0.000620276163010211
-0.00030020603333501494   -0.012054838397959207   -0.0006188989455906318
-0.00031330150686900075   -0.01205249522081572   -0.0006341760143454255
-0.00012657362892692486   -0.009381812835452912   -0.0006007152511788261
0.0010266605059405653   -0.012030058099011436   -0.000620276163010211
-0.00031330150686900075   -0.01205249522081572   -0.0006341760143454255
0.00121447040612962   -0.009374725074112517   -0.0006122254889114339
-0.00012657362892692486   -0.009381812835452912   -0.0006007152511788261
-0.00030020603333501494   -0.012054838397959207   -0.0006188989455906318
0.001225086362595591   -0.009369856182263983   -0.0006023985693362732
-0.00011930384918321164   -0.00938524625369188   -0.0005914115700144993
-0.00030020603333501494   -0.012054838397959207   -0.0006188989455906318
0.0010266605059405653   -0.012030058099011436   -0.000620276163010211
0.001225086362595591   -0.009369856182263983   -0.0006023985693362732
0.0010421357086075596   -0.012026682620713092   -0.0006031129427945367
-0.00011930384918321164   -0.00938524625369188   -0.0005914115700144993
0.0012326889939889246   -0.00936440118679137   -0.000595079504875277
0.0010421357086075596   -0.012026682620713092   -0.0006031129427945367
0.001225086362595591   -0.009369856182263983   -0.0006023985693362732
-0.00011930384918321164   -0.00938524625369188   -0.0005914115700144993
0.0010421357086075596   -0.012026682620713092   -0.0006031129427945367
-0.00028777565934927157   -0.012059552535322739   -0.000606265507574027
-0.00030020603333501494   -0.012054838397959207   -0.0006188989455906318
-0.00011930384918321164   -0.00938524625369188   -0.0005914115700144993
0.0010421357086075596   -0.012026682620713092   -0.0006031129427945367
-0.00030020603333501494   -0.012054838397959207   -0.0006188989455906318
0.001225086362595591   -0.009369856182263983   -0.0006023985693362732
-0.00011930384918321164   -0.00938524625369188   -0.0005914115700144993
-0.00028777565934927157   -0.012059552535322739   -0.000606265507574027
0.0012326889939889246   -0.00936440118679137   -0.000595079504875277
-0.00011346428051854899   -0.009387490940975062   -0.0005847849260538764
-0.00028777565934927157   -0.012059552535322739   -0.000606265507574027
0.0010421357086075596   -0.012026682620713092   -0.0006031129427945367
0.0012326889939889246   -0.00936440118679137   -0.000595079504875277
0.001050877035031351   -0.012024850237419912   -0.0005884100516066644
-0.00011346428051854899   -0.009387490940975062   -0.0005847849260538764
0.0012352868881474993   -0.009356640263505715   -0.0005902198809202868
0.001050877035031351   -0.012024850237419912   -0.0005884100516066644
0.0012326889939889246   -0.00936440118679137   -0.000595079504875277
-0.00011346428051854899   -0.009387490940975062   -0.0005847849260538764
0.001050877035031351   -0.012024850237419912   -0.0005884100516066644
-0.0002770783823509398   -0.012066737973782488   -0.0005963650661267317
-0.00028777565934927157   -0.012059552535322739   -0.000606265507574027
-0.00011346428051854899   -0.009387490940975062   -0.0005847849260538764
0.001050877035031351   -0.012024850237419912   -0.0005884100516066644
-0.00028777565934927157   -0.012059552535322739   -0.000606265507574027
0.0012326889939889246   -0.00936440118679137   -0.000595079504875277
0.00121447040612962   -0.009374725074112517   -0.0006122254889114339
0.0010100784920602452   -0.01203651719506214   -0.0006400716303857641
0.0026756143004986743   -0.009370926079296663   -0.0006279390884947262
0.001225086362595591   -0.009369856182263983   -0.0006023985693362732
0.0010100784920602452   -0.01203651719506214   -0.0006400716303857641
0.0024250421930756406   -0.012009478370109775   -0.0006628333289504931
0.0026756143004986743   -0.009370926079296663   -0.0006279390884947262
0.0024675915928620935   -0.011994996794638276   -0.0006366351014863781
0.001225086362595591   -0.009369856182263983   -0.0006023985693362732
0.002695929136214629   -0.009358528338459838   -0.000619419933277145
0.0024675915928620935   -0.011994996794638276   -0.0006366351014863781
0.0026756143004986743   -0.009370926079296663   -0.0006279390884947262
0.001225086362595591   -0.009369856182263983   -0.0006023985693362732
0.0024675915928620935   -0.011994996794638276   -0.0006366351014863781
0.0010266605059405653   -0.012030058099011436   -0.000620276163010211
0.0010100784920602452   -0.01203651719506214   -0.0006400716303857641
0.001225086362595591   -0.009369856182263983   -0.0006023985693362732
0.0024675915928620935   -0.011994996794638276   -0.0006366351014863781
0.0010100784920602452   -0.01203651719506214   -0.0006400716303857641
0.0026756143004986743   -0.009370926079296663   -0.0006279390884947262
0.001225086362595591   -0.009369856182263983   -0.0006023985693362732
0.0010266605059405653   -0.012030058099011436   -0.000620276163010211
0.002695929136214629   -0.009358528338459838   -0.000619419933277145
0.0012326889939889246   -0.00936440118679137   -0.000595079504875277
0.0010266605059405653   -0.012030058099011436   -0.000620276163010211
0.0024675915928620935   -0.011994996794638276   -0.0006366351014863781
0.002695929136214629   -0.009358528338459838   -0.000619419933277145
0.002497205501180054   -0.01198795192084159   -0.0006142011504847718
0.0012326889939889246   -0.00936440118679137   -0.000595079504875277
0.002707458450946279   -0.009348862026385697   -0.0006147256110185342
0.002497205501180054   -0.01198795192084159   -0.0006142011504847718
0.002695929136214629   -0.009358528338459838   -0.000619419933277145
0.0012326889939889246   -0.00936440118679137   -0.000595079504875277
0.002497205501180054   -0.01198795192084159   -0.0006142011504847718
0.0010421357086075596   -0.012026682620713092   -0.0006031129427945367
0.0010266605059405653   -0.012030058099011436   -0.000620276163010211
0.0012326889939889246   -0.00936440118679137   -0.000595079504875277
0.002497205501180054   -0.01198795192084159   -0.0006142011504847718
0.0010266605059405653   -0.012030058099011436   -0.000620276163010211
0.002695929136214629   -0.009358528338459838   -0.000619419933277145
0.0012326889939889246   -0.00936440118679137   -0.000595079504875277
0.0010421357086075596   -0.012026682620713092   -0.0006031129427945367
0.002707458450946279   -0.009348862026385697   -0.0006147256110185342
0.0012352868881474993   -0.009356640263505715   -0.0005902198809202868
0.0010421357086075596   -0.012026682620713092   -0.0006031129427945367
0.002497205501180054   -0.01198795192084159   -0.0006142011504847718
0.002707458450946279   -0.009348862026385697   -0.0006147256110185342
0.00252399716878861   -0.011980551353634962   -0.0005956916020065048
0.0012352868881474993   -0.009356640263505715   -0.0005902198809202868
0.0027119554819240313   -0.009333739750247356   -0.0006139219277861602
0.00252399716878861   -0.011980551353634962   -0.0005956916020065048
0.002707458450946279   -0.009348862026385697   -0.0006147256110185342
0.0012352868881474993   -0.009356640263505715   -0.0005902198809202868
0.00252399716878861   -0.011980551353634962   -0.0005956916020065048
0.001050877035031351   -0.012024850237419912   -0.0005884100516066644
0.0010421357086075596   -0.012026682620713092   -0.0006031129427945367
0.0012352868881474993   -0.009356640263505715   -0.0005902198809202868
0.00252399716878861   -0.011980551353634962   -0.0005956916020065048
0.0010421357086075596   -0.012026682620713092   -0.0006031129427945367
0.002707458450946279   -0.009348862026385697   -0.0006147256110185342
-0.004364397535220347   -0.01205122265574346   -0.0007077245105689511
-0.004243096512062553   -0.014568824259457519   -0.0006779337913747878
-0.0029212775576612825   -0.012058365958071644   -0.0006695168245701801
-0.004358167683804508   -0.012077372266572864   -0.0007069410765615543
-0.004243096512062553   -0.014568824259457519   -0.0006779337913747878
-0.002907995485771653   -0.014597713185727125   -0.0006552110590171862
-0.0029212775576612825   -0.012058365958071644   -0.0006695168245701801
-0.002890847017373733   -0.014612174779363107   -0.0006587797773183051
-0.004358167683804508   -0.012077372266572864   -0.0007069410765615543
-0.0029126915240620978   -0.012077873616563657   -0.0006636377868707046
-0.002890847017373733   -0.014612174779363107   -0.0006587797773183051
-0.0029212775576612825   -0.012058365958071644   -0.0006695168245701801
-0.004358167683804508   -0.012077372266572864   -0.0007069410765615543
-0.002890847017373733   -0.014612174779363107   -0.0006587797773183051
-0.004212083328525547   -0.014588367239607282   -0.0006949379619405453
-0.004243096512062553   -0.014568824259457519   -0.0006779337913747878
-0.004358167683804508   -0.012077372266572864   -0.0007069410765615543
-0.002890847017373733   -0.014612174779363107   -0.0006587797773183051
-0.004243096512062553   -0.014568824259457519   -0.0006779337913747878
-0.0029212775576612825   -0.012058365958071644   -0.0006695168245701801
-0.004358167683804508   -0.012077372266572864   -0.0007069410765615543
-0.004212083328525547   -0.014588367239607282   -0.0006949379619405453
-0.0029126915240620978   -0.012077873616563657   -0.0006636377868707046
-0.004343884445789652   -0.012102972743668707   -0.000710116131699521
-0.004212083328525547   -0.014588367239607282   -0.0006949379619405453
-0.002890847017373733   -0.014612174779363107   -0.0006587797773183051
-0.0029126915240620978   -0.012077873616563657   -0.0006636377868707046
-0.0028677844285557004   -0.014632980902814788   -0.0006650342996520882
-0.004343884445789652   -0.012102972743668707   -0.000710116131699521
-0.0028997711405618415   -0.012099660678395532   -0.0006604104875325184
-0.0028677844285557004   -0.014632980902814788   -0.0006650342996520882
-0.0029126915240620978   -0.012077873616563657   -0.0006636377868707046
-0.004343884445789652   -0.012102972743668707   -0.000710116131699521
-0.0028677844285557004   -0.014632980902814788   -0.0006650342996520882
-0.00417701350755207   -0.014612626198767579   -0.0007161603588581257
-0.004212083328525547   -0.014588367239607282   -0.0006949379619405453
-0.004343884445789652   -0.012102972743668707   -0.000710116131699521
-0.0028677844285557004   -0.014632980902814788   -0.0006650342996520882
-0.004212083328525547   -0.014588367239607282   -0.0006949379619405453
-0.0029126915240620978   -0.012077873616563657   -0.0006636377868707046
-0.004343884445789652   -0.012102972743668707   -0.000710116131699521
-0.00417701350755207   -0.014612626198767579   -0.0007161603588581257
-0.0028997711405618415   -0.012099660678395532   -0.0006604104875325184
-0.004321351958916151   -0.012136137698875199   -0.0007174657159955838
-0.00417701350755207   -0.014612626198767579   -0.0007161603588581257
-0.0028677844285557004   -0.014632980902814788   -0.0006650342996520882
-0.0028997711405618415   -0.012099660678395532   -0.0006604104875325184
-0.002843108527073913   -0.01466141131273967   -0.000674042969391504
-0.004321351958916151   -0.012136137698875199   -0.0007174657159955838
-0.002883319597509427   -0.012125239499724627   -0.0006597793356287828
-0.002843108527073913   -0.01466141131273967   -0.000674042969391504
-0.0028997711405618415   -0.012099660678395532   -0.0006604104875325184
-0.004321351958916151   -0.012136137698875199   -0.0007174657159955838
-0.002843108527073913   -0.01466141131273967   -0.000674042969391504
-0.004129497124162914   -0.014649693286537962   -0.0007416955679034242
-0.00417701350755207   -0.014612626198767579   -0.0007161603588581257
-0.004321351958916151   -0.012136137698875199   -0.0007174657159955838
-0.002843108527073913   -0.01466141131273967   -0.000674042969391504
-0.00417701350755207   -0.014612626198767579   -0.0007161603588581257
-0.0028997711405618415   -0.012099660678395532   -0.0006604104875325184
-0.0029212775576612825   -0.012058365958071644   -0.0006695168245701801
-0.002907995485771653   -0.014597713185727125   -0.0006552110590171862
-0.0015986621898053952   -0.01205973000347051   -0.0006441693498421553
-0.0029126915240620978   -0.012077873616563657   -0.0006636377868707046
-0.002907995485771653   -0.014597713185727125   -0.0006552110590171862
-0.0017094263821380601   -0.014608872222006975   -0.0006407346989985585
-0.0015986621898053952   -0.01205973000347051   -0.0006441693498421553
-0.0016908387606340933   -0.014616296005742845   -0.0006329312766061255
-0.0029126915240620978   -0.012077873616563657   -0.0006636377868707046
-0.0015874916364356946   -0.012070820648357227   -0.0006334701738741015
-0.0016908387606340933   -0.014616296005742845   -0.0006329312766061255
-0.0015986621898053952   -0.01205973000347051   -0.0006441693498421553
-0.0029126915240620978   -0.012077873616563657   -0.0006636377868707046
-0.0016908387606340933   -0.014616296005742845   -0.0006329312766061255
-0.002890847017373733   -0.014612174779363107   -0.0006587797773183051
-0.002907995485771653   -0.014597713185727125   -0.0006552110590171862
-0.0029126915240620978   -0.012077873616563657   -0.0006636377868707046
-0.0016908387606340933   -0.014616296005742845   -0.0006329312766061255
-0.002907995485771653   -0.014597713185727125   -0.0006552110590171862
-0.0015986621898053952   -0.01205973000347051   -0.0006441693498421553
-0.0029126915240620978   -0.012077873616563657   -0.0006636377868707046
-0.002890847017373733   -0.014612174779363107   -0.0006587797773183051
-0.0015874916364356946   -0.012070820648357227   -0.0006334701738741015
-0.0028997711405618415   -0.012099660678395532   -0.0006604104875325184
-0.002890847017373733   -0.014612174779363107   -0.0006587797773183051
-0.0016908387606340933   -0.014616296005742845   -0.0006329312766061255
-0.0015874916364356946   -0.012070820648357227   -0.0006334701738741015
-0.0016708774355940798   -0.014629801976687154   -0.0006277788835136841
-0.0028997711405618415   -0.012099660678395532   -0.0006604104875325184
-0.0015749936212080034   -0.012084466973412242   -0.0006254279655421537
-0.0016708774355940798   -0.014629801976687154   -0.0006277788835136841
-0.0015874916364356946   -0.012070820648357227   -0.0006334701738741015
-0.0028997711405618415   -0.012099660678395532   -0.0006604104875325184
-0.0016708774355940798   -0.014629801976687154   -0.0006277788835136841
-0.0028677844285557004   -0.014632980902814788   -0.0006650342996520882
-0.002890847017373733   -0.014612174779363107   -0.0006587797773183051
-0.0028997711405618415   -0.012099660678395532   -0.0006604104875325184
-0.0016708774355940798   -0.014629801976687154   -0.0006277788835136841
-0.002890847017373733   -0.014612174779363107   -0.0006587797773183051
-0.0015874916364356946   -0.012070820648357227   -0.0006334701738741015
-0.0028997711405618415   -0.012099660678395532   -0.0006604104875325184
-0.0028677844285557004   -0.014632980902814788   -0.0006650342996520882
-0.0015749936212080034   -0.012084466973412242   -0.0006254279655421537
-0.002883319597509427   -0.012125239499724627   -0.0006597793356287828
-0.0028677844285557004   -0.014632980902814788   -0.0006650342996520882
-0.0016708774355940798   -0.014629801976687154   -0.0006277788835136841
-0.0015749936212080034   -0.012084466973412242   -0.0006254279655421537
-0.0016503613372243512   -0.014649551941800938   -0.0006254140833251493
-0.002883319597509427   -0.012125239499724627   -0.0006597793356287828
-0.001561575586891589   -0.012100711892183437   -0.0006201354986680356
-0.0016503613372243512   -0.014649551941800938   -0.0006254140833251493
-0.0015749936212080034   -0.012084466973412242   -0.0006254279655421537
-0.002883319597509427   -0.012125239499724627   -0.0006597793356287828
-0.0016503613372243512   -0.014649551941800938   -0.0006254140833251493
-0.002843108527073913   -0.01466141131273967   -0.000674042969391504
-0.0028677844285557004   -0.014632980902814788   -0.0006650342996520882
-0.002883319597509427   -0.012125239499724627   -0.0006597793356287828
-0.0016503613372243512   -0.014649551941800938   -0.0006254140833251493
-0.0028677844285557004   -0.014632980902814788   -0.0006650342996520882
-0.0015749936212080034   -0.012084466973412242   -0.0006254279655421537
-0.0015986621898053952   -0.01205973000347051   -0.0006441693498421553
-0.0017094263821380601   -0.014608872222006975   -0.0006407346989985585
-0.00031330150686900075   -0.01205249522081572   -0.0006341760143454255
-0.0015874916364356946   -0.012070820648357227   -0.0006334701738741015
-0.0017094263821380601   -0.014608872222006975   -0.0006407346989985585
-0.0005468621166443333   -0.014599768672314833   -0.0006388098882175765
-0.00031330150686900075   -0.01205249522081572   -0.0006341760143454255
-0.0005263179131923715   -0.01459970050842118   -0.0006200243668922455
-0.0015874916364356946   -0.012070820648357227   -0.0006334701738741015
-0.00030020603333501494   -0.012054838397959207   -0.0006188989455906318
-0.0005263179131923715   -0.01459970050842118   -0.0006200243668922455
-0.00031330150686900075   -0.01205249522081572   -0.0006341760143454255
-0.0015874916364356946   -0.012070820648357227   -0.0006334701738741015
-0.0005263179131923715   -0.01459970050842118   -0.0006200243668922455
-0.0016908387606340933   -0.014616296005742845   -0.0006329312766061255
-0.0017094263821380601   -0.014608872222006975   -0.0006407346989985585
-0.0015874916364356946   -0.012070820648357227   -0.0006334701738741015
-0.0005263179131923715   -0.01459970050842118   -0.0006200243668922455
-0.0017094263821380601   -0.014608872222006975   -0.0006407346989985585
-0.00031330150686900075   -0.01205249522081572   -0.0006341760143454255
-0.0015874916364356946   -0.012070820648357227   -0.0006334701738741015
-0.0016908387606340933   -0.014616296005742845   -0.0006329312766061255
-0.00030020603333501494   -0.012054838397959207   -0.0006188989455906318
-0.0015749936212080034   -0.012084466973412242   -0.0006254279655421537
-0.0016908387606340933   -0.014616296005742845   -0.0006329312766061255
-0.0005263179131923715   -0.01459970050842118   -0.0006200243668922455
-0.00030020603333501494   -0.012054838397959207   -0.0006188989455906318
-0.0005062892162782283   -0.014605295446119482   -0.0006039011019219402
-0.0015749936212080034   -0.012084466973412242   -0.0006254279655421537
-0.00028777565934927157   -0.012059552535322739   -0.000606265507574027
-0.0005062892162782283   -0.014605295446119482   -0.0006039011019219402
-0.00030020603333501494   -0.012054838397959207   -0.0006188989455906318
-0.0015749936212080034   -0.012084466973412242   -0.0006254279655421537
-0.0005062892162782283   -0.014605295446119482   -0.0006039011019219402
-0.0016708774355940798   -0.014629801976687154   -0.0006277788835136841
-0.0016908387606340933   -0.014616296005742845   -0.0006329312766061255
-0.0015749936212080034   -0.012084466973412242   -0.0006254279655421537
-0.0005062892162782283   -0.014605295446119482   -0.0006039011019219402
-0.0016908387606340933   -0.014616296005742845   -0.0006329312766061255
-0.00030020603333501494   -0.012054838397959207   -0.0006188989455906318
-0.0015749936212080034   -0.012084466973412242   -0.0006254279655421537
-0.0016708774355940798   -0.014629801976687154   -0.0006277788835136841
-0.00028777565934927157   -0.012059552535322739   -0.000606265507574027
-0.001561575586891589   -0.012100711892183437   -0.0006201354986680356
-0.0016708774355940798   -0.014629801976687154   -0.0006277788835136841
-0.0005062892162782283   -0.014605295446119482   -0.0006039011019219402
-0.00028777565934927157   -0.012059552535322739   -0.000606265507574027
-0.000488352185645417   -0.014616995298987029   -0.0005905305273027218
-0.001561575586891589   -0.012100711892183437   -0.0006201354986680356
-0.0002770783823509398   -0.012066737973782488   -0.0005963650661267317
-0.000488352185645417   -0.014616995298987029   -0.0005905305273027218
-0.00028777565934927157   -0.012059552535322739   -0.000606265507574027
-0.001561575586891589   -0.012100711892183437   -0.0006201354986680356
-0.000488352185645417   -0.014616995298987029   -0.0005905305273027218
-0.0016503613372243512   -0.014649551941800938   -0.0006254140833251493
-0.0016708774355940798   -0.014629801976687154   -0.0006277788835136841
-0.001561575586891589   -0.012100711892183437   -0.0006201354986680356
-0.000488352185645417   -0.014616995298987029   -0.0005905305273027218
-0.0016708774355940798   -0.014629801976687154   -0.0006277788835136841
-0.00028777565934927157   -0.012059552535322739   -0.000606265507574027
-0.00031330150686900075   -0.01205249522081572   -0.0006341760143454255
-0.0005468621166443333   -0.014599768672314833   -0.0006388098882175765
0.0010100784920602452   -0.01203651719506214   -0.0006400716303857641
-0.00030020603333501494   -0.012054838397959207   -0.0006188989455906318
-0.0005468621166443333   -0.014599768672314833   -0.0006388098882175765
0.0006545140164916169   -0.014570882185033884   -0.000650413014734576
0.0010100784920602452   -0.01203651719506214   -0.0006400716303857641
0.0006796595150799085   -0.014562813437228846   -0.0006207246083352272
-0.00030020603333501494   -0.012054838397959207   -0.0006188989455906318
0.0010266605059405653   -0.012030058099011436   -0.000620276163010211
0.0006796595150799085   -0.014562813437228846   -0.0006207246083352272
0.0010100784920602452   -0.01203651719506214   -0.0006400716303857641
-0.00030020603333501494   -0.012054838397959207   -0.0006188989455906318
0.0006796595150799085   -0.014562813437228846   -0.0006207246083352272
-0.0005263179131923715   -0.01459970050842118   -0.0006200243668922455
-0.0005468621166443333   -0.014599768672314833   -0.0006388098882175765
-0.00030020603333501494   -0.012054838397959207   -0.0006188989455906318
0.0006796595150799085   -0.014562813437228846   -0.0006207246083352272
-0.0005468621166443333   -0.014599768672314833   -0.0006388098882175765
0.0010100784920602452   -0.01203651719506214   -0.0006400716303857641
-0.00030020603333501494   -0.012054838397959207   -0.0006188989455906318
-0.0005263179131923715   -0.01459970050842118   -0.0006200243668922455
0.0010266605059405653   -0.012030058099011436   -0.000620276163010211
-0.00028777565934927157   -0.012059552535322739   -0.000606265507574027
-0.0005263179131923715   -0.01459970050842118   -0.0006200243668922455
0.0006796595150799085   -0.014562813437228846   -0.0006207246083352272
0.0010266605059405653   -0.012030058099011436   -0.000620276163010211
0.0007055351102688192   -0.01456122644455523   -0.0005938625391698585
-0.00028777565934927157   -0.012059552535322739   -0.000606265507574027
0.0010421357086075596   -0.012026682620713092   -0.0006031129427945367
0.0007055351102688192   -0.01456122644455523   -0.0005938625391698585
0.0010266605059405653   -0.012030058099011436   -0.000620276163010211
-0.00028777565934927157   -0.012059552535322739   -0.000606265507574027
0.0007055351102688192   -0.01456122644455523   -0.0005938625391698585
-0.0005062892162782283   -0.014605295446119482   -0.0006039011019219402
-0.0005263179131923715   -0.01459970050842118   -0.0006200243668922455
-0.00028777565934927157   -0.012059552535322739   -0.000606265507574027
0.0007055351102688192   -0.01456122644455523   -0.0005938625391698585
-0.0005263179131923715   -0.01459970050842118   -0.0006200243668922455
0.0010266605059405653   -0.012030058099011436   -0.000620276163010211
-0.00028777565934927157   -0.012059552535322739   -0.000606265507574027
-0.0005062892162782283   -0.014605295446119482   -0.0006039011019219402
0.0010421357086075596   -0.012026682620713092   -0.0006031129427945367
-0.0002770783823509398   -0.012066737973782488   -0.0005963650661267317
-0.0005062892162782283   -0.014605295446119482   -0.0006039011019219402
0.0007055351102688192   -0.01456122644455523   -0.0005938625391698585
0.0010421357086075596   -0.012026682620713092   -0.0006031129427945367
0.0007229033760521646   -0.014564944503264551   -0.0005694520695914055
-0.0002770783823509398   -0.012066737973782488   -0.0005963650661267317
0.001050877035031351   -0.012024850237419912   -0.0005884100516066644
0.0007229033760521646   -0.014564944503264551   -0.0005694520695914055
0.0010421357086075596   -0.012026682620713092   -0.0006031129427945367
-0.0002770783823509398   -0.012066737973782488   -0.0005963650661267317
0.0007229033760521646   -0.014564944503264551   -0.0005694520695914055
-0.000488352185645417   -0.014616995298987029   -0.0005905305273027218
-0.0005062892162782283   -0.014605295446119482   -0.0006039011019219402
-0.0002770783823509398   -0.012066737973782488   -0.0005963650661267317
0.0007229033760521646   -0.014564944503264551   -0.0005694520695914055
-0.0005062892162782283   -0.014605295446119482   -0.0006039011019219402
0.0010421357086075596   -0.012026682620713092   -0.0006031129427945367
0.0010100784920602452   -0.01203651719506214   -0.0006400716303857641
0.0006545140164916169   -0.014570882185033884   -0.000650413014734576
0.0024250421930756406   -0.012009478370109775   -0.0006628333289504931
0.0010266605059405653   -0.012030058099011436   -0.000620276163010211
0.0006545140164916169   -0.014570882185033884   -0.000650413014734576
0.001929700885081019   -0.014521142723573008   -0.0006795048387876489
0.0024250421930756406   -0.012009478370109775   -0.0006628333289504931
0.001996703700740364   -0.014504723898411209   -0.0006361667102592321
0.0010266605059405653   -0.012030058099011436   -0.000620276163010211
0.0024675915928620935   -0.011994996794638276   -0.0006366351014863781
0.001996703700740364   -0.014504723898411209   -0.0006361667102592321
0.0024250421930756406   -0.012009478370109775   -0.0006628333289504931
0.0010266605059405653   -0.012030058099011436   -0.000620276163010211
0.001996703700740364   -0.014504723898411209   -0.0006361667102592321
0.0006796595150799085   -0.014562813437228846   -0.0006207246083352272
0.0006545140164916169   -0.014570882185033884   -0.000650413014734576
0.0010266605059405653   -0.012030058099011436   -0.000620276163010211
0.001996703700740364   -0.014504723898411209   -0.0006361667102592321
0.0006545140164916169   -0.014570882185033884   -0.000650413014734576
0.0024250421930756406   -0.012009478370109775   -0.0006628333289504931
0.0010266605059405653   -0.012030058099011436   -0.000620276163010211
0.0006796595150799085   -0.014562813437228846   -0.0006207246083352272
0.0024675915928620935   -0.011994996794638276   -0.0006366351014863781
0.0010421357086075596   -0.012026682620713092   -0.0006031129427945367
0.0006796595150799085   -0.014562813437228846   -0.0006207246083352272
0.001996703700740364   -0.014504723898411209   -0.0006361667102592321
0.0024675915928620935   -0.011994996794638276   -0.0006366351014863781
0.002046522481426799   -0.01450013058910386   -0.0005966010175275603
0.0010421357086075596   -0.012026682620713092   -0.0006031129427945367
0.002497205501180054   -0.01198795192084159   -0.0006142011504847718
0.002046522481426799   -0.01450013058910386   -0.0005966010175275603
0.0024675915928620935   -0.011994996794638276   -0.0006366351014863781
0.0010421357086075596   -0.012026682620713092   -0.0006031129427945367
0.002046522481426799   -0.01450013058910386   -0.0005966010175275603
0.0007055351102688192   -0.01456122644455523   -0.0005938625391698585
0.0006796595150799085   -0.014562813437228846   -0.0006207246083352272
0.0010421357086075596   -0.012026682620713092   -0.0006031129427945367
0.002046522481426799   -0.01450013058910386   -0.0005966010175275603
0.0006796595150799085   -0.014562813437228846   -0.0006207246083352272
0.0024675915928620935   -0.011994996794638276   -0.0006366351014863781
0.0010421357086075596   -0.012026682620713092   -0.0006031129427945367
0.0007055351102688192   -0.01456122644455523   -0.0005938625391698585
0.002497205501180054   -0.01198795192084159   -0.0006142011504847718
0.001050877035031351   -0.012024850237419912   -0.0005884100516066644
0.0007055351102688192   -0.01456122644455523   -0.0005938625391698585
0.002046522481426799   -0.01450013058910386   -0.0005966010175275603
0.002497205501180054   -0.01198795192084159   -0.0006142011504847718
0.002097399597849552   -0.014500163349995154   -0.0005609897883435942
0.001050877035031351   -0.012024850237419912   -0.0005884100516066644
0.00252399716878861   -0.011980551353634962   -0.0005956916020065048
0.002097399597849552   -0.014500163349995154   -0.0005609897883435942
0.002497205501180054   -0.01198795192084159   -0.0006142011504847718
0.001050877035031351   -0.012024850237419912   -0.0005884100516066644
0.002097399597849552   -0.014500163349995154   -0.0005609897883435942
0.0007229033760521646   -0.014564944503264551   -0.0005694520695914055
0.0007055351102688192   -0.01456122644455523   -0.0005938625391698585
0.001050877035031351   -0.012024850237419912   -0.0005884100516066644
0.002097399597849552   -0.014500163349995154   -0.0005609897883435942
0.0007055351102688192   -0.01456122644455523   -0.0005938625391698585
0.002497205501180054   -0.01198795192084159   -0.0006142011504847718
-0.004243096512062553   -0.014568824259457519   -0.0006779337913747878
-0.0038737540331268004   -0.016789530830948363   -0.0006331690022722622
-0.002907995485771653   -0.014597713185727125   -0.0006552110590171862
-0.004212083328525547   -0.014588367239607282   -0.0006949379619405453
-0.0038737540331268004   -0.016789530830948363   -0.0006331690022722622
-0.0027518526299006047   -0.016841065174783273   -0.0006297101805012682
-0.002907995485771653   -0.014597713185727125   -0.0006552110590171862
-0.0027243070330216683   -0.016848480373000893   -0.0006419798449244636
-0.004212083328525547   -0.014588367239607282   -0.0006949379619405453
-0.002890847017373733   -0.014612174779363107   -0.0006587797773183051
-0.0027243070330216683   -0.016848480373000893   -0.0006419798449244636
-0.002907995485771653   -0.014597713185727125   -0.0006552110590171862
-0.004212083328525547   -0.014588367239607282   -0.0006949379619405453
-0.0027243070330216683   -0.016848480373000893   -0.0006419798449244636
-0.0038159443482887693   -0.01680048687483358   -0.0006677194731236405
-0.0038737540331268004   -0.016789530830948363   -0.0006331690022722622
-0.004212083328525547   -0.014588367239607282   -0.0006949379619405453
-0.0027243070330216683   -0.016848480373000893   -0.0006419798449244636
-0.0038737540331268004   -0.016789530830948363   -0.0006331690022722622
-0.002907995485771653   -0.014597713185727125   -0.0006552110590171862
-0.004212083328525547   -0.014588367239607282   -0.0006949379619405453
-0.0038159443482887693   -0.01680048687483358   -0.0006677194731236405
-0.002890847017373733   -0.014612174779363107   -0.0006587797773183051
-0.00417701350755207   -0.014612626198767579   -0.0007161603588581257
-0.0038159443482887693   -0.01680048687483358   -0.0006677194731236405
-0.0027243070330216683   -0.016848480373000893   -0.0006419798449244636
-0.002890847017373733   -0.014612174779363107   -0.0006587797773183051
-0.0026896906579647714   -0.01686644015872488   -0.000656943724874968
-0.00417701350755207   -0.014612626198767579   -0.0007161603588581257
-0.0028677844285557004   -0.014632980902814788   -0.0006650342996520882
-0.0026896906579647714   -0.01686644015872488   -0.000656943724874968
-0.002890847017373733   -0.014612174779363107   -0.0006587797773183051
-0.00417701350755207   -0.014612626198767579   -0.0007161603588581257
-0.0026896906579647714   -0.01686644015872488   -0.000656943724874968
-0.003758509516413343   -0.01682157251708485   -0.0007066540507878439
-0.0038159443482887693   -0.01680048687483358   -0.0006677194731236405
-0.00417701350755207   -0.014612626198767579   -0.0007161603588581257
-0.0026896906579647714   -0.01686644015872488   -0.000656943724874968
-0.0038159443482887693   -0.01680048687483358   -0.0006677194731236405
-0.002890847017373733   -0.014612174779363107   -0.0006587797773183051
-0.00417701350755207   -0.014612626198767579   -0.0007161603588581257
-0.003758509516413343   -0.01682157251708485   -0.0007066540507878439
-0.0028677844285557004   -0.014632980902814788   -0.0006650342996520882
-0.004129497124162914   -0.014649693286537962   -0.0007416955679034242
-0.003758509516413343   -0.01682157251708485   -0.0007066540507878439
-0.0026896906579647714   -0.01686644015872488   -0.000656943724874968
-0.0028677844285557004   -0.014632980902814788   -0.0006650342996520882
-0.002655578758028404   -0.016895968563960216   -0.0006745758388449046
-0.004129497124162914   -0.014649693286537962   -0.0007416955679034242
-0.002843108527073913   -0.01466141131273967   -0.000674042969391504
-0.002655578758028404   -0.016895968563960216   -0.0006745758388449046
-0.0028677844285557004   -0.014632980902814788   -0.0006650342996520882
-0.004129497124162914   -0.014649693286537962   -0.0007416955679034242
-0.002655578758028404   -0.016895968563960216   -0.0006745758388449046
-0.0036850041623522818   -0.016860893094778708   -0.0007499099945492972
-0.003758509516413343   -0.01682157251708485   -0.0007066540507878439
-0.004129497124162914   -0.014649693286537962   -0.0007416955679034242
-0.002655578758028404   -0.016895968563960216   -0.0006745758388449046
-0.003758509516413343   -0.01682157251708485   -0.0007066540507878439
-0.0028677844285557004   -0.014632980902814788   -0.0006650342996520882
-0.002907995485771653   -0.014597713185727125   -0.0006552110590171862
-0.0027518526299006047   -0.016841065174783273   -0.0006297101805012682
-0.0017094263821380601   -0.014608872222006975   -0.0006407346989985585
-0.002890847017373733   -0.014612174779363107   -0.0006587797773183051
-0.0027518526299006047   -0.016841065174783273   -0.0006297101805012682
-0.0017776140282196994   -0.01686476872207247   -0.0006284709256293183
-0.0017094263821380601   -0.014608872222006975   -0.0006407346989985585
-0.0017494342628971602   -0.016867132809225242   -0.0006228731673143715
-0.002890847017373733   -0.014612174779363107   -0.0006587797773183051
-0.0016908387606340933   -0.014616296005742845   -0.0006329312766061255
-0.0017494342628971602   -0.016867132809225242   -0.0006228731673143715
-0.0017094263821380601   -0.014608872222006975   -0.0006407346989985585
-0.002890847017373733   -0.014612174779363107   -0.0006587797773183051
-0.0017494342628971602   -0.016867132809225242   -0.0006228731673143715
-0.0027243070330216683   -0.016848480373000893   -0.0006419798449244636
-0.0027518526299006047   -0.016841065174783273   -0.0006297101805012682
-0.002890847017373733   -0.014612174779363107   -0.0006587797773183051
-0.0017494342628971602   -0.016867132809225242   -0.0006228731673143715
-0.0027518526299006047   -0.016841065174783273   -0.0006297101805012682
-0.0017094263821380601   -0.014608872222006975   -0.0006407346989985585
-0.002890847017373733   -0.014612174779363107   -0.0006587797773183051
-0.0027243070330216683   -0.016848480373000893   -0.0006419798449244636
-0.0016908387606340933   -0.014616296005742845   -0.0006329312766061255
-0.0028677844285557004   -0.014632980902814788   -0.0006650342996520882
-0.0027243070330216683   -0.016848480373000893   -0.0006419798449244636
-0.0017494342628971602   -0.016867132809225242   -0.0006228731673143715
-0.0016908387606340933   -0.014616296005742845   -0.0006329312766061255
-0.0017203173772062485   -0.016878930701396788   -0.0006198893972886883
-0.0028677844285557004   -0.014632980902814788   -0.0006650342996520882
-0.0016708774355940798   -0.014629801976687154   -0.0006277788835136841
-0.0017203173772062485   -0.016878930701396788   -0.0006198893972886883
-0.0016908387606340933   -0.014616296005742845   -0.0006329312766061255
-0.0028677844285557004   -0.014632980902814788   -0.0006650342996520882
-0.0017203173772062485   -0.016878930701396788   -0.0006198893972886883
-0.0026896906579647714   -0.01686644015872488   -0.000656943724874968
-0.0027243070330216683   -0.016848480373000893   -0.0006419798449244636
-0.0028677844285557004   -0.014632980902814788   -0.0006650342996520882
-0.0017203173772062485   -0.016878930701396788   -0.0006198893972886883
-0.0027243070330216683   -0.016848480373000893   -0.0006419798449244636
-0.0016908387606340933   -0.014616296005742845   -0.0006329312766061255
-0.0028677844285557004   -0.014632980902814788   -0.0006650342996520882
-0.0026896906579647714   -0.01686644015872488   -0.000656943724874968
-0.0016708774355940798   -0.014629801976687154   -0.0006277788835136841
-0.002843108527073913   -0.01466141131273967   -0.000674042969391504
-0.0026896906579647714   -0.01686644015872488   -0.000656943724874968
-0.0017203173772062485   -0.016878930701396788   -0.0006198893972886883
-0.0016708774355940798   -0.014629801976687154   -0.0006277788835136841
-0.0016912310171544192   -0.01690067744912732   -0.0006194992528079932
-0.002843108527073913   -0.01466141131273967   -0.000674042969391504
-0.0016503613372243512   -0.014649551941800938   -0.0006254140833251493
-0.0016912310171544192   -0.01690067744912732   -0.0006194992528079932
-0.0016708774355940798   -0.014629801976687154   -0.0006277788835136841
-0.002843108527073913   -0.01466141131273967   -0.000674042969391504
-0.0016912310171544192   -0.01690067744912732   -0.0006194992528079932
-0.002655578758028404   -0.016895968563960216   -0.0006745758388449046
-0.0026896906579647714   -0.01686644015872488   -0.000656943724874968
-0.002843108527073913   -0.01466141131273967   -0.000674042969391504
-0.0016912310171544192   -0.01690067744912732   -0.0006194992528079932
-0.0026896906579647714   -0.01686644015872488   -0.000656943724874968
-0.0016708774355940798   -0.014629801976687154   -0.0006277788835136841
-0.0017094263821380601   -0.014608872222006975   -0.0006407346989985585
-0.0017776140282196994   -0.01686476872207247   -0.0006284709256293183
-0.0005468621166443333   -0.014599768672314833   -0.0006388098882175765
-0.0016908387606340933   -0.014616296005742845   -0.0006329312766061255
-0.0017776140282196994   -0.01686476872207247   -0.0006284709256293183
-0.0008354234260190854   -0.016859604280764193   -0.0006358035151702014
-0.0005468621166443333   -0.014599768672314833   -0.0006388098882175765
-0.0008045653527545811   -0.01685626294016834   -0.0006129563877354115
-0.0016908387606340933   -0.014616296005742845   -0.0006329312766061255
-0.0005263179131923715   -0.01459970050842118   -0.0006200243668922455
-0.0008045653527545811   -0.01685626294016834   -0.0006129563877354115
-0.0005468621166443333   -0.014599768672314833   -0.0006388098882175765
-0.0016908387606340933   -0.014616296005742845   -0.0006329312766061255
-0.0008045653527545811   -0.01685626294016834   -0.0006129563877354115
-0.0017494342628971602   -0.016867132809225242   -0.0006228731673143715
-0.0017776140282196994   -0.01686476872207247   -0.0006284709256293183
-0.0016908387606340933   -0.014616296005742845   -0.0006329312766061255
-0.0008045653527545811   -0.01685626294016834   -0.0006129563877354115
-0.0017776140282196994   -0.01686476872207247   -0.0006284709256293183
-0.0005468621166443333   -0.014599768672314833   -0.0006388098882175765
-0.0016908387606340933   -0.014616296005742845   -0.0006329312766061255
-0.0017494342628971602   -0.016867132809225242   -0.0006228731673143715
-0.0005263179131923715   -0.01459970050842118   -0.0006200243668922455
-0.0016708774355940798   -0.014629801976687154   -0.0006277788835136841
-0.0017494342628971602   -0.016867132809225242   -0.0006228731673143715
-0.0008045653527545811   -0.01685626294016834   -0.0006129563877354115
-0.0005263179131923715   -0.01459970050842118   -0.0006200243668922455
-0.0007745699517038006   -0.016861500985429472   -0.0005928975269834572
-0.0016708774355940798   -0.014629801976687154   -0.0006277788835136841
-0.0005062892162782283   -0.014605295446119482   -0.0006039011019219402
-0.0007745699517038006   -0.016861500985429472   -0.0005928975269834572
-0.0005263179131923715   -0.01459970050842118   -0.0006200243668922455
-0.0016708774355940798   -0.014629801976687154   -0.0006277788835136841
-0.0007745699517038006   -0.016861500985429472   -0.0005928975269834572
-0.0017203173772062485   -0.016878930701396788   -0.0006198893972886883
-0.0017494342628971602   -0.016867132809225242   -0.0006228731673143715
-0.0016708774355940798   -0.014629801976687154   -0.0006277788835136841
-0.0007745699517038006   -0.016861500985429472   -0.0005928975269834572
-0.0017494342628971602   -0.016867132809225242   -0.0006228731673143715
-0.0005263179131923715   -0.01459970050842118   -0.0006200243668922455
-0.0016708774355940798   -0.014629801976687154   -0.0006277788835136841
-0.0017203173772062485   -0.016878930701396788   -0.0006198893972886883
-0.0005062892162782283   -0.014605295446119482   -0.0006039011019219402
-0.0016503613372243512   -0.014649551941800938   -0.0006254140833251493
-0.0017203173772062485   -0.016878930701396788   -0.0006198893972886883
-0.0007745699517038006   -0.016861500985429472   -0.0005928975269834572
-0.0005062892162782283   -0.014605295446119482   -0.0006039011019219402
-0.0007474263722757359   -0.016876477277383322   -0.0005753923979427203
-0.0016503613372243512   -0.014649551941800938   -0.0006254140833251493
-0.000488352185645417   -0.014616995298987029   -0.0005905305273027218
-0.0007474263722757359   -0.016876477277383322   -0.0005753923979427203
-0.0005062892162782283   -0.014605295446119482   -0.0006039011019219402
-0.0016503613372243512   -0.014649551941800938   -0.0006254140833251493
-0.0007474263722757359   -0.016876477277383322   -0.0005753923979427203
-0.0016912310171544192   -0.01690067744912732   -0.0006194992528079932
-0.0017203173772062485   -0.016878930701396788   -0.0006198893972886883
-0.0016503613372243512   -0.014649551941800938   -0.0006254140833251493
-0.0007474263722757359   -0.016876477277383322   -0.0005753923979427203
-0.0017203173772062485   -0.016878930701396788   -0.0006198893972886883
-0.0005062892162782283   -0.014605295446119482   -0.0006039011019219402
-0.0005468621166443333   -0.014599768672314833   -0.0006388098882175765
-0.0008354234260190854   -0.016859604280764193   -0.0006358035151702014
0.0006545140164916169   -0.014570882185033884   -0.000650413014734576
-0.0005263179131923715   -0.01459970050842118   -0.0006200243668922455
-0.0008354234260190854   -0.016859604280764193   -0.0006358035151702014
0.00014884400591767198   -0.01682452187925796   -0.0006531832466485823
0.0006545140164916169   -0.014570882185033884   -0.000650413014734576
0.00018647258293418627   -0.016813994365171083   -0.0006131203490096057
-0.0005263179131923715   -0.01459970050842118   -0.0006200243668922455
0.0006796595150799085   -0.014562813437228846   -0.0006207246083352272
0.00018647258293418627   -0.016813994365171083   -0.0006131203490096057
0.0006545140164916169   -0.014570882185033884   -0.000650413014734576
-0.0005263179131923715   -0.01459970050842118   -0.0006200243668922455
0.00018647258293418627   -0.016813994365171083   -0.0006131203490096057
-0.0008045653527545811   -0.01685626294016834   -0.0006129563877354115
-0.0008354234260190854   -0.016859604280764193   -0.0006358035151702014
-0.0005263179131923715   -0.01459970050842118   -0.0006200243668922455
0.00018647258293418627   -0.016813994365171083   -0.0006131203490096057
-0.0008354234260190854   -0.016859604280764193   -0.0006358035151702014
0.0006545140164916169   -0.014570882185033884   -0.000650413014734576
-0.0005263179131923715   -0.01459970050842118   -0.0006200243668922455
-0.0008045653527545811   -0.01685626294016834   -0.0006129563877354115
0.0006796595150799085   -0.014562813437228846   -0.0006207246083352272
-0.0005062892162782283   -0.014605295446119482   -0.0006039011019219402
-0.0008045653527545811   -0.01685626294016834   -0.0006129563877354115
0.00018647258293418627   -0.016813994365171083   -0.0006131203490096057
0.0006796595150799085   -0.014562813437228846   -0.0006207246083352272
0.00022627518681999647   -0.01681305265313107   -0.0005765797833008755
-0.0005062892162782283   -0.014605295446119482   -0.0006039011019219402
0.0007055351102688192   -0.01456122644455523   -0.0005938625391698585
0.00022627518681999647   -0.01681305265313107   -0.0005765797833008755
0.0006796595150799085   -0.014562813437228846   -0.0006207246083352272
-0.0005062892162782283   -0.014605295446119482   -0.0006039011019219402
0.00022627518681999647   -0.01681305265313107   -0.0005765797833008755
-0.0007745699517038006   -0.016861500985429472   -0.0005928975269834572
-0.0008045653527545811   -0.01685626294016834   -0.0006129563877354115
-0.0005062892162782283   -0.014605295446119482   -0.0006039011019219402
0.00022627518681999647   -0.01681305265313107   -0.0005765797833008755
-0.0008045653527545811   -0.01685626294016834   -0.0006129563877354115
0.0006796595150799085   -0.014562813437228846   -0.0006207246083352272
-0.0005062892162782283   -0.014605295446119482   -0.0006039011019219402
-0.0007745699517038006   -0.016861500985429472   -0.0005928975269834572
0.0007055351102688192   -0.01456122644455523   -0.0005938625391698585
-0.000488352185645417   -0.014616995298987029   -0.0005905305273027218
-0.0007745699517038006   -0.016861500985429472   -0.0005928975269834572
0.00022627518681999647   -0.01681305265313107   -0.0005765797833008755
0.0007055351102688192   -0.01456122644455523   -0.0005938625391698585
0.0002553818043818314   -0.016821239098212277   -0.0005424588446894034
-0.000488352185645417   -0.014616995298987029   -0.0005905305273027218
0.0007229033760521646   -0.014564944503264551   -0.0005694520695914055
0.0002553818043818314   -0.016821239098212277   -0.0005424588446894034
0.0007055351102688192   -0.01456122644455523   -0.0005938625391698585
-0.000488352185645417   -0.014616995298987029   -0.0005905305273027218
0.0002553818043818314   -0.016821239098212277   -0.0005424588446894034
-0.0007474263722757359   -0.016876477277383322   -0.0005753923979427203
-0.0007745699517038006   -0.016861500985429472   -0.0005928975269834572
-0.000488352185645417   -0.014616995298987029   -0.0005905305273027218
0.0002553818043818314   -0.016821239098212277   -0.0005424588446894034
-0.0007745699517038006   -0.016861500985429472   -0.0005928975269834572
0.0007055351102688192   -0.01456122644455523   -0.0005938625391698585
0.0006545140164916169   -0.014570882185033884   -0.000650413014734576
0.00014884400591767198   -0.01682452187925796   -0.0006531832466485823
0.001929700885081019   -0.014521142723573008   -0.0006795048387876489
0.0006796595150799085   -0.014562813437228846   -0.0006207246083352272
0.00014884400591767198   -0.01682452187925796   -0.0006531832466485823
0.0011942278705152712   -0.016756258148640228   -0.0006896299178280025
0.001929700885081019   -0.014521142723573008   -0.0006795048387876489
0.001290698649343499   -0.01673617371865415   -0.0006282479613675256
0.0006796595150799085   -0.014562813437228846   -0.0006207246083352272
0.001996703700740364   -0.014504723898411209   -0.0006361667102592321
0.001290698649343499   -0.01673617371865415   -0.0006282479613675256
0.001929700885081019   -0.014521142723573008   -0.0006795048387876489
0.0006796595150799085   -0.014562813437228846   -0.0006207246083352272
0.001290698649343499   -0.01673617371865415   -0.0006282479613675256
0.00018647258293418627   -0.016813994365171083   -0.0006131203490096057
0.00014884400591767198   -0.01682452187925796   -0.0006531832466485823
0.0006796595150799085   -0.014562813437228846   -0.0006207246083352272
0.001290698649343499   -0.01673617371865415   -0.0006282479613675256
0.00014884400591767198   -0.01682452187925796   -0.0006531832466485823
0.001929700885081019   -0.014521142723573008   -0.0006795048387876489
0.0006796595150799085   -0.014562813437228846   -0.0006207246083352272
0.00018647258293418627   -0.016813994365171083   -0.0006131203490096057
0.001996703700740364   -0.014504723898411209   -0.0006361667102592321
0.0007055351102688192   -0.01456122644455523   -0.0005938625391698585
0.00018647258293418627   -0.016813994365171083   -0.0006131203490096057
0.001290698649343499   -0.01673617371865415   -0.0006282479613675256
0.001996703700740364   -0.014504723898411209   -0.0006361667102592321
0.0013647503812356761   -0.01673269142641313   -0.000571238855597208
0.0007055351102688192   -0.01456122644455523   -0.0005938625391698585
0.002046522481426799   -0.01450013058910386   -0.0005966010175275603
0.0013647503812356761   -0.01673269142641313   -0.000571238855597208
0.001996703700740364   -0.014504723898411209   -0.0006361667102592321
0.0007055351102688192   -0.01456122644455523   -0.0005938625391698585
0.0013647503812356761   -0.01673269142641313   -0.000571238855597208
0.00022627518681999647   -0.01681305265313107   -0.0005765797833008755
0.00018647258293418627   -0.016813994365171083   -0.0006131203490096057
0.0007055351102688192   -0.01456122644455523   -0.0005938625391698585
0.0013647503812356761   -0.01673269142641313   -0.000571238855597208
0.00018647258293418627   -0.016813994365171083   -0.0006131203490096057
0.001996703700740364   -0.014504723898411209   -0.0006361667102592321
0.0007055351102688192   -0.01456122644455523   -0.0005938625391698585
0.00022627518681999647   -0.01681305265313107   -0.0005765797833008755
0.002046522481426799   -0.01450013058910386   -0.0005966010175275603
0.0007229033760521646   -0.014564944503264551   -0.0005694520695914055
0.00022627518681999647   -0.01681305265313107   -0.0005765797833008755
0.0013647503812356761   -0.01673269142641313   -0.000571238855597208
0.002046522481426799   -0.01450013058910386   -0.0005966010175275603
0.0014419720725552844   -0.016738833130927774   -0.0005190593767023161
0.0007229033760521646   -0.014564944503264551   -0.0005694520695914055
0.002097399597849552   -0.014500163349995154   -0.0005609897883435942
0.0014419720725552844   -0.016738833130927774   -0.0005190593767023161
0.002046522481426799   -0.01450013058910386   -0.0005966010175275603
0.0007229033760521646   -0.014564944503264551   -0.0005694520695914055
0.0014419720725552844   -0.016738833130927774   -0.0005190593767023161
0.0002553818043818314   -0.016821239098212277   -0.0005424588446894034
0.00022627518681999647   -0.01681305265313107   -0.0005765797833008755
0.0007229033760521646   -0.014564944503264551   -0.0005694520695914055
0.0014419720725552844   -0.016738833130927774   -0.0005190593767023161
0.00022627518681999647   -0.01681305265313107   -0.0005765797833008755
0.002046522481426799   -0.01450013058910386   -0.0005966010175275603
-0.0038737540331268004   -0.016789530830948363   -0.0006331690022722622
-0.0032547970845569095   -0.01852948577963166   -0.0005752931139516243
-0.0027518526299006047   -0.016841065174783273   -0.0006297101805012682
-0.0038159443482887693   -0.01680048687483358   -0.0006677194731236405
-0.0032547970845569095   -0.01852948577963166   -0.0005752931139516243
-0.002455172789330938   -0.018605142363614574   -0.0005978479594424699
-0.0027518526299006047   -0.016841065174783273   -0.0006297101805012682
-0.0024161489223176575   -0.018601468772248032   -0.0006166948177751498
-0.0038159443482887693   -0.01680048687483358   -0.0006677194731236405
-0.0027243070330216683   -0.016848480373000893   -0.0006419798449244636
-0.0024161489223176575   -0.018601468772248032   -0.0006166948177751498
-0.0027518526299006047   -0.016841065174783273   -0.0006297101805012682
-0.0038159443482887693   -0.01680048687483358   -0.0006677194731236405
-0.0024161489223176575   -0.018601468772248032   -0.0006166948177751498
-0.0031697043862403984   -0.018527502366338856   -0.0006260666812122239
-0.0032547970845569095   -0.01852948577963166   -0.0005752931139516243
-0.0038159443482887693   -0.01680048687483358   -0.0006677194731236405
-0.0024161489223176575   -0.018601468772248032   -0.0006166948177751498
-0.0032547970845569095   -0.01852948577963166   -0.0005752931139516243
-0.0027518526299006047   -0.016841065174783273   -0.0006297101805012682
-0.0038159443482887693   -0.01680048687483358   -0.0006677194731236405
-0.0031697043862403984   -0.018527502366338856   -0.0006260666812122239
-0.0027243070330216683   -0.016848480373000893   -0.0006419798449244636
-0.003758509516413343   -0.01682157251708485   -0.0007066540507878439
-0.0031697043862403984   -0.018527502366338856   -0.0006260666812122239
-0.0024161489223176575   -0.018601468772248032   -0.0006166948177751498
-0.0027243070330216683   -0.016848480373000893   -0.0006419798449244636
-0.002370096881021292   -0.018612750745788633   -0.0006382654870374903
-0.003758509516413343   -0.01682157251708485   -0.0007066540507878439
-0.0026896906579647714   -0.01686644015872488   -0.000656943724874968
-0.002370096881021292   -0.018612750745788633   -0.0006382654870374903
-0.0027243070330216683   -0.016848480373000893   -0.0006419798449244636
-0.003758509516413343   -0.01682157251708485   -0.0007066540507878439
-0.002370096881021292   -0.018612750745788633   -0.0006382654870374903
-0.0030914251172577518   -0.018541378057708738   -0.0006806877566310323
-0.0031697043862403984   -0.018527502366338856   -0.0006260666812122239
-0.003758509516413343   -0.01682157251708485   -0.0007066540507878439
-0.002370096881021292   -0.018612750745788633   -0.0006382654870374903
-0.0031697043862403984   -0.018527502366338856   -0.0006260666812122239
-0.0027243070330216683   -0.016848480373000893   -0.0006419798449244636
-0.003758509516413343   -0.01682157251708485   -0.0007066540507878439
-0.0030914251172577518   -0.018541378057708738   -0.0006806877566310323
-0.0026896906579647714   -0.01686644015872488   -0.000656943724874968
-0.0036850041623522818   -0.016860893094778708   -0.0007499099945492972
-0.0030914251172577518   -0.018541378057708738   -0.0006806877566310323
-0.002370096881021292   -0.018612750745788633   -0.0006382654870374903
-0.0026896906579647714   -0.01686644015872488   -0.000656943724874968
-0.0023283271386460797   -0.01863926868256971   -0.000662388951735158
-0.0036850041623522818   -0.016860893094778708   -0.0007499099945492972
-0.002655578758028404   -0.016895968563960216   -0.0006745758388449046
-0.0023283271386460797   -0.01863926868256971   -0.000662388951735158
-0.0026896906579647714   -0.01686644015872488   -0.000656943724874968
-0.0036850041623522818   -0.016860893094778708   -0.0007499099945492972
-0.0023283271386460797   -0.01863926868256971   -0.000662388951735158
-0.0029958421432854676   -0.01857791905942053   -0.0007389473695289818
-0.0030914251172577518   -0.018541378057708738   -0.0006806877566310323
-0.0036850041623522818   -0.016860893094778708   -0.0007499099945492972
-0.0023283271386460797   -0.01863926868256971   -0.000662388951735158
-0.0030914251172577518   -0.018541378057708738   -0.0006806877566310323
-0.0026896906579647714   -0.01686644015872488   -0.000656943724874968
-0.0027518526299006047   -0.016841065174783273   -0.0006297101805012682
-0.002455172789330938   -0.018605142363614574   -0.0005978479594424699
-0.0017776140282196994   -0.01686476872207247   -0.0006284709256293183
-0.0027243070330216683   -0.016848480373000893   -0.0006419798449244636
-0.002455172789330938   -0.018605142363614574   -0.0005978479594424699
-0.0017984507336399665   -0.018653131446776165   -0.000615535455953455
-0.0017776140282196994   -0.01686476872207247   -0.0006284709256293183
-0.0017585514466210005   -0.018647015646843398   -0.0006097964212439874
-0.0027243070330216683   -0.016848480373000893   -0.0006419798449244636
-0.0017494342628971602   -0.016867132809225242   -0.0006228731673143715
-0.0017585514466210005   -0.018647015646843398   -0.0006097964212439874
-0.0017776140282196994   -0.01686476872207247   -0.0006284709256293183
-0.0027243070330216683   -0.016848480373000893   -0.0006419798449244636
-0.0017585514466210005   -0.018647015646843398   -0.0006097964212439874
-0.0024161489223176575   -0.018601468772248032   -0.0006166948177751498
-0.002455172789330938   -0.018605142363614574   -0.0005978479594424699
-0.0027243070330216683   -0.016848480373000893   -0.0006419798449244636
-0.0017585514466210005   -0.018647015646843398   -0.0006097964212439874
-0.002455172789330938   -0.018605142363614574   -0.0005978479594424699
-0.0017776140282196994   -0.01686476872207247   -0.0006284709256293183
-0.0027243070330216683   -0.016848480373000893   -0.0006419798449244636
-0.0024161489223176575   -0.018601468772248032   -0.0006166948177751498
-0.0017494342628971602   -0.016867132809225242   -0.0006228731673143715
-0.0026896906579647714   -0.01686644015872488   -0.000656943724874968
-0.0024161489223176575   -0.018601468772248032   -0.0006166948177751498
-0.0017585514466210005   -0.018647015646843398   -0.0006097964212439874
-0.0017494342628971602   -0.016867132809225242   -0.0006228731673143715
-0.001719124791154302   -0.018653857013526776   -0.0006067134791399474
-0.0026896906579647714   -0.01686644015872488   -0.000656943724874968
-0.0017203173772062485   -0.016878930701396788   -0.0006198893972886883
-0.001719124791154302   -0.018653857013526776   -0.0006067134791399474
-0.0017494342628971602   -0.016867132809225242   -0.0006228731673143715
-0.0026896906579647714   -0.01686644015872488   -0.000656943724874968
-0.001719124791154302   -0.018653857013526776   -0.0006067134791399474
-0.002370096881021292   -0.018612750745788633   -0.0006382654870374903
-0.0024161489223176575   -0.018601468772248032   -0.0006166948177751498
-0.0026896906579647714   -0.01686644015872488   -0.000656943724874968
-0.001719124791154302   -0.018653857013526776   -0.0006067134791399474
-0.0024161489223176575   -0.018601468772248032   -0.0006166948177751498
-0.0017494342628971602   -0.016867132809225242   -0.0006228731673143715
-0.0026896906579647714   -0.01686644015872488   -0.000656943724874968
-0.002370096881021292   -0.018612750745788633   -0.0006382654870374903
-0.0017203173772062485   -0.016878930701396788   -0.0006198893972886883
-0.002655578758028404   -0.016895968563960216   -0.0006745758388449046
-0.002370096881021292   -0.018612750745788633   -0.0006382654870374903
-0.001719124791154302   -0.018653857013526776   -0.0006067134791399474
-0.0017203173772062485   -0.016878930701396788   -0.0006198893972886883
-0.001682752878079916   -0.018674048715166883   -0.0006068273912630681
-0.002655578758028404   -0.016895968563960216   -0.0006745758388449046
-0.0016912310171544192   -0.01690067744912732   -0.0006194992528079932
-0.001682752878079916   -0.018674048715166883   -0.0006068273912630681
-0.0017203173772062485   -0.016878930701396788   -0.0006198893972886883
-0.002655578758028404   -0.016895968563960216   -0.0006745758388449046
-0.001682752878079916   -0.018674048715166883   -0.0006068273912630681
-0.0023283271386460797   -0.01863926868256971   -0.000662388951735158
-0.002370096881021292   -0.018612750745788633   -0.0006382654870374903
-0.002655578758028404   -0.016895968563960216   -0.0006745758388449046
-0.001682752878079916   -0.018674048715166883   -0.0006068273912630681
-0.002370096881021292   -0.018612750745788633   -0.0006382654870374903
-0.0017203173772062485   -0.016878930701396788   -0.0006198893972886883
-0.0017776140282196994   -0.01686476872207247   -0.0006284709256293183
-0.0017984507336399665   -0.018653131446776165   -0.000615535455953455
-0.0008354234260190854   -0.016859604280764193   -0.0006358035151702014
-0.0017494342628971602   -0.016867132809225242   -0.0006228731673143715
-0.0017984507336399665   -0.018653131446776165   -0.000615535455953455
-0.0011690946188024443   -0.01867671730012399   -0.0006367934984033058
-0.0008354234260190854   -0.016859604280764193   -0.0006358035151702014
-0.0011241519489746169   -0.018667678615208537   -0.0006078052596127702
-0.0017494342628971602   -0.016867132809225242   -0.0006228731673143715
-0.0008045653527545811   -0.01685626294016834   -0.0006129563877354115
-0.0011241519489746169   -0.018667678615208537   -0.0006078052596127702
-0.0008354234260190854   -0.016859604280764193   -0.0006358035151702014
-0.0017494342628971602   -0.016867132809225242   -0.0006228731673143715
-0.0011241519489746169   -0.018667678615208537   -0.0006078052596127702
-0.0017585514466210005   -0.018647015646843398   -0.0006097964212439874
-0.0017984507336399665   -0.018653131446776165   -0.000615535455953455
-0.0017494342628971602   -0.016867132809225242   -0.0006228731673143715
-0.0011241519489746169   -0.018667678615208537   -0.0006078052596127702
-0.0017984507336399665   -0.018653131446776165   -0.000615535455953455
-0.0008354234260190854   -0.016859604280764193   -0.0006358035151702014
-0.0017494342628971602   -0.016867132809225242   -0.0006228731673143715
-0.0017585514466210005   -0.018647015646843398   -0.0006097964212439874
-0.0008045653527545811   -0.01685626294016834   -0.0006129563877354115
-0.0017203173772062485   -0.016878930701396788   -0.0006198893972886883
-0.0017585514466210005   -0.018647015646843398   -0.0006097964212439874
-0.0011241519489746169   -0.018667678615208537   -0.0006078052596127702
-0.0008045653527545811   -0.01685626294016834   -0.0006129563877354115
-0.0010812374821871844   -0.018670122727255423   -0.000581203075475588
-0.0017203173772062485   -0.016878930701396788   -0.0006198893972886883
-0.0007745699517038006   -0.016861500985429472   -0.0005928975269834572
-0.0010812374821871844   -0.018670122727255423   -0.000581203075475588
-0.0008045653527545811   -0.01685626294016834   -0.0006129563877354115
-0.0017203173772062485   -0.016878930701396788   -0.0006198893972886883
-0.0010812374821871844   -0.018670122727255423   -0.000581203075475588
-0.001719124791154302   -0.018653857013526776   -0.0006067134791399474
-0.0017585514466210005   -0.018647015646843398   -0.0006097964212439874
-0.0017203173772062485   -0.016878930701396788   -0.0006198893972886883
-0.0010812374821871844   -0.018670122727255423   -0.000581203075475588
-0.0017585514466210005   -0.018647015646843398   -0.0006097964212439874
-0.0008045653527545811   -0.01685626294016834   -0.0006129563877354115
-0.0017203173772062485   -0.016878930701396788   -0.0006198893972886883
-0.001719124791154302   -0.018653857013526776   -0.0006067134791399474
-0.0007745699517038006   -0.016861500985429472   -0.0005928975269834572
-0.0016912310171544192   -0.01690067744912732   -0.0006194992528079932
-0.001719124791154302   -0.018653857013526776   -0.0006067134791399474
-0.0010812374821871844   -0.018670122727255423   -0.000581203075475588
-0.0007745699517038006   -0.016861500985429472   -0.0005928975269834572
-0.0010454047435759554   -0.018686122951723692   -0.0005583896552604418
-0.0016912310171544192   -0.01690067744912732   -0.0006194992528079932
-0.0007474263722757359   -0.016876477277383322   -0.0005753923979427203
-0.0010454047435759554   -0.018686122951723692   -0.0005583896552604418
-0.0007745699517038006   -0.016861500985429472   -0.0005928975269834572
-0.0016912310171544192   -0.01690067744912732   -0.0006194992528079932
-0.0010454047435759554   -0.018686122951723692   -0.0005583896552604418
-0.001682752878079916   -0.018674048715166883   -0.0006068273912630681
-0.001719124791154302   -0.018653857013526776   -0.0006067134791399474
-0.0016912310171544192   -0.01690067744912732   -0.0006194992528079932
-0.0010454047435759554   -0.018686122951723692   -0.0005583896552604418
-0.001719124791154302   -0.018653857013526776   -0.0006067134791399474
-0.0007745699517038006   -0.016861500985429472   -0.0005928975269834572
-0.0008354234260190854   -0.016859604280764193   -0.0006358035151702014
-0.0011690946188024443   -0.01867671730012399   -0.0006367934984033058
0.00014884400591767198   -0.01682452187925796   -0.0006531832466485823
-0.0008045653527545811   -0.01685626294016834   -0.0006129563877354115
-0.0011690946188024443   -0.01867671730012399   -0.0006367934984033058
-0.0005023792625400286   -0.018667270785101508   -0.000662137647359661
0.00014884400591767198   -0.01682452187925796   -0.0006531832466485823
-0.000444671123951152   -0.018653042044714283   -0.000610818403589532
-0.0008045653527545811   -0.01685626294016834   -0.0006129563877354115
0.00018647258293418627   -0.016813994365171083   -0.0006131203490096057
-0.000444671123951152   -0.018653042044714283   -0.000610818403589532
0.00014884400591767198   -0.01682452187925796   -0.0006531832466485823
-0.0008045653527545811   -0.01685626294016834   -0.0006129563877354115
-0.000444671123951152   -0.018653042044714283   -0.000610818403589532
-0.0011241519489746169   -0.018667678615208537   -0.0006078052596127702
-0.0011690946188024443   -0.01867671730012399   -0.0006367934984033058
-0.0008045653527545811   -0.01685626294016834   -0.0006129563877354115
-0.000444671123951152   -0.018653042044714283   -0.000610818403589532
-0.0011690946188024443   -0.01867671730012399   -0.0006367934984033058
0.00014884400591767198   -0.01682452187925796   -0.0006531832466485823
-0.0008045653527545811   -0.01685626294016834   -0.0006129563877354115
-0.0011241519489746169   -0.018667678615208537   -0.0006078052596127702
0.00018647258293418627   -0.016813994365171083   -0.0006131203490096057
-0.0007745699517038006   -0.016861500985429472   -0.0005928975269834572
-0.0011241519489746169   -0.018667678615208537   -0.0006078052596127702
-0.000444671123951152   -0.018653042044714283   -0.000610818403589532
0.00018647258293418627   -0.016813994365171083   -0.0006131203490096057
-0.0003853374151838902   -0.018650730791285715   -0.0005620288529131827
-0.0007745699517038006   -0.016861500985429472   -0.0005928975269834572
0.00022627518681999647   -0.01681305265313107   -0.0005765797833008755
-0.0003853374151838902   -0.018650730791285715   -0.0005620288529131827
0.00018647258293418627   -0.016813994365171083   -0.0006131203490096057
-0.0007745699517038006   -0.016861500985429472   -0.0005928975269834572
-0.0003853374151838902   -0.018650730791285715   -0.0005620288529131827
-0.0010812374821871844   -0.018670122727255423   -0.000581203075475588
-0.0011241519489746169   -0.018667678615208537   -0.0006078052596127702
-0.0007745699517038006   -0.016861500985429472   -0.0005928975269834572
-0.0003853374151838902   -0.018650730791285715   -0.0005620288529131827
-0.0011241519489746169   -0.018667678615208537   -0.0006078052596127702
0.00018647258293418627   -0.016813994365171083   -0.0006131203490096057
-0.0007745699517038006   -0.016861500985429472   -0.0005928975269834572
-0.0010812374821871844   -0.018670122727255423   -0.000581203075475588
0.00022627518681999647   -0.01681305265313107   -0.0005765797833008755
-0.0007474263722757359   -0.016876477277383322   -0.0005753923979427203
-0.0010812374821871844   -0.018670122727255423   -0.000581203075475588
-0.0003853374151838902   -0.018650730791285715   -0.0005620288529131827
0.00022627518681999647   -0.01681305265313107   -0.0005765797833008755
-0.0003415899853391895   -0.01866275648984041   -0.0005175471466699349
-0.0007474263722757359   -0.016876477277383322   -0.0005753923979427203
0.0002553818043818314   -0.016821239098212277   -0.0005424588446894034
-0.0003415899853391895   -0.01866275648984041   -0.0005175471466699349
0.00022627518681999647   -0.01681305265313107   -0.0005765797833008755
-0.0007474263722757359   -0.016876477277383322   -0.0005753923979427203
-0.0003415899853391895   -0.01866275648984041   -0.0005175471466699349
-0.0010454047435759554   -0.018686122951723692   -0.0005583896552604418
-0.0010812374821871844   -0.018670122727255423   -0.000581203075475588
-0.0007474263722757359   -0.016876477277383322   -0.0005753923979427203
-0.0003415899853391895   -0.01866275648984041   -0.0005175471466699349
-0.0010812374821871844   -0.018670122727255423   -0.000581203075475588
0.00022627518681999647   -0.01681305265313107   -0.0005765797833008755
0.00014884400591767198   -0.01682452187925796   -0.0006531832466485823
-0.0005023792625400286   -0.018667270785101508   -0.000662137647359661
0.0011942278705152712   -0.016756258148640228   -0.0006896299178280025
0.00018647258293418627   -0.016813994365171083   -0.0006131203490096057
-0.0005023792625400286   -0.018667270785101508   -0.000662137647359661
0.00021019333075087226   -0.01860215306912679   -0.000713023576174195
0.0011942278705152712   -0.016756258148640228   -0.0006896299178280025
0.00034723717624012885   -0.018571525908476993   -0.0006292543677048496
0.00018647258293418627   -0.016813994365171083   -0.0006131203490096057
0.001290698649343499   -0.01673617371865415   -0.0006282479613675256
0.00034723717624012885   -0.018571525908476993   -0.0006292543677048496
0.0011942278705152712   -0.016756258148640228   -0.0006896299178280025
0.00018647258293418627   -0.016813994365171083   -0.0006131203490096057
0.00034723717624012885   -0.018571525908476993   -0.0006292543677048496
-0.000444671123951152   -0.018653042044714283   -0.000610818403589532
-0.0005023792625400286   -0.018667270785101508   -0.000662137647359661
0.00018647258293418627   -0.016813994365171083   -0.0006131203490096057
0.00034723717624012885   -0.018571525908476993   -0.0006292543677048496
-0.0005023792625400286   -0.018667270785101508   -0.000662137647359661
0.0011942278705152712   -0.016756258148640228   -0.0006896299178280025
0.00018647258293418627   -0.016813994365171083   -0.0006131203490096057
-0.000444671123951152   -0.018653042044714283   -0.000610818403589532
0.001290698649343499   -0.01673617371865415   -0.0006282479613675256
0.00022627518681999647   -0.01681305265313107   -0.0005765797833008755
-0.000444671123951152   -0.018653042044714283   -0.000610818403589532
0.00034723717624012885   -0.018571525908476993   -0.0006292543677048496
0.001290698649343499   -0.01673617371865415   -0.0006282479613675256
0.0004547946999734223   -0.018565487659384514   -0.0005503864873337233
0.00022627518681999647   -0.01681305265313107   -0.0005765797833008755
0.0013647503812356761   -0.01673269142641313   -0.000571238855597208
0.0004547946999734223   -0.018565487659384514   -0.0005503864873337233
0.001290698649343499   -0.01673617371865415   -0.0006282479613675256
0.00022627518681999647   -0.01681305265313107   -0.0005765797833008755
0.0004547946999734223   -0.018565487659384514   -0.0005503864873337233
-0.0003853374151838902   -0.018650730791285715   -0.0005620288529131827
-0.000444671123951152   -0.018653042044714283   -0.000610818403589532
0.00022627518681999647   -0.01681305265313107   -0.0005765797833008755
0.0004547946999734223   -0.018565487659384514   -0.0005503864873337233
-0.000444671123951152   -0.018653042044714283   -0.000610818403589532
0.001290698649343499   -0.01673617371865415   -0.0006282479613675256
0.00022627518681999647   -0.01681305265313107   -0.0005765797833008755
-0.0003853374151838902   -0.018650730791285715   -0.0005620288529131827
0.0013647503812356761   -0.01673269142641313   -0.000571238855597208
0.0002553818043818314   -0.016821239098212277   -0.0005424588446894034
-0.0003853374151838902   -0.018650730791285715   -0.0005620288529131827
0.0004547946999734223   -0.018565487659384514   -0.0005503864873337233
0.0013647503812356761   -0.01673269142641313   -0.000571238855597208
0.0005672128039626037   -0.018571387566661077   -0.0004781005446956803
0.0002553818043818314   -0.016821239098212277   -0.0005424588446894034
0.0014419720725552844   -0.016738833130927774   -0.0005190593767023161
0.0005672128039626037   -0.018571387566661077   -0.0004781005446956803
0.0013647503812356761   -0.01673269142641313   -0.000571238855597208
0.0002553818043818314   -0.016821239098212277   -0.0005424588446894034
0.0005672128039626037   -0.018571387566661077   -0.0004781005446956803
-0.0003415899853391895   -0.01866275648984041   -0.0005175471466699349
-0.0003853374151838902   -0.018650730791285715   -0.0005620288529131827
0.0002553818043818314   -0.016821239098212277   -0.0005424588446894034
0.0005672128039626037   -0.018571387566661077   -0.0004781005446956803
-0.0003853374151838902   -0.018650730791285715   -0.0005620288529131827
0.0013647503812356761   -0.01673269142641313   -0.000571238855597208
-0.0032547970845569095   -0.01852948577963166   -0.0005752931139516243
-0.0024099858852729018   -0.019568323638045833   -0.0005070123057784158
-0.002455172789330938   -0.018605142363614574   -0.0005978479594424699
-0.0031697043862403984   -0.018527502366338856   -0.0006260666812122239
-0.0024099858852729018   -0.019568323638045833   -0.0005070123057784158
-0.002032240220017242   -0.01966349524032385   -0.0005634848639210724
-0.002455172789330938   -0.018605142363614574   -0.0005978479594424699
-0.001983454811096726   -0.01964521113818661   -0.0005837231537017298
-0.0031697043862403984   -0.018527502366338856   -0.0006260666812122239
-0.0024161489223176575   -0.018601468772248032   -0.0006166948177751498
-0.001983454811096726   -0.01964521113818661   -0.0005837231537017298
-0.002455172789330938   -0.018605142363614574   -0.0005978479594424699
-0.0031697043862403984   -0.018527502366338856   -0.0006260666812122239
-0.001983454811096726   -0.01964521113818661   -0.0005837231537017298
-0.0023045831055710114   -0.019547655209136768   -0.0005677985425795751
-0.0024099858852729018   -0.019568323638045833   -0.0005070123057784158
-0.0031697043862403984   -0.018527502366338856   -0.0006260666812122239
-0.001983454811096726   -0.01964521113818661   -0.0005837231537017298
-0.0024099858852729018   -0.019568323638045833   -0.0005070123057784158
-0.002455172789330938   -0.018605142363614574   -0.0005978479594424699
-0.0031697043862403984   -0.018527502366338856   -0.0006260666812122239
-0.0023045831055710114   -0.019547655209136768   -0.0005677985425795751
-0.0024161489223176575   -0.018601468772248032   -0.0006166948177751498
-0.0030914251172577518   -0.018541378057708738   -0.0006806877566310323
-0.0023045831055710114   -0.019547655209136768   -0.0005677985425795751
-0.001983454811096726   -0.01964521113818661   -0.0005837231537017298
-0.0024161489223176575   -0.018601468772248032   -0.0006166948177751498
-0.001929165287691868   -0.019646808244352137   -0.0006041786095785333
-0.0030914251172577518   -0.018541378057708738   -0.0006806877566310323
-0.002370096881021292   -0.018612750745788633   -0.0006382654870374903
-0.001929165287691868   -0.019646808244352137   -0.0006041786095785333
-0.0024161489223176575   -0.018601468772248032   -0.0006166948177751498
-0.0030914251172577518   -0.018541378057708738   -0.0006806877566310323
-0.001929165287691868   -0.019646808244352137   -0.0006041786095785333
-0.0022137046074083146   -0.019550203079927927   -0.0006284118109763819
-0.0023045831055710114   -0.019547655209136768   -0.0005677985425795751
-0.0030914251172577518   -0.018541378057708738   -0.0006806877566310323
-0.001929165287691868   -0.019646808244352137   -0.0006041786095785333
-0.0023045831055710114   -0.019547655209136768   -0.0005677985425795751
-0.0024161489223176575   -0.018601468772248032   -0.0006166948177751498
-0.0030914251172577518   -0.018541378057708738   -0.0006806877566310323
-0.0022137046074083146   -0.019550203079927927   -0.0006284118109763819
-0.002370096881021292   -0.018612750745788633   -0.0006382654870374903
-0.0029958421432854676   -0.01857791905942053   -0.0007389473695289818
-0.0022137046074083146   -0.019550203079927927   -0.0006284118109763819
-0.001929165287691868   -0.019646808244352137   -0.0006041786095785333
-0.002370096881021292   -0.018612750745788633   -0.0006382654870374903
-0.001878873343662751   -0.01966841134024668   -0.0006249352460848691
-0.0029958421432854676   -0.01857791905942053   -0.0007389473695289818
-0.0023283271386460797   -0.01863926868256971   -0.000662388951735158
-0.001878873343662751   -0.01966841134024668   -0.0006249352460848691
-0.002370096881021292   -0.018612750745788633   -0.0006382654870374903
-0.0029958421432854676   -0.01857791905942053   -0.0007389473695289818
-0.001878873343662751   -0.01966841134024668   -0.0006249352460848691
-0.002105708872103894   -0.019577375016947254   -0.0006903112378334453
-0.0022137046074083146   -0.019550203079927927   -0.0006284118109763819
-0.0029958421432854676   -0.01857791905942053   -0.0007389473695289818
-0.001878873343662751   -0.01966841134024668   -0.0006249352460848691
-0.0022137046074083146   -0.019550203079927927   -0.0006284118109763819
-0.002370096881021292   -0.018612750745788633   -0.0006382654870374903
-0.002455172789330938   -0.018605142363614574   -0.0005978479594424699
-0.002032240220017242   -0.01966349524032385   -0.0005634848639210724
-0.0017984507336399665   -0.018653131446776165   -0.000615535455953455
-0.0024161489223176575   -0.018601468772248032   -0.0006166948177751498
-0.002032240220017242   -0.01966349524032385   -0.0005634848639210724
-0.0017528761988347974   -0.019756480327368223   -0.0006132189503943519
-0.0017984507336399665   -0.018653131446776165   -0.000615535455953455
-0.0017016544831801983   -0.01973758586873571   -0.000599770544387626
-0.0024161489223176575   -0.018601468772248032   -0.0006166948177751498
-0.0017585514466210005   -0.018647015646843398   -0.0006097964212439874
-0.0017016544831801983   -0.01973758586873571   -0.000599770544387626
-0.0017984507336399665   -0.018653131446776165   -0.000615535455953455
-0.0024161489223176575   -0.018601468772248032   -0.0006166948177751498
-0.0017016544831801983   -0.01973758586873571   -0.000599770544387626
-0.001983454811096726   -0.01964521113818661   -0.0005837231537017298
-0.002032240220017242   -0.01966349524032385   -0.0005634848639210724
-0.0024161489223176575   -0.018601468772248032   -0.0006166948177751498
-0.0017016544831801983   -0.01973758586873571   -0.000599770544387626
-0.002032240220017242   -0.01966349524032385   -0.0005634848639210724
-0.0017984507336399665   -0.018653131446776165   -0.000615535455953455
-0.0024161489223176575   -0.018601468772248032   -0.0006166948177751498
-0.001983454811096726   -0.01964521113818661   -0.0005837231537017298
-0.0017585514466210005   -0.018647015646843398   -0.0006097964212439874
-0.002370096881021292   -0.018612750745788633   -0.0006382654870374903
-0.001983454811096726   -0.01964521113818661   -0.0005837231537017298
-0.0017016544831801983   -0.01973758586873571   -0.000599770544387626
-0.0017585514466210005   -0.018647015646843398   -0.0006097964212439874
-0.0016520143366064413   -0.01973776336818263   -0.0005861725523295375
-0.002370096881021292   -0.018612750745788633   -0.0006382654870374903
-0.001719124791154302   -0.018653857013526776   -0.0006067134791399474
-0.0016520143366064413   -0.01973776336818263   -0.0005861725523295375
-0.0017585514466210005   -0.018647015646843398   -0.0006097964212439874
-0.002370096881021292   -0.018612750745788633   -0.0006382654870374903
-0.0016520143366064413   -0.01973776336818263   -0.0005861725523295375
-0.001929165287691868   -0.019646808244352137   -0.0006041786095785333
-0.001983454811096726   -0.01964521113818661   -0.0005837231537017298
-0.002370096881021292   -0.018612750745788633   -0.0006382654870374903
-0.0016520143366064413   -0.01973776336818263   -0.0005861725523295375
-0.001983454811096726   -0.01964521113818661   -0.0005837231537017298
-0.0017585514466210005   -0.018647015646843398   -0.0006097964212439874
-0.002370096881021292   -0.018612750745788633   -0.0006382654870374903
-0.001929165287691868   -0.019646808244352137   -0.0006041786095785333
-0.001719124791154302   -0.018653857013526776   -0.0006067134791399474
-0.0023283271386460797   -0.01863926868256971   -0.000662388951735158
-0.001929165287691868   -0.019646808244352137   -0.0006041786095785333
-0.0016520143366064413   -0.01973776336818263   -0.0005861725523295375
-0.001719124791154302   -0.018653857013526776   -0.0006067134791399474
-0.00160035291480174   -0.019756646761611197   -0.0005731547777351942
-0.0023283271386460797   -0.01863926868256971   -0.000662388951735158
-0.001682752878079916   -0.018674048715166883   -0.0006068273912630681
-0.00160035291480174   -0.019756646761611197   -0.0005731547777351942
-0.001719124791154302   -0.018653857013526776   -0.0006067134791399474
-0.0023283271386460797   -0.01863926868256971   -0.000662388951735158
-0.00160035291480174   -0.019756646761611197   -0.0005731547777351942
-0.001878873343662751   -0.01966841134024668   -0.0006249352460848691
-0.001929165287691868   -0.019646808244352137   -0.0006041786095785333
-0.0023283271386460797   -0.01863926868256971   -0.000662388951735158
-0.00160035291480174   -0.019756646761611197   -0.0005731547777351942
-0.001929165287691868   -0.019646808244352137   -0.0006041786095785333
-0.001719124791154302   -0.018653857013526776   -0.0006067134791399474
-0.0017984507336399665   -0.018653131446776165   -0.000615535455953455
-0.0017528761988347974   -0.019756480327368223   -0.0006132189503943519
-0.0011690946188024443   -0.01867671730012399   -0.0006367934984033058
-0.0017585514466210005   -0.018647015646843398   -0.0006097964212439874
-0.0017528761988347974   -0.019756480327368223   -0.0006132189503943519
-0.0014967842016198245   -0.01986601117676564   -0.0006683510982866788
-0.0011690946188024443   -0.01867671730012399   -0.0006367934984033058
-0.0014341545563408779   -0.01984933496383313   -0.0006193805930626359
-0.0017585514466210005   -0.018647015646843398   -0.0006097964212439874
-0.0011241519489746169   -0.018667678615208537   -0.0006078052596127702
-0.0014341545563408779   -0.01984933496383313   -0.0006193805930626359
-0.0011690946188024443   -0.01867671730012399   -0.0006367934984033058
-0.0017585514466210005   -0.018647015646843398   -0.0006097964212439874
-0.0014341545563408779   -0.01984933496383313   -0.0006193805930626359
-0.0017016544831801983   -0.01973758586873571   -0.000599770544387626
-0.0017528761988347974   -0.019756480327368223   -0.0006132189503943519
-0.0017585514466210005   -0.018647015646843398   -0.0006097964212439874
-0.0014341545563408779   -0.01984933496383313   -0.0006193805930626359
-0.0017528761988347974   -0.019756480327368223   -0.0006132189503943519
-0.0011690946188024443   -0.01867671730012399   -0.0006367934984033058
-0.0017585514466210005   -0.018647015646843398   -0.0006097964212439874
-0.0017016544831801983   -0.01973758586873571   -0.000599770544387626
-0.0011241519489746169   -0.018667678615208537   -0.0006078052596127702
-0.001719124791154302   -0.018653857013526776   -0.0006067134791399474
-0.0017016544831801983   -0.01973758586873571   -0.000599770544387626
-0.0014341545563408779   -0.01984933496383313   -0.0006193805930626359
-0.0011241519489746169   -0.018667678615208537   -0.0006078052596127702
-0.001375941330319291   -0.019848743496571335   -0.0005704672070572666
-0.001719124791154302   -0.018653857013526776   -0.0006067134791399474
-0.0010812374821871844   -0.018670122727255423   -0.000581203075475588
-0.001375941330319291   -0.019848743496571335   -0.0005704672070572666
-0.0011241519489746169   -0.018667678615208537   -0.0006078052596127702
-0.001719124791154302   -0.018653857013526776   -0.0006067134791399474
-0.001375941330319291   -0.019848743496571335   -0.0005704672070572666
-0.0016520143366064413   -0.01973776336818263   -0.0005861725523295375
-0.0017016544831801983   -0.01973758586873571   -0.000599770544387626
-0.001719124791154302   -0.018653857013526776   -0.0006067134791399474
-0.001375941330319291   -0.019848743496571335   -0.0005704672070572666
-0.0017016544831801983   -0.01973758586873571   -0.000599770544387626
-0.0011241519489746169   -0.018667678615208537   -0.0006078052596127702
-0.001719124791154302   -0.018653857013526776   -0.0006067134791399474
-0.0016520143366064413   -0.01973776336818263   -0.0005861725523295375
-0.0010812374821871844   -0.018670122727255423   -0.000581203075475588
-0.001682752878079916   -0.018674048715166883   -0.0006068273912630681
-0.0016520143366064413   -0.01973776336818263   -0.0005861725523295375
-0.001375941330319291   -0.019848743496571335   -0.0005704672070572666
-0.0010812374821871844   -0.018670122727255423   -0.000581203075475588
-0.0013136766158897025   -0.01986344698234344   -0.0005216288561517287
-0.001682752878079916   -0.018674048715166883   -0.0006068273912630681
-0.0010454047435759554   -0.018686122951723692   -0.0005583896552604418
-0.0013136766158897025   -0.01986344698234344   -0.0005216288561517287
-0.0010812374821871844   -0.018670122727255423   -0.000581203075475588
-0.001682752878079916   -0.018674048715166883   -0.0006068273912630681
-0.0013136766158897025   -0.01986344698234344   -0.0005216288561517287
-0.00160035291480174   -0.019756646761611197   -0.0005731547777351942
-0.0016520143366064413   -0.01973776336818263   -0.0005861725523295375
-0.001682752878079916   -0.018674048715166883   -0.0006068273912630681
-0.0013136766158897025   -0.01986344698234344   -0.0005216288561517287
-0.0016520143366064413   -0.01973776336818263   -0.0005861725523295375
-0.0010812374821871844   -0.018670122727255423   -0.000581203075475588
-0.0011690946188024443   -0.01867671730012399   -0.0006367934984033058
-0.0014967842016198245   -0.01986601117676564   -0.0006683510982866788
-0.0005023792625400286   -0.018667270785101508   -0.000662137647359661
-0.0011241519489746169   -0.018667678615208537   -0.0006078052596127702
-0.0014967842016198245   -0.01986601117676564   -0.0006683510982866788
-0.0012447381969492607   -0.02   -0.0007121115494339848
-0.0005023792625400286   -0.018667270785101508   -0.000662137647359661
-0.0011655680091445845   -0.02   -0.0006366253295073695
-0.0011241519489746169   -0.018667678615208537   -0.0006078052596127702
-0.000444671123951152   -0.018653042044714283   -0.000610818403589532
-0.0011655680091445845   -0.02   -0.0006366253295073695
-0.0005023792625400286   -0.018667270785101508   -0.000662137647359661
-0.0011241519489746169   -0.018667678615208537   -0.0006078052596127702
-0.0011655680091445845   -0.02   -0.0006366253295073695
-0.0014341545563408779   -0.01984933496383313   -0.0006193805930626359
-0.0014967842016198245   -0.01986601117676564   -0.0006683510982866788
-0.0011241519489746169   -0.018667678615208537   -0.0006078052596127702
-0.0011655680091445845   -0.02   -0.0006366253295073695
-0.0014967842016198245   -0.01986601117676564   -0.0006683510982866788
-0.0005023792625400286   -0.018667270785101508   -0.000662137647359661
-0.0011241519489746169   -0.018667678615208537   -0.0006078052596127702
-0.0014341545563408779   -0.01984933496383313   -0.0006193805930626359
-0.000444671123951152   -0.018653042044714283   -0.000610818403589532
-0.0010812374821871844   -0.018670122727255423   -0.000581203075475588
-0.0014341545563408779   -0.01984933496383313   -0.0006193805930626359
-0.0011655680091445845   -0.02   -0.0006366253295073695
-0.000444671123951152   -0.018653042044714283   -0.000610818403589532
-0.0010856987880762338   -0.02   -0.0005602548731815951
-0.0010812374821871844   -0.018670122727255423   -0.000581203075475588
-0.0003853374151838902   -0.018650730791285715   -0.0005620288529131827
-0.0010856987880762338   -0.02   -0.0005602548731815951
-0.000444671123951152   -0.018653042044714283   -0.000610818403589532
-0.0010812374821871844   -0.018670122727255423   -0.000581203075475588
-0.0010856987880762338   -0.02   -0.0005602548731815951
-0.001375941330319291   -0.019848743496571335   -0.0005704672070572666
-0.0014341545563408779   -0.01984933496383313   -0.0006193805930626359
-0.0010812374821871844   -0.018670122727255423   -0.000581203075475588
-0.0010856987880762338   -0.02   -0.0005602548731815951
-0.0014341545563408779   -0.01984933496383313   -0.0006193805930626359
-0.000444671123951152   -0.018653042044714283   -0.000610818403589532
-0.0010812374821871844   -0.018670122727255423   -0.000581203075475588
-0.001375941330319291   -0.019848743496571335   -0.0005704672070572666
-0.0003853374151838902   -0.018650730791285715   -0.0005620288529131827
-0.0010454047435759554   -0.018686122951723692   -0.0005583896552604418
-0.001375941330319291   -0.019848743496571335   -0.0005704672070572666
-0.0010856987880762338   -0.02   -0.0005602548731815951
-0.0003853374151838902   -0.018650730791285715   -0.0005620288529131827
-0.0010080295134870085   -0.02   -0.000484921835208345
-0.0010454047435759554   -0.018686122951723692   -0.0005583896552604418
-0.0003415899853391895   -0.01866275648984041   -0.0005175471466699349
-0.0010080295134870085   -0.02   -0.000484921835208345
-0.0003853374151838902   -0.018650730791285715   -0.0005620288529131827
-0.0010454047435759554   -0.018686122951723692   -0.0005583896552604418
-0.0010080295134870085   -0.02   -0.000484921835208345
-0.0013136766158897025   -0.01986344698234344   -0.0005216288561517287
-0.001375941330319291   -0.019848743496571335   -0.0005704672070572666
-0.0010454047435759554   -0.018686122951723692   -0.0005583896552604418
-0.0010080295134870085   -0.02   -0.000484921835208345
-0.001375941330319291   -0.019848743496571335   -0.0005704672070572666
-0.0003853374151838902   -0.018650730791285715   -0.0005620288529131827
-0.0005023792625400286   -0.018667270785101508   -0.000662137647359661
-0.0012447381969492607   -0.02   -0.0007121115494339848
0.00021019333075087226   -0.01860215306912679   -0.000713023576174195
-0.000444671123951152   -0.018653042044714283   -0.000610818403589532
-0.0012447381969492607   -0.02   -0.0007121115494339848
-0.0010583819271096694   -0.02   -0.0007650996020068997
0.00021019333075087226   -0.01860215306912679   -0.000713023576174195
-0.0008902462753697234   -0.02   -0.0006553101861502162
-0.000444671123951152   -0.018653042044714283   -0.000610818403589532
0.00034723717624012885   -0.018571525908476993   -0.0006292543677048496
-0.0008902462753697234   -0.02   -0.0006553101861502162
0.00021019333075087226   -0.01860215306912679   -0.000713023576174195
-0.000444671123951152   -0.018653042044714283   -0.000610818403589532
-0.0008902462753697234   -0.02   -0.0006553101861502162
-0.0011655680091445845   -0.02   -0.0006366253295073695
-0.0012447381969492607   -0.02   -0.0007121115494339848
-0.000444671123951152   -0.018653042044714283   -0.000610818403589532
-0.0008902462753697234   -0.02   -0.0006553101861502162
-0.0012447381969492607   -0.02   -0.0007121115494339848
0.00021019333075087226   -0.01860215306912679   -0.000713023576174195
-0.000444671123951152   -0.018653042044714283   -0.000610818403589532
-0.0011655680091445845   -0.02   -0.0006366253295073695
0.00034723717624012885   -0.018571525908476993   -0.0006292543677048496
-0.0003853374151838902   -0.018650730791285715   -0.0005620288529131827
-0.0011655680091445845   -0.02   -0.0006366253295073695
-0.0008902462753697234   -0.02   -0.0006553101861502162
0.00034723717624012885   -0.018571525908476993   -0.0006292543677048496
-0.0007561869307560002   -0.02   -0.0005503158980686587
-0.0003853374151838902   -0.018650730791285715   -0.0005620288529131827
0.0004547946999734223   -0.018565487659384514   -0.0005503864873337233
-0.0007561869307560002   -0.02   -0.0005503158980686587
0.00034723717624012885   -0.018571525908476993   -0.0006292543677048496
-0.0003853374151838902   -0.018650730791285715   -0.0005620288529131827
-0.0007561869307560002   -0.02   -0.0005503158980686587
-0.0010856987880762338   -0.02   -0.0005602548731815951
-0.0011655680091445845   -0.02   -0.0006366253295073695
-0.0003853374151838902   -0.018650730791285715   -0.0005620288529131827
-0.0007561869307560002   -0.02   -0.0005503158980686587
-0.0011655680091445845   -0.02   -0.0006366253295073695
0.00034723717624012885   -0.018571525908476993   -0.0006292543677048496
-0.0003853374151838902   -0.018650730791285715   -0.0005620288529131827
-0.0010856987880762338   -0.02   -0.0005602548731815951
0.0004547946999734223   -0.018565487659384514   -0.0005503864873337233
-0.0003415899853391895   -0.01866275648984041   -0.0005175471466699349
-0.0010856987880762338   -0.02   -0.0005602548731815951
-0.0007561869307560002   -0.02   -0.0005503158980686587
0.0004547946999734223   -0.018565487659384514   -0.0005503864873337233
-0.0005906884386502069   -0.02   -0.00044129139437641874
-0.0003415899853391895   -0.01866275648984041   -0.0005175471466699349
0.0005672128039626037   -0.018571387566661077   -0.0004781005446956803
-0.0005906884386502069   -0.02   -0.00044129139437641874
0.0004547946999734223   -0.018565487659384514   -0.0005503864873337233
-0.0003415899853391895   -0.01866275648984041   -0.0005175471466699349
-0.0005906884386502069   -0.02   -0.00044129139437641874
-0.0010080295134870085   -0.02   -0.000484921835208345
-0.0010856987880762338   -0.02   -0.0005602548731815951
-0.0003415899853391895   -0.01866275648984041   -0.0005175471466699349
-0.0005906884386502069   -0.02   -0.00044129139437641874
-0.0010856987880762338   -0.02   -0.0005602548731815951
0.0004547946999734223   -0.018565487659384514   -0.0005503864873337233
-0.0024099858852729018   -0.019568323638045833   -0.0005070123057784158
-0.0014754827319777757   -0.019643467039548855   -0.0004344504349083383
-0.002032240220017242   -0.01966349524032385   -0.0005634848639210724
-0.0023045831055710114   -0.019547655209136768   -0.0005677985425795751
-0.0014754827319777757   -0.019643467039548855   -0.0004344504349083383
-0.0015495823941496245   -0.01971782108831415   -0.0005072340737419857
-0.002032240220017242   -0.01966349524032385   -0.0005634848639210724
-0.001512491831269676   -0.01969273500925909   -0.0005344959214741087
-0.0023045831055710114   -0.019547655209136768   -0.0005677985425795751
-0.001983454811096726   -0.01964521113818661   -0.0005837231537017298
-0.001512491831269676   -0.01969273500925909   -0.0005344959214741087
-0.002032240220017242   -0.01966349524032385   -0.0005634848639210724
-0.0023045831055710114   -0.019547655209136768   -0.0005677985425795751
-0.001512491831269676   -0.01969273500925909   -0.0005344959214741087
-0.0013794545468861677   -0.019611175579436396   -0.0004983901198495078
-0.0014754827319777757   -0.019643467039548855   -0.0004344504349083383
-0.0023045831055710114   -0.019547655209136768   -0.0005677985425795751
-0.001512491831269676   -0.01969273500925909   -0.0005344959214741087
-0.0014754827319777757   -0.019643467039548855   -0.0004344504349083383
-0.002032240220017242   -0.01966349524032385   -0.0005634848639210724
-0.0023045831055710114   -0.019547655209136768   -0.0005677985425795751
-0.0013794545468861677   -0.019611175579436396   -0.0004983901198495078
-0.001983454811096726   -0.01964521113818661   -0.0005837231537017298
-0.0022137046074083146   -0.019550203079927927   -0.0006284118109763819
-0.0013794545468861677   -0.019611175579436396   -0.0004983901198495078
-0.001512491831269676   -0.01969273500925909   -0.0005344959214741087
-0.001983454811096726   -0.01964521113818661   -0.0005837231537017298
-0.001468823714077662   -0.019684176558722   -0.0005597598935955472
-0.0022137046074083146   -0.019550203079927927   -0.0006284118109763819
-0.001929165287691868   -0.019646808244352137   -0.0006041786095785333
-0.001468823714077662   -0.019684176558722   -0.0005597598935955472
-0.001983454811096726   -0.01964521113818661   -0.0005837231537017298
-0.0022137046074083146   -0.019550203079927927   -0.0006284118109763819
-0.001468823714077662   -0.019684176558722   -0.0005597598935955472
-0.0012995793367858873   -0.01960203119477969   -0.0005598568497029641
-0.0013794545468861677   -0.019611175579436396   -0.0004983901198495078
-0.0022137046074083146   -0.019550203079927927   -0.0006284118109763819
-0.001468823714077662   -0.019684176558722   -0.0005597598935955472
-0.0013794545468861677   -0.019611175579436396   -0.0004983901198495078
-0.001983454811096726   -0.01964521113818661   -0.0005837231537017298
-0.0022137046074083146   -0.019550203079927927   -0.0006284118109763819
-0.0012995793367858873   -0.01960203119477969   -0.0005598568497029641
-0.001929165287691868   -0.019646808244352137   -0.0006041786095785333
-0.002105708872103894   -0.019577375016947254   -0.0006903112378334453
-0.0012995793367858873   -0.01960203119477969   -0.0005598568497029641
-0.001468823714077662   -0.019684176558722   -0.0005597598935955472
-0.001929165287691868   -0.019646808244352137   -0.0006041786095785333
-0.001431512839573109   -0.019692301346036927   -0.0005829056895400535
-0.002105708872103894   -0.019577375016947254   -0.0006903112378334453
-0.001878873343662751   -0.01966841134024668   -0.0006249352460848691
-0.001431512839573109   -0.019692301346036927   -0.0005829056895400535
-0.001929165287691868   -0.019646808244352137   -0.0006041786095785333
-0.002105708872103894   -0.019577375016947254   -0.0006903112378334453
-0.001431512839573109   -0.019692301346036927   -0.0005829056895400535
-0.001208838629119598   -0.019612132160859816   -0.0006186018619841977
-0.0012995793367858873   -0.01960203119477969   -0.0005598568497029641
-0.002105708872103894   -0.019577375016947254   -0.0006903112378334453
-0.001431512839573109   -0.019692301346036927   -0.0005829056895400535
-0.0012995793367858873   -0.01960203119477969   -0.0005598568497029641
-0.001929165287691868   -0.019646808244352137   -0.0006041786095785333
-0.002032240220017242   -0.01966349524032385   -0.0005634848639210724
-0.0015495823941496245   -0.01971782108831415   -0.0005072340737419857
-0.0017528761988347974   -0.019756480327368223   -0.0006132189503943519
-0.001983454811096726   -0.01964521113818661   -0.0005837231537017298
-0.0015495823941496245   -0.01971782108831415   -0.0005072340737419857
-0.001656273757805613   -0.01976262988247138   -0.0005652534531750312
-0.0017528761988347974   -0.019756480327368223   -0.0006132189503943519
-0.0016235507586109007   -0.019740179719065203   -0.0005658032977595162
-0.001983454811096726   -0.01964521113818661   -0.0005837231537017298
-0.0017016544831801983   -0.01973758586873571   -0.000599770544387626
-0.0016235507586109007   -0.019740179719065203   -0.0005658032977595162
-0.0017528761988347974   -0.019756480327368223   -0.0006132189503943519
-0.001983454811096726   -0.01964521113818661   -0.0005837231537017298
-0.0016235507586109007   -0.019740179719065203   -0.0005658032977595162
-0.001512491831269676   -0.01969273500925909   -0.0005344959214741087
-0.0015495823941496245   -0.01971782108831415   -0.0005072340737419857
-0.001983454811096726   -0.01964521113818661   -0.0005837231537017298
-0.0016235507586109007   -0.019740179719065203   -0.0005658032977595162
-0.0015495823941496245   -0.01971782108831415   -0.0005072340737419857
-0.0017528761988347974   -0.019756480327368223   -0.0006132189503943519
-0.001983454811096726   -0.01964521113818661   -0.0005837231537017298
-0.001512491831269676   -0.01969273500925909   -0.0005344959214741087
-0.0017016544831801983   -0.01973758586873571   -0.000599770544387626
-0.001929165287691868   -0.019646808244352137   -0.0006041786095785333
-0.001512491831269676   -0.01969273500925909   -0.0005344959214741087
-0.0016235507586109007   -0.019740179719065203   -0.0005658032977595162
-0.0017016544831801983   -0.01973758586873571   -0.000599770544387626
-0.0015871706328008882   -0.019732690506276684   -0.000563764463105057
-0.001929165287691868   -0.019646808244352137   -0.0006041786095785333
-0.0016520143366064413   -0.01973776336818263   -0.0005861725523295375
-0.0015871706328008882   -0.019732690506276684   -0.000563764463105057
-0.0017016544831801983   -0.01973758586873571   -0.000599770544387626
-0.001929165287691868   -0.019646808244352137   -0.0006041786095785333
-0.0015871706328008882   -0.019732690506276684   -0.000563764463105057
-0.001468823714077662   -0.019684176558722   -0.0005597598935955472
-0.001512491831269676   -0.01969273500925909   -0.0005344959214741087
-0.001929165287691868   -0.019646808244352137   -0.0006041786095785333
-0.0015871706328008882   -0.019732690506276684   -0.000563764463105057
-0.001512491831269676   -0.01969273500925909   -0.0005344959214741087
-0.0017016544831801983   -0.01973758586873571   -0.000599770544387626
-0.001929165287691868   -0.019646808244352137   -0.0006041786095785333
-0.001468823714077662   -0.019684176558722   -0.0005597598935955472
-0.0016520143366064413   -0.01973776336818263   -0.0005861725523295375
-0.001878873343662751   -0.01966841134024668   -0.0006249352460848691
-0.001468823714077662   -0.019684176558722   -0.0005597598935955472
-0.0015871706328008882   -0.019732690506276684   -0.000563764463105057
-0.0016520143366064413   -0.01973776336818263   -0.0005861725523295375
-0.001550231530151212   -0.01973953824040217   -0.000559691664934241
-0.001878873343662751   -0.01966841134024668   -0.0006249352460848691
-0.00160035291480174   -0.019756646761611197   -0.0005731547777351942
-0.001550231530151212   -0.01973953824040217   -0.000559691664934241
-0.0016520143366064413   -0.01973776336818263   -0.0005861725523295375
-0.001878873343662751   -0.01966841134024668   -0.0006249352460848691
-0.001550231530151212   -0.01973953824040217   -0.000559691664934241
-0.001431512839573109   -0.019692301346036927   -0.0005829056895400535
-0.001468823714077662   -0.019684176558722   -0.0005597598935955472
-0.001878873343662751   -0.01966841134024668   -0.0006249352460848691
-0.001550231530151212   -0.01973953824040217   -0.000559691664934241
-0.001468823714077662   -0.019684176558722   -0.0005597598935955472
-0.0016520143366064413   -0.01973776336818263   -0.0005861725523295375
-0.0017528761988347974   -0.019756480327368223   -0.0006132189503943519
-0.001656273757805613   -0.01976262988247138   -0.0005652534531750312
-0.0014967842016198245   -0.01986601117676564   -0.0006683510982866788
-0.0017016544831801983   -0.01973758586873571   -0.000599770544387626
-0.001656273757805613   -0.01976262988247138   -0.0005652534531750312
-0.001771481090943354   -0.019779672231067344   -0.0006225443503858125
-0.0014967842016198245   -0.01986601117676564   -0.0006683510982866788
-0.0017375769960638113   -0.019758118326303996   -0.0005973931058963815
-0.0017016544831801983   -0.01973758586873571   -0.000599770544387626
-0.0014341545563408779   -0.01984933496383313   -0.0006193805930626359
-0.0017375769960638113   -0.019758118326303996   -0.0005973931058963815
-0.0014967842016198245   -0.01986601117676564   -0.0006683510982866788
-0.0017016544831801983   -0.01973758586873571   -0.000599770544387626
-0.0017375769960638113   -0.019758118326303996   -0.0005973931058963815
-0.0016235507586109007   -0.019740179719065203   -0.0005658032977595162
-0.001656273757805613   -0.01976262988247138   -0.0005652534531750312
-0.0017016544831801983   -0.01973758586873571   -0.000599770544387626
-0.0017375769960638113   -0.019758118326303996   -0.0005973931058963815
-0.001656273757805613   -0.01976262988247138   -0.0005652534531750312
-0.0014967842016198245   -0.01986601117676564   -0.0006683510982866788
-0.0017016544831801983   -0.01973758586873571   -0.000599770544387626
-0.0016235507586109007   -0.019740179719065203   -0.0005658032977595162
-0.0014341545563408779   -0.01984933496383313   -0.0006193805930626359
-0.0016520143366064413   -0.01973776336818263   -0.0005861725523295375
-0.0016235507586109007   -0.019740179719065203   -0.0005658032977595162
-0.0017375769960638113   -0.019758118326303996   -0.0005973931058963815
-0.0014341545563408779   -0.01984933496383313   -0.0006193805930626359
-0.0016970344908096742   -0.01975175463096526   -0.0005690849109334323
-0.0016520143366064413   -0.01973776336818263   -0.0005861725523295375
-0.001375941330319291   -0.019848743496571335   -0.0005704672070572666
-0.0016970344908096742   -0.01975175463096526   -0.0005690849109334323
-0.0014341545563408779   -0.01984933496383313   -0.0006193805930626359
-0.0016520143366064413   -0.01973776336818263   -0.0005861725523295375
-0.0016970344908096742   -0.01975175463096526   -0.0005690849109334323
-0.0015871706328008882   -0.019732690506276684   -0.000563764463105057
-0.0016235507586109007   -0.019740179719065203   -0.0005658032977595162
-0.0016520143366064413   -0.01973776336818263   -0.0005861725523295375
-0.0016970344908096742   -0.01975175463096526   -0.0005690849109334323
-0.0016235507586109007   -0.019740179719065203   -0.0005658032977595162
-0.0014341545563408779   -0.01984933496383313   -0.0006193805930626359
-0.0016520143366064413   -0.01973776336818263   -0.0005861725523295375
-0.0015871706328008882   -0.019732690506276684   -0.000563764463105057
-0.001375941330319291   -0.019848743496571335   -0.0005704672070572666
-0.00160035291480174   -0.019756646761611197   -0.0005731547777351942
-0.0015871706328008882   -0.019732690506276684   -0.000563764463105057
-0.0016970344908096742   -0.01975175463096526   -0.0005690849109334323
-0.001375941330319291   -0.019848743496571335   -0.0005704672070572666
-0.0016554181299554525   -0.019758342419068882   -0.0005390079881861552
-0.00160035291480174   -0.019756646761611197   -0.0005731547777351942
-0.0013136766158897025   -0.01986344698234344   -0.0005216288561517287
-0.0016554181299554525   -0.019758342419068882   -0.0005390079881861552
-0.001375941330319291   -0.019848743496571335   -0.0005704672070572666
-0.00160035291480174   -0.019756646761611197   -0.0005731547777351942
-0.0016554181299554525   -0.019758342419068882   -0.0005390079881861552
-0.001550231530151212   -0.01973953824040217   -0.000559691664934241
-0.0015871706328008882   -0.019732690506276684   -0.000563764463105057
-0.00160035291480174   -0.019756646761611197   -0.0005731547777351942
-0.0016554181299554525   -0.019758342419068882   -0.0005390079881861552
-0.0015871706328008882   -0.019732690506276684   -0.000563764463105057
-0.001375941330319291   -0.019848743496571335   -0.0005704672070572666
-0.0014967842016198245   -0.01986601117676564   -0.0006683510982866788
-0.001771481090943354   -0.019779672231067344   -0.0006225443503858125
-0.0012447381969492607   -0.02   -0.0007121115494339848
-0.0014341545563408779   -0.01984933496383313   -0.0006193805930626359
-0.001771481090943354   -0.019779672231067344   -0.0006225443503858125
-0.0019388781187035405   -0.01975620227655424   -0.0006774636658801069
-0.0012447381969492607   -0.02   -0.0007121115494339848
-0.0018946496297658686   -0.019735582387959427   -0.000627730668501953
-0.0014341545563408779   -0.01984933496383313   -0.0006193805930626359
-0.0011655680091445845   -0.02   -0.0006366253295073695
-0.0018946496297658686   -0.019735582387959427   -0.000627730668501953
-0.0012447381969492607   -0.02   -0.0007121115494339848
-0.0014341545563408779   -0.01984933496383313   -0.0006193805930626359
-0.0018946496297658686   -0.019735582387959427   -0.000627730668501953
-0.0017375769960638113   -0.019758118326303996   -0.0005973931058963815
-0.001771481090943354   -0.019779672231067344   -0.0006225443503858125
-0.0014341545563408779   -0.01984933496383313   -0.0006193805930626359
-0.0018946496297658686   -0.019735582387959427   -0.000627730668501953
-0.001771481090943354   -0.019779672231067344   -0.0006225443503858125
-0.0012447381969492607   -0.02   -0.0007121115494339848
-0.0014341545563408779   -0.01984933496383313   -0.0006193805930626359
-0.0017375769960638113   -0.019758118326303996   -0.0005973931058963815
-0.0011655680091445845   -0.02   -0.0006366253295073695
-0.001375941330319291   -0.019848743496571335   -0.0005704672070572666
-0.0017375769960638113   -0.019758118326303996   -0.0005973931058963815
-0.0018946496297658686   -0.019735582387959427   -0.000627730668501953
-0.0011655680091445845   -0.02   -0.0006366253295073695
-0.001835993640617657   -0.01973126463590161   -0.0005744365492006593
-0.001375941330319291   -0.019848743496571335   -0.0005704672070572666
-0.0010856987880762338   -0.02   -0.0005602548731815951
-0.001835993640617657   -0.01973126463590161   -0.0005744365492006593
-0.0011655680091445845   -0.02   -0.0006366253295073695
-0.001375941330319291   -0.019848743496571335   -0.0005704672070572666
-0.001835993640617657   -0.01973126463590161   -0.0005744365492006593
-0.0016970344908096742   -0.01975175463096526   -0.0005690849109334323
-0.0017375769960638113   -0.019758118326303996   -0.0005973931058963815
-0.001375941330319291   -0.019848743496571335   -0.0005704672070572666
-0.001835993640617657   -0.01973126463590161   -0.0005744365492006593
-0.0017375769960638113   -0.019758118326303996   -0.0005973931058963815
-0.0011655680091445845   -0.02   -0.0006366253295073695
-0.001375941330319291   -0.019848743496571335   -0.0005704672070572666
-0.0016970344908096742   -0.01975175463096526   -0.0005690849109334323
-0.0010856987880762338   -0.02   -0.0005602548731815951
-0.0013136766158897025   -0.01986344698234344   -0.0005216288561517287
-0.0016970344908096742   -0.01975175463096526   -0.0005690849109334323
-0.001835993640617657   -0.01973126463590161   -0.0005744365492006593
-0.0010856987880762338   -0.02   -0.0005602548731815951
-0.0017812777432991852   -0.019740210994827166   -0.0005191860648963105
-0.0013136766158897025   -0.01986344698234344   -0.0005216288561517287
-0.0010080295134870085   -0.02   -0.000484921835208345
-0.0017812777432991852   -0.019740210994827166   -0.0005191860648963105
-0.0010856987880762338   -0.02   -0.0005602548731815951
-0.0013136766158897025   -0.01986344698234344   -0.0005216288561517287
-0.0017812777432991852   -0.019740210994827166   -0.0005191860648963105
-0.0016554181299554525   -0.019758342419068882   -0.0005390079881861552
-0.0016970344908096742   -0.01975175463096526   -0.0005690849109334323
-0.0013136766158897025   -0.01986344698234344   -0.0005216288561517287
-0.0017812777432991852   -0.019740210994827166   -0.0005191860648963105
-0.0016970344908096742   -0.01975175463096526   -0.0005690849109334323
-0.0010856987880762338   -0.02   -0.0005602548731815951
-0.0012447381969492607   -0.02   -0.0007121115494339848
-0.0019388781187035405   -0.01975620227655424   -0.0006774636658801069
-0.0010583819271096694   -0.02   -0.0007650996020068997
-0.0011655680091445845   -0.02   -0.0006366253295073695
-0.0019388781187035405   -0.01975620227655424   -0.0006774636658801069
-0.0022708989850297153   -0.019660120432550415   -0.0007366267090016834
-0.0010583819271096694   -0.02   -0.0007650996020068997
-0.002150154053857625   -0.01964227620145015   -0.0006550980913967355
-0.0011655680091445845   -0.02   -0.0006366253295073695
-0.0008902462753697234   -0.02   -0.0006553101861502162
-0.002150154053857625   -0.01964227620145015   -0.0006550980913967355
-0.0010583819271096694   -0.02   -0.0007650996020068997
-0.0011655680091445845   -0.02   -0.0006366253295073695
-0.002150154053857625   -0.01964227620145015   -0.0006550980913967355
-0.0018946496297658686   -0.019735582387959427   -0.000627730668501953
-0.0019388781187035405   -0.01975620227655424   -0.0006774636658801069
-0.0011655680091445845   -0.02   -0.0006366253295073695
-0.002150154053857625   -0.01964227620145015   -0.0006550980913967355
-0.0019388781187035405   -0.01975620227655424   -0.0006774636658801069
-0.0010583819271096694   -0.02   -0.0007650996020068997
-0.0011655680091445845   -0.02   -0.0006366253295073695
-0.0018946496297658686   -0.019735582387959427   -0.000627730668501953
-0.0008902462753697234   -0.02   -0.0006553101861502162
-0.0010856987880762338   -0.02   -0.0005602548731815951
-0.0018946496297658686   -0.019735582387959427   -0.000627730668501953
-0.002150154053857625   -0.01964227620145015   -0.0006550980913967355
-0.0008902462753697234   -0.02   -0.0006553101861502162
-0.0020398641592023607   -0.01964013893735414   -0.0005683727554117002
-0.0010856987880762338   -0.02   -0.0005602548731815951
-0.0007561869307560002   -0.02   -0.0005503158980686587
-0.0020398641592023607   -0.01964013893735414   -0.0005683727554117002
-0.0008902462753697234   -0.02   -0.0006553101861502162
-0.0010856987880762338   -0.02   -0.0005602548731815951
-0.0020398641592023607   -0.01964013893735414   -0.0005683727554117002
-0.001835993640617657   -0.01973126463590161   -0.0005744365492006593
-0.0018946496297658686   -0.019735582387959427   -0.000627730668501953
-0.0010856987880762338   -0.02   -0.0005602548731815951
-0.0020398641592023607   -0.01964013893735414   -0.0005683727554117002
-0.0018946496297658686   -0.019735582387959427   -0.000627730668501953
-0.0008902462753697234   -0.02   -0.0006553101861502162
-0.0010856987880762338   -0.02   -0.0005602548731815951
-0.001835993640617657   -0.01973126463590161   -0.0005744365492006593
-0.0007561869307560002   -0.02   -0.0005503158980686587
-0.0010080295134870085   -0.02   -0.000484921835208345
-0.001835993640617657   -0.01973126463590161   -0.0005744365492006593
-0.0020398641592023607   -0.01964013893735414   -0.0005683727554117002
-0.0007561869307560002   -0.02   -0.0005503158980686587
-0.0019004590032017088   -0.019663431474939246   -0.0004779267123097643
-0.0010080295134870085   -0.02   -0.000484921835208345
-0.0005906884386502069   -0.02   -0.00044129139437641874
-0.0019004590032017088   -0.019663431474939246   -0.0004779267123097643
-0.0007561869307560002   -0.02   -0.0005503158980686587
-0.0010080295134870085   -0.02   -0.000484921835208345
-0.0019004590032017088   -0.019663431474939246   -0.0004779267123097643
-0.0017812777432991852   -0.019740210994827166   -0.0005191860648963105
-0.001835993640617657   -0.01973126463590161   -0.0005744365492006593
-0.0010080295134870085   -0.02   -0.000484921835208345
-0.0019004590032017088   -0.019663431474939246   -0.0004779267123097643
-0.001835993640617657   -0.01973126463590161   -0.0005744365492006593
-0.0007561869307560002   -0.02   -0.0005503158980686587
-0.0014754827319777757   -0.019643467039548855   -0.0004344504349083383
-0.0006461475956784028   -0.018937653937325515   -0.00037409738420813215
-0.0015495823941496245   -0.01971782108831415   -0.0005072340737419857
-0.0013794545468861677   -0.019611175579436396   -0.0004983901198495078
-0.0006461475956784028   -0.018937653937325515   -0.00037409738420813215
-0.0011316797831468824   -0.018994566822548492   -0.00045162206127691133
-0.0015495823941496245   -0.01971782108831415   -0.0005072340737419857
-0.001105186271514896   -0.018964156408449954   -0.0004761203271851688
-0.0013794545468861677   -0.019611175579436396   -0.0004983901198495078
-0.001512491831269676   -0.01969273500925909   -0.0005344959214741087
-0.001105186271514896   -0.018964156408449954   -0.0004761203271851688
-0.0015495823941496245   -0.01971782108831415   -0.0005072340737419857
-0.0013794545468861677   -0.019611175579436396   -0.0004983901198495078
-0.001105186271514896   -0.018964156408449954   -0.0004761203271851688
-0.0005688501603938565   -0.01889987568920464   -0.0004298857778855438
-0.0006461475956784028   -0.018937653937325515   -0.00037409738420813215
-0.0013794545468861677   -0.019611175579436396   -0.0004983901198495078
-0.001105186271514896   -0.018964156408449954   -0.0004761203271851688
-0.0006461475956784028   -0.018937653937325515   -0.00037409738420813215
-0.0015495823941496245   -0.01971782108831415   -0.0005072340737419857
-0.0013794545468861677   -0.019611175579436396   -0.0004983901198495078
-0.0005688501603938565   -0.01889987568920464   -0.0004298857778855438
-0.001512491831269676   -0.01969273500925909   -0.0005344959214741087
-0.0012995793367858873   -0.01960203119477969   -0.0005598568497029641
-0.0005688501603938565   -0.01889987568920464   -0.0004298857778855438
-0.001105186271514896   -0.018964156408449954   -0.0004761203271851688
-0.001512491831269676   -0.01969273500925909   -0.0005344959214741087
-0.0010751646796129876   -0.018948029066763492   -0.0004985150250531982
-0.0012995793367858873   -0.01960203119477969   -0.0005598568497029641
-0.001468823714077662   -0.019684176558722   -0.0005597598935955472
-0.0010751646796129876   -0.018948029066763492   -0.0004985150250531982
-0.001512491831269676   -0.01969273500925909   -0.0005344959214741087
-0.0012995793367858873   -0.01960203119477969   -0.0005598568497029641
-0.0010751646796129876   -0.018948029066763492   -0.0004985150250531982
-0.0005080068979018477   -0.01888270696334603   -0.00048256244122307096
-0.0005688501603938565   -0.01889987568920464   -0.0004298857778855438
-0.0012995793367858873   -0.01960203119477969   -0.0005598568497029641
-0.0010751646796129876   -0.018948029066763492   -0.0004985150250531982
-0.0005688501603938565   -0.01889987568920464   -0.0004298857778855438
-0.001512491831269676   -0.01969273500925909   -0.0005344959214741087
-0.0012995793367858873   -0.01960203119477969   -0.0005598568497029641
-0.0005080068979018477   -0.01888270696334603   -0.00048256244122307096
-0.001468823714077662   -0.019684176558722   -0.0005597598935955472
-0.001208838629119598   -0.019612132160859816   -0.0006186018619841977
-0.0005080068979018477   -0.01888270696334603   -0.00048256244122307096
-0.0010751646796129876   -0.018948029066763492   -0.0004985150250531982
-0.001468823714077662   -0.019684176558722   -0.0005597598935955472
-0.0010522041132964596   -0.018945725106325483   -0.0005188799713085883
-0.001208838629119598   -0.019612132160859816   -0.0006186018619841977
-0.001431512839573109   -0.019692301346036927   -0.0005829056895400535
-0.0010522041132964596   -0.018945725106325483   -0.0005188799713085883
-0.001468823714077662   -0.019684176558722   -0.0005597598935955472
-0.001208838629119598   -0.019612132160859816   -0.0006186018619841977
-0.0010522041132964596   -0.018945725106325483   -0.0005188799713085883
-0.00044111726623756014   -0.018881055101912386   -0.0005320042227059611
-0.0005080068979018477   -0.01888270696334603   -0.00048256244122307096
-0.001208838629119598   -0.019612132160859816   -0.0006186018619841977
-0.0010522041132964596   -0.018945725106325483   -0.0005188799713085883
-0.0005080068979018477   -0.01888270696334603   -0.00048256244122307096
-0.001468823714077662   -0.019684176558722   -0.0005597598935955472
-0.0015495823941496245   -0.01971782108831415   -0.0005072340737419857
-0.0011316797831468824   -0.018994566822548492   -0.00045162206127691133
-0.001656273757805613   -0.01976262988247138   -0.0005652534531750312
-0.001512491831269676   -0.01969273500925909   -0.0005344959214741087
-0.0011316797831468824   -0.018994566822548492   -0.00045162206127691133
-0.0016141869147106734   -0.01901435689601057   -0.0005145419415162276
-0.001656273757805613   -0.01976262988247138   -0.0005652534531750312
-0.0015920346572186768   -0.01898785331159162   -0.0005157155635585748
-0.001512491831269676   -0.01969273500925909   -0.0005344959214741087
-0.0016235507586109007   -0.019740179719065203   -0.0005658032977595162
-0.0015920346572186768   -0.01898785331159162   -0.0005157155635585748
-0.001656273757805613   -0.01976262988247138   -0.0005652534531750312
-0.001512491831269676   -0.01969273500925909   -0.0005344959214741087
-0.0015920346572186768   -0.01898785331159162   -0.0005157155635585748
-0.001105186271514896   -0.018964156408449954   -0.0004761203271851688
-0.0011316797831468824   -0.018994566822548492   -0.00045162206127691133
-0.001512491831269676   -0.01969273500925909   -0.0005344959214741087
-0.0015920346572186768   -0.01898785331159162   -0.0005157155635585748
-0.0011316797831468824   -0.018994566822548492   -0.00045162206127691133
-0.001656273757805613   -0.01976262988247138   -0.0005652534531750312
-0.001512491831269676   -0.01969273500925909   -0.0005344959214741087
-0.001105186271514896   -0.018964156408449954   -0.0004761203271851688
-0.0016235507586109007   -0.019740179719065203   -0.0005658032977595162
-0.001468823714077662   -0.019684176558722   -0.0005597598935955472
-0.001105186271514896   -0.018964156408449954   -0.0004761203271851688
-0.0015920346572186768   -0.01898785331159162   -0.0005157155635585748
-0.0016235507586109007   -0.019740179719065203   -0.0005658032977595162
-0.0015691013058663566   -0.01897421566047345   -0.0005149381758615062
-0.001468823714077662   -0.019684176558722   -0.0005597598935955472
-0.0015871706328008882   -0.019732690506276684   -0.000563764463105057
-0.0015691013058663566   -0.01897421566047345   -0.0005149381758615062
-0.0016235507586109007   -0.019740179719065203   -0.0005658032977595162
-0.001468823714077662   -0.019684176558722   -0.0005597598935955472
-0.0015691013058663566   -0.01897421566047345   -0.0005149381758615062
-0.0010751646796129876   -0.018948029066763492   -0.0004985150250531982
-0.001105186271514896   -0.018964156408449954   -0.0004761203271851688
-0.001468823714077662   -0.019684176558722   -0.0005597598935955472
-0.0015691013058663566   -0.01897421566047345   -0.0005149381758615062
-0.001105186271514896   -0.018964156408449954   -0.0004761203271851688
-0.0016235507586109007   -0.019740179719065203   -0.0005658032977595162
-0.001468823714077662   -0.019684176558722   -0.0005597598935955472
-0.0010751646796129876   -0.018948029066763492   -0.0004985150250531982
-0.0015871706328008882   -0.019732690506276684   -0.000563764463105057
-0.001431512839573109   -0.019692301346036927   -0.0005829056895400535
-0.0010751646796129876   -0.018948029066763492   -0.0004985150250531982
-0.0015691013058663566   -0.01897421566047345   -0.0005149381758615062
-0.0015871706328008882   -0.019732690506276684   -0.000563764463105057
-0.0015470113283658688   -0.01897287317172377   -0.0005122045751884824
-0.001431512839573109   -0.019692301346036927   -0.0005829056895400535
-0.001550231530151212   -0.01973953824040217   -0.000559691664934241
-0.0015470113283658688   -0.01897287317172377   -0.0005122045751884824
-0.0015871706328008882   -0.019732690506276684   -0.000563764463105057
-0.001431512839573109   -0.019692301346036927   -0.0005829056895400535
-0.0015470113283658688   -0.01897287317172377   -0.0005122045751884824
-0.0010522041132964596   -0.018945725106325483   -0.0005188799713085883
-0.0010751646796129876   -0.018948029066763492   -0.0004985150250531982
-0.001431512839573109   -0.019692301346036927   -0.0005829056895400535
-0.0015470113283658688   -0.01897287317172377   -0.0005122045751884824
-0.0010751646796129876   -0.018948029066763492   -0.0004985150250531982
-0.0015871706328008882   -0.019732690506276684   -0.000563764463105057
-0.001656273757805613   -0.01976262988247138   -0.0005652534531750312
-0.0016141869147106734   -0.01901435689601057   -0.0005145419415162276
-0.001771481090943354   -0.019779672231067344   -0.0006225443503858125
-0.0016235507586109007   -0.019740179719065203   -0.0005658032977595162
-0.0016141869147106734   -0.01901435689601057   -0.0005145419415162276
-0.0020938375237971184   -0.018996136242657318   -0.000573507548690863
-0.001771481090943354   -0.019779672231067344   -0.0006225443503858125
-0.002071861524896599   -0.018972527476569245   -0.0005522872763160764
-0.0016235507586109007   -0.019740179719065203   -0.0005658032977595162
-0.0017375769960638113   -0.019758118326303996   -0.0005973931058963815
-0.002071861524896599   -0.018972527476569245   -0.0005522872763160764
-0.001771481090943354   -0.019779672231067344   -0.0006225443503858125
-0.0016235507586109007   -0.019740179719065203   -0.0005658032977595162
-0.002071861524896599   -0.018972527476569245   -0.0005522872763160764
-0.0015920346572186768   -0.01898785331159162   -0.0005157155635585748
-0.0016141869147106734   -0.01901435689601057   -0.0005145419415162276
-0.0016235507586109007   -0.019740179719065203   -0.0005658032977595162
-0.002071861524896599   -0.018972527476569245   -0.0005522872763160764
-0.0016141869147106734   -0.01901435689601057   -0.0005145419415162276
-0.001771481090943354   -0.019779672231067344   -0.0006225443503858125
-0.0016235507586109007   -0.019740179719065203   -0.0005658032977595162
-0.0015920346572186768   -0.01898785331159162   -0.0005157155635585748
-0.0017375769960638113   -0.019758118326303996   -0.0005973931058963815
-0.0015871706328008882   -0.019732690506276684   -0.000563764463105057
-0.0015920346572186768   -0.01898785331159162   -0.0005157155635585748
-0.002071861524896599   -0.018972527476569245   -0.0005522872763160764
-0.0017375769960638113   -0.019758118326303996   -0.0005973931058963815
-0.0020472038888684685   -0.018961583792558686   -0.0005291508214227946
-0.0015871706328008882   -0.019732690506276684   -0.000563764463105057
-0.0016970344908096742   -0.01975175463096526   -0.0005690849109334323
-0.0020472038888684685   -0.018961583792558686   -0.0005291508214227946
-0.0017375769960638113   -0.019758118326303996   -0.0005973931058963815
-0.0015871706328008882   -0.019732690506276684   -0.000563764463105057
-0.0020472038888684685   -0.018961583792558686   -0.0005291508214227946
-0.0015691013058663566   -0.01897421566047345   -0.0005149381758615062
-0.0015920346572186768   -0.01898785331159162   -0.0005157155635585748
-0.0015871706328008882   -0.019732690506276684   -0.000563764463105057
-0.0020472038888684685   -0.018961583792558686   -0.0005291508214227946
-0.0015920346572186768   -0.01898785331159162   -0.0005157155635585748
-0.0017375769960638113   -0.019758118326303996   -0.0005973931058963815
-0.0015871706328008882   -0.019732690506276684   -0.000563764463105057
-0.0015691013058663566   -0.01897421566047345   -0.0005149381758615062
-0.0016970344908096742   -0.01975175463096526   -0.0005690849109334323
-0.001550231530151212   -0.01973953824040217   -0.000559691664934241
-0.0015691013058663566   -0.01897421566047345   -0.0005149381758615062
-0.0020472038888684685   -0.018961583792558686   -0.0005291508214227946
-0.0016970344908096742   -0.01975175463096526   -0.0005690849109334323
-0.002022509008608627   -0.018962158060378504   -0.0005038658067644365
-0.001550231530151212   -0.01973953824040217   -0.000559691664934241
-0.0016554181299554525   -0.019758342419068882   -0.0005390079881861552
-0.002022509008608627   -0.018962158060378504   -0.0005038658067644365
-0.0016970344908096742   -0.01975175463096526   -0.0005690849109334323
-0.001550231530151212   -0.01973953824040217   -0.000559691664934241
-0.002022509008608627   -0.018962158060378504   -0.0005038658067644365
-0.0015470113283658688   -0.01897287317172377   -0.0005122045751884824
-0.0015691013058663566   -0.01897421566047345   -0.0005149381758615062
-0.001550231530151212   -0.01973953824040217   -0.000559691664934241
-0.002022509008608627   -0.018962158060378504   -0.0005038658067644365
-0.0015691013058663566   -0.01897421566047345   -0.0005149381758615062
-0.0016970344908096742   -0.01975175463096526   -0.0005690849109334323
-0.001771481090943354   -0.019779672231067344   -0.0006225443503858125
-0.0020938375237971184   -0.018996136242657318   -0.000573507548690863
-0.0019388781187035405   -0.01975620227655424   -0.0006774636658801069
-0.0017375769960638113   -0.019758118326303996   -0.0005973931058963815
-0.0020938375237971184   -0.018996136242657318   -0.000573507548690863
-0.0026194988025068414   -0.018937604146755778   -0.0006279230579659506
-0.0019388781187035405   -0.01975620227655424   -0.0006774636658801069
-0.002592416262794669   -0.018916844423274442   -0.0005847385643536472
-0.0017375769960638113   -0.019758118326303996   -0.0005973931058963815
-0.0018946496297658686   -0.019735582387959427   -0.000627730668501953
-0.002592416262794669   -0.018916844423274442   -0.0005847385643536472
-0.0019388781187035405   -0.01975620227655424   -0.0006774636658801069
-0.0017375769960638113   -0.019758118326303996   -0.0005973931058963815
-0.002592416262794669   -0.018916844423274442   -0.0005847385643536472
-0.002071861524896599   -0.018972527476569245   -0.0005522872763160764
-0.0020938375237971184   -0.018996136242657318   -0.000573507548690863
-0.0017375769960638113   -0.019758118326303996   -0.0005973931058963815
-0.002592416262794669   -0.018916844423274442   -0.0005847385643536472
-0.0020938375237971184   -0.018996136242657318   -0.000573507548690863
-0.0019388781187035405   -0.01975620227655424   -0.0006774636658801069
-0.0017375769960638113   -0.019758118326303996   -0.0005973931058963815
-0.002071861524896599   -0.018972527476569245   -0.0005522872763160764
-0.0018946496297658686   -0.019735582387959427   -0.000627730668501953
-0.0016970344908096742   -0.01975175463096526   -0.0005690849109334323
-0.002071861524896599   -0.018972527476569245   -0.0005522872763160764
-0.002592416262794669   -0.018916844423274442   -0.0005847385643536472
-0.0018946496297658686   -0.019735582387959427   -0.000627730668501953
-0.0025548504863377865   -0.018908584423878612   -0.0005397967705376026
-0.0016970344908096742   -0.01975175463096526   -0.0005690849109334323
-0.001835993640617657   -0.01973126463590161   -0.0005744365492006593
-0.0025548504863377865   -0.018908584423878612   -0.0005397967705376026
-0.0018946496297658686   -0.019735582387959427   -0.000627730668501953
-0.0016970344908096742   -0.01975175463096526   -0.0005690849109334323
-0.0025548504863377865   -0.018908584423878612   -0.0005397967705376026
-0.0020472038888684685   -0.018961583792558686   -0.0005291508214227946
-0.002071861524896599   -0.018972527476569245   -0.0005522872763160764
-0.0016970344908096742   -0.01975175463096526   -0.0005690849109334323
-0.0025548504863377865   -0.018908584423878612   -0.0005397967705376026
-0.002071861524896599   -0.018972527476569245   -0.0005522872763160764
-0.0018946496297658686   -0.019735582387959427   -0.000627730668501953
-0.0016970344908096742   -0.01975175463096526   -0.0005690849109334323
-0.0020472038888684685   -0.018961583792558686   -0.0005291508214227946
-0.001835993640617657   -0.01973126463590161   -0.0005744365492006593
-0.0016554181299554525   -0.019758342419068882   -0.0005390079881861552
-0.0020472038888684685   -0.018961583792558686   -0.0005291508214227946
-0.0025548504863377865   -0.018908584423878612   -0.0005397967705376026
-0.001835993640617657   -0.01973126463590161   -0.0005744365492006593
-0.002522362339771986   -0.018912822017676495   -0.000491893685528826
-0.0016554181299554525   -0.019758342419068882   -0.0005390079881861552
-0.0017812777432991852   -0.019740210994827166   -0.0005191860648963105
-0.002522362339771986   -0.018912822017676495   -0.000491893685528826
-0.001835993640617657   -0.01973126463590161   -0.0005744365492006593
-0.0016554181299554525   -0.019758342419068882   -0.0005390079881861552
-0.002522362339771986   -0.018912822017676495   -0.000491893685528826
-0.002022509008608627   -0.018962158060378504   -0.0005038658067644365
-0.0020472038888684685   -0.018961583792558686   -0.0005291508214227946
-0.0016554181299554525   -0.019758342419068882   -0.0005390079881861552
-0.002522362339771986   -0.018912822017676495   -0.000491893685528826
-0.0020472038888684685   -0.018961583792558686   -0.0005291508214227946
-0.001835993640617657   -0.01973126463590161   -0.0005744365492006593
-0.0019388781187035405   -0.01975620227655424   -0.0006774636658801069
-0.0026194988025068414   -0.018937604146755778   -0.0006279230579659506
-0.0022708989850297153   -0.019660120432550415   -0.0007366267090016834
-0.0018946496297658686   -0.019735582387959427   -0.000627730668501953
-0.0026194988025068414   -0.018937604146755778   -0.0006279230579659506
-0.00329615236487648   -0.018842409704684315   -0.000680920196277824
-0.0022708989850297153   -0.019660120432550415   -0.0007366267090016834
-0.0032063165846474696   -0.018819577501608772   -0.0006126572152481189
-0.0018946496297658686   -0.019735582387959427   -0.000627730668501953
-0.002150154053857625   -0.01964227620145015   -0.0006550980913967355
-0.0032063165846474696   -0.018819577501608772   -0.0006126572152481189
-0.0022708989850297153   -0.019660120432550415   -0.0007366267090016834
-0.0018946496297658686   -0.019735582387959427   -0.000627730668501953
-0.0032063165846474696   -0.018819577501608772   -0.0006126572152481189
-0.002592416262794669   -0.018916844423274442   -0.0005847385643536472
-0.0026194988025068414   -0.018937604146755778   -0.0006279230579659506
-0.0018946496297658686   -0.019735582387959427   -0.000627730668501953
-0.0032063165846474696   -0.018819577501608772   -0.0006126572152481189
-0.0026194988025068414   -0.018937604146755778   -0.0006279230579659506
-0.0022708989850297153   -0.019660120432550415   -0.0007366267090016834
-0.0018946496297658686   -0.019735582387959427   -0.000627730668501953
-0.002592416262794669   -0.018916844423274442   -0.0005847385643536472
-0.002150154053857625   -0.01964227620145015   -0.0006550980913967355
-0.001835993640617657   -0.01973126463590161   -0.0005744365492006593
-0.002592416262794669   -0.018916844423274442   -0.0005847385643536472
-0.0032063165846474696   -0.018819577501608772   -0.0006126572152481189
-0.002150154053857625   -0.01964227620145015   -0.0006550980913967355
-0.0031263285246553923   -0.01881193738717446   -0.0005406687354341392
-0.001835993640617657   -0.01973126463590161   -0.0005744365492006593
-0.0020398641592023607   -0.01964013893735414   -0.0005683727554117002
-0.0031263285246553923   -0.01881193738717446   -0.0005406687354341392
-0.002150154053857625   -0.01964227620145015   -0.0006550980913967355
-0.001835993640617657   -0.01973126463590161   -0.0005744365492006593
-0.0031263285246553923   -0.01881193738717446   -0.0005406687354341392
-0.0025548504863377865   -0.018908584423878612   -0.0005397967705376026
-0.002592416262794669   -0.018916844423274442   -0.0005847385643536472
-0.001835993640617657   -0.01973126463590161   -0.0005744365492006593
-0.0031263285246553923   -0.01881193738717446   -0.0005406687354341392
-0.002592416262794669   -0.018916844423274442   -0.0005847385643536472
-0.002150154053857625   -0.01964227620145015   -0.0006550980913967355
-0.001835993640617657   -0.01973126463590161   -0.0005744365492006593
-0.0025548504863377865   -0.018908584423878612   -0.0005397967705376026
-0.0020398641592023607   -0.01964013893735414   -0.0005683727554117002
-0.0017812777432991852   -0.019740210994827166   -0.0005191860648963105
-0.0025548504863377865   -0.018908584423878612   -0.0005397967705376026
-0.0031263285246553923   -0.01881193738717446   -0.0005406687354341392
-0.0020398641592023607   -0.01964013893735414   -0.0005683727554117002
-0.0030227289439546   -0.018823605712898487   -0.0004656176482088938
-0.0017812777432991852   -0.019740210994827166   -0.0005191860648963105
-0.0019004590032017088   -0.019663431474939246   -0.0004779267123097643
-0.0030227289439546   -0.018823605712898487   -0.0004656176482088938
-0.0020398641592023607   -0.01964013893735414   -0.0005683727554117002
-0.0017812777432991852   -0.019740210994827166   -0.0005191860648963105
-0.0030227289439546   -0.018823605712898487   -0.0004656176482088938
-0.002522362339771986   -0.018912822017676495   -0.000491893685528826
-0.0025548504863377865   -0.018908584423878612   -0.0005397967705376026
-0.0017812777432991852   -0.019740210994827166   -0.0005191860648963105
-0.0030227289439546   -0.018823605712898487   -0.0004656176482088938
-0.0025548504863377865   -0.018908584423878612   -0.0005397967705376026
-0.0020398641592023607   -0.01964013893735414   -0.0005683727554117002
-0.0006461475956784028   -0.018937653937325515   -0.00037409738420813215
3.458948747904186e-05   -0.01760981635909714   -0.0003083448057847319
-0.0011316797831468824   -0.018994566822548492   -0.00045162206127691133
-0.0005688501603938565   -0.01889987568920464   -0.0004298857778855438
3.458948747904186e-05   -0.01760981635909714   -0.0003083448057847319
-0.0007959067012032323   -0.017652190059020943   -0.000384651873254681
-0.0011316797831468824   -0.018994566822548492   -0.00045162206127691133
-0.0007816435116615257   -0.01762027457498095   -0.00040432130385329134
-0.0005688501603938565   -0.01889987568920464   -0.0004298857778855438
-0.001105186271514896   -0.018964156408449954   -0.0004761203271851688
-0.0007816435116615257   -0.01762027457498095   -0.00040432130385329134
-0.0011316797831468824   -0.018994566822548492   -0.00045162206127691133
-0.0005688501603938565   -0.01889987568920464   -0.0004298857778855438
-0.0007816435116615257   -0.01762027457498095   -0.00040432130385329134
8.945397993861716e-05   -0.017571310032903152   -0.0003533473512754473
3.458948747904186e-05   -0.01760981635909714   -0.0003083448057847319
-0.0005688501603938565   -0.01889987568920464   -0.0004298857778855438
-0.0007816435116615257   -0.01762027457498095   -0.00040432130385329134
3.458948747904186e-05   -0.01760981635909714   -0.0003083448057847319
-0.0011316797831468824   -0.018994566822548492   -0.00045162206127691133
-0.0005688501603938565   -0.01889987568920464   -0.0004298857778855438
8.945397993861716e-05   -0.017571310032903152   -0.0003533473512754473
-0.001105186271514896   -0.018964156408449954   -0.0004761203271851688
-0.0005080068979018477   -0.01888270696334603   -0.00048256244122307096
8.945397993861716e-05   -0.017571310032903152   -0.0003533473512754473
-0.0007816435116615257   -0.01762027457498095   -0.00040432130385329134
-0.001105186271514896   -0.018964156408449954   -0.0004761203271851688
-0.0007652485765158149   -0.01760015191210068   -0.00042181008469420624
-0.0005080068979018477   -0.01888270696334603   -0.00048256244122307096
-0.0010751646796129876   -0.018948029066763492   -0.0004985150250531982
-0.0007652485765158149   -0.01760015191210068   -0.00042181008469420624
-0.001105186271514896   -0.018964156408449954   -0.0004761203271851688
-0.0005080068979018477   -0.01888270696334603   -0.00048256244122307096
-0.0007652485765158149   -0.01760015191210068   -0.00042181008469420624
0.00012990745546720653   -0.01754989983794011   -0.0003952968625755952
8.945397993861716e-05   -0.017571310032903152   -0.0003533473512754473
-0.0005080068979018477   -0.01888270696334603   -0.00048256244122307096
-0.0007652485765158149   -0.01760015191210068   -0.00042181008469420624
8.945397993861716e-05   -0.017571310032903152   -0.0003533473512754473
-0.001105186271514896   -0.018964156408449954   -0.0004761203271851688
-0.0005080068979018477   -0.01888270696334603   -0.00048256244122307096
0.00012990745546720653   -0.01754989983794011   -0.0003952968625755952
-0.0010751646796129876   -0.018948029066763492   -0.0004985150250531982
-0.00044111726623756014   -0.018881055101912386   -0.0005320042227059611
0.00012990745546720653   -0.01754989983794011   -0.0003952968625755952
-0.0007652485765158149   -0.01760015191210068   -0.00042181008469420624
-0.0010751646796129876   -0.018948029066763492   -0.0004985150250531982
-0.0007554281542982827   -0.017591201419228524   -0.0004373345697670836
-0.00044111726623756014   -0.018881055101912386   -0.0005320042227059611
-0.0010522041132964596   -0.018945725106325483   -0.0005188799713085883
-0.0007554281542982827   -0.017591201419228524   -0.0004373345697670836
-0.0010751646796129876   -0.018948029066763492   -0.0004985150250531982
-0.00044111726623756014   -0.018881055101912386   -0.0005320042227059611
-0.0007554281542982827   -0.017591201419228524   -0.0004373345697670836
0.0001736322542350522   -0.01754061510279131   -0.00043418530343072994
0.00012990745546720653   -0.01754989983794011   -0.0003952968625755952
-0.00044111726623756014   -0.018881055101912386   -0.0005320042227059611
-0.0007554281542982827   -0.017591201419228524   -0.0004373345697670836
0.00012990745546720653   -0.01754989983794011   -0.0003952968625755952
-0.0010751646796129876   -0.018948029066763492   -0.0004985150250531982
-0.0011316797831468824   -0.018994566822548492   -0.00045162206127691133
-0.0007959067012032323   -0.017652190059020943   -0.000384651873254681
-0.0016141869147106734   -0.01901435689601057   -0.0005145419415162276
-0.001105186271514896   -0.018964156408449954   -0.0004761203271851688
-0.0007959067012032323   -0.017652190059020943   -0.000384651873254681
-0.0016022770933865373   -0.01766036834425664   -0.00044707183464013544
-0.0016141869147106734   -0.01901435689601057   -0.0005145419415162276
-0.0015919040806825862   -0.017633079619882083   -0.00044744885222266844
-0.001105186271514896   -0.018964156408449954   -0.0004761203271851688
-0.0015920346572186768   -0.01898785331159162   -0.0005157155635585748
-0.0015919040806825862   -0.017633079619882083   -0.00044744885222266844
-0.0016141869147106734   -0.01901435689601057   -0.0005145419415162276
-0.001105186271514896   -0.018964156408449954   -0.0004761203271851688
-0.0015919040806825862   -0.017633079619882083   -0.00044744885222266844
-0.0007816435116615257   -0.01762027457498095   -0.00040432130385329134
-0.0007959067012032323   -0.017652190059020943   -0.000384651873254681
-0.001105186271514896   -0.018964156408449954   -0.0004761203271851688
-0.0015919040806825862   -0.017633079619882083   -0.00044744885222266844
-0.0007959067012032323   -0.017652190059020943   -0.000384651873254681
-0.0016141869147106734   -0.01901435689601057   -0.0005145419415162276
-0.001105186271514896   -0.018964156408449954   -0.0004761203271851688
-0.0007816435116615257   -0.01762027457498095   -0.00040432130385329134
-0.0015920346572186768   -0.01898785331159162   -0.0005157155635585748
-0.0010751646796129876   -0.018948029066763492   -0.0004985150250531982
-0.0007816435116615257   -0.01762027457498095   -0.00040432130385329134
-0.0015919040806825862   -0.017633079619882083   -0.00044744885222266844
-0.0015920346572186768   -0.01898785331159162   -0.0005157155635585748
-0.0015812173571920641   -0.017616334912654383   -0.00044573035236803593
-0.0010751646796129876   -0.018948029066763492   -0.0004985150250531982
-0.0015691013058663566   -0.01897421566047345   -0.0005149381758615062
-0.0015812173571920641   -0.017616334912654383   -0.00044573035236803593
-0.0015920346572186768   -0.01898785331159162   -0.0005157155635585748
-0.0010751646796129876   -0.018948029066763492   -0.0004985150250531982
-0.0015812173571920641   -0.017616334912654383   -0.00044573035236803593
-0.0007652485765158149   -0.01760015191210068   -0.00042181008469420624
-0.0007816435116615257   -0.01762027457498095   -0.00040432130385329134
-0.0010751646796129876   -0.018948029066763492   -0.0004985150250531982
-0.0015812173571920641   -0.017616334912654383   -0.00044573035236803593
-0.0007816435116615257   -0.01762027457498095   -0.00040432130385329134
-0.0015920346572186768   -0.01898785331159162   -0.0005157155635585748
-0.0010751646796129876   -0.018948029066763492   -0.0004985150250531982
-0.0007652485765158149   -0.01760015191210068   -0.00042181008469420624
-0.0015691013058663566   -0.01897421566047345   -0.0005149381758615062
-0.0010522041132964596   -0.018945725106325483   -0.0005188799713085883
-0.0007652485765158149   -0.01760015191210068   -0.00042181008469420624
-0.0015812173571920641   -0.017616334912654383   -0.00044573035236803593
-0.0015691013058663566   -0.01897421566047345   -0.0005149381758615062
-0.001571878061540905   -0.017609978145018922   -0.00044206556727361177
-0.0010522041132964596   -0.018945725106325483   -0.0005188799713085883
-0.0015470113283658688   -0.01897287317172377   -0.0005122045751884824
-0.001571878061540905   -0.017609978145018922   -0.00044206556727361177
-0.0015691013058663566   -0.01897421566047345   -0.0005149381758615062
-0.0010522041132964596   -0.018945725106325483   -0.0005188799713085883
-0.001571878061540905   -0.017609978145018922   -0.00044206556727361177
-0.0007554281542982827   -0.017591201419228524   -0.0004373345697670836
-0.0007652485765158149   -0.01760015191210068   -0.00042181008469420624
-0.0010522041132964596   -0.018945725106325483   -0.0005188799713085883
-0.001571878061540905   -0.017609978145018922   -0.00044206556727361177
-0.0007652485765158149   -0.01760015191210068   -0.00042181008469420624
-0.0015691013058663566   -0.01897421566047345   -0.0005149381758615062
-0.0016141869147106734   -0.01901435689601057   -0.0005145419415162276
-0.0016022770933865373   -0.01766036834425664   -0.00044707183464013544
-0.0020938375237971184   -0.018996136242657318   -0.000573507548690863
-0.0015920346572186768   -0.01898785331159162   -0.0005157155635585748
-0.0016022770933865373   -0.01766036834425664   -0.00044707183464013544
-0.0023965984219021744   -0.01763439606981143   -0.0005033703792409745
-0.0020938375237971184   -0.018996136242657318   -0.000573507548690863
-0.0023869524802000424   -0.01761088927197435   -0.0004849122383120397
-0.0015920346572186768   -0.01898785331159162   -0.0005157155635585748
-0.002071861524896599   -0.018972527476569245   -0.0005522872763160764
-0.0023869524802000424   -0.01761088927197435   -0.0004849122383120397
-0.0020938375237971184   -0.018996136242657318   -0.000573507548690863
-0.0015920346572186768   -0.01898785331159162   -0.0005157155635585748
-0.0023869524802000424   -0.01761088927197435   -0.0004849122383120397
-0.0015919040806825862   -0.017633079619882083   -0.00044744885222266844
-0.0016022770933865373   -0.01766036834425664   -0.00044707183464013544
-0.0015920346572186768   -0.01898785331159162   -0.0005157155635585748
-0.0023869524802000424   -0.01761088927197435   -0.0004849122383120397
-0.0016022770933865373   -0.01766036834425664   -0.00044707183464013544
-0.0020938375237971184   -0.018996136242657318   -0.000573507548690863
-0.0015920346572186768   -0.01898785331159162   -0.0005157155635585748
-0.0015919040806825862   -0.017633079619882083   -0.00044744885222266844
-0.002071861524896599   -0.018972527476569245   -0.0005522872763160764
-0.0015691013058663566   -0.01897421566047345   -0.0005149381758615062
-0.0015919040806825862   -0.017633079619882083   -0.00044744885222266844
-0.0023869524802000424   -0.01761088927197435   -0.0004849122383120397
-0.002071861524896599   -0.018972527476569245   -0.0005522872763160764
-0.0023752849634010955   -0.017597813731311564   -0.0004644094397415738
-0.0015691013058663566   -0.01897421566047345   -0.0005149381758615062
-0.0020472038888684685   -0.018961583792558686   -0.0005291508214227946
-0.0023752849634010955   -0.017597813731311564   -0.0004644094397415738
-0.002071861524896599   -0.018972527476569245   -0.0005522872763160764
-0.0015691013058663566   -0.01897421566047345   -0.0005149381758615062
-0.0023752849634010955   -0.017597813731311564   -0.0004644094397415738
-0.0015812173571920641   -0.017616334912654383   -0.00044573035236803593
-0.0015919040806825862   -0.017633079619882083   -0.00044744885222266844
-0.0015691013058663566   -0.01897421566047345   -0.0005149381758615062
-0.0023752849634010955   -0.017597813731311564   -0.0004644094397415738
-0.0015919040806825862   -0.017633079619882083   -0.00044744885222266844
-0.002071861524896599   -0.018972527476569245   -0.0005522872763160764
-0.0015691013058663566   -0.01897421566047345   -0.0005149381758615062
-0.0015812173571920641   -0.017616334912654383   -0.00044573035236803593
-0.0020472038888684685   -0.018961583792558686   -0.0005291508214227946
-0.0015470113283658688   -0.01897287317172377   -0.0005122045751884824
-0.0015812173571920641   -0.017616334912654383   -0.00044573035236803593
-0.0023752849634010955   -0.017597813731311564   -0.0004644094397415738
-0.0020472038888684685   -0.018961583792558686   -0.0005291508214227946
-0.002363977632938385   -0.017594718678361456   -0.00044192363352248007
-0.0015470113283658688   -0.01897287317172377   -0.0005122045751884824
-0.002022509008608627   -0.018962158060378504   -0.0005038658067644365
-0.002363977632938385   -0.017594718678361456   -0.00044192363352248007
-0.0020472038888684685   -0.018961583792558686   -0.0005291508214227946
-0.0015470113283658688   -0.01897287317172377   -0.0005122045751884824
-0.002363977632938385   -0.017594718678361456   -0.00044192363352248007
-0.001571878061540905   -0.017609978145018922   -0.00044206556727361177
-0.0015812173571920641   -0.017616334912654383   -0.00044573035236803593
-0.0015470113283658688   -0.01897287317172377   -0.0005122045751884824
-0.002363977632938385   -0.017594718678361456   -0.00044192363352248007
-0.0015812173571920641   -0.017616334912654383   -0.00044573035236803593
-0.0020472038888684685   -0.018961583792558686   -0.0005291508214227946
-0.0020938375237971184   -0.018996136242657318   -0.000573507548690863
-0.0023965984219021744   -0.01763439606981143   -0.0005033703792409745
-0.0026194988025068414   -0.018937604146755778   -0.0006279230579659506
-0.002071861524896599   -0.018972527476569245   -0.0005522872763160764
-0.0023965984219021744   -0.01763439606981143   -0.0005033703792409745
-0.003228178991824404   -0.017575106861968663   -0.0005534442667662234
-0.0026194988025068414   -0.018937604146755778   -0.0006279230579659506
-0.003215396009860598   -0.017555150882173985   -0.0005160977295536627
-0.002071861524896599   -0.018972527476569245   -0.0005522872763160764
-0.002592416262794669   -0.018916844423274442   -0.0005847385643536472
-0.003215396009860598   -0.017555150882173985   -0.0005160977295536627
-0.0026194988025068414   -0.018937604146755778   -0.0006279230579659506
-0.002071861524896599   -0.018972527476569245   -0.0005522872763160764
-0.003215396009860598   -0.017555150882173985   -0.0005160977295536627
-0.0023869524802000424   -0.01761088927197435   -0.0004849122383120397
-0.0023965984219021744   -0.01763439606981143   -0.0005033703792409745
-0.002071861524896599   -0.018972527476569245   -0.0005522872763160764
-0.003215396009860598   -0.017555150882173985   -0.0005160977295536627
-0.0023965984219021744   -0.01763439606981143   -0.0005033703792409745
-0.0026194988025068414   -0.018937604146755778   -0.0006279230579659506
-0.002071861524896599   -0.018972527476569245   -0.0005522872763160764
-0.0023869524802000424   -0.01761088927197435   -0.0004849122383120397
-0.002592416262794669   -0.018916844423274442   -0.0005847385643536472
-0.0020472038888684685   -0.018961583792558686   -0.0005291508214227946
-0.0023869524802000424   -0.01761088927197435   -0.0004849122383120397
-0.003215396009860598   -0.017555150882173985   -0.0005160977295536627
-0.002592416262794669   -0.018916844423274442   -0.0005847385643536472
-0.003193622608195399   -0.017545400956180283   -0.0004770293313702906
-0.0020472038888684685   -0.018961583792558686   -0.0005291508214227946
-0.0025548504863377865   -0.018908584423878612   -0.0005397967705376026
-0.003193622608195399   -0.017545400956180283   -0.0004770293313702906
-0.002592416262794669   -0.018916844423274442   -0.0005847385643536472
-0.0020472038888684685   -0.018961583792558686   -0.0005291508214227946
-0.003193622608195399   -0.017545400956180283   -0.0004770293313702906
-0.0023752849634010955   -0.017597813731311564   -0.0004644094397415738
-0.0023869524802000424   -0.01761088927197435   -0.0004849122383120397
-0.0020472038888684685   -0.018961583792558686   -0.0005291508214227946
-0.003193622608195399   -0.017545400956180283   -0.0004770293313702906
-0.0023869524802000424   -0.01761088927197435   -0.0004849122383120397
-0.002592416262794669   -0.018916844423274442   -0.0005847385643536472
-0.0020472038888684685   -0.018961583792558686   -0.0005291508214227946
-0.0023752849634010955   -0.017597813731311564   -0.0004644094397415738
-0.0025548504863377865   -0.018908584423878612   -0.0005397967705376026
-0.002022509008608627   -0.018962158060378504   -0.0005038658067644365
-0.0023752849634010955   -0.017597813731311564   -0.0004644094397415738
-0.003193622608195399   -0.017545400956180283   -0.0004770293313702906
-0.0025548504863377865   -0.018908584423878612   -0.0005397967705376026
-0.0031761517925295276   -0.01754641458514008   -0.00043568412588797267
-0.002022509008608627   -0.018962158060378504   -0.0005038658067644365
-0.002522362339771986   -0.018912822017676495   -0.000491893685528826
-0.0031761517925295276   -0.01754641458514008   -0.00043568412588797267
-0.0025548504863377865   -0.018908584423878612   -0.0005397967705376026
-0.002022509008608627   -0.018962158060378504   -0.0005038658067644365
-0.0031761517925295276   -0.01754641458514008   -0.00043568412588797267
-0.002363977632938385   -0.017594718678361456   -0.00044192363352248007
-0.0023752849634010955   -0.017597813731311564   -0.0004644094397415738
-0.002022509008608627   -0.018962158060378504   -0.0005038658067644365
-0.0031761517925295276   -0.01754641458514008   -0.00043568412588797267
-0.0023752849634010955   -0.017597813731311564   -0.0004644094397415738
-0.0025548504863377865   -0.018908584423878612   -0.0005397967705376026
-0.0026194988025068414   -0.018937604146755778   -0.0006279230579659506
-0.003228178991824404   -0.017575106861968663   -0.0005534442667662234
-0.00329615236487648   -0.018842409704684315   -0.000680920196277824
-0.002592416262794669   -0.018916844423274442   -0.0005847385643536472
-0.003228178991824404   -0.017575106861968663   -0.0005534442667662234
-0.004197567561965581   -0.017489150467389362   -0.0006006696257591874
-0.00329615236487648   -0.018842409704684315   -0.000680920196277824
-0.004130274546521623   -0.017468091542695498   -0.0005420875624909094
-0.002592416262794669   -0.018916844423274442   -0.0005847385643536472
-0.0032063165846474696   -0.018819577501608772   -0.0006126572152481189
-0.004130274546521623   -0.017468091542695498   -0.0005420875624909094
-0.00329615236487648   -0.018842409704684315   -0.000680920196277824
-0.002592416262794669   -0.018916844423274442   -0.0005847385643536472
-0.004130274546521623   -0.017468091542695498   -0.0005420875624909094
-0.003215396009860598   -0.017555150882173985   -0.0005160977295536627
-0.003228178991824404   -0.017575106861968663   -0.0005534442667662234
-0.002592416262794669   -0.018916844423274442   -0.0005847385643536472
-0.004130274546521623   -0.017468091542695498   -0.0005420875624909094
-0.003228178991824404   -0.017575106861968663   -0.0005534442667662234
-0.00329615236487648   -0.018842409704684315   -0.000680920196277824
-0.002592416262794669   -0.018916844423274442   -0.0005847385643536472
-0.003215396009860598   -0.017555150882173985   -0.0005160977295536627
-0.0032063165846474696   -0.018819577501608772   -0.0006126572152481189
-0.0025548504863377865   -0.018908584423878612   -0.0005397967705376026
-0.003215396009860598   -0.017555150882173985   -0.0005160977295536627
-0.004130274546521623   -0.017468091542695498   -0.0005420875624909094
-0.0032063165846474696   -0.018819577501608772   -0.0006126572152481189
-0.004072214905734187   -0.01745924619583376   -0.00048064118192225376
-0.0025548504863377865   -0.018908584423878612   -0.0005397967705376026
-0.0031263285246553923   -0.01881193738717446   -0.0005406687354341392
-0.004072214905734187   -0.01745924619583376   -0.00048064118192225376
-0.0032063165846474696   -0.018819577501608772   -0.0006126572152481189
-0.0025548504863377865   -0.018908584423878612   -0.0005397967705376026
-0.004072214905734187   -0.01745924619583376   -0.00048064118192225376
-0.003193622608195399   -0.017545400956180283   -0.0004770293313702906
-0.003215396009860598   -0.017555150882173985   -0.0005160977295536627
-0.0025548504863377865   -0.018908584423878612   -0.0005397967705376026
-0.004072214905734187   -0.01745924619583376   -0.00048064118192225376
-0.003215396009860598   -0.017555150882173985   -0.0005160977295536627
-0.0032063165846474696   -0.018819577501608772   -0.0006126572152481189
-0.0025548504863377865   -0.018908584423878612   -0.0005397967705376026
-0.003193622608195399   -0.017545400956180283   -0.0004770293313702906
-0.0031263285246553923   -0.01881193738717446   -0.0005406687354341392
-0.002522362339771986   -0.018912822017676495   -0.000491893685528826
-0.003193622608195399   -0.017545400956180283   -0.0004770293313702906
-0.004072214905734187   -0.01745924619583376   -0.00048064118192225376
-0.0031263285246553923   -0.01881193738717446   -0.0005406687354341392
-0.003994141117691731   -0.01746676679914243   -0.0004167172340784008
-0.002522362339771986   -0.018912822017676495   -0.000491893685528826
-0.0030227289439546   -0.018823605712898487   -0.0004656176482088938
-0.003994141117691731   -0.01746676679914243   -0.0004167172340784008
-0.0031263285246553923   -0.01881193738717446   -0.0005406687354341392
-0.002522362339771986   -0.018912822017676495   -0.000491893685528826
-0.003994141117691731   -0.01746676679914243   -0.0004167172340784008
-0.0031761517925295276   -0.01754641458514008   -0.00043568412588797267
-0.003193622608195399   -0.017545400956180283   -0.0004770293313702906
-0.002522362339771986   -0.018912822017676495   -0.000491893685528826
-0.003994141117691731   -0.01746676679914243   -0.0004167172340784008
-0.003193622608195399   -0.017545400956180283   -0.0004770293313702906
-0.0031263285246553923   -0.01881193738717446   -0.0005406687354341392
3.458948747904186e-05   -0.01760981635909714   -0.0003083448057847319
0.0005590700859822408   -0.015787115699583066   -0.00023458173196236454
-0.0007959067012032323   -0.017652190059020943   -0.000384651873254681
8.945397993861716e-05   -0.017571310032903152   -0.0003533473512754473
0.0005590700859822408   -0.015787115699583066   -0.00023458173196236454
-0.0005496842669572354   -0.015815689596534406   -0.00030750749903051276
-0.0007959067012032323   -0.017652190059020943   -0.000384651873254681
-0.0005464095769075528   -0.015783935543371562   -0.00032139708631930984
8.945397993861716e-05   -0.017571310032903152   -0.0003533473512754473
-0.0007816435116615257   -0.01762027457498095   -0.00040432130385329134
-0.0005464095769075528   -0.015783935543371562   -0.00032139708631930984
-0.0007959067012032323   -0.017652190059020943   -0.000384651873254681
8.945397993861716e-05   -0.017571310032903152   -0.0003533473512754473
-0.0005464095769075528   -0.015783935543371562   -0.00032139708631930984
0.0005926207857955952   -0.015749462931140466   -0.0002684232907918473
0.0005590700859822408   -0.015787115699583066   -0.00023458173196236454
8.945397993861716e-05   -0.017571310032903152   -0.0003533473512754473
-0.0005464095769075528   -0.015783935543371562   -0.00032139708631930984
0.0005590700859822408   -0.015787115699583066   -0.00023458173196236454
-0.0007959067012032323   -0.017652190059020943   -0.000384651873254681
8.945397993861716e-05   -0.017571310032903152   -0.0003533473512754473
0.0005926207857955952   -0.015749462931140466   -0.0002684232907918473
-0.0007816435116615257   -0.01762027457498095   -0.00040432130385329134
0.00012990745546720653   -0.01754989983794011   -0.0003952968625755952
0.0005926207857955952   -0.015749462931140466   -0.0002684232907918473
-0.0005464095769075528   -0.015783935543371562   -0.00032139708631930984
-0.0007816435116615257   -0.01762027457498095   -0.00040432130385329134
-0.0005421950380278817   -0.015761609256810062   -0.00033326671187498943
0.00012990745546720653   -0.01754989983794011   -0.0003952968625755952
-0.0007652485765158149   -0.01760015191210068   -0.00042181008469420624
-0.0005421950380278817   -0.015761609256810062   -0.00033326671187498943
-0.0007816435116615257   -0.01762027457498095   -0.00040432130385329134
0.00012990745546720653   -0.01754989983794011   -0.0003952968625755952
-0.0005421950380278817   -0.015761609256810062   -0.00033326671187498943
0.0006143292519651702   -0.01572559185484614   -0.0002994040436281857
0.0005926207857955952   -0.015749462931140466   -0.0002684232907918473
0.00012990745546720653   -0.01754989983794011   -0.0003952968625755952
-0.0005421950380278817   -0.015761609256810062   -0.00033326671187498943
0.0005926207857955952   -0.015749462931140466   -0.0002684232907918473
-0.0007816435116615257   -0.01762027457498095   -0.00040432130385329134
0.00012990745546720653   -0.01754989983794011   -0.0003952968625755952
0.0006143292519651702   -0.01572559185484614   -0.0002994040436281857
-0.0007652485765158149   -0.01760015191210068   -0.00042181008469420624
0.0001736322542350522   -0.01754061510279131   -0.00043418530343072994
0.0006143292519651702   -0.01572559185484614   -0.0002994040436281857
-0.0005421950380278817   -0.015761609256810062   -0.00033326671187498943
-0.0007652485765158149   -0.01760015191210068   -0.00042181008469420624
-0.0005436507682996396   -0.015747957438283527   -0.0003432626666147385
0.0001736322542350522   -0.01754061510279131   -0.00043418530343072994
-0.0007554281542982827   -0.017591201419228524   -0.0004373345697670836
-0.0005436507682996396   -0.015747957438283527   -0.0003432626666147385
-0.0007652485765158149   -0.01760015191210068   -0.00042181008469420624
0.0001736322542350522   -0.01754061510279131   -0.00043418530343072994
-0.0005436507682996396   -0.015747957438283527   -0.0003432626666147385
0.0006370142951978545   -0.015710640369005175   -0.000327589780973229
0.0006143292519651702   -0.01572559185484614   -0.0002994040436281857
0.0001736322542350522   -0.01754061510279131   -0.00043418530343072994
-0.0005436507682996396   -0.015747957438283527   -0.0003432626666147385
0.0006143292519651702   -0.01572559185484614   -0.0002994040436281857
-0.0007652485765158149   -0.01760015191210068   -0.00042181008469420624
-0.0007959067012032323   -0.017652190059020943   -0.000384651873254681
-0.0005496842669572354   -0.015815689596534406   -0.00030750749903051276
-0.0016022770933865373   -0.01766036834425664   -0.00044707183464013544
-0.0007816435116615257   -0.01762027457498095   -0.00040432130385329134
-0.0005496842669572354   -0.015815689596534406   -0.00030750749903051276
-0.0016190394403365774   -0.015816135953132644   -0.00036707484605814753
-0.0016022770933865373   -0.01766036834425664   -0.00044707183464013544
-0.0016190261001309226   -0.015789458327050223   -0.00036574767522933916
-0.0007816435116615257   -0.01762027457498095   -0.00040432130385329134
-0.0015919040806825862   -0.017633079619882083   -0.00044744885222266844
-0.0016190261001309226   -0.015789458327050223   -0.00036574767522933916
-0.0016022770933865373   -0.01766036834425664   -0.00044707183464013544
-0.0007816435116615257   -0.01762027457498095   -0.00040432130385329134
-0.0016190261001309226   -0.015789458327050223   -0.00036574767522933916
-0.0005464095769075528   -0.015783935543371562   -0.00032139708631930984
-0.0005496842669572354   -0.015815689596534406   -0.00030750749903051276
-0.0007816435116615257   -0.01762027457498095   -0.00040432130385329134
-0.0016190261001309226   -0.015789458327050223   -0.00036574767522933916
-0.0005496842669572354   -0.015815689596534406   -0.00030750749903051276
-0.0016022770933865373   -0.01766036834425664   -0.00044707183464013544
-0.0007816435116615257   -0.01762027457498095   -0.00040432130385329134
-0.0005464095769075528   -0.015783935543371562   -0.00032139708631930984
-0.0015919040806825862   -0.017633079619882083   -0.00044744885222266844
-0.0007652485765158149   -0.01760015191210068   -0.00042181008469420624
-0.0005464095769075528   -0.015783935543371562   -0.00032139708631930984
-0.0016190261001309226   -0.015789458327050223   -0.00036574767522933916
-0.0015919040806825862   -0.017633079619882083   -0.00044744885222266844
-0.0016189313007001012   -0.015771081559698585   -0.0003624015724587568
-0.0007652485765158149   -0.01760015191210068   -0.00042181008469420624
-0.0015812173571920641   -0.017616334912654383   -0.00044573035236803593
-0.0016189313007001012   -0.015771081559698585   -0.0003624015724587568
-0.0015919040806825862   -0.017633079619882083   -0.00044744885222266844
-0.0007652485765158149   -0.01760015191210068   -0.00042181008469420624
-0.0016189313007001012   -0.015771081559698585   -0.0003624015724587568
-0.0005421950380278817   -0.015761609256810062   -0.00033326671187498943
-0.0005464095769075528   -0.015783935543371562   -0.00032139708631930984
-0.0007652485765158149   -0.01760015191210068   -0.00042181008469420624
-0.0016189313007001012   -0.015771081559698585   -0.0003624015724587568
-0.0005464095769075528   -0.015783935543371562   -0.00032139708631930984
-0.0015919040806825862   -0.017633079619882083   -0.00044744885222266844
-0.0007652485765158149   -0.01760015191210068   -0.00042181008469420624
-0.0005421950380278817   -0.015761609256810062   -0.00033326671187498943
-0.0015812173571920641   -0.017616334912654383   -0.00044573035236803593
-0.0007554281542982827   -0.017591201419228524   -0.0004373345697670836
-0.0005421950380278817   -0.015761609256810062   -0.00033326671187498943
-0.0016189313007001012   -0.015771081559698585   -0.0003624015724587568
-0.0015812173571920641   -0.017616334912654383   -0.00044573035236803593
-0.0016202486402108747   -0.015761023200165484   -0.00035715019354241976
-0.0007554281542982827   -0.017591201419228524   -0.0004373345697670836
-0.001571878061540905   -0.017609978145018922   -0.00044206556727361177
-0.0016202486402108747   -0.015761023200165484   -0.00035715019354241976
-0.0015812173571920641   -0.017616334912654383   -0.00044573035236803593
-0.0007554281542982827   -0.017591201419228524   -0.0004373345697670836
-0.0016202486402108747   -0.015761023200165484   -0.00035715019354241976
-0.0005436507682996396   -0.015747957438283527   -0.0003432626666147385
-0.0005421950380278817   -0.015761609256810062   -0.00033326671187498943
-0.0007554281542982827   -0.017591201419228524   -0.0004373345697670836
-0.0016202486402108747   -0.015761023200165484   -0.00035715019354241976
-0.0005421950380278817   -0.015761609256810062   -0.00033326671187498943
-0.0015812173571920641   -0.017616334912654383   -0.00044573035236803593
-0.0016022770933865373   -0.01766036834425664   -0.00044707183464013544
-0.0016190394403365774   -0.015816135953132644   -0.00036707484605814753
-0.0023965984219021744   -0.01763439606981143   -0.0005033703792409745
-0.0015919040806825862   -0.017633079619882083   -0.00044744885222266844
-0.0016190394403365774   -0.015816135953132644   -0.00036707484605814753
-0.0026708163027321474   -0.01578928622434844   -0.0004190728788777528
-0.0023965984219021744   -0.01763439606981143   -0.0005033703792409745
-0.0026716149794074103   -0.015767010982223287   -0.0004027202141648424
-0.0015919040806825862   -0.017633079619882083   -0.00044744885222266844
-0.0023869524802000424   -0.01761088927197435   -0.0004849122383120397
-0.0026716149794074103   -0.015767010982223287   -0.0004027202141648424
-0.0023965984219021744   -0.01763439606981143   -0.0005033703792409745
-0.0015919040806825862   -0.017633079619882083   -0.00044744885222266844
-0.0026716149794074103   -0.015767010982223287   -0.0004027202141648424
-0.0016190261001309226   -0.015789458327050223   -0.00036574767522933916
-0.0016190394403365774   -0.015816135953132644   -0.00036707484605814753
-0.0015919040806825862   -0.017633079619882083   -0.00044744885222266844
-0.0026716149794074103   -0.015767010982223287   -0.0004027202141648424
-0.0016190394403365774   -0.015816135953132644   -0.00036707484605814753
-0.0023965984219021744   -0.01763439606981143   -0.0005033703792409745
-0.0015919040806825862   -0.017633079619882083   -0.00044744885222266844
-0.0016190261001309226   -0.015789458327050223   -0.00036574767522933916
-0.0023869524802000424   -0.01761088927197435   -0.0004849122383120397
-0.0015812173571920641   -0.017616334912654383   -0.00044573035236803593
-0.0016190261001309226   -0.015789458327050223   -0.00036574767522933916
-0.0026716149794074103   -0.015767010982223287   -0.0004027202141648424
-0.0023869524802000424   -0.01761088927197435   -0.0004849122383120397
-0.0026706370355091265   -0.01575296400995617   -0.00038439250945890107
-0.0015812173571920641   -0.017616334912654383   -0.00044573035236803593
-0.0023752849634010955   -0.017597813731311564   -0.0004644094397415738
-0.0026706370355091265   -0.01575296400995617   -0.00038439250945890107
-0.0023869524802000424   -0.01761088927197435   -0.0004849122383120397
-0.0015812173571920641   -0.017616334912654383   -0.00044573035236803593
-0.0026706370355091265   -0.01575296400995617   -0.00038439250945890107
-0.0016189313007001012   -0.015771081559698585   -0.0003624015724587568
-0.0016190261001309226   -0.015789458327050223   -0.00036574767522933916
-0.0015812173571920641   -0.017616334912654383   -0.00044573035236803593
-0.0026706370355091265   -0.01575296400995617   -0.00038439250945890107
-0.0016190261001309226   -0.015789458327050223   -0.00036574767522933916
-0.0023869524802000424   -0.01761088927197435   -0.0004849122383120397
-0.0015812173571920641   -0.017616334912654383   -0.00044573035236803593
-0.0016189313007001012   -0.015771081559698585   -0.0003624015724587568
-0.0023752849634010955   -0.017597813731311564   -0.0004644094397415738
-0.001571878061540905   -0.017609978145018922   -0.00044206556727361177
-0.0016189313007001012   -0.015771081559698585   -0.0003624015724587568
-0.0026706370355091265   -0.01575296400995617   -0.00038439250945890107
-0.0023752849634010955   -0.017597813731311564   -0.0004644094397415738
-0.0026700005166463677   -0.015747009770280367   -0.0003641450530083354
-0.001571878061540905   -0.017609978145018922   -0.00044206556727361177
-0.002363977632938385   -0.017594718678361456   -0.00044192363352248007
-0.0026700005166463677   -0.015747009770280367   -0.0003641450530083354
-0.0023752849634010955   -0.017597813731311564   -0.0004644094397415738
-0.001571878061540905   -0.017609978145018922   -0.00044206556727361177
-0.0026700005166463677   -0.015747009770280367   -0.0003641450530083354
-0.0016202486402108747   -0.015761023200165484   -0.00035715019354241976
-0.0016189313007001012   -0.015771081559698585   -0.0003624015724587568
-0.001571878061540905   -0.017609978145018922   -0.00044206556727361177
-0.0026700005166463677   -0.015747009770280367   -0.0003641450530083354
-0.0016189313007001012   -0.015771081559698585   -0.0003624015724587568
-0.0023752849634010955   -0.017597813731311564   -0.0004644094397415738
-0.0023965984219021744   -0.01763439606981143   -0.0005033703792409745
-0.0026708163027321474   -0.01578928622434844   -0.0004190728788777528
-0.003228178991824404   -0.017575106861968663   -0.0005534442667662234
-0.0023869524802000424   -0.01761088927197435   -0.0004849122383120397
-0.0026708163027321474   -0.01578928622434844   -0.0004190728788777528
-0.003754992065151099   -0.015736085838891377   -0.0004636849924791576
-0.003228178991824404   -0.017575106861968663   -0.0005534442667662234
-0.0037534724182317113   -0.01571797641744984   -0.0004321154893301429
-0.0023869524802000424   -0.01761088927197435   -0.0004849122383120397
-0.003215396009860598   -0.017555150882173985   -0.0005160977295536627
-0.0037534724182317113   -0.01571797641744984   -0.0004321154893301429
-0.003228178991824404   -0.017575106861968663   -0.0005534442667662234
-0.0023869524802000424   -0.01761088927197435   -0.0004849122383120397
-0.0037534724182317113   -0.01571797641744984   -0.0004321154893301429
-0.0026716149794074103   -0.015767010982223287   -0.0004027202141648424
-0.0026708163027321474   -0.01578928622434844   -0.0004190728788777528
-0.0023869524802000424   -0.01761088927197435   -0.0004849122383120397
-0.0037534724182317113   -0.01571797641744984   -0.0004321154893301429
-0.0026708163027321474   -0.01578928622434844   -0.0004190728788777528
-0.003228178991824404   -0.017575106861968663   -0.0005534442667662234
-0.0023869524802000424   -0.01761088927197435   -0.0004849122383120397
-0.0026716149794074103   -0.015767010982223287   -0.0004027202141648424
-0.003215396009860598   -0.017555150882173985   -0.0005160977295536627
-0.0023752849634010955   -0.017597813731311564   -0.0004644094397415738
-0.0026716149794074103   -0.015767010982223287   -0.0004027202141648424
-0.0037534724182317113   -0.01571797641744984   -0.0004321154893301429
-0.003215396009860598   -0.017555150882173985   -0.0005160977295536627
-0.0037440586150237877   -0.015707857980996005   -0.0003988717975752979
-0.0023752849634010955   -0.017597813731311564   -0.0004644094397415738
-0.003193622608195399   -0.017545400956180283   -0.0004770293313702906
-0.0037440586150237877   -0.015707857980996005   -0.0003988717975752979
-0.003215396009860598   -0.017555150882173985   -0.0005160977295536627
-0.0023752849634010955   -0.017597813731311564   -0.0004644094397415738
-0.0037440586150237877   -0.015707857980996005   -0.0003988717975752979
-0.0026706370355091265   -0.01575296400995617   -0.00038439250945890107
-0.0026716149794074103   -0.015767010982223287   -0.0004027202141648424
-0.0023752849634010955   -0.017597813731311564   -0.0004644094397415738
-0.0037440586150237877   -0.015707857980996005   -0.0003988717975752979
-0.0026716149794074103   -0.015767010982223287   -0.0004027202141648424
-0.003215396009860598   -0.017555150882173985   -0.0005160977295536627
-0.0023752849634010955   -0.017597813731311564   -0.0004644094397415738
-0.0026706370355091265   -0.01575296400995617   -0.00038439250945890107
-0.003193622608195399   -0.017545400956180283   -0.0004770293313702906
-0.002363977632938385   -0.017594718678361456   -0.00044192363352248007
-0.0026706370355091265   -0.01575296400995617   -0.00038439250945890107
-0.0037440586150237877   -0.015707857980996005   -0.0003988717975752979
-0.003193622608195399   -0.017545400956180283   -0.0004770293313702906
-0.0037378419804859867   -0.015706521758573073   -0.00036354905694984974
-0.002363977632938385   -0.017594718678361456   -0.00044192363352248007
-0.0031761517925295276   -0.01754641458514008   -0.00043568412588797267
-0.0037378419804859867   -0.015706521758573073   -0.00036354905694984974
-0.003193622608195399   -0.017545400956180283   -0.0004770293313702906
-0.002363977632938385   -0.017594718678361456   -0.00044192363352248007
-0.0037378419804859867   -0.015706521758573073   -0.00036354905694984974
-0.0026700005166463677   -0.015747009770280367   -0.0003641450530083354
-0.0026706370355091265   -0.01575296400995617   -0.00038439250945890107
-0.002363977632938385   -0.017594718678361456   -0.00044192363352248007
-0.0037378419804859867   -0.015706521758573073   -0.00036354905694984974
-0.0026706370355091265   -0.01575296400995617   -0.00038439250945890107
-0.003193622608195399   -0.017545400956180283   -0.0004770293313702906
-0.003228178991824404   -0.017575106861968663   -0.0005534442667662234
-0.003754992065151099   -0.015736085838891377   -0.0004636849924791576
-0.004197567561965581   -0.017489150467389362   -0.0006006696257591874
-0.003215396009860598   -0.017555150882173985   -0.0005160977295536627
-0.003754992065151099   -0.015736085838891377   -0.0004636849924791576
-0.004966145545055174   -0.015662150253998804   -0.000504213285619268
-0.004197567561965581   -0.017489150467389362   -0.0006006696257591874
-0.0049191882677584835   -0.015644229133464554   -0.0004557389460750795
-0.003215396009860598   -0.017555150882173985   -0.0005160977295536627
-0.004130274546521623   -0.017468091542695498   -0.0005420875624909094
-0.0049191882677584835   -0.015644229133464554   -0.0004557389460750795
-0.004197567561965581   -0.017489150467389362   -0.0006006696257591874
-0.003215396009860598   -0.017555150882173985   -0.0005160977295536627
-0.0049191882677584835   -0.015644229133464554   -0.0004557389460750795
-0.0037534724182317113   -0.01571797641744984   -0.0004321154893301429
-0.003754992065151099   -0.015736085838891377   -0.0004636849924791576
-0.003215396009860598   -0.017555150882173985   -0.0005160977295536627
-0.0049191882677584835   -0.015644229133464554   -0.0004557389460750795
-0.003754992065151099   -0.015736085838891377   -0.0004636849924791576
-0.004197567561965581   -0.017489150467389362   -0.0006006696257591874
-0.003215396009860598   -0.017555150882173985   -0.0005160977295536627
-0.0037534724182317113   -0.01571797641744984   -0.0004321154893301429
-0.004130274546521623   -0.017468091542695498   -0.0005420875624909094
-0.003193622608195399   -0.017545400956180283   -0.0004770293313702906
-0.0037534724182317113   -0.01571797641744984   -0.0004321154893301429
-0.0049191882677584835   -0.015644229133464554   -0.0004557389460750795
-0.004130274546521623   -0.017468091542695498   -0.0005420875624909094
-0.004879249342586843   -0.015635553219362483   -0.00040443001560961506
-0.003193622608195399   -0.017545400956180283   -0.0004770293313702906
-0.004072214905734187   -0.01745924619583376   -0.00048064118192225376
-0.004879249342586843   -0.015635553219362483   -0.00040443001560961506
-0.004130274546521623   -0.017468091542695498   -0.0005420875624909094
-0.003193622608195399   -0.017545400956180283   -0.0004770293313702906
-0.004879249342586843   -0.015635553219362483   -0.00040443001560961506
-0.0037440586150237877   -0.015707857980996005   -0.0003988717975752979
-0.0037534724182317113   -0.01571797641744984   -0.0004321154893301429
-0.003193622608195399   -0.017545400956180283   -0.0004770293313702906
-0.004879249342586843   -0.015635553219362483   -0.00040443001560961506
-0.0037534724182317113   -0.01571797641744984   -0.0004321154893301429
-0.004130274546521623   -0.017468091542695498   -0.0005420875624909094
-0.003193622608195399   -0.017545400956180283   -0.0004770293313702906
-0.0037440586150237877   -0.015707857980996005   -0.0003988717975752979
-0.004072214905734187   -0.01745924619583376   -0.00048064118192225376
-0.0031761517925295276   -0.01754641458514008   -0.00043568412588797267
-0.0037440586150237877   -0.015707857980996005   -0.0003988717975752979
-0.004879249342586843   -0.015635553219362483   -0.00040443001560961506
-0.004072214905734187   -0.01745924619583376   -0.00048064118192225376
-0.004821913864701193   -0.01564072509024761   -0.0003506847690989105
-0.0031761517925295276   -0.01754641458514008   -0.00043568412588797267
-0.003994141117691731   -0.01746676679914243   -0.0004167172340784008
-0.004821913864701193   -0.01564072509024761   -0.0003506847690989105
-0.004072214905734187   -0.01745924619583376   -0.00048064118192225376
-0.0031761517925295276   -0.01754641458514008   -0.00043568412588797267
-0.004821913864701193   -0.01564072509024761   -0.0003506847690989105
-0.0037378419804859867   -0.015706521758573073   -0.00036354905694984974
-0.0037440586150237877   -0.015707857980996005   -0.0003988717975752979
-0.0031761517925295276   -0.01754641458514008   -0.00043568412588797267
-0.004821913864701193   -0.01564072509024761   -0.0003506847690989105
-0.0037440586150237877   -0.015707857980996005   -0.0003988717975752979
-0.004072214905734187   -0.01745924619583376   -0.00048064118192225376
0.0005590700859822408   -0.015787115699583066   -0.00023458173196236454
0.0009277296188740336   -0.013577197292207367   -0.00015661786107458957
-0.0005496842669572354   -0.015815689596534406   -0.00030750749903051276
0.0005926207857955952   -0.015749462931140466   -0.0002684232907918473
0.0009277296188740336   -0.013577197292207367   -0.00015661786107458957
-0.00039625431731153937   -0.013591872386947338   -0.00022517350930021543
-0.0005496842669572354   -0.015815689596534406   -0.00030750749903051276
-0.000401910226675966   -0.013560933246457805   -0.0002329445604033536
0.0005926207857955952   -0.015749462931140466   -0.0002684232907918473
-0.0005464095769075528   -0.015783935543371562   -0.00032139708631930984
-0.000401910226675966   -0.013560933246457805   -0.0002329445604033536
-0.0005496842669572354   -0.015815689596534406   -0.00030750749903051276
0.0005926207857955952   -0.015749462931140466   -0.0002684232907918473
-0.000401910226675966   -0.013560933246457805   -0.0002329445604033536
0.000942151221448727   -0.013540912970342657   -0.00017934047217855372
0.0009277296188740336   -0.013577197292207367   -0.00015661786107458957
0.0005926207857955952   -0.015749462931140466   -0.0002684232907918473
-0.000401910226675966   -0.013560933246457805   -0.0002329445604033536
0.0009277296188740336   -0.013577197292207367   -0.00015661786107458957
-0.0005496842669572354   -0.015815689596534406   -0.00030750749903051276
0.0005926207857955952   -0.015749462931140466   -0.0002684232907918473
0.000942151221448727   -0.013540912970342657   -0.00017934047217855372
-0.0005464095769075528   -0.015783935543371562   -0.00032139708631930984
0.0006143292519651702   -0.01572559185484614   -0.0002994040436281857
0.000942151221448727   -0.013540912970342657   -0.00017934047217855372
-0.000401910226675966   -0.013560933246457805   -0.0002329445604033536
-0.0005464095769075528   -0.015783935543371562   -0.00032139708631930984
-0.000407784844505217   -0.013537092623998888   -0.0002388841797330346
0.0006143292519651702   -0.01572559185484614   -0.0002994040436281857
-0.0005421950380278817   -0.015761609256810062   -0.00033326671187498943
-0.000407784844505217   -0.013537092623998888   -0.0002388841797330346
-0.0005464095769075528   -0.015783935543371562   -0.00032139708631930984
0.0006143292519651702   -0.01572559185484614   -0.0002994040436281857
-0.000407784844505217   -0.013537092623998888   -0.0002388841797330346
0.000947378364712687   -0.01351526920263049   -0.0001993542592690824
0.000942151221448727   -0.013540912970342657   -0.00017934047217855372
0.0006143292519651702   -0.01572559185484614   -0.0002994040436281857
-0.000407784844505217   -0.013537092623998888   -0.0002388841797330346
0.000942151221448727   -0.013540912970342657   -0.00017934047217855372
-0.0005464095769075528   -0.015783935543371562   -0.00032139708631930984
0.0006143292519651702   -0.01572559185484614   -0.0002994040436281857
0.000947378364712687   -0.01351526920263049   -0.0001993542592690824
-0.0005421950380278817   -0.015761609256810062   -0.00033326671187498943
0.0006370142951978545   -0.015710640369005175   -0.000327589780973229
0.000947378364712687   -0.01351526920263049   -0.0001993542592690824
-0.000407784844505217   -0.013537092623998888   -0.0002388841797330346
-0.0005421950380278817   -0.015761609256810062   -0.00033326671187498943
-0.00041830932488467646   -0.013519554905778686   -0.00024305272370675433
0.0006370142951978545   -0.015710640369005175   -0.000327589780973229
-0.0005436507682996396   -0.015747957438283527   -0.0003432626666147385
-0.00041830932488467646   -0.013519554905778686   -0.00024305272370675433
-0.0005421950380278817   -0.015761609256810062   -0.00033326671187498943
0.0006370142951978545   -0.015710640369005175   -0.000327589780973229
-0.00041830932488467646   -0.013519554905778686   -0.00024305272370675433
0.0009512676052192486   -0.013495466537592342   -0.0002167909566369667
0.000947378364712687   -0.01351526920263049   -0.0001993542592690824
0.0006370142951978545   -0.015710640369005175   -0.000327589780973229
-0.00041830932488467646   -0.013519554905778686   -0.00024305272370675433
0.000947378364712687   -0.01351526920263049   -0.0001993542592690824
-0.0005421950380278817   -0.015761609256810062   -0.00033326671187498943
-0.0005496842669572354   -0.015815689596534406   -0.00030750749903051276
-0.00039625431731153937   -0.013591872386947338   -0.00022517350930021543
-0.0016190394403365774   -0.015816135953132644   -0.00036707484605814753
-0.0005464095769075528   -0.015783935543371562   -0.00032139708631930984
-0.00039625431731153937   -0.013591872386947338   -0.00022517350930021543
-0.0016670327388707798   -0.013585161171547212   -0.0002809393410485338
-0.0016190394403365774   -0.015816135953132644   -0.00036707484605814753
-0.0016752510607173224   -0.01355956788687284   -0.0002775365556345373
-0.0005464095769075528   -0.015783935543371562   -0.00032139708631930984
-0.0016190261001309226   -0.015789458327050223   -0.00036574767522933916
-0.0016752510607173224   -0.01355956788687284   -0.0002775365556345373
-0.0016190394403365774   -0.015816135953132644   -0.00036707484605814753
-0.0005464095769075528   -0.015783935543371562   -0.00032139708631930984
-0.0016752510607173224   -0.01355956788687284   -0.0002775365556345373
-0.000401910226675966   -0.013560933246457805   -0.0002329445604033536
-0.00039625431731153937   -0.013591872386947338   -0.00022517350930021543
-0.0005464095769075528   -0.015783935543371562   -0.00032139708631930984
-0.0016752510607173224   -0.01355956788687284   -0.0002775365556345373
-0.00039625431731153937   -0.013591872386947338   -0.00022517350930021543
-0.0016190394403365774   -0.015816135953132644   -0.00036707484605814753
-0.0005464095769075528   -0.015783935543371562   -0.00032139708631930984
-0.000401910226675966   -0.013560933246457805   -0.0002329445604033536
-0.0016190261001309226   -0.015789458327050223   -0.00036574767522933916
-0.0005421950380278817   -0.015761609256810062   -0.00033326671187498943
-0.000401910226675966   -0.013560933246457805   -0.0002329445604033536
-0.0016752510607173224   -0.01355956788687284   -0.0002775365556345373
-0.0016190261001309226   -0.015789458327050223   -0.00036574767522933916
-0.0016835857559015354   -0.013540052520570525   -0.00027224178052138754
-0.0005421950380278817   -0.015761609256810062   -0.00033326671187498943
-0.0016189313007001012   -0.015771081559698585   -0.0003624015724587568
-0.0016835857559015354   -0.013540052520570525   -0.00027224178052138754
-0.0016190261001309226   -0.015789458327050223   -0.00036574767522933916
-0.0005421950380278817   -0.015761609256810062   -0.00033326671187498943
-0.0016835857559015354   -0.013540052520570525   -0.00027224178052138754
-0.000407784844505217   -0.013537092623998888   -0.0002388841797330346
-0.000401910226675966   -0.013560933246457805   -0.0002329445604033536
-0.0005421950380278817   -0.015761609256810062   -0.00033326671187498943
-0.0016835857559015354   -0.013540052520570525   -0.00027224178052138754
-0.000401910226675966   -0.013560933246457805   -0.0002329445604033536
-0.0016190261001309226   -0.015789458327050223   -0.00036574767522933916
-0.0005421950380278817   -0.015761609256810062   -0.00033326671187498943
-0.000407784844505217   -0.013537092623998888   -0.0002388841797330346
-0.0016189313007001012   -0.015771081559698585   -0.0003624015724587568
-0.0005436507682996396   -0.015747957438283527   -0.0003432626666147385
-0.000407784844505217   -0.013537092623998888   -0.0002388841797330346
-0.0016835857559015354   -0.013540052520570525   -0.00027224178052138754
-0.0016189313007001012   -0.015771081559698585   -0.0003624015724587568
-0.001693271821060154   -0.013526714873874216   -0.0002651545385682311
-0.0005436507682996396   -0.015747957438283527   -0.0003432626666147385
-0.0016202486402108747   -0.015761023200165484   -0.00035715019354241976
-0.001693271821060154   -0.013526714873874216   -0.0002651545385682311
-0.0016189313007001012   -0.015771081559698585   -0.0003624015724587568
-0.0005436507682996396   -0.015747957438283527   -0.0003432626666147385
-0.001693271821060154   -0.013526714873874216   -0.0002651545385682311
-0.00041830932488467646   -0.013519554905778686   -0.00024305272370675433
-0.000407784844505217   -0.013537092623998888   -0.0002388841797330346
-0.0005436507682996396   -0.015747957438283527   -0.0003432626666147385
-0.001693271821060154   -0.013526714873874216   -0.0002651545385682311
-0.000407784844505217   -0.013537092623998888   -0.0002388841797330346
-0.0016189313007001012   -0.015771081559698585   -0.0003624015724587568
-0.0016190394403365774   -0.015816135953132644   -0.00036707484605814753
-0.0016670327388707798   -0.013585161171547212   -0.0002809393410485338
-0.0026708163027321474   -0.01578928622434844   -0.0004190728788777528
-0.0016190261001309226   -0.015789458327050223   -0.00036574767522933916
-0.0016670327388707798   -0.013585161171547212   -0.0002809393410485338
-0.002916708634607521   -0.01355857145912939   -0.00032833760221838806
-0.0026708163027321474   -0.01578928622434844   -0.0004190728788777528
-0.002925657343535362   -0.013537781248571459   -0.00031383164908112515
-0.0016190261001309226   -0.015789458327050223   -0.00036574767522933916
-0.0026716149794074103   -0.015767010982223287   -0.0004027202141648424
-0.002925657343535362   -0.013537781248571459   -0.00031383164908112515
-0.0026708163027321474   -0.01578928622434844   -0.0004190728788777528
-0.0016190261001309226   -0.015789458327050223   -0.00036574767522933916
-0.002925657343535362   -0.013537781248571459   -0.00031383164908112515
-0.0016752510607173224   -0.01355956788687284   -0.0002775365556345373
-0.0016670327388707798   -0.013585161171547212   -0.0002809393410485338
-0.0016190261001309226   -0.015789458327050223   -0.00036574767522933916
-0.002925657343535362   -0.013537781248571459   -0.00031383164908112515
-0.0016670327388707798   -0.013585161171547212   -0.0002809393410485338
-0.0026708163027321474   -0.01578928622434844   -0.0004190728788777528
-0.0016190261001309226   -0.015789458327050223   -0.00036574767522933916
-0.0016752510607173224   -0.01355956788687284   -0.0002775365556345373
-0.0026716149794074103   -0.015767010982223287   -0.0004027202141648424
-0.0016189313007001012   -0.015771081559698585   -0.0003624015724587568
-0.0016752510607173224   -0.01355956788687284   -0.0002775365556345373
-0.002925657343535362   -0.013537781248571459   -0.00031383164908112515
-0.0026716149794074103   -0.015767010982223287   -0.0004027202141648424
-0.0029330137950320185   -0.013523012131160972   -0.00029747112983661384
-0.0016189313007001012   -0.015771081559698585   -0.0003624015724587568
-0.0026706370355091265   -0.01575296400995617   -0.00038439250945890107
-0.0029330137950320185   -0.013523012131160972   -0.00029747112983661384
-0.0026716149794074103   -0.015767010982223287   -0.0004027202141648424
-0.0016189313007001012   -0.015771081559698585   -0.0003624015724587568
-0.0029330137950320185   -0.013523012131160972   -0.00029747112983661384
-0.0016835857559015354   -0.013540052520570525   -0.00027224178052138754
-0.0016752510607173224   -0.01355956788687284   -0.0002775365556345373
-0.0016189313007001012   -0.015771081559698585   -0.0003624015724587568
-0.0029330137950320185   -0.013523012131160972   -0.00029747112983661384
-0.0016752510607173224   -0.01355956788687284   -0.0002775365556345373
-0.0026716149794074103   -0.015767010982223287   -0.0004027202141648424
-0.0016189313007001012   -0.015771081559698585   -0.0003624015724587568
-0.0016835857559015354   -0.013540052520570525   -0.00027224178052138754
-0.0026706370355091265   -0.01575296400995617   -0.00038439250945890107
-0.0016202486402108747   -0.015761023200165484   -0.00035715019354241976
-0.0016835857559015354   -0.013540052520570525   -0.00027224178052138754
-0.0029330137950320185   -0.013523012131160972   -0.00029747112983661384
-0.0026706370355091265   -0.01575296400995617   -0.00038439250945890107
-0.00294060301614774   -0.013514235969612926   -0.0002793080088954484
-0.0016202486402108747   -0.015761023200165484   -0.00035715019354241976
-0.0026700005166463677   -0.015747009770280367   -0.0003641450530083354
-0.00294060301614774   -0.013514235969612926   -0.0002793080088954484
-0.0026706370355091265   -0.01575296400995617   -0.00038439250945890107
-0.0016202486402108747   -0.015761023200165484   -0.00035715019354241976
-0.00294060301614774   -0.013514235969612926   -0.0002793080088954484
-0.001693271821060154   -0.013526714873874216   -0.0002651545385682311
-0.0016835857559015354   -0.013540052520570525   -0.00027224178052138754
-0.0016202486402108747   -0.015761023200165484   -0.00035715019354241976
-0.00294060301614774   -0.013514235969612926   -0.0002793080088954484
-0.0016835857559015354   -0.013540052520570525   -0.00027224178052138754
-0.0026706370355091265   -0.01575296400995617   -0.00038439250945890107
-0.0026708163027321474   -0.01578928622434844   -0.0004190728788777528
-0.002916708634607521   -0.01355857145912939   -0.00032833760221838806
-0.003754992065151099   -0.015736085838891377   -0.0004636849924791576
-0.0026716149794074103   -0.015767010982223287   -0.0004027202141648424
-0.002916708634607521   -0.01355857145912939   -0.00032833760221838806
-0.004196062686893212   -0.013512601202359923   -0.0003676189891763226
-0.003754992065151099   -0.015736085838891377   -0.0004636849924791576
-0.00420331962575606   -0.013496464890072049   -0.00034185073047091167
-0.0026716149794074103   -0.015767010982223287   -0.0004027202141648424
-0.0037534724182317113   -0.01571797641744984   -0.0004321154893301429
-0.00420331962575606   -0.013496464890072049   -0.00034185073047091167
-0.003754992065151099   -0.015736085838891377   -0.0004636849924791576
-0.0026716149794074103   -0.015767010982223287   -0.0004027202141648424
-0.00420331962575606   -0.013496464890072049   -0.00034185073047091167
-0.002925657343535362   -0.013537781248571459   -0.00031383164908112515
-0.002916708634607521   -0.01355857145912939   -0.00032833760221838806
-0.0026716149794074103   -0.015767010982223287   -0.0004027202141648424
-0.00420331962575606   -0.013496464890072049   -0.00034185073047091167
-0.002916708634607521   -0.01355857145912939   -0.00032833760221838806
-0.003754992065151099   -0.015736085838891377   -0.0004636849924791576
-0.0026716149794074103   -0.015767010982223287   -0.0004027202141648424
-0.002925657343535362   -0.013537781248571459   -0.00031383164908112515
-0.0037534724182317113   -0.01571797641744984   -0.0004321154893301429
-0.0026706370355091265   -0.01575296400995617   -0.00038439250945890107
-0.002925657343535362   -0.013537781248571459   -0.00031383164908112515
-0.00420331962575606   -0.013496464890072049   -0.00034185073047091167
-0.0037534724182317113   -0.01571797641744984   -0.0004321154893301429
-0.004203751691713895   -0.013486042546604446   -0.00031448317227621614
-0.0026706370355091265   -0.01575296400995617   -0.00038439250945890107
-0.0037440586150237877   -0.015707857980996005   -0.0003988717975752979
-0.004203751691713895   -0.013486042546604446   -0.00031448317227621614
-0.0037534724182317113   -0.01571797641744984   -0.0004321154893301429
-0.0026706370355091265   -0.01575296400995617   -0.00038439250945890107
-0.004203751691713895   -0.013486042546604446   -0.00031448317227621614
-0.0029330137950320185   -0.013523012131160972   -0.00029747112983661384
-0.002925657343535362   -0.013537781248571459   -0.00031383164908112515
-0.0026706370355091265   -0.01575296400995617   -0.00038439250945890107
-0.004203751691713895   -0.013486042546604446   -0.00031448317227621614
-0.002925657343535362   -0.013537781248571459   -0.00031383164908112515
-0.0037534724182317113   -0.01571797641744984   -0.0004321154893301429
-0.0026706370355091265   -0.01575296400995617   -0.00038439250945890107
-0.0029330137950320185   -0.013523012131160972   -0.00029747112983661384
-0.0037440586150237877   -0.015707857980996005   -0.0003988717975752979
-0.0026700005166463677   -0.015747009770280367   -0.0003641450530083354
-0.0029330137950320185   -0.013523012131160972   -0.00029747112983661384
-0.004203751691713895   -0.013486042546604446   -0.00031448317227621614
-0.0037440586150237877   -0.015707857980996005   -0.0003988717975752979
-0.004206238604255621   -0.013482165494658312   -0.00028517335390345933
-0.0026700005166463677   -0.015747009770280367   -0.0003641450530083354
-0.0037378419804859867   -0.015706521758573073   -0.00036354905694984974
-0.004206238604255621   -0.013482165494658312   -0.00028517335390345933
-0.0037440586150237877   -0.015707857980996005   -0.0003988717975752979
-0.0026700005166463677   -0.015747009770280367   -0.0003641450530083354
-0.004206238604255621   -0.013482165494658312   -0.00028517335390345933
-0.00294060301614774   -0.013514235969612926   -0.0002793080088954484
-0.0029330137950320185   -0.013523012131160972   -0.00029747112983661384
-0.0026700005166463677   -0.015747009770280367   -0.0003641450530083354
-0.004206238604255621   -0.013482165494658312   -0.00028517335390345933
-0.0029330137950320185   -0.013523012131160972   -0.00029747112983661384
-0.0037440586150237877   -0.015707857980996005   -0.0003988717975752979
-0.003754992065151099   -0.015736085838891377   -0.0004636849924791576
-0.004196062686893212   -0.013512601202359923   -0.0003676189891763226
-0.004966145545055174   -0.015662150253998804   -0.000504213285619268
-0.0037534724182317113   -0.01571797641744984   -0.0004321154893301429
-0.004196062686893212   -0.013512601202359923   -0.0003676189891763226
-0.005592020742752919   -0.01345170973944947   -0.00040120740792756954
-0.004966145545055174   -0.015662150253998804   -0.000504213285619268
-0.005563543844058198   -0.013436963025502293   -0.00036334593803773413
-0.0037534724182317113   -0.01571797641744984   -0.0004321154893301429
-0.0049191882677584835   -0.015644229133464554   -0.0004557389460750795
-0.005563543844058198   -0.013436963025502293   -0.00036334593803773413
-0.004966145545055174   -0.015662150253998804   -0.000504213285619268
-0.0037534724182317113   -0.01571797641744984   -0.0004321154893301429
-0.005563543844058198   -0.013436963025502293   -0.00036334593803773413
-0.00420331962575606   -0.013496464890072049   -0.00034185073047091167
-0.004196062686893212   -0.013512601202359923   -0.0003676189891763226
-0.0037534724182317113   -0.01571797641744984   -0.0004321154893301429
-0.005563543844058198   -0.013436963025502293   -0.00036334593803773413
-0.004196062686893212   -0.013512601202359923   -0.0003676189891763226
-0.004966145545055174   -0.015662150253998804   -0.000504213285619268
-0.0037534724182317113   -0.01571797641744984   -0.0004321154893301429
-0.00420331962575606   -0.013496464890072049   -0.00034185073047091167
-0.0049191882677584835   -0.015644229133464554   -0.0004557389460750795
-0.0037440586150237877   -0.015707857980996005   -0.0003988717975752979
-0.00420331962575606   -0.013496464890072049   -0.00034185073047091167
-0.005563543844058198   -0.013436963025502293   -0.00036334593803773413
-0.0049191882677584835   -0.015644229133464554   -0.0004557389460750795
-0.005539642365694089   -0.013428392450876672   -0.000322680020978992
-0.0037440586150237877   -0.015707857980996005   -0.0003988717975752979
-0.004879249342586843   -0.015635553219362483   -0.00040443001560961506
-0.005539642365694089   -0.013428392450876672   -0.000322680020978992
-0.0049191882677584835   -0.015644229133464554   -0.0004557389460750795
-0.0037440586150237877   -0.015707857980996005   -0.0003988717975752979
-0.005539642365694089   -0.013428392450876672   -0.000322680020978992
-0.004203751691713895   -0.013486042546604446   -0.00031448317227621614
-0.00420331962575606   -0.013496464890072049   -0.00034185073047091167
-0.0037440586150237877   -0.015707857980996005   -0.0003988717975752979
-0.005539642365694089   -0.013428392450876672   -0.000322680020978992
-0.00420331962575606   -0.013496464890072049   -0.00034185073047091167
-0.0049191882677584835   -0.015644229133464554   -0.0004557389460750795
-0.0037440586150237877   -0.015707857980996005   -0.0003988717975752979
-0.004203751691713895   -0.013486042546604446   -0.00031448317227621614
-0.004879249342586843   -0.015635553219362483   -0.00040443001560961506
-0.0037378419804859867   -0.015706521758573073   -0.00036354905694984974
-0.004203751691713895   -0.013486042546604446   -0.00031448317227621614
-0.005539642365694089   -0.013428392450876672   -0.000322680020978992
-0.004879249342586843   -0.015635553219362483   -0.00040443001560961506
-0.005500834963745594   -0.013430848931474372   -0.000279562964480096
-0.0037378419804859867   -0.015706521758573073   -0.00036354905694984974
-0.004821913864701193   -0.01564072509024761   -0.0003506847690989105
-0.005500834963745594   -0.013430848931474372   -0.000279562964480096
-0.004879249342586843   -0.015635553219362483   -0.00040443001560961506
-0.0037378419804859867   -0.015706521758573073   -0.00036354905694984974
-0.005500834963745594   -0.013430848931474372   -0.000279562964480096
-0.004206238604255621   -0.013482165494658312   -0.00028517335390345933
-0.004203751691713895   -0.013486042546604446   -0.00031448317227621614
-0.0037378419804859867   -0.015706521758573073   -0.00036354905694984974
-0.005500834963745594   -0.013430848931474372   -0.000279562964480096
-0.004203751691713895   -0.013486042546604446   -0.00031448317227621614
-0.004879249342586843   -0.015635553219362483   -0.00040443001560961506
0.0009277296188740336   -0.013577197292207367   -0.00015661786107458957
0.0011402983429809276   -0.011081287730527448   -8.083485146676175e-05
-0.00039625431731153937   -0.013591872386947338   -0.00022517350930021543
0.000942151221448727   -0.013540912970342657   -0.00017934047217855372
0.0011402983429809276   -0.011081287730527448   -8.083485146676175e-05
-0.0003376289717826533   -0.011081999900557995   -0.000144177468154985
-0.00039625431731153937   -0.013591872386947338   -0.00022517350930021543
-0.0003500902882147214   -0.011052172305774545   -0.00014565197580821475
0.000942151221448727   -0.013540912970342657   -0.00017934047217855372
-0.000401910226675966   -0.013560933246457805   -0.0002329445604033536
-0.0003500902882147214   -0.011052172305774545   -0.00014565197580821475
-0.00039625431731153937   -0.013591872386947338   -0.00022517350930021543
0.000942151221448727   -0.013540912970342657   -0.00017934047217855372
-0.0003500902882147214   -0.011052172305774545   -0.00014565197580821475
0.0011378084497106215   -0.01104662509819208   -9.238690397686773e-05
0.0011402983429809276   -0.011081287730527448   -8.083485146676175e-05
0.000942151221448727   -0.013540912970342657   -0.00017934047217855372
-0.0003500902882147214   -0.011052172305774545   -0.00014565197580821475
0.0011402983429809276   -0.011081287730527448   -8.083485146676175e-05
-0.00039625431731153937   -0.013591872386947338   -0.00022517350930021543
0.000942151221448727   -0.013540912970342657   -0.00017934047217855372
0.0011378084497106215   -0.01104662509819208   -9.238690397686773e-05
-0.000401910226675966   -0.013560933246457805   -0.0002329445604033536
0.000947378364712687   -0.01351526920263049   -0.0001993542592690824
0.0011378084497106215   -0.01104662509819208   -9.238690397686773e-05
-0.0003500902882147214   -0.011052172305774545   -0.00014565197580821475
-0.000401910226675966   -0.013560933246457805   -0.0002329445604033536
-0.00036395116064688105   -0.011027036389219114   -0.00014547464675400765
0.000947378364712687   -0.01351526920263049   -0.0001993542592690824
-0.000407784844505217   -0.013537092623998888   -0.0002388841797330346
-0.00036395116064688105   -0.011027036389219114   -0.00014547464675400765
-0.000401910226675966   -0.013560933246457805   -0.0002329445604033536
0.000947378364712687   -0.01351526920263049   -0.0001993542592690824
-0.00036395116064688105   -0.011027036389219114   -0.00014547464675400765
0.00112865335067963   -0.011019456916729066   -0.00010129115389174017
0.0011378084497106215   -0.01104662509819208   -9.238690397686773e-05
0.000947378364712687   -0.01351526920263049   -0.0001993542592690824
-0.00036395116064688105   -0.011027036389219114   -0.00014547464675400765
0.0011378084497106215   -0.01104662509819208   -9.238690397686773e-05
-0.000401910226675966   -0.013560933246457805   -0.0002329445604033536
0.000947378364712687   -0.01351526920263049   -0.0001993542592690824
0.00112865335067963   -0.011019456916729066   -0.00010129115389174017
-0.000407784844505217   -0.013537092623998888   -0.0002388841797330346
0.0009512676052192486   -0.013495466537592342   -0.0002167909566369667
0.00112865335067963   -0.011019456916729066   -0.00010129115389174017
-0.00036395116064688105   -0.011027036389219114   -0.00014547464675400765
-0.000407784844505217   -0.013537092623998888   -0.0002388841797330346
-0.00038142375818674   -0.011005897482530488   -0.00014358035634139045
0.0009512676052192486   -0.013495466537592342   -0.0002167909566369667
-0.00041830932488467646   -0.013519554905778686   -0.00024305272370675433
-0.00038142375818674   -0.011005897482530488   -0.00014358035634139045
-0.000407784844505217   -0.013537092623998888   -0.0002388841797330346
0.0009512676052192486   -0.013495466537592342   -0.0002167909566369667
-0.00038142375818674   -0.011005897482530488   -0.00014358035634139045
0.0011156099268226285   -0.010995031970597768   -0.00010773279428843933
0.00112865335067963   -0.011019456916729066   -0.00010129115389174017
0.0009512676052192486   -0.013495466537592342   -0.0002167909566369667
-0.00038142375818674   -0.011005897482530488   -0.00014358035634139045
0.00112865335067963   -0.011019456916729066   -0.00010129115389174017
-0.000407784844505217   -0.013537092623998888   -0.0002388841797330346
-0.00039625431731153937   -0.013591872386947338   -0.00022517350930021543
-0.0003376289717826533   -0.011081999900557995   -0.000144177468154985
-0.0016670327388707798   -0.013585161171547212   -0.0002809393410485338
-0.000401910226675966   -0.013560933246457805   -0.0002329445604033536
-0.0003376289717826533   -0.011081999900557995   -0.000144177468154985
-0.0017481438759663075   -0.011068858912737584   -0.00019567276270309855
-0.0016670327388707798   -0.013585161171547212   -0.0002809393410485338
-0.0017623706858462388   -0.011044425187659038   -0.00018998237615058705
-0.000401910226675966   -0.013560933246457805   -0.0002329445604033536
-0.0016752510607173224   -0.01355956788687284   -0.0002775365556345373
-0.0017623706858462388   -0.011044425187659038   -0.00018998237615058705
-0.0016670327388707798   -0.013585161171547212   -0.0002809393410485338
-0.000401910226675966   -0.013560933246457805   -0.0002329445604033536
-0.0017623706858462388   -0.011044425187659038   -0.00018998237615058705
-0.0003500902882147214   -0.011052172305774545   -0.00014565197580821475
-0.0003376289717826533   -0.011081999900557995   -0.000144177468154985
-0.000401910226675966   -0.013560933246457805   -0.0002329445604033536
-0.0017623706858462388   -0.011044425187659038   -0.00018998237615058705
-0.0003376289717826533   -0.011081999900557995   -0.000144177468154985
-0.0016670327388707798   -0.013585161171547212   -0.0002809393410485338
-0.000401910226675966   -0.013560933246457805   -0.0002329445604033536
-0.0003500902882147214   -0.011052172305774545   -0.00014565197580821475
-0.0016752510607173224   -0.01355956788687284   -0.0002775365556345373
-0.000407784844505217   -0.013537092623998888   -0.0002388841797330346
-0.0003500902882147214   -0.011052172305774545   -0.00014565197580821475
-0.0017623706858462388   -0.011044425187659038   -0.00018998237615058705
-0.0016752510607173224   -0.01355956788687284   -0.0002775365556345373
-0.001776901966230685   -0.011023808874327088   -0.00018256429850462314
-0.000407784844505217   -0.013537092623998888   -0.0002388841797330346
-0.0016835857559015354   -0.013540052520570525   -0.00027224178052138754
-0.001776901966230685   -0.011023808874327088   -0.00018256429850462314
-0.0016752510607173224   -0.01355956788687284   -0.0002775365556345373
-0.000407784844505217   -0.013537092623998888   -0.0002388841797330346
-0.001776901966230685   -0.011023808874327088   -0.00018256429850462314
-0.00036395116064688105   -0.011027036389219114   -0.00014547464675400765
-0.0003500902882147214   -0.011052172305774545   -0.00014565197580821475
-0.000407784844505217   -0.013537092623998888   -0.0002388841797330346
-0.001776901966230685   -0.011023808874327088   -0.00018256429850462314
-0.0003500902882147214   -0.011052172305774545   -0.00014565197580821475
-0.0016752510607173224   -0.01355956788687284   -0.0002775365556345373
-0.000407784844505217   -0.013537092623998888   -0.0002388841797330346
-0.00036395116064688105   -0.011027036389219114   -0.00014547464675400765
-0.0016835857559015354   -0.013540052520570525   -0.00027224178052138754
-0.00041830932488467646   -0.013519554905778686   -0.00024305272370675433
-0.00036395116064688105   -0.011027036389219114   -0.00014547464675400765
-0.001776901966230685   -0.011023808874327088   -0.00018256429850462314
-0.0016835857559015354   -0.013540052520570525   -0.00027224178052138754
-0.0017927066073053957   -0.01100722540564025   -0.00017350760931615945
-0.00041830932488467646   -0.013519554905778686   -0.00024305272370675433
-0.001693271821060154   -0.013526714873874216   -0.0002651545385682311
-0.0017927066073053957   -0.01100722540564025   -0.00017350760931615945
-0.0016835857559015354   -0.013540052520570525   -0.00027224178052138754
-0.00041830932488467646   -0.013519554905778686   -0.00024305272370675433
-0.0017927066073053957   -0.01100722540564025   -0.00017350760931615945
-0.00038142375818674   -0.011005897482530488   -0.00014358035634139045
-0.00036395116064688105   -0.011027036389219114   -0.00014547464675400765
-0.00041830932488467646   -0.013519554905778686   -0.00024305272370675433
-0.0017927066073053957   -0.01100722540564025   -0.00017350760931615945
-0.00036395116064688105   -0.011027036389219114   -0.00014547464675400765
-0.0016835857559015354   -0.013540052520570525   -0.00027224178052138754
-0.0016670327388707798   -0.013585161171547212   -0.0002809393410485338
-0.0017481438759663075   -0.011068858912737584   -0.00019567276270309855
-0.002916708634607521   -0.01355857145912939   -0.00032833760221838806
-0.0016752510607173224   -0.01355956788687284   -0.0002775365556345373
-0.0017481438759663075   -0.011068858912737584   -0.00019567276270309855
-0.003134850842928836   -0.011043628985901093   -0.000238679838479842
-0.002916708634607521   -0.01355857145912939   -0.00032833760221838806
-0.00314959149362549   -0.011024115230697245   -0.00022586160915464366
-0.0016752510607173224   -0.01355956788687284   -0.0002775365556345373
-0.002925657343535362   -0.013537781248571459   -0.00031383164908112515
-0.00314959149362549   -0.011024115230697245   -0.00022586160915464366
-0.002916708634607521   -0.01355857145912939   -0.00032833760221838806
-0.0016752510607173224   -0.01355956788687284   -0.0002775365556345373
-0.00314959149362549   -0.011024115230697245   -0.00022586160915464366
-0.0017623706858462388   -0.011044425187659038   -0.00018998237615058705
-0.0017481438759663075   -0.011068858912737584   -0.00019567276270309855
-0.0016752510607173224   -0.01355956788687284   -0.0002775365556345373
-0.00314959149362549   -0.011024115230697245   -0.00022586160915464366
-0.0017481438759663075   -0.011068858912737584   -0.00019567276270309855
-0.002916708634607521   -0.01355857145912939   -0.00032833760221838806
-0.0016752510607173224   -0.01355956788687284   -0.0002775365556345373
-0.0017623706858462388   -0.011044425187659038   -0.00018998237615058705
-0.002925657343535362   -0.013537781248571459   -0.00031383164908112515
-0.0016835857559015354   -0.013540052520570525   -0.00027224178052138754
-0.0017623706858462388   -0.011044425187659038   -0.00018998237615058705
-0.00314959149362549   -0.011024115230697245   -0.00022586160915464366
-0.002925657343535362   -0.013537781248571459   -0.00031383164908112515
-0.0031629194078128505   -0.011008392139661503   -0.00021135853550033676
-0.0016835857559015354   -0.013540052520570525   -0.00027224178052138754
-0.0029330137950320185   -0.013523012131160972   -0.00029747112983661384
-0.0031629194078128505   -0.011008392139661503   -0.00021135853550033676
-0.002925657343535362   -0.013537781248571459   -0.00031383164908112515
-0.0016835857559015354   -0.013540052520570525   -0.00027224178052138754
-0.0031629194078128505   -0.011008392139661503   -0.00021135853550033676
-0.001776901966230685   -0.011023808874327088   -0.00018256429850462314
-0.0017623706858462388   -0.011044425187659038   -0.00018998237615058705
-0.0016835857559015354   -0.013540052520570525   -0.00027224178052138754
-0.0031629194078128505   -0.011008392139661503   -0.00021135853550033676
-0.0017623706858462388   -0.011044425187659038   -0.00018998237615058705
-0.002925657343535362   -0.013537781248571459   -0.00031383164908112515
-0.0016835857559015354   -0.013540052520570525   -0.00027224178052138754
-0.001776901966230685   -0.011023808874327088   -0.00018256429850462314
-0.0029330137950320185   -0.013523012131160972   -0.00029747112983661384
-0.001693271821060154   -0.013526714873874216   -0.0002651545385682311
-0.001776901966230685   -0.011023808874327088   -0.00018256429850462314
-0.0031629194078128505   -0.011008392139661503   -0.00021135853550033676
-0.0029330137950320185   -0.013523012131160972   -0.00029747112983661384
-0.003176379751807505   -0.010996480288684756   -0.00019523178500282476
-0.001693271821060154   -0.013526714873874216   -0.0002651545385682311
-0.00294060301614774   -0.013514235969612926   -0.0002793080088954484
-0.003176379751807505   -0.010996480288684756   -0.00019523178500282476
-0.0029330137950320185   -0.013523012131160972   -0.00029747112983661384
-0.001693271821060154   -0.013526714873874216   -0.0002651545385682311
-0.003176379751807505   -0.010996480288684756   -0.00019523178500282476
-0.0017927066073053957   -0.01100722540564025   -0.00017350760931615945
-0.001776901966230685   -0.011023808874327088   -0.00018256429850462314
-0.001693271821060154   -0.013526714873874216   -0.0002651545385682311
-0.003176379751807505   -0.010996480288684756   -0.00019523178500282476
-0.001776901966230685   -0.011023808874327088   -0.00018256429850462314
-0.0029330137950320185   -0.013523012131160972   -0.00029747112983661384
-0.002916708634607521   -0.01355857145912939   -0.00032833760221838806
-0.003134850842928836   -0.011043628985901093   -0.000238679838479842
-0.004196062686893212   -0.013512601202359923   -0.0003676189891763226
-0.002925657343535362   -0.013537781248571459   -0.00031383164908112515
-0.003134850842928836   -0.011043628985901093   -0.000238679838479842
-0.004549219126180355   -0.011005787857179275   -0.0002733463591942152
-0.004196062686893212   -0.013512601202359923   -0.0003676189891763226
-0.004562818763290453   -0.010991211685464254   -0.0002533414243184084
-0.002925657343535362   -0.013537781248571459   -0.00031383164908112515
-0.00420331962575606   -0.013496464890072049   -0.00034185073047091167
-0.004562818763290453   -0.010991211685464254   -0.0002533414243184084
-0.004196062686893212   -0.013512601202359923   -0.0003676189891763226
-0.002925657343535362   -0.013537781248571459   -0.00031383164908112515
-0.004562818763290453   -0.010991211685464254   -0.0002533414243184084
-0.00314959149362549   -0.011024115230697245   -0.00022586160915464366
-0.003134850842928836   -0.011043628985901093   -0.000238679838479842
-0.002925657343535362   -0.013537781248571459   -0.00031383164908112515
-0.004562818763290453   -0.010991211685464254   -0.0002533414243184084
-0.003134850842928836   -0.011043628985901093   -0.000238679838479842
-0.004196062686893212   -0.013512601202359923   -0.0003676189891763226
-0.002925657343535362   -0.013537781248571459   -0.00031383164908112515
-0.00314959149362549   -0.011024115230697245   -0.00022586160915464366
-0.00420331962575606   -0.013496464890072049   -0.00034185073047091167
-0.0029330137950320185   -0.013523012131160972   -0.00029747112983661384
-0.00314959149362549   -0.011024115230697245   -0.00022586160915464366
-0.004562818763290453   -0.010991211685464254   -0.0002533414243184084
-0.00420331962575606   -0.013496464890072049   -0.00034185073047091167
-0.0045707268942325905   -0.010980012015584073   -0.00023187211914744012
-0.0029330137950320185   -0.013523012131160972   -0.00029747112983661384
-0.004203751691713895   -0.013486042546604446   -0.00031448317227621614
-0.0045707268942325905   -0.010980012015584073   -0.00023187211914744012
-0.00420331962575606   -0.013496464890072049   -0.00034185073047091167
-0.0029330137950320185   -0.013523012131160972   -0.00029747112983661384
-0.0045707268942325905   -0.010980012015584073   -0.00023187211914744012
-0.0031629194078128505   -0.011008392139661503   -0.00021135853550033676
-0.00314959149362549   -0.011024115230697245   -0.00022586160915464366
-0.0029330137950320185   -0.013523012131160972   -0.00029747112983661384
-0.0045707268942325905   -0.010980012015584073   -0.00023187211914744012
-0.00314959149362549   -0.011024115230697245   -0.00022586160915464366
-0.00420331962575606   -0.013496464890072049   -0.00034185073047091167
-0.0029330137950320185   -0.013523012131160972   -0.00029747112983661384
-0.0031629194078128505   -0.011008392139661503   -0.00021135853550033676
-0.004203751691713895   -0.013486042546604446   -0.00031448317227621614
-0.00294060301614774   -0.013514235969612926   -0.0002793080088954484
-0.0031629194078128505   -0.011008392139661503   -0.00021135853550033676
-0.0045707268942325905   -0.010980012015584073   -0.00023187211914744012
-0.004203751691713895   -0.013486042546604446   -0.00031448317227621614
-0.004579584433525741   -0.01097297045773394   -0.00020863897101125087
-0.00294060301614774   -0.013514235969612926   -0.0002793080088954484
-0.004206238604255621   -0.013482165494658312   -0.00028517335390345933
-0.004579584433525741   -0.01097297045773394   -0.00020863897101125087
-0.004203751691713895   -0.013486042546604446   -0.00031448317227621614
-0.00294060301614774   -0.013514235969612926   -0.0002793080088954484
-0.004579584433525741   -0.01097297045773394   -0.00020863897101125087
-0.003176379751807505   -0.010996480288684756   -0.00019523178500282476
-0.0031629194078128505   -0.011008392139661503   -0.00021135853550033676
-0.00294060301614774   -0.013514235969612926   -0.0002793080088954484
-0.004579584433525741   -0.01097297045773394   -0.00020863897101125087
-0.0031629194078128505   -0.011008392139661503   -0.00021135853550033676
-0.004203751691713895   -0.013486042546604446   -0.00031448317227621614
-0.004196062686893212   -0.013512601202359923   -0.0003676189891763226
-0.004549219126180355   -0.011005787857179275   -0.0002733463591942152
-0.005592020742752919   -0.01345170973944947   -0.00040120740792756954
-0.00420331962575606   -0.013496464890072049   -0.00034185073047091167
-0.004549219126180355   -0.011005787857179275   -0.0002733463591942152
-0.006068769204352118   -0.010958668223049322   -0.00030061006854981126
-0.005592020742752919   -0.01345170973944947   -0.00040120740792756954
-0.006056631780547729   -0.01094656646543142   -0.00027361177546324076
-0.00420331962575606   -0.013496464890072049   -0.00034185073047091167
-0.005563543844058198   -0.013436963025502293   -0.00036334593803773413
-0.006056631780547729   -0.01094656646543142   -0.00027361177546324076
-0.005592020742752919   -0.01345170973944947   -0.00040120740792756954
-0.00420331962575606   -0.013496464890072049   -0.00034185073047091167
-0.006056631780547729   -0.01094656646543142   -0.00027361177546324076
-0.004562818763290453   -0.010991211685464254   -0.0002533414243184084
-0.004549219126180355   -0.011005787857179275   -0.0002733463591942152
-0.00420331962575606   -0.013496464890072049   -0.00034185073047091167
-0.006056631780547729   -0.01094656646543142   -0.00027361177546324076
-0.004549219126180355   -0.011005787857179275   -0.0002733463591942152
-0.005592020742752919   -0.01345170973944947   -0.00040120740792756954
-0.00420331962575606   -0.013496464890072049   -0.00034185073047091167
-0.004562818763290453   -0.010991211685464254   -0.0002533414243184084
-0.005563543844058198   -0.013436963025502293   -0.00036334593803773413
-0.004203751691713895   -0.013486042546604446   -0.00031448317227621614
-0.004562818763290453   -0.010991211685464254   -0.0002533414243184084
-0.006056631780547729   -0.01094656646543142   -0.00027361177546324076
-0.005563543844058198   -0.013436963025502293   -0.00036334593803773413
-0.0060467172637294776   -0.010937504399712594   -0.0002439252564943987
-0.004203751691713895   -0.013486042546604446   -0.00031448317227621614
-0.005539642365694089   -0.013428392450876672   -0.000322680020978992
-0.0060467172637294776   -0.010937504399712594   -0.0002439252564943987
-0.005563543844058198   -0.013436963025502293   -0.00036334593803773413
-0.004203751691713895   -0.013486042546604446   -0.00031448317227621614
-0.0060467172637294776   -0.010937504399712594   -0.0002439252564943987
-0.0045707268942325905   -0.010980012015584073   -0.00023187211914744012
-0.004562818763290453   -0.010991211685464254   -0.0002533414243184084
-0.004203751691713895   -0.013486042546604446   -0.00031448317227621614
-0.0060467172637294776   -0.010937504399712594   -0.0002439252564943987
-0.004562818763290453   -0.010991211685464254   -0.0002533414243184084
-0.005563543844058198   -0.013436963025502293   -0.00036334593803773413
-0.004203751691713895   -0.013486042546604446   -0.00031448317227621614
-0.0045707268942325905   -0.010980012015584073   -0.00023187211914744012
-0.005539642365694089   -0.013428392450876672   -0.000322680020978992
-0.004206238604255621   -0.013482165494658312   -0.00028517335390345933
-0.0045707268942325905   -0.010980012015584073   -0.00023187211914744012
-0.0060467172637294776   -0.010937504399712594   -0.0002439252564943987
-0.005539642365694089   -0.013428392450876672   -0.000322680020978992
-0.00602455995723184   -0.010936391163365894   -0.00021185497556687664
-0.004206238604255621   -0.013482165494658312   -0.00028517335390345933
-0.005500834963745594   -0.013430848931474372   -0.000279562964480096
-0.00602455995723184   -0.010936391163365894   -0.00021185497556687664
-0.005539642365694089   -0.013428392450876672   -0.000322680020978992
-0.004206238604255621   -0.013482165494658312   -0.00028517335390345933
-0.00602455995723184   -0.010936391163365894   -0.00021185497556687664
-0.004579584433525741   -0.01097297045773394   -0.00020863897101125087
-0.0045707268942325905   -0.010980012015584073   -0.00023187211914744012
-0.004206238604255621   -0.013482165494658312   -0.00028517335390345933
-0.00602455995723184   -0.010936391163365894   -0.00021185497556687664
-0.0045707268942325905   -0.010980012015584073   -0.00023187211914744012
-0.005539642365694089   -0.013428392450876672   -0.000322680020978992
0.0011402983429809276   -0.011081287730527448   -8.083485146676175e-05
0.001194448926897466   -0.0083981108009869   -1.4680411741157098e-05
-0.0003376289717826533   -0.011081999900557995   -0.000144177468154985
0.0011378084497106215   -0.01104662509819208   -9.238690397686773e-05
0.001194448926897466   -0.0083981108009869   -1.4680411741157098e-05
-0.00037502674057865025   -0.008385244164865089   -7.116469974855714e-05
-0.0003376289717826533   -0.011081999900557995   -0.000144177468154985
-0.00039248453654524196   -0.00835685631214379   -6.623847540048462e-05
0.0011378084497106215   -0.01104662509819208   -9.238690397686773e-05
-0.0003500902882147214   -0.011052172305774545   -0.00014565197580821475
-0.00039248453654524196   -0.00835685631214379   -6.623847540048462e-05
-0.0003376289717826533   -0.011081999900557995   -0.000144177468154985
0.0011378084497106215   -0.01104662509819208   -9.238690397686773e-05
-0.00039248453654524196   -0.00835685631214379   -6.623847540048462e-05
0.0011768977527855317   -0.008365205235669897   -1.4711190418185816e-05
0.001194448926897466   -0.0083981108009869   -1.4680411741157098e-05
0.0011378084497106215   -0.01104662509819208   -9.238690397686773e-05
-0.00039248453654524196   -0.00835685631214379   -6.623847540048462e-05
0.001194448926897466   -0.0083981108009869   -1.4680411741157098e-05
-0.0003376289717826533   -0.011081999900557995   -0.000144177468154985
0.0011378084497106215   -0.01104662509819208   -9.238690397686773e-05
0.0011768977527855317   -0.008365205235669897   -1.4711190418185816e-05
-0.0003500902882147214   -0.011052172305774545   -0.00014565197580821475
0.00112865335067963   -0.011019456916729066   -0.00010129115389174017
0.0011768977527855317   -0.008365205235669897   -1.4711190418185816e-05
-0.00039248453654524196   -0.00835685631214379   -6.623847540048462e-05
-0.0003500902882147214   -0.011052172305774545   -0.00014565197580821475
-0.00041254729945674773   -0.008330448858487069   -5.9789784655492924e-05
0.00112865335067963   -0.011019456916729066   -0.00010129115389174017
-0.00036395116064688105   -0.011027036389219114   -0.00014547464675400765
-0.00041254729945674773   -0.008330448858487069   -5.9789784655492924e-05
-0.0003500902882147214   -0.011052172305774545   -0.00014565197580821475
0.00112865335067963   -0.011019456916729066   -0.00010129115389174017
-0.00041254729945674773   -0.008330448858487069   -5.9789784655492924e-05
0.0011545958281807558   -0.008336385301733263   -1.164786896492085e-05
0.0011768977527855317   -0.008365205235669897   -1.4711190418185816e-05
0.00112865335067963   -0.011019456916729066   -0.00010129115389174017
-0.00041254729945674773   -0.008330448858487069   -5.9789784655492924e-05
0.0011768977527855317   -0.008365205235669897   -1.4711190418185816e-05
-0.0003500902882147214   -0.011052172305774545   -0.00014565197580821475
0.00112865335067963   -0.011019456916729066   -0.00010129115389174017
0.0011545958281807558   -0.008336385301733263   -1.164786896492085e-05
-0.00036395116064688105   -0.011027036389219114   -0.00014547464675400765
0.0011156099268226285   -0.010995031970597768   -0.00010773279428843933
0.0011545958281807558   -0.008336385301733263   -1.164786896492085e-05
-0.00041254729945674773   -0.008330448858487069   -5.9789784655492924e-05
-0.00036395116064688105   -0.011027036389219114   -0.00014547464675400765
-0.00043525333461432515   -0.008305640627193042   -5.144025354722129e-05
0.0011156099268226285   -0.010995031970597768   -0.00010773279428843933
-0.00038142375818674   -0.011005897482530488   -0.00014358035634139045
-0.00043525333461432515   -0.008305640627193042   -5.144025354722129e-05
-0.00036395116064688105   -0.011027036389219114   -0.00014547464675400765
0.0011156099268226285   -0.010995031970597768   -0.00010773279428843933
-0.00043525333461432515   -0.008305640627193042   -5.144025354722129e-05
0.0011249977405715544   -0.008306532287337928   -5.6252748233756185e-06
0.0011545958281807558   -0.008336385301733263   -1.164786896492085e-05
0.0011156099268226285   -0.010995031970597768   -0.00010773279428843933
-0.00043525333461432515   -0.008305640627193042   -5.144025354722129e-05
0.0011545958281807558   -0.008336385301733263   -1.164786896492085e-05
-0.00036395116064688105   -0.011027036389219114   -0.00014547464675400765
-0.0003376289717826533   -0.011081999900557995   -0.000144177468154985
-0.00037502674057865025   -0.008385244164865089   -7.116469974855714e-05
-0.0017481438759663075   -0.011068858912737584   -0.00019567276270309855
-0.0003500902882147214   -0.011052172305774545   -0.00014565197580821475
-0.00037502674057865025   -0.008385244164865089   -7.116469974855714e-05
-0.0018619235159142552   -0.008369282327268017   -0.00011815684485785746
-0.0017481438759663075   -0.011068858912737584   -0.00019567276270309855
-0.001879980666053318   -0.008345899478626361   -0.00010998316172463139
-0.0003500902882147214   -0.011052172305774545   -0.00014565197580821475
-0.0017623706858462388   -0.011044425187659038   -0.00018998237615058705
-0.001879980666053318   -0.008345899478626361   -0.00010998316172463139
-0.0017481438759663075   -0.011068858912737584   -0.00019567276270309855
-0.0003500902882147214   -0.011052172305774545   -0.00014565197580821475
-0.001879980666053318   -0.008345899478626361   -0.00010998316172463139
-0.00039248453654524196   -0.00835685631214379   -6.623847540048462e-05
-0.00037502674057865025   -0.008385244164865089   -7.116469974855714e-05
-0.0003500902882147214   -0.011052172305774545   -0.00014565197580821475
-0.001879980666053318   -0.008345899478626361   -0.00010998316172463139
-0.00037502674057865025   -0.008385244164865089   -7.116469974855714e-05
-0.0017481438759663075   -0.011068858912737584   -0.00019567276270309855
-0.0003500902882147214   -0.011052172305774545   -0.00014565197580821475
-0.00039248453654524196   -0.00835685631214379   -6.623847540048462e-05
-0.0017623706858462388   -0.011044425187659038   -0.00018998237615058705
-0.00036395116064688105   -0.011027036389219114   -0.00014547464675400765
-0.00039248453654524196   -0.00835685631214379   -6.623847540048462e-05
-0.001879980666053318   -0.008345899478626361   -0.00010998316172463139
-0.0017623706858462388   -0.011044425187659038   -0.00018998237615058705
-0.0018984716494194662   -0.008324045248445303   -0.00010034530842972851
-0.00036395116064688105   -0.011027036389219114   -0.00014547464675400765
-0.001776901966230685   -0.011023808874327088   -0.00018256429850462314
-0.0018984716494194662   -0.008324045248445303   -0.00010034530842972851
-0.0017623706858462388   -0.011044425187659038   -0.00018998237615058705
-0.00036395116064688105   -0.011027036389219114   -0.00014547464675400765
-0.0018984716494194662   -0.008324045248445303   -0.00010034530842972851
-0.00041254729945674773   -0.008330448858487069   -5.9789784655492924e-05
-0.00039248453654524196   -0.00835685631214379   -6.623847540048462e-05
-0.00036395116064688105   -0.011027036389219114   -0.00014547464675400765
-0.0018984716494194662   -0.008324045248445303   -0.00010034530842972851
-0.00039248453654524196   -0.00835685631214379   -6.623847540048462e-05
-0.0017623706858462388   -0.011044425187659038   -0.00018998237615058705
-0.00036395116064688105   -0.011027036389219114   -0.00014547464675400765
-0.00041254729945674773   -0.008330448858487069   -5.9789784655492924e-05
-0.001776901966230685   -0.011023808874327088   -0.00018256429850462314
-0.00038142375818674   -0.011005897482530488   -0.00014358035634139045
-0.00041254729945674773   -0.008330448858487069   -5.9789784655492924e-05
-0.0018984716494194662   -0.008324045248445303   -0.00010034530842972851
-0.001776901966230685   -0.011023808874327088   -0.00018256429850462314
-0.001918184086232289   -0.008304098897137561   -8.923776153795707e-05
-0.00038142375818674   -0.011005897482530488   -0.00014358035634139045
-0.0017927066073053957   -0.01100722540564025   -0.00017350760931615945
-0.001918184086232289   -0.008304098897137561   -8.923776153795707e-05
-0.001776901966230685   -0.011023808874327088   -0.00018256429850462314
-0.00038142375818674   -0.011005897482530488   -0.00014358035634139045
-0.001918184086232289   -0.008304098897137561   -8.923776153795707e-05
-0.00043525333461432515   -0.008305640627193042   -5.144025354722129e-05
-0.00041254729945674773   -0.008330448858487069   -5.9789784655492924e-05
-0.00038142375818674   -0.011005897482530488   -0.00014358035634139045
-0.001918184086232289   -0.008304098897137561   -8.923776153795707e-05
-0.00041254729945674773   -0.008330448858487069   -5.9789784655492924e-05
-0.001776901966230685   -0.011023808874327088   -0.00018256429850462314
-0.0017481438759663075   -0.011068858912737584   -0.00019567276270309855
-0.0018619235159142552   -0.008369282327268017   -0.00011815684485785746
-0.003134850842928836   -0.011043628985901093   -0.000238679838479842
-0.0017623706858462388   -0.011044425187659038   -0.00018998237615058705
-0.0018619235159142552   -0.008369282327268017   -0.00011815684485785746
-0.003324128111936773   -0.008349698958879596   -0.00015758320898006574
-0.003134850842928836   -0.011043628985901093   -0.000238679838479842
-0.0033421516393166814   -0.00833090123992103   -0.0001462025730001445
-0.0017623706858462388   -0.011044425187659038   -0.00018998237615058705
-0.00314959149362549   -0.011024115230697245   -0.00022586160915464366
-0.0033421516393166814   -0.00833090123992103   -0.0001462025730001445
-0.003134850842928836   -0.011043628985901093   -0.000238679838479842
-0.0017623706858462388   -0.011044425187659038   -0.00018998237615058705
-0.0033421516393166814   -0.00833090123992103   -0.0001462025730001445
-0.001879980666053318   -0.008345899478626361   -0.00010998316172463139
-0.0018619235159142552   -0.008369282327268017   -0.00011815684485785746
-0.0017623706858462388   -0.011044425187659038   -0.00018998237615058705
-0.0033421516393166814   -0.00833090123992103   -0.0001462025730001445
-0.0018619235159142552   -0.008369282327268017   -0.00011815684485785746
-0.003134850842928836   -0.011043628985901093   -0.000238679838479842
-0.0017623706858462388   -0.011044425187659038   -0.00018998237615058705
-0.001879980666053318   -0.008345899478626361   -0.00010998316172463139
-0.00314959149362549   -0.011024115230697245   -0.00022586160915464366
-0.001776901966230685   -0.011023808874327088   -0.00018256429850462314
-0.001879980666053318   -0.008345899478626361   -0.00010998316172463139
-0.0033421516393166814   -0.00833090123992103   -0.0001462025730001445
-0.00314959149362549   -0.011024115230697245   -0.00022586160915464366
-0.003358981455665974   -0.008313701565698132   -0.00013340720000307028
-0.001776901966230685   -0.011023808874327088   -0.00018256429850462314
-0.0031629194078128505   -0.011008392139661503   -0.00021135853550033676
-0.003358981455665974   -0.008313701565698132   -0.00013340720000307028
-0.00314959149362549   -0.011024115230697245   -0.00022586160915464366
-0.001776901966230685   -0.011023808874327088   -0.00018256429850462314
-0.003358981455665974   -0.008313701565698132   -0.00013340720000307028
-0.0018984716494194662   -0.008324045248445303   -0.00010034530842972851
-0.001879980666053318   -0.008345899478626361   -0.00010998316172463139
-0.001776901966230685   -0.011023808874327088   -0.00018256429850462314
-0.003358981455665974   -0.008313701565698132   -0.00013340720000307028
-0.001879980666053318   -0.008345899478626361   -0.00010998316172463139
-0.00314959149362549   -0.011024115230697245   -0.00022586160915464366
-0.001776901966230685   -0.011023808874327088   -0.00018256429850462314
-0.0018984716494194662   -0.008324045248445303   -0.00010034530842972851
-0.0031629194078128505   -0.011008392139661503   -0.00021135853550033676
-0.0017927066073053957   -0.01100722540564025   -0.00017350760931615945
-0.0018984716494194662   -0.008324045248445303   -0.00010034530842972851
-0.003358981455665974   -0.008313701565698132   -0.00013340720000307028
-0.0031629194078128505   -0.011008392139661503   -0.00021135853550033676
-0.0033758723806829372   -0.008298141295318409   -0.00011926409619982862
-0.0017927066073053957   -0.01100722540564025   -0.00017350760931615945
-0.003176379751807505   -0.010996480288684756   -0.00019523178500282476
-0.0033758723806829372   -0.008298141295318409   -0.00011926409619982862
-0.0031629194078128505   -0.011008392139661503   -0.00021135853550033676
-0.0017927066073053957   -0.01100722540564025   -0.00017350760931615945
-0.0033758723806829372   -0.008298141295318409   -0.00011926409619982862
-0.001918184086232289   -0.008304098897137561   -8.923776153795707e-05
-0.0018984716494194662   -0.008324045248445303   -0.00010034530842972851
-0.0017927066073053957   -0.01100722540564025   -0.00017350760931615945
-0.0033758723806829372   -0.008298141295318409   -0.00011926409619982862
-0.0018984716494194662   -0.008324045248445303   -0.00010034530842972851
-0.0031629194078128505   -0.011008392139661503   -0.00021135853550033676
-0.003134850842928836   -0.011043628985901093   -0.000238679838479842
-0.003324128111936773   -0.008349698958879596   -0.00015758320898006574
-0.004549219126180355   -0.011005787857179275   -0.0002733463591942152
-0.00314959149362549   -0.011024115230697245   -0.00022586160915464366
-0.003324128111936773   -0.008349698958879596   -0.00015758320898006574
-0.004813045411650052   -0.008322937568004146   -0.00018909940964929948
-0.004549219126180355   -0.011005787857179275   -0.0002733463591942152
-0.004830266232803916   -0.008308957343252196   -0.00017455204229462995
-0.00314959149362549   -0.011024115230697245   -0.00022586160915464366
-0.004562818763290453   -0.010991211685464254   -0.0002533414243184084
-0.004830266232803916   -0.008308957343252196   -0.00017455204229462995
-0.004549219126180355   -0.011005787857179275   -0.0002733463591942152
-0.00314959149362549   -0.011024115230697245   -0.00022586160915464366
-0.004830266232803916   -0.008308957343252196   -0.00017455204229462995
-0.0033421516393166814   -0.00833090123992103   -0.0001462025730001445
-0.003324128111936773   -0.008349698958879596   -0.00015758320898006574
-0.00314959149362549   -0.011024115230697245   -0.00022586160915464366
-0.004830266232803916   -0.008308957343252196   -0.00017455204229462995
-0.003324128111936773   -0.008349698958879596   -0.00015758320898006574
-0.004549219126180355   -0.011005787857179275   -0.0002733463591942152
-0.00314959149362549   -0.011024115230697245   -0.00022586160915464366
-0.0033421516393166814   -0.00833090123992103   -0.0001462025730001445
-0.004562818763290453   -0.010991211685464254   -0.0002533414243184084
-0.0031629194078128505   -0.011008392139661503   -0.00021135853550033676
-0.0033421516393166814   -0.00833090123992103   -0.0001462025730001445
-0.004830266232803916   -0.008308957343252196   -0.00017455204229462995
-0.004562818763290453   -0.010991211685464254   -0.0002533414243184084
-0.0048430943694564845   -0.008296070036865727   -0.00015880898022280554
-0.0031629194078128505   -0.011008392139661503   -0.00021135853550033676
-0.0045707268942325905   -0.010980012015584073   -0.00023187211914744012
-0.0048430943694564845   -0.008296070036865727   -0.00015880898022280554
-0.004562818763290453   -0.010991211685464254   -0.0002533414243184084
-0.0031629194078128505   -0.011008392139661503   -0.00021135853550033676
-0.0048430943694564845   -0.008296070036865727   -0.00015880898022280554
-0.003358981455665974   -0.008313701565698132   -0.00013340720000307028
-0.0033421516393166814   -0.00833090123992103   -0.0001462025730001445
-0.0031629194078128505   -0.011008392139661503   -0.00021135853550033676
-0.0048430943694564845   -0.008296070036865727   -0.00015880898022280554
-0.0033421516393166814   -0.00833090123992103   -0.0001462025730001445
-0.004562818763290453   -0.010991211685464254   -0.0002533414243184084
-0.0031629194078128505   -0.011008392139661503   -0.00021135853550033676
-0.003358981455665974   -0.008313701565698132   -0.00013340720000307028
-0.0045707268942325905   -0.010980012015584073   -0.00023187211914744012
-0.003176379751807505   -0.010996480288684756   -0.00019523178500282476
-0.003358981455665974   -0.008313701565698132   -0.00013340720000307028
-0.0048430943694564845   -0.008296070036865727   -0.00015880898022280554
-0.0045707268942325905   -0.010980012015584073   -0.00023187211914744012
-0.004855876534023833   -0.008284931176904351   -0.00014157093266801654
-0.003176379751807505   -0.010996480288684756   -0.00019523178500282476
-0.004579584433525741   -0.01097297045773394   -0.00020863897101125087
-0.004855876534023833   -0.008284931176904351   -0.00014157093266801654
-0.0045707268942325905   -0.010980012015584073   -0.00023187211914744012
-0.003176379751807505   -0.010996480288684756   -0.00019523178500282476
-0.004855876534023833   -0.008284931176904351   -0.00014157093266801654
-0.0033758723806829372   -0.008298141295318409   -0.00011926409619982862
-0.003358981455665974   -0.008313701565698132   -0.00013340720000307028
-0.003176379751807505   -0.010996480288684756   -0.00019523178500282476
-0.004855876534023833   -0.008284931176904351   -0.00014157093266801654
-0.003358981455665974   -0.008313701565698132   -0.00013340720000307028
-0.0045707268942325905   -0.010980012015584073   -0.00023187211914744012
-0.004549219126180355   -0.011005787857179275   -0.0002733463591942152
-0.004813045411650052   -0.008322937568004146   -0.00018909940964929948
-0.006068769204352118   -0.010958668223049322   -0.00030061006854981126
-0.004562818763290453   -0.010991211685464254   -0.0002533414243184084
-0.004813045411650052   -0.008322937568004146   -0.00018909940964929948
-0.006393308985980361   -0.008290822361670997   -0.00021181893446802792
-0.006068769204352118   -0.010958668223049322   -0.00030061006854981126
-0.0063946312554095915   -0.008280040340801398   -0.00019533230496051275
-0.004562818763290453   -0.010991211685464254   -0.0002533414243184084
-0.006056631780547729   -0.01094656646543142   -0.00027361177546324076
-0.0063946312554095915   -0.008280040340801398   -0.00019533230496051275
-0.006068769204352118   -0.010958668223049322   -0.00030061006854981126
-0.004562818763290453   -0.010991211685464254   -0.0002533414243184084
-0.0063946312554095915   -0.008280040340801398   -0.00019533230496051275
-0.004830266232803916   -0.008308957343252196   -0.00017455204229462995
-0.004813045411650052   -0.008322937568004146   -0.00018909940964929948
-0.004562818763290453   -0.010991211685464254   -0.0002533414243184084
-0.0063946312554095915   -0.008280040340801398   -0.00019533230496051275
-0.004813045411650052   -0.008322937568004146   -0.00018909940964929948
-0.006068769204352118   -0.010958668223049322   -0.00030061006854981126
-0.004562818763290453   -0.010991211685464254   -0.0002533414243184084
-0.004830266232803916   -0.008308957343252196   -0.00017455204229462995
-0.006056631780547729   -0.01094656646543142   -0.00027361177546324076
-0.0045707268942325905   -0.010980012015584073   -0.00023187211914744012
-0.004830266232803916   -0.008308957343252196   -0.00017455204229462995
-0.0063946312554095915   -0.008280040340801398   -0.00019533230496051275
-0.006056631780547729   -0.01094656646543142   -0.00027361177546324076
-0.0063962087630325855   -0.008269373727739483   -0.0001764545117544554
-0.0045707268942325905   -0.010980012015584073   -0.00023187211914744012
-0.0060467172637294776   -0.010937504399712594   -0.0002439252564943987
-0.0063962087630325855   -0.008269373727739483   -0.0001764545117544554
-0.006056631780547729   -0.01094656646543142   -0.00027361177546324076
-0.0045707268942325905   -0.010980012015584073   -0.00023187211914744012
-0.0063962087630325855   -0.008269373727739483   -0.0001764545117544554
-0.0048430943694564845   -0.008296070036865727   -0.00015880898022280554
-0.004830266232803916   -0.008308957343252196   -0.00017455204229462995
-0.0045707268942325905   -0.010980012015584073   -0.00023187211914744012
-0.0063962087630325855   -0.008269373727739483   -0.0001764545117544554
-0.004830266232803916   -0.008308957343252196   -0.00017455204229462995
-0.006056631780547729   -0.01094656646543142   -0.00027361177546324076
-0.0045707268942325905   -0.010980012015584073   -0.00023187211914744012
-0.0048430943694564845   -0.008296070036865727   -0.00015880898022280554
-0.0060467172637294776   -0.010937504399712594   -0.0002439252564943987
-0.004579584433525741   -0.01097297045773394   -0.00020863897101125087
-0.0048430943694564845   -0.008296070036865727   -0.00015880898022280554
-0.0063962087630325855   -0.008269373727739483   -0.0001764545117544554
-0.0060467172637294776   -0.010937504399712594   -0.0002439252564943987
-0.006388543932796638   -0.008263453801035742   -0.000155459939501843
-0.004579584433525741   -0.01097297045773394   -0.00020863897101125087
-0.00602455995723184   -0.010936391163365894   -0.00021185497556687664
-0.006388543932796638   -0.008263453801035742   -0.000155459939501843
-0.0060467172637294776   -0.010937504399712594   -0.0002439252564943987
-0.004579584433525741   -0.01097297045773394   -0.00020863897101125087
-0.006388543932796638   -0.008263453801035742   -0.000155459939501843
-0.004855876534023833   -0.008284931176904351   -0.00014157093266801654
-0.0048430943694564845   -0.008296070036865727   -0.00015880898022280554
-0.004579584433525741   -0.01097297045773394   -0.00020863897101125087
-0.006388543932796638   -0.008263453801035742   -0.000155459939501843
-0.0048430943694564845   -0.008296070036865727   -0.00015880898022280554
-0.0060467172637294776   -0.010937504399712594   -0.0002439252564943987
0.001194448926897466   -0.0083981108009869   -1.4680411741157098e-05
0.0010812584105981474   -0.005621493173535141   3.112446746740813e-05
-0.00037502674057865025   -0.008385244164865089   -7.116469974855714e-05
0.0011768977527855317   -0.008365205235669897   -1.4711190418185816e-05
0.0010812584105981474   -0.005621493173535141   3.112446746740813e-05
-0.0005073954934753157   -0.005596253350365117   -1.2776515673588247e-05
-0.00037502674057865025   -0.008385244164865089   -7.116469974855714e-05
-0.0005286892892794133   -0.005570808274467968   -1.8354192730774124e-06
0.0011768977527855317   -0.008365205235669897   -1.4711190418185816e-05
-0.00039248453654524196   -0.00835685631214379   -6.623847540048462e-05
-0.0005286892892794133   -0.005570808274467968   -1.8354192730774124e-06
-0.00037502674057865025   -0.008385244164865089   -7.116469974855714e-05
0.0011768977527855317   -0.008365205235669897   -1.4711190418185816e-05
-0.0005286892892794133   -0.005570808274467968   -1.8354192730774124e-06
0.001048413141036758   -0.0055903403661638415   4.41501353147638e-05
0.0010812584105981474   -0.005621493173535141   3.112446746740813e-05
0.0011768977527855317   -0.008365205235669897   -1.4711190418185816e-05
-0.0005286892892794133   -0.005570808274467968   -1.8354192730774124e-06
0.0010812584105981474   -0.005621493173535141   3.112446746740813e-05
-0.00037502674057865025   -0.008385244164865089   -7.116469974855714e-05
0.0011768977527855317   -0.008365205235669897   -1.4711190418185816e-05
0.001048413141036758   -0.0055903403661638415   4.41501353147638e-05
-0.00039248453654524196   -0.00835685631214379   -6.623847540048462e-05
0.0011545958281807558   -0.008336385301733263   -1.164786896492085e-05
0.001048413141036758   -0.0055903403661638415   4.41501353147638e-05
-0.0005286892892794133   -0.005570808274467968   -1.8354192730774124e-06
-0.00039248453654524196   -0.00835685631214379   -6.623847540048462e-05
-0.0005537142081794414   -0.00554410303335697   1.114343147008332e-05
0.0011545958281807558   -0.008336385301733263   -1.164786896492085e-05
-0.00041254729945674773   -0.008330448858487069   -5.9789784655492924e-05
-0.0005537142081794414   -0.00554410303335697   1.114343147008332e-05
-0.00039248453654524196   -0.00835685631214379   -6.623847540048462e-05
0.0011545958281807558   -0.008336385301733263   -1.164786896492085e-05
-0.0005537142081794414   -0.00554410303335697   1.114343147008332e-05
0.0010111365976544432   -0.005559763214802903   6.339556514770119e-05
0.001048413141036758   -0.0055903403661638415   4.41501353147638e-05
0.0011545958281807558   -0.008336385301733263   -1.164786896492085e-05
-0.0005537142081794414   -0.00554410303335697   1.114343147008332e-05
0.001048413141036758   -0.0055903403661638415   4.41501353147638e-05
-0.00039248453654524196   -0.00835685631214379   -6.623847540048462e-05
0.0011545958281807558   -0.008336385301733263   -1.164786896492085e-05
0.0010111365976544432   -0.005559763214802903   6.339556514770119e-05
-0.00041254729945674773   -0.008330448858487069   -5.9789784655492924e-05
0.0011249977405715544   -0.008306532287337928   -5.6252748233756185e-06
0.0010111365976544432   -0.005559763214802903   6.339556514770119e-05
-0.0005537142081794414   -0.00554410303335697   1.114343147008332e-05
-0.00041254729945674773   -0.008330448858487069   -5.9789784655492924e-05
-0.0005797351095891851   -0.005515883151921698   2.61511921640662e-05
0.0011249977405715544   -0.008306532287337928   -5.6252748233756185e-06
-0.00043525333461432515   -0.008305640627193042   -5.144025354722129e-05
-0.0005797351095891851   -0.005515883151921698   2.61511921640662e-05
-0.00041254729945674773   -0.008330448858487069   -5.9789784655492924e-05
0.0011249977405715544   -0.008306532287337928   -5.6252748233756185e-06
-0.0005797351095891851   -0.005515883151921698   2.61511921640662e-05
0.0009655316413690211   -0.00552206086130875   8.46657760694406e-05
0.0010111365976544432   -0.005559763214802903   6.339556514770119e-05
0.0011249977405715544   -0.008306532287337928   -5.6252748233756185e-06
-0.0005797351095891851   -0.005515883151921698   2.61511921640662e-05
0.0010111365976544432   -0.005559763214802903   6.339556514770119e-05
-0.00041254729945674773   -0.008330448858487069   -5.9789784655492924e-05
-0.00037502674057865025   -0.008385244164865089   -7.116469974855714e-05
-0.0005073954934753157   -0.005596253350365117   -1.2776515673588247e-05
-0.0018619235159142552   -0.008369282327268017   -0.00011815684485785746
-0.00039248453654524196   -0.00835685631214379   -6.623847540048462e-05
-0.0005073954934753157   -0.005596253350365117   -1.2776515673588247e-05
-0.002001349693176707   -0.005589672539530751   -5.465703016066214e-05
-0.0018619235159142552   -0.008369282327268017   -0.00011815684485785746
-0.002020824595697869   -0.005567796441810481   -4.418937170465003e-05
-0.00039248453654524196   -0.00835685631214379   -6.623847540048462e-05
-0.001879980666053318   -0.008345899478626361   -0.00010998316172463139
-0.002020824595697869   -0.005567796441810481   -4.418937170465003e-05
-0.0018619235159142552   -0.008369282327268017   -0.00011815684485785746
-0.00039248453654524196   -0.00835685631214379   -6.623847540048462e-05
-0.002020824595697869   -0.005567796441810481   -4.418937170465003e-05
-0.0005286892892794133   -0.005570808274467968   -1.8354192730774124e-06
-0.0005073954934753157   -0.005596253350365117   -1.2776515673588247e-05
-0.00039248453654524196   -0.00835685631214379   -6.623847540048462e-05
-0.002020824595697869   -0.005567796441810481   -4.418937170465003e-05
-0.0005073954934753157   -0.005596253350365117   -1.2776515673588247e-05
-0.0018619235159142552   -0.008369282327268017   -0.00011815684485785746
-0.00039248453654524196   -0.00835685631214379   -6.623847540048462e-05
-0.0005286892892794133   -0.005570808274467968   -1.8354192730774124e-06
-0.001879980666053318   -0.008345899478626361   -0.00010998316172463139
-0.00041254729945674773   -0.008330448858487069   -5.9789784655492924e-05
-0.0005286892892794133   -0.005570808274467968   -1.8354192730774124e-06
-0.002020824595697869   -0.005567796441810481   -4.418937170465003e-05
-0.001879980666053318   -0.008345899478626361   -0.00010998316172463139
-0.0020410270046600566   -0.005545099452082474   -3.262822138841521e-05
-0.00041254729945674773   -0.008330448858487069   -5.9789784655492924e-05
-0.0018984716494194662   -0.008324045248445303   -0.00010034530842972851
-0.0020410270046600566   -0.005545099452082474   -3.262822138841521e-05
-0.001879980666053318   -0.008345899478626361   -0.00010998316172463139
-0.00041254729945674773   -0.008330448858487069   -5.9789784655492924e-05
-0.0020410270046600566   -0.005545099452082474   -3.262822138841521e-05
-0.0005537142081794414   -0.00554410303335697   1.114343147008332e-05
-0.0005286892892794133   -0.005570808274467968   -1.8354192730774124e-06
-0.00041254729945674773   -0.008330448858487069   -5.9789784655492924e-05
-0.0020410270046600566   -0.005545099452082474   -3.262822138841521e-05
-0.0005286892892794133   -0.005570808274467968   -1.8354192730774124e-06
-0.001879980666053318   -0.008345899478626361   -0.00010998316172463139
-0.00041254729945674773   -0.008330448858487069   -5.9789784655492924e-05
-0.0005537142081794414   -0.00554410303335697   1.114343147008332e-05
-0.0018984716494194662   -0.008324045248445303   -0.00010034530842972851
-0.00043525333461432515   -0.008305640627193042   -5.144025354722129e-05
-0.0005537142081794414   -0.00554410303335697   1.114343147008332e-05
-0.0020410270046600566   -0.005545099452082474   -3.262822138841521e-05
-0.0018984716494194662   -0.008324045248445303   -0.00010034530842972851
-0.0020621161354897406   -0.0055220666203281   -1.9767636007852004e-05
-0.00043525333461432515   -0.008305640627193042   -5.144025354722129e-05
-0.001918184086232289   -0.008304098897137561   -8.923776153795707e-05
-0.0020621161354897406   -0.0055220666203281   -1.9767636007852004e-05
-0.0018984716494194662   -0.008324045248445303   -0.00010034530842972851
-0.00043525333461432515   -0.008305640627193042   -5.144025354722129e-05
-0.0020621161354897406   -0.0055220666203281   -1.9767636007852004e-05
-0.0005797351095891851   -0.005515883151921698   2.61511921640662e-05
-0.0005537142081794414   -0.00554410303335697   1.114343147008332e-05
-0.00043525333461432515   -0.008305640627193042   -5.144025354722129e-05
-0.0020621161354897406   -0.0055220666203281   -1.9767636007852004e-05
-0.0005537142081794414   -0.00554410303335697   1.114343147008332e-05
-0.0018984716494194662   -0.008324045248445303   -0.00010034530842972851
-0.0018619235159142552   -0.008369282327268017   -0.00011815684485785746
-0.002001349693176707   -0.005589672539530751   -5.465703016066214e-05
-0.003324128111936773   -0.008349698958879596   -0.00015758320898006574
-0.001879980666053318   -0.008345899478626361   -0.00010998316172463139
-0.002001349693176707   -0.005589672539530751   -5.465703016066214e-05
-0.0034785161570014896   -0.005587773579227976   -9.224141834675324e-05
-0.003324128111936773   -0.008349698958879596   -0.00015758320898006574
-0.00349724548547872   -0.005568831582813959   -8.20092899661249e-05
-0.001879980666053318   -0.008345899478626361   -0.00010998316172463139
-0.0033421516393166814   -0.00833090123992103   -0.0001462025730001445
-0.00349724548547872   -0.005568831582813959   -8.20092899661249e-05
-0.003324128111936773   -0.008349698958879596   -0.00015758320898006574
-0.001879980666053318   -0.008345899478626361   -0.00010998316172463139
-0.00349724548547872   -0.005568831582813959   -8.20092899661249e-05
-0.002020824595697869   -0.005567796441810481   -4.418937170465003e-05
-0.002001349693176707   -0.005589672539530751   -5.465703016066214e-05
-0.001879980666053318   -0.008345899478626361   -0.00010998316172463139
-0.00349724548547872   -0.005568831582813959   -8.20092899661249e-05
-0.002001349693176707   -0.005589672539530751   -5.465703016066214e-05
-0.003324128111936773   -0.008349698958879596   -0.00015758320898006574
-0.001879980666053318   -0.008345899478626361   -0.00010998316172463139
-0.002020824595697869   -0.005567796441810481   -4.418937170465003e-05
-0.0033421516393166814   -0.00833090123992103   -0.0001462025730001445
-0.0018984716494194662   -0.008324045248445303   -0.00010034530842972851
-0.002020824595697869   -0.005567796441810481   -4.418937170465003e-05
-0.00349724548547872   -0.005568831582813959   -8.20092899661249e-05
-0.0033421516393166814   -0.00833090123992103   -0.0001462025730001445
-0.0035150937126987238   -0.0055496419975682885   -7.08117195243329e-05
-0.0018984716494194662   -0.008324045248445303   -0.00010034530842972851
-0.003358981455665974   -0.008313701565698132   -0.00013340720000307028
-0.0035150937126987238   -0.0055496419975682885   -7.08117195243329e-05
-0.0033421516393166814   -0.00833090123992103   -0.0001462025730001445
-0.0018984716494194662   -0.008324045248445303   -0.00010034530842972851
-0.0035150937126987238   -0.0055496419975682885   -7.08117195243329e-05
-0.0020410270046600566   -0.005545099452082474   -3.262822138841521e-05
-0.002020824595697869   -0.005567796441810481   -4.418937170465003e-05
-0.0018984716494194662   -0.008324045248445303   -0.00010034530842972851
-0.0035150937126987238   -0.0055496419975682885   -7.08117195243329e-05
-0.002020824595697869   -0.005567796441810481   -4.418937170465003e-05
-0.0033421516393166814   -0.00833090123992103   -0.0001462025730001445
-0.0018984716494194662   -0.008324045248445303   -0.00010034530842972851
-0.0020410270046600566   -0.005545099452082474   -3.262822138841521e-05
-0.003358981455665974   -0.008313701565698132   -0.00013340720000307028
-0.001918184086232289   -0.008304098897137561   -8.923776153795707e-05
-0.0020410270046600566   -0.005545099452082474   -3.262822138841521e-05
-0.0035150937126987238   -0.0055496419975682885   -7.08117195243329e-05
-0.003358981455665974   -0.008313701565698132   -0.00013340720000307028
-0.0035327685696131027   -0.005530080563480797   -5.8694770213246694e-05
-0.001918184086232289   -0.008304098897137561   -8.923776153795707e-05
-0.0033758723806829372   -0.008298141295318409   -0.00011926409619982862
-0.0035327685696131027   -0.005530080563480797   -5.8694770213246694e-05
-0.003358981455665974   -0.008313701565698132   -0.00013340720000307028
-0.001918184086232289   -0.008304098897137561   -8.923776153795707e-05
-0.0035327685696131027   -0.005530080563480797   -5.8694770213246694e-05
-0.0020621161354897406   -0.0055220666203281   -1.9767636007852004e-05
-0.0020410270046600566   -0.005545099452082474   -3.262822138841521e-05
-0.001918184086232289   -0.008304098897137561   -8.923776153795707e-05
-0.0035327685696131027   -0.005530080563480797   -5.8694770213246694e-05
-0.0020410270046600566   -0.005545099452082474   -3.262822138841521e-05
-0.003358981455665974   -0.008313701565698132   -0.00013340720000307028
-0.003324128111936773   -0.008349698958879596   -0.00015758320898006574
-0.0034785161570014896   -0.005587773579227976   -9.224141834675324e-05
-0.004813045411650052   -0.008322937568004146   -0.00018909940964929948
-0.0033421516393166814   -0.00833090123992103   -0.0001462025730001445
-0.0034785161570014896   -0.005587773579227976   -9.224141834675324e-05
-0.004987192971898345   -0.005578847396118791   -0.00012327136716790756
-0.004813045411650052   -0.008322937568004146   -0.00018909940964929948
-0.005005044050534659   -0.005563798540758729   -0.00011335759022467757
-0.0033421516393166814   -0.00833090123992103   -0.0001462025730001445
-0.004830266232803916   -0.008308957343252196   -0.00017455204229462995
-0.005005044050534659   -0.005563798540758729   -0.00011335759022467757
-0.004813045411650052   -0.008322937568004146   -0.00018909940964929948
-0.0033421516393166814   -0.00833090123992103   -0.0001462025730001445
-0.005005044050534659   -0.005563798540758729   -0.00011335759022467757
-0.00349724548547872   -0.005568831582813959   -8.20092899661249e-05
-0.0034785161570014896   -0.005587773579227976   -9.224141834675324e-05
-0.0033421516393166814   -0.00833090123992103   -0.0001462025730001445
-0.005005044050534659   -0.005563798540758729   -0.00011335759022467757
-0.0034785161570014896   -0.005587773579227976   -9.224141834675324e-05
-0.004813045411650052   -0.008322937568004146   -0.00018909940964929948
-0.0033421516393166814   -0.00833090123992103   -0.0001462025730001445
-0.00349724548547872   -0.005568831582813959   -8.20092899661249e-05
-0.004830266232803916   -0.008308957343252196   -0.00017455204229462995
-0.003358981455665974   -0.008313701565698132   -0.00013340720000307028
-0.00349724548547872   -0.005568831582813959   -8.20092899661249e-05
-0.005005044050534659   -0.005563798540758729   -0.00011335759022467757
-0.004830266232803916   -0.008308957343252196   -0.00017455204229462995
-0.005020046646924097   -0.0055479579663491865   -0.00010273117494865658
-0.003358981455665974   -0.008313701565698132   -0.00013340720000307028
-0.0048430943694564845   -0.008296070036865727   -0.00015880898022280554
-0.005020046646924097   -0.0055479579663491865   -0.00010273117494865658
-0.004830266232803916   -0.008308957343252196   -0.00017455204229462995
-0.003358981455665974   -0.008313701565698132   -0.00013340720000307028
-0.005020046646924097   -0.0055479579663491865   -0.00010273117494865658
-0.0035150937126987238   -0.0055496419975682885   -7.08117195243329e-05
-0.00349724548547872   -0.005568831582813959   -8.20092899661249e-05
-0.003358981455665974   -0.008313701565698132   -0.00013340720000307028
-0.005020046646924097   -0.0055479579663491865   -0.00010273117494865658
-0.00349724548547872   -0.005568831582813959   -8.20092899661249e-05
-0.004830266232803916   -0.008308957343252196   -0.00017455204229462995
-0.003358981455665974   -0.008313701565698132   -0.00013340720000307028
-0.0035150937126987238   -0.0055496419975682885   -7.08117195243329e-05
-0.0048430943694564845   -0.008296070036865727   -0.00015880898022280554
-0.0033758723806829372   -0.008298141295318409   -0.00011926409619982862
-0.0035150937126987238   -0.0055496419975682885   -7.08117195243329e-05
-0.005020046646924097   -0.0055479579663491865   -0.00010273117494865658
-0.0048430943694564845   -0.008296070036865727   -0.00015880898022280554
-0.005034219282742263   -0.005531782633333313   -9.1107507118682e-05
-0.0033758723806829372   -0.008298141295318409   -0.00011926409619982862
-0.004855876534023833   -0.008284931176904351   -0.00014157093266801654
-0.005034219282742263   -0.005531782633333313   -9.1107507118682e-05
-0.0048430943694564845   -0.008296070036865727   -0.00015880898022280554
-0.0033758723806829372   -0.008298141295318409   -0.00011926409619982862
-0.005034219282742263   -0.005531782633333313   -9.1107507118682e-05
-0.0035327685696131027   -0.005530080563480797   -5.8694770213246694e-05
-0.0035150937126987238   -0.0055496419975682885   -7.08117195243329e-05
-0.0033758723806829372   -0.008298141295318409   -0.00011926409619982862
-0.005034219282742263   -0.005531782633333313   -9.1107507118682e-05
-0.0035150937126987238   -0.0055496419975682885   -7.08117195243329e-05
-0.0048430943694564845   -0.008296070036865727   -0.00015880898022280554
-0.004813045411650052   -0.008322937568004146   -0.00018909940964929948
-0.004987192971898345   -0.005578847396118791   -0.00012327136716790756
-0.006393308985980361   -0.008290822361670997   -0.00021181893446802792
-0.004830266232803916   -0.008308957343252196   -0.00017455204229462995
-0.004987192971898345   -0.005578847396118791   -0.00012327136716790756
-0.006570168073922122   -0.00556378925652159   -0.00014535461300630746
-0.006393308985980361   -0.008290822361670997   -0.00021181893446802792
-0.006580608890008804   -0.005551539407720163   -0.0001375260852950233
-0.004830266232803916   -0.008308957343252196   -0.00017455204229462995
-0.0063946312554095915   -0.008280040340801398   -0.00019533230496051275
-0.006580608890008804   -0.005551539407720163   -0.0001375260852950233
-0.006393308985980361   -0.008290822361670997   -0.00021181893446802792
-0.004830266232803916   -0.008308957343252196   -0.00017455204229462995
-0.006580608890008804   -0.005551539407720163   -0.0001375260852950233
-0.005005044050534659   -0.005563798540758729   -0.00011335759022467757
-0.004987192971898345   -0.005578847396118791   -0.00012327136716790756
-0.004830266232803916   -0.008308957343252196   -0.00017455204229462995
-0.006580608890008804   -0.005551539407720163   -0.0001375260852950233
-0.004987192971898345   -0.005578847396118791   -0.00012327136716790756
-0.006393308985980361   -0.008290822361670997   -0.00021181893446802792
-0.004830266232803916   -0.008308957343252196   -0.00017455204229462995
-0.005005044050534659   -0.005563798540758729   -0.00011335759022467757
-0.0063946312554095915   -0.008280040340801398   -0.00019533230496051275
-0.0048430943694564845   -0.008296070036865727   -0.00015880898022280554
-0.005005044050534659   -0.005563798540758729   -0.00011335759022467757
-0.006580608890008804   -0.005551539407720163   -0.0001375260852950233
-0.0063946312554095915   -0.008280040340801398   -0.00019533230496051275
-0.006590156249948472   -0.005537518003742288   -0.0001280045000027427
-0.0048430943694564845   -0.008296070036865727   -0.00015880898022280554
-0.0063962087630325855   -0.008269373727739483   -0.0001764545117544554
-0.006590156249948472   -0.005537518003742288   -0.0001280045000027427
-0.0063946312554095915   -0.008280040340801398   -0.00019533230496051275
-0.0048430943694564845   -0.008296070036865727   -0.00015880898022280554
-0.006590156249948472   -0.005537518003742288   -0.0001280045000027427
-0.005020046646924097   -0.0055479579663491865   -0.00010273117494865658
-0.005005044050534659   -0.005563798540758729   -0.00011335759022467757
-0.0048430943694564845   -0.008296070036865727   -0.00015880898022280554
-0.006590156249948472   -0.005537518003742288   -0.0001280045000027427
-0.005005044050534659   -0.005563798540758729   -0.00011335759022467757
-0.0063946312554095915   -0.008280040340801398   -0.00019533230496051275
-0.0048430943694564845   -0.008296070036865727   -0.00015880898022280554
-0.005020046646924097   -0.0055479579663491865   -0.00010273117494865658
-0.0063962087630325855   -0.008269373727739483   -0.0001764545117544554
-0.004855876534023833   -0.008284931176904351   -0.00014157093266801654
-0.005020046646924097   -0.0055479579663491865   -0.00010273117494865658
-0.006590156249948472   -0.005537518003742288   -0.0001280045000027427
-0.0063962087630325855   -0.008269373727739483   -0.0001764545117544554
-0.006594049722412716   -0.00552512943248771   -0.0001171823366139394
-0.004855876534023833   -0.008284931176904351   -0.00014157093266801654
-0.006388543932796638   -0.008263453801035742   -0.000155459939501843
-0.006594049722412716   -0.00552512943248771   -0.0001171823366139394
-0.0063962087630325855   -0.008269373727739483   -0.0001764545117544554
-0.004855876534023833   -0.008284931176904351   -0.00014157093266801654
-0.006594049722412716   -0.00552512943248771   -0.0001171823366139394
-0.005034219282742263   -0.005531782633333313   -9.1107507118682e-05
-0.005020046646924097   -0.0055479579663491865   -0.00010273117494865658
-0.004855876534023833   -0.008284931176904351   -0.00014157093266801654
-0.006594049722412716   -0.00552512943248771   -0.0001171823366139394
-0.005020046646924097   -0.0055479579663491865   -0.00010273117494865658
-0.0063962087630325855   -0.008269373727739483   -0.0001764545117544554
0.0010812584105981474   -0.005621493173535141   3.112446746740813e-05
0.0007643583846279646   -0.002836076626491438   3.4239234442008486e-05
-0.0005073954934753157   -0.005596253350365117   -1.2776515673588247e-05
0.001048413141036758   -0.0055903403661638415   4.41501353147638e-05
0.0007643583846279646   -0.002836076626491438   3.4239234442008486e-05
-0.0007252955351510558   -0.002801418749410444   2.0891321273513337e-05
-0.0005073954934753157   -0.005596253350365117   -1.2776515673588247e-05
-0.0007467599198500713   -0.0027896347797660387   3.652707736980635e-05
0.001048413141036758   -0.0055903403661638415   4.41501353147638e-05
-0.0005286892892794133   -0.005570808274467968   -1.8354192730774124e-06
-0.0007467599198500713   -0.0027896347797660387   3.652707736980635e-05
-0.0005073954934753157   -0.005596253350365117   -1.2776515673588247e-05
0.001048413141036758   -0.0055903403661638415   4.41501353147638e-05
-0.0007467599198500713   -0.0027896347797660387   3.652707736980635e-05
0.0006971377667758996   -0.0028024978245906403   7.252496059408997e-05
0.0007643583846279646   -0.002836076626491438   3.4239234442008486e-05
0.001048413141036758   -0.0055903403661638415   4.41501353147638e-05
-0.0007467599198500713   -0.0027896347797660387   3.652707736980635e-05
0.0007643583846279646   -0.002836076626491438   3.4239234442008486e-05
-0.0005073954934753157   -0.005596253350365117   -1.2776515673588247e-05
0.001048413141036758   -0.0055903403661638415   4.41501353147638e-05
0.0006971377667758996   -0.0028024978245906403   7.252496059408997e-05
-0.0005286892892794133   -0.005570808274467968   -1.8354192730774124e-06
0.0010111365976544432   -0.005559763214802903   6.339556514770119e-05
0.0006971377667758996   -0.0028024978245906403   7.252496059408997e-05
-0.0007467599198500713   -0.0027896347797660387   3.652707736980635e-05
-0.0005286892892794133   -0.005570808274467968   -1.8354192730774124e-06
-0.0007754569600394915   -0.0027669988559472416   5.5653722000763826e-05
0.0010111365976544432   -0.005559763214802903   6.339556514770119e-05
-0.0005537142081794414   -0.00554410303335697   1.114343147008332e-05
-0.0007754569600394915   -0.0027669988559472416   5.5653722000763826e-05
-0.0005286892892794133   -0.005570808274467968   -1.8354192730774124e-06
0.0010111365976544432   -0.005559763214802903   6.339556514770119e-05
-0.0007754569600394915   -0.0027669988559472416   5.5653722000763826e-05
0.000657992589488517   -0.0027758112618744665   0.00010082471550712082
0.0006971377667758996   -0.0028024978245906403   7.252496059408997e-05
0.0010111365976544432   -0.005559763214802903   6.339556514770119e-05
-0.0007754569600394915   -0.0027669988559472416   5.5653722000763826e-05
0.0006971377667758996   -0.0028024978245906403   7.252496059408997e-05
-0.0005286892892794133   -0.005570808274467968   -1.8354192730774124e-06
0.0010111365976544432   -0.005559763214802903   6.339556514770119e-05
0.000657992589488517   -0.0027758112618744665   0.00010082471550712082
-0.0005537142081794414   -0.00554410303335697   1.114343147008332e-05
0.0009655316413690211   -0.00552206086130875   8.46657760694406e-05
0.000657992589488517   -0.0027758112618744665   0.00010082471550712082
-0.0007754569600394915   -0.0027669988559472416   5.5653722000763826e-05
-0.0005537142081794414   -0.00554410303335697   1.114343147008332e-05
-0.0007997978519440552   -0.0027429565929939425   7.246123568162764e-05
0.0009655316413690211   -0.00552206086130875   8.46657760694406e-05
-0.0005797351095891851   -0.005515883151921698   2.61511921640662e-05
-0.0007997978519440552   -0.0027429565929939425   7.246123568162764e-05
-0.0005537142081794414   -0.00554410303335697   1.114343147008332e-05
0.0009655316413690211   -0.00552206086130875   8.46657760694406e-05
-0.0007997978519440552   -0.0027429565929939425   7.246123568162764e-05
0.0006074750038484638   -0.0027342962225822107   0.00013335645387913268
0.000657992589488517   -0.0027758112618744665   0.00010082471550712082
0.0009655316413690211   -0.00552206086130875   8.46657760694406e-05
-0.0007997978519440552   -0.0027429565929939425   7.246123568162764e-05
0.000657992589488517   -0.0027758112618744665   0.00010082471550712082
-0.0005537142081794414   -0.00554410303335697   1.114343147008332e-05
-0.0005073954934753157   -0.005596253350365117   -1.2776515673588247e-05
-0.0007252955351510558   -0.002801418749410444   2.0891321273513337e-05
-0.002001349693176707   -0.005589672539530751   -5.465703016066214e-05
-0.0005286892892794133   -0.005570808274467968   -1.8354192730774124e-06
-0.0007252955351510558   -0.002801418749410444   2.0891321273513337e-05
-0.002136952463438612   -0.0028443404343407174   -1.1319275933547397e-05
-0.002001349693176707   -0.005589672539530751   -5.465703016066214e-05
-0.0021571488546577463   -0.0028251588429008072   -6.755141210947986e-08
-0.0005286892892794133   -0.005570808274467968   -1.8354192730774124e-06
-0.002020824595697869   -0.005567796441810481   -4.418937170465003e-05
-0.0021571488546577463   -0.0028251588429008072   -6.755141210947986e-08
-0.002001349693176707   -0.005589672539530751   -5.465703016066214e-05
-0.0005286892892794133   -0.005570808274467968   -1.8354192730774124e-06
-0.0021571488546577463   -0.0028251588429008072   -6.755141210947986e-08
-0.0007467599198500713   -0.0027896347797660387   3.652707736980635e-05
-0.0007252955351510558   -0.002801418749410444   2.0891321273513337e-05
-0.0005286892892794133   -0.005570808274467968   -1.8354192730774124e-06
-0.0021571488546577463   -0.0028251588429008072   -6.755141210947986e-08
-0.0007252955351510558   -0.002801418749410444   2.0891321273513337e-05
-0.002001349693176707   -0.005589672539530751   -5.465703016066214e-05
-0.0005286892892794133   -0.005570808274467968   -1.8354192730774124e-06
-0.0007467599198500713   -0.0027896347797660387   3.652707736980635e-05
-0.002020824595697869   -0.005567796441810481   -4.418937170465003e-05
-0.0005537142081794414   -0.00554410303335697   1.114343147008332e-05
-0.0007467599198500713   -0.0027896347797660387   3.652707736980635e-05
-0.0021571488546577463   -0.0028251588429008072   -6.755141210947986e-08
-0.002020824595697869   -0.005567796441810481   -4.418937170465003e-05
-0.002178523438476719   -0.0028032015194882085   1.1958254042055023e-05
-0.0005537142081794414   -0.00554410303335697   1.114343147008332e-05
-0.0020410270046600566   -0.005545099452082474   -3.262822138841521e-05
-0.002178523438476719   -0.0028032015194882085   1.1958254042055023e-05
-0.002020824595697869   -0.005567796441810481   -4.418937170465003e-05
-0.0005537142081794414   -0.00554410303335697   1.114343147008332e-05
-0.002178523438476719   -0.0028032015194882085   1.1958254042055023e-05
-0.0007754569600394915   -0.0027669988559472416   5.5653722000763826e-05
-0.0007467599198500713   -0.0027896347797660387   3.652707736980635e-05
-0.0005537142081794414   -0.00554410303335697   1.114343147008332e-05
-0.002178523438476719   -0.0028032015194882085   1.1958254042055023e-05
-0.0007467599198500713   -0.0027896347797660387   3.652707736980635e-05
-0.002020824595697869   -0.005567796441810481   -4.418937170465003e-05
-0.0005537142081794414   -0.00554410303335697   1.114343147008332e-05
-0.0007754569600394915   -0.0027669988559472416   5.5653722000763826e-05
-0.0020410270046600566   -0.005545099452082474   -3.262822138841521e-05
-0.0005797351095891851   -0.005515883151921698   2.61511921640662e-05
-0.0007754569600394915   -0.0027669988559472416   5.5653722000763826e-05
-0.002178523438476719   -0.0028032015194882085   1.1958254042055023e-05
-0.0020410270046600566   -0.005545099452082474   -3.262822138841521e-05
-0.002199034278628069   -0.002779132764820988   2.5290990681028992e-05
-0.0005797351095891851   -0.005515883151921698   2.61511921640662e-05
-0.0020621161354897406   -0.0055220666203281   -1.9767636007852004e-05
-0.002199034278628069   -0.002779132764820988   2.5290990681028992e-05
-0.0020410270046600566   -0.005545099452082474   -3.262822138841521e-05
-0.0005797351095891851   -0.005515883151921698   2.61511921640662e-05
-0.002199034278628069   -0.002779132764820988   2.5290990681028992e-05
-0.0007997978519440552   -0.0027429565929939425   7.246123568162764e-05
-0.0007754569600394915   -0.0027669988559472416   5.5653722000763826e-05
-0.0005797351095891851   -0.005515883151921698   2.61511921640662e-05
-0.002199034278628069   -0.002779132764820988   2.5290990681028992e-05
-0.0007754569600394915   -0.0027669988559472416   5.5653722000763826e-05
-0.0020410270046600566   -0.005545099452082474   -3.262822138841521e-05
-0.002001349693176707   -0.005589672539530751   -5.465703016066214e-05
-0.002136952463438612   -0.0028443404343407174   -1.1319275933547397e-05
-0.0034785161570014896   -0.005587773579227976   -9.224141834675324e-05
-0.002020824595697869   -0.005567796441810481   -4.418937170465003e-05
-0.002136952463438612   -0.0028443404343407174   -1.1319275933547397e-05
-0.0035805669627809976   -0.002877912244061322   -4.7771403266040915e-05
-0.0034785161570014896   -0.005587773579227976   -9.224141834675324e-05
-0.003598895978648684   -0.0028581320354588986   -3.8907112387281426e-05
-0.002020824595697869   -0.005567796441810481   -4.418937170465003e-05
-0.00349724548547872   -0.005568831582813959   -8.20092899661249e-05
-0.003598895978648684   -0.0028581320354588986   -3.8907112387281426e-05
-0.0034785161570014896   -0.005587773579227976   -9.224141834675324e-05
-0.002020824595697869   -0.005567796441810481   -4.418937170465003e-05
-0.003598895978648684   -0.0028581320354588986   -3.8907112387281426e-05
-0.0021571488546577463   -0.0028251588429008072   -6.755141210947986e-08
-0.002136952463438612   -0.0028443404343407174   -1.1319275933547397e-05
-0.002020824595697869   -0.005567796441810481   -4.418937170465003e-05
-0.003598895978648684   -0.0028581320354588986   -3.8907112387281426e-05
-0.002136952463438612   -0.0028443404343407174   -1.1319275933547397e-05
-0.0034785161570014896   -0.005587773579227976   -9.224141834675324e-05
-0.002020824595697869   -0.005567796441810481   -4.418937170465003e-05
-0.0021571488546577463   -0.0028251588429008072   -6.755141210947986e-08
-0.00349724548547872   -0.005568831582813959   -8.20092899661249e-05
-0.0020410270046600566   -0.005545099452082474   -3.262822138841521e-05
-0.0021571488546577463   -0.0028251588429008072   -6.755141210947986e-08
-0.003598895978648684   -0.0028581320354588986   -3.8907112387281426e-05
-0.00349724548547872   -0.005568831582813959   -8.20092899661249e-05
-0.0036165732005261284   -0.0028371081872866455   -2.9987223973659564e-05
-0.0020410270046600566   -0.005545099452082474   -3.262822138841521e-05
-0.0035150937126987238   -0.0055496419975682885   -7.08117195243329e-05
-0.0036165732005261284   -0.0028371081872866455   -2.9987223973659564e-05
-0.00349724548547872   -0.005568831582813959   -8.20092899661249e-05
-0.0020410270046600566   -0.005545099452082474   -3.262822138841521e-05
-0.0036165732005261284   -0.0028371081872866455   -2.9987223973659564e-05
-0.002178523438476719   -0.0028032015194882085   1.1958254042055023e-05
-0.0021571488546577463   -0.0028251588429008072   -6.755141210947986e-08
-0.0020410270046600566   -0.005545099452082474   -3.262822138841521e-05
-0.0036165732005261284   -0.0028371081872866455   -2.9987223973659564e-05
-0.0021571488546577463   -0.0028251588429008072   -6.755141210947986e-08
-0.00349724548547872   -0.005568831582813959   -8.20092899661249e-05
-0.0020410270046600566   -0.005545099452082474   -3.262822138841521e-05
-0.002178523438476719   -0.0028032015194882085   1.1958254042055023e-05
-0.0035150937126987238   -0.0055496419975682885   -7.08117195243329e-05
-0.0020621161354897406   -0.0055220666203281   -1.9767636007852004e-05
-0.002178523438476719   -0.0028032015194882085   1.1958254042055023e-05
-0.0036165732005261284   -0.0028371081872866455   -2.9987223973659564e-05
-0.0035150937126987238   -0.0055496419975682885   -7.08117195243329e-05
-0.003632976384225689   -0.0028142419467021332   -2.018670674883203e-05
-0.0020621161354897406   -0.0055220666203281   -1.9767636007852004e-05
-0.0035327685696131027   -0.005530080563480797   -5.8694770213246694e-05
-0.003632976384225689   -0.0028142419467021332   -2.018670674883203e-05
-0.0035150937126987238   -0.0055496419975682885   -7.08117195243329e-05
-0.0020621161354897406   -0.0055220666203281   -1.9767636007852004e-05
-0.003632976384225689   -0.0028142419467021332   -2.018670674883203e-05
-0.002199034278628069   -0.002779132764820988   2.5290990681028992e-05
-0.002178523438476719   -0.0028032015194882085   1.1958254042055023e-05
-0.0020621161354897406   -0.0055220666203281   -1.9767636007852004e-05
-0.003632976384225689   -0.0028142419467021332   -2.018670674883203e-05
-0.002178523438476719   -0.0028032015194882085   1.1958254042055023e-05
-0.0035150937126987238   -0.0055496419975682885   -7.08117195243329e-05
-0.0034785161570014896   -0.005587773579227976   -9.224141834675324e-05
-0.0035805669627809976   -0.002877912244061322   -4.7771403266040915e-05
-0.004987192971898345   -0.005578847396118791   -0.00012327136716790756
-0.00349724548547872   -0.005568831582813959   -8.20092899661249e-05
-0.0035805669627809976   -0.002877912244061322   -4.7771403266040915e-05
-0.0050749684508603074   -0.0028918264516125127   -8.124563209795514e-05
-0.004987192971898345   -0.005578847396118791   -0.00012327136716790756
-0.005091523019074141   -0.002874290243682748   -7.466349649101468e-05
-0.00349724548547872   -0.005568831582813959   -8.20092899661249e-05
-0.005005044050534659   -0.005563798540758729   -0.00011335759022467757
-0.005091523019074141   -0.002874290243682748   -7.466349649101468e-05
-0.004987192971898345   -0.005578847396118791   -0.00012327136716790756
-0.00349724548547872   -0.005568831582813959   -8.20092899661249e-05
-0.005091523019074141   -0.002874290243682748   -7.466349649101468e-05
-0.003598895978648684   -0.0028581320354588986   -3.8907112387281426e-05
-0.0035805669627809976   -0.002877912244061322   -4.7771403266040915e-05
-0.00349724548547872   -0.005568831582813959   -8.20092899661249e-05
-0.005091523019074141   -0.002874290243682748   -7.466349649101468e-05
-0.0035805669627809976   -0.002877912244061322   -4.7771403266040915e-05
-0.004987192971898345   -0.005578847396118791   -0.00012327136716790756
-0.00349724548547872   -0.005568831582813959   -8.20092899661249e-05
-0.003598895978648684   -0.0028581320354588986   -3.8907112387281426e-05
-0.005005044050534659   -0.005563798540758729   -0.00011335759022467757
-0.0035150937126987238   -0.0055496419975682885   -7.08117195243329e-05
-0.003598895978648684   -0.0028581320354588986   -3.8907112387281426e-05
-0.005091523019074141   -0.002874290243682748   -7.466349649101468e-05
-0.005005044050534659   -0.005563798540758729   -0.00011335759022467757
-0.005106283317769045   -0.002855010205993654   -6.819145114431635e-05
-0.0035150937126987238   -0.0055496419975682885   -7.08117195243329e-05
-0.005020046646924097   -0.0055479579663491865   -0.00010273117494865658
-0.005106283317769045   -0.002855010205993654   -6.819145114431635e-05
-0.005005044050534659   -0.005563798540758729   -0.00011335759022467757
-0.0035150937126987238   -0.0055496419975682885   -7.08117195243329e-05
-0.005106283317769045   -0.002855010205993654   -6.819145114431635e-05
-0.0036165732005261284   -0.0028371081872866455   -2.9987223973659564e-05
-0.003598895978648684   -0.0028581320354588986   -3.8907112387281426e-05
-0.0035150937126987238   -0.0055496419975682885   -7.08117195243329e-05
-0.005106283317769045   -0.002855010205993654   -6.819145114431635e-05
-0.003598895978648684   -0.0028581320354588986   -3.8907112387281426e-05
-0.005005044050534659   -0.005563798540758729   -0.00011335759022467757
-0.0035150937126987238   -0.0055496419975682885   -7.08117195243329e-05
-0.0036165732005261284   -0.0028371081872866455   -2.9987223973659564e-05
-0.005020046646924097   -0.0055479579663491865   -0.00010273117494865658
-0.0035327685696131027   -0.005530080563480797   -5.8694770213246694e-05
-0.0036165732005261284   -0.0028371081872866455   -2.9987223973659564e-05
-0.005106283317769045   -0.002855010205993654   -6.819145114431635e-05
-0.005020046646924097   -0.0055479579663491865   -0.00010273117494865658
-0.005119681965947644   -0.0028343984528804394   -6.143659618981093e-05
-0.0035327685696131027   -0.005530080563480797   -5.8694770213246694e-05
-0.005034219282742263   -0.005531782633333313   -9.1107507118682e-05
-0.005119681965947644   -0.0028343984528804394   -6.143659618981093e-05
-0.005020046646924097   -0.0055479579663491865   -0.00010273117494865658
-0.0035327685696131027   -0.005530080563480797   -5.8694770213246694e-05
-0.005119681965947644   -0.0028343984528804394   -6.143659618981093e-05
-0.003632976384225689   -0.0028142419467021332   -2.018670674883203e-05
-0.0036165732005261284   -0.0028371081872866455   -2.9987223973659564e-05
-0.0035327685696131027   -0.005530080563480797   -5.8694770213246694e-05
-0.005119681965947644   -0.0028343984528804394   -6.143659618981093e-05
-0.0036165732005261284   -0.0028371081872866455   -2.9987223973659564e-05
-0.005020046646924097   -0.0055479579663491865   -0.00010273117494865658
-0.004987192971898345   -0.005578847396118791   -0.00012327136716790756
-0.0050749684508603074   -0.0028918264516125127   -8.124563209795514e-05
-0.006570168073922122   -0.00556378925652159   -0.00014535461300630746
-0.005005044050534659   -0.005563798540758729   -0.00011335759022467757
-0.0050749684508603074   -0.0028918264516125127   -8.124563209795514e-05
-0.006625096864264164   -0.002893159089631946   -0.0001084359508223264
-0.006570168073922122   -0.00556378925652159   -0.00014535461300630746
-0.006639119898396452   -0.002876242222217886   -0.00010537779070206391
-0.005005044050534659   -0.005563798540758729   -0.00011335759022467757
-0.006580608890008804   -0.005551539407720163   -0.0001375260852950233
-0.006639119898396452   -0.002876242222217886   -0.00010537779070206391
-0.006570168073922122   -0.00556378925652159   -0.00014535461300630746
-0.005005044050534659   -0.005563798540758729   -0.00011335759022467757
-0.006639119898396452   -0.002876242222217886   -0.00010537779070206391
-0.005091523019074141   -0.002874290243682748   -7.466349649101468e-05
-0.0050749684508603074   -0.0028918264516125127   -8.124563209795514e-05
-0.005005044050534659   -0.005563798540758729   -0.00011335759022467757
-0.006639119898396452   -0.002876242222217886   -0.00010537779070206391
-0.0050749684508603074   -0.0028918264516125127   -8.124563209795514e-05
-0.006570168073922122   -0.00556378925652159   -0.00014535461300630746
-0.005005044050534659   -0.005563798540758729   -0.00011335759022467757
-0.005091523019074141   -0.002874290243682748   -7.466349649101468e-05
-0.006580608890008804   -0.005551539407720163   -0.0001375260852950233
-0.005020046646924097   -0.0055479579663491865   -0.00010273117494865658
-0.005091523019074141   -0.002874290243682748   -7.466349649101468e-05
-0.006639119898396452   -0.002876242222217886   -0.00010537779070206391
-0.006580608890008804   -0.005551539407720163   -0.0001375260852950233
-0.006651683560764981   -0.0028577694008513803   -0.00010175804039991425
-0.005020046646924097   -0.0055479579663491865   -0.00010273117494865658
-0.006590156249948472   -0.005537518003742288   -0.0001280045000027427
-0.006651683560764981   -0.0028577694008513803   -0.00010175804039991425
-0.006580608890008804   -0.005551539407720163   -0.0001375260852950233
-0.005020046646924097   -0.0055479579663491865   -0.00010273117494865658
-0.006651683560764981   -0.0028577694008513803   -0.00010175804039991425
-0.005106283317769045   -0.002855010205993654   -6.819145114431635e-05
-0.005091523019074141   -0.002874290243682748   -7.466349649101468e-05
-0.005020046646924097   -0.0055479579663491865   -0.00010273117494865658
-0.006651683560764981   -0.0028577694008513803   -0.00010175804039991425
-0.005091523019074141   -0.002874290243682748   -7.466349649101468e-05
-0.006580608890008804   -0.005551539407720163   -0.0001375260852950233
-0.005020046646924097   -0.0055479579663491865   -0.00010273117494865658
-0.005106283317769045   -0.002855010205993654   -6.819145114431635e-05
-0.006590156249948472   -0.005537518003742288   -0.0001280045000027427
-0.005034219282742263   -0.005531782633333313   -9.1107507118682e-05
-0.005106283317769045   -0.002855010205993654   -6.819145114431635e-05
-0.006651683560764981   -0.0028577694008513803   -0.00010175804039991425
-0.006590156249948472   -0.005537518003742288   -0.0001280045000027427
-0.006661990105621672   -0.002838243073225188   -9.824364387848785e-05
-0.005034219282742263   -0.005531782633333313   -9.1107507118682e-05
-0.006594049722412716   -0.00552512943248771   -0.0001171823366139394
-0.006661990105621672   -0.002838243073225188   -9.824364387848785e-05
-0.006590156249948472   -0.005537518003742288   -0.0001280045000027427
-0.005034219282742263   -0.005531782633333313   -9.1107507118682e-05
-0.006661990105621672   -0.002838243073225188   -9.824364387848785e-05
-0.005119681965947644   -0.0028343984528804394   -6.143659618981093e-05
-0.005106283317769045   -0.002855010205993654   -6.819145114431635e-05
-0.005034219282742263   -0.005531782633333313   -9.1107507118682e-05
-0.006661990105621672   -0.002838243073225188   -9.824364387848785e-05
-0.005106283317769045   -0.002855010205993654   -6.819145114431635e-05
-0.006590156249948472   -0.005537518003742288   -0.0001280045000027427
0.0007643583846279646   -0.002836076626491438   3.4239234442008486e-05
0.0   0.0   0.0
-0.0007252955351510558   -0.002801418749410444   2.0891321273513337e-05
0.0006971377667758996   -0.0028024978245906403   7.252496059408997e-05
0.0   0.0   0.0
-0.000902019325343911   -0.000243060077995345   -4.200908787912324e-06
-0.0007252955351510558   -0.002801418749410444   2.0891321273513337e-05
-0.0009562195891642103   -0.00019178147862781154   2.8330741195660733e-05
0.0006971377667758996   -0.0028024978245906403   7.252496059408997e-05
-0.0007467599198500713   -0.0027896347797660387   3.652707736980635e-05
-0.0009562195891642103   -0.00019178147862781154   2.8330741195660733e-05
-0.0007252955351510558   -0.002801418749410444   2.0891321273513337e-05
0.0006971377667758996   -0.0028024978245906403   7.252496059408997e-05
-0.0009562195891642103   -0.00019178147862781154   2.8330741195660733e-05
0.0   0.0   0.0
0.0   0.0   0.0
0.0006971377667758996   -0.0028024978245906403   7.252496059408997e-05
-0.0009562195891642103   -0.00019178147862781154   2.8330741195660733e-05
0.0   0.0   0.0
-0.0007252955351510558   -0.002801418749410444   2.0891321273513337e-05
0.0006971377667758996   -0.0028024978245906403   7.252496059408997e-05
0.0   0.0   0.0
-0.0007467599198500713   -0.0027896347797660387   3.652707736980635e-05
0.000657992589488517   -0.0027758112618744665   0.00010082471550712082
0.0   0.0   0.0
-0.0009562195891642103   -0.00019178147862781154   2.8330741195660733e-05
-0.0007467599198500713   -0.0027896347797660387   3.652707736980635e-05
-0.0009906681504083762   -0.00016745455501989684   4.759037890858363e-05
0.000657992589488517   -0.0027758112618744665   0.00010082471550712082
-0.0007754569600394915   -0.0027669988559472416   5.5653722000763826e-05
-0.0009906681504083762   -0.00016745455501989684   4.759037890858363e-05
-0.0007467599198500713   -0.0027896347797660387   3.652707736980635e-05
0.000657992589488517   -0.0027758112618744665   0.00010082471550712082
-0.0009906681504083762   -0.00016745455501989684   4.759037890858363e-05
0.0   0.0   0.0
0.0   0.0   0.0
0.000657992589488517   -0.0027758112618744665   0.00010082471550712082
-0.0009906681504083762   -0.00016745455501989684   4.759037890858363e-05
0.0   0.0   0.0
-0.0007467599198500713   -0.0027896347797660387   3.652707736980635e-05
0.000657992589488517   -0.0027758112618744665   0.00010082471550712082
0.0   0.0   0.0
-0.0007754569600394915   -0.0027669988559472416   5.5653722000763826e-05
0.0006074750038484638   -0.0027342962225822107   0.00013335645387913268
0.0   0.0   0.0
-0.0009906681504083762   -0.00016745455501989684   4.759037890858363e-05
-0.0007754569600394915   -0.0027669988559472416   5.5653722000763826e-05
-0.0010376094391236028   -0.00013490361174721768   6.978934585977721e-05
0.0006074750038484638   -0.0027342962225822107   0.00013335645387913268
-0.0007997978519440552   -0.0027429565929939425   7.246123568162764e-05
-0.0010376094391236028   -0.00013490361174721768   6.978934585977721e-05
-0.0007754569600394915   -0.0027669988559472416   5.5653722000763826e-05
0.0006074750038484638   -0.0027342962225822107   0.00013335645387913268
-0.0010376094391236028   -0.00013490361174721768   6.978934585977721e-05
0.0   0.0   0.0
0.0   0.0   0.0
0.0006074750038484638   -0.0027342962225822107   0.00013335645387913268
-0.0010376094391236028   -0.00013490361174721768   6.978934585977721e-05
0.0   0.0   0.0
-0.0007754569600394915   -0.0027669988559472416   5.5653722000763826e-05
-0.0007252955351510558   -0.002801418749410444   2.0891321273513337e-05
-0.000902019325343911   -0.000243060077995345   -4.200908787912324e-06
-0.002136952463438612   -0.0028443404343407174   -1.1319275933547397e-05
-0.0007467599198500713   -0.0027896347797660387   3.652707736980635e-05
-0.000902019325343911   -0.000243060077995345   -4.200908787912324e-06
-0.00219764419494518   -0.0003236448019747168   9.889555733925115e-07
-0.002136952463438612   -0.0028443404343407174   -1.1319275933547397e-05
-0.002226141821648418   -0.0002964346231977349   9.983553482086637e-06
-0.0007467599198500713   -0.0027896347797660387   3.652707736980635e-05
-0.0021571488546577463   -0.0028251588429008072   -6.755141210947986e-08
-0.002226141821648418   -0.0002964346231977349   9.983553482086637e-06
-0.002136952463438612   -0.0028443404343407174   -1.1319275933547397e-05
-0.0007467599198500713   -0.0027896347797660387   3.652707736980635e-05
-0.002226141821648418   -0.0002964346231977349   9.983553482086637e-06
-0.0009562195891642103   -0.00019178147862781154   2.8330741195660733e-05
-0.000902019325343911   -0.000243060077995345   -4.200908787912324e-06
-0.0007467599198500713   -0.0027896347797660387   3.652707736980635e-05
-0.002226141821648418   -0.0002964346231977349   9.983553482086637e-06
-0.000902019325343911   -0.000243060077995345   -4.200908787912324e-06
-0.002136952463438612   -0.0028443404343407174   -1.1319275933547397e-05
-0.0007467599198500713   -0.0027896347797660387   3.652707736980635e-05
-0.0009562195891642103   -0.00019178147862781154   2.8330741195660733e-05
-0.0021571488546577463   -0.0028251588429008072   -6.755141210947986e-08
-0.0007754569600394915   -0.0027669988559472416   5.5653722000763826e-05
-0.0009562195891642103   -0.00019178147862781154   2.8330741195660733e-05
-0.002226141821648418   -0.0002964346231977349   9.983553482086637e-06
-0.0021571488546577463   -0.0028251588429008072   -6.755141210947986e-08
-0.0022547201908762276   -0.00026438055116419256   2.559820607069775e-05
-0.0007754569600394915   -0.0027669988559472416   5.5653722000763826e-05
-0.002178523438476719   -0.0028032015194882085   1.1958254042055023e-05
-0.0022547201908762276   -0.00026438055116419256   2.559820607069775e-05
-0.0021571488546577463   -0.0028251588429008072   -6.755141210947986e-08
-0.0007754569600394915   -0.0027669988559472416   5.5653722000763826e-05
-0.0022547201908762276   -0.00026438055116419256   2.559820607069775e-05
-0.0009906681504083762   -0.00016745455501989684   4.759037890858363e-05
-0.0009562195891642103   -0.00019178147862781154   2.8330741195660733e-05
-0.0007754569600394915   -0.0027669988559472416   5.5653722000763826e-05
-0.0022547201908762276   -0.00026438055116419256   2.559820607069775e-05
-0.0009562195891642103   -0.00019178147862781154   2.8330741195660733e-05
-0.0021571488546577463   -0.0028251588429008072   -6.755141210947986e-08
-0.0007754569600394915   -0.0027669988559472416   5.5653722000763826e-05
-0.0009906681504083762   -0.00016745455501989684   4.759037890858363e-05
-0.002178523438476719   -0.0028032015194882085   1.1958254042055023e-05
-0.0007997978519440552   -0.0027429565929939425   7.246123568162764e-05
-0.0009906681504083762   -0.00016745455501989684   4.759037890858363e-05
-0.0022547201908762276   -0.00026438055116419256   2.559820607069775e-05
-0.002178523438476719   -0.0028032015194882085   1.1958254042055023e-05
-0.0022871489696007045   -0.00022682709132360965   4.0859560975414446e-05
-0.0007997978519440552   -0.0027429565929939425   7.246123568162764e-05
-0.002199034278628069   -0.002779132764820988   2.5290990681028992e-05
-0.0022871489696007045   -0.00022682709132360965   4.0859560975414446e-05
-0.002178523438476719   -0.0028032015194882085   1.1958254042055023e-05
-0.0007997978519440552   -0.0027429565929939425   7.246123568162764e-05
-0.0022871489696007045   -0.00022682709132360965   4.0859560975414446e-05
-0.0010376094391236028   -0.00013490361174721768   6.978934585977721e-05
-0.0009906681504083762   -0.00016745455501989684   4.759037890858363e-05
-0.0007997978519440552   -0.0027429565929939425   7.246123568162764e-05
-0.0022871489696007045   -0.00022682709132360965   4.0859560975414446e-05
-0.0009906681504083762   -0.00016745455501989684   4.759037890858363e-05
-0.002178523438476719   -0.0028032015194882085   1.1958254042055023e-05
-0.002136952463438612   -0.0028443404343407174   -1.1319275933547397e-05
-0.00219764419494518   -0.0003236448019747168   9.889555733925115e-07
-0.0035805669627809976   -0.002877912244061322   -4.7771403266040915e-05
-0.0021571488546577463   -0.0028251588429008072   -6.755141210947986e-08
-0.00219764419494518   -0.0003236448019747168   9.889555733925115e-07
-0.0036149657228255476   -0.00034912001043601833   -2.025580499511364e-05
-0.0035805669627809976   -0.002877912244061322   -4.7771403266040915e-05
-0.0036325805168342653   -0.00032880810199663893   -1.7467792004983234e-05
-0.0021571488546577463   -0.0028251588429008072   -6.755141210947986e-08
-0.003598895978648684   -0.0028581320354588986   -3.8907112387281426e-05
-0.0036325805168342653   -0.00032880810199663893   -1.7467792004983234e-05
-0.0035805669627809976   -0.002877912244061322   -4.7771403266040915e-05
-0.0021571488546577463   -0.0028251588429008072   -6.755141210947986e-08
-0.0036325805168342653   -0.00032880810199663893   -1.7467792004983234e-05
-0.002226141821648418   -0.0002964346231977349   9.983553482086637e-06
-0.00219764419494518   -0.0003236448019747168   9.889555733925115e-07
-0.0021571488546577463   -0.0028251588429008072   -6.755141210947986e-08
-0.0036325805168342653   -0.00032880810199663893   -1.7467792004983234e-05
-0.00219764419494518   -0.0003236448019747168   9.889555733925115e-07
-0.0035805669627809976   -0.002877912244061322   -4.7771403266040915e-05
-0.0021571488546577463   -0.0028251588429008072   -6.755141210947986e-08
-0.002226141821648418   -0.0002964346231977349   9.983553482086637e-06
-0.003598895978648684   -0.0028581320354588986   -3.8907112387281426e-05
-0.002178523438476719   -0.0028032015194882085   1.1958254042055023e-05
-0.002226141821648418   -0.0002964346231977349   9.983553482086637e-06
-0.0036325805168342653   -0.00032880810199663893   -1.7467792004983234e-05
-0.003598895978648684   -0.0028581320354588986   -3.8907112387281426e-05
-0.0036509546813066726   -0.00030478183985962033   -1.274498943343564e-05
-0.002178523438476719   -0.0028032015194882085   1.1958254042055023e-05
-0.0036165732005261284   -0.0028371081872866455   -2.9987223973659564e-05
-0.0036509546813066726   -0.00030478183985962033   -1.274498943343564e-05
-0.003598895978648684   -0.0028581320354588986   -3.8907112387281426e-05
-0.002178523438476719   -0.0028032015194882085   1.1958254042055023e-05
-0.0036509546813066726   -0.00030478183985962033   -1.274498943343564e-05
-0.0022547201908762276   -0.00026438055116419256   2.559820607069775e-05
-0.002226141821648418   -0.0002964346231977349   9.983553482086637e-06
-0.002178523438476719   -0.0028032015194882085   1.1958254042055023e-05
-0.0036509546813066726   -0.00030478183985962033   -1.274498943343564e-05
-0.002226141821648418   -0.0002964346231977349   9.983553482086637e-06
-0.003598895978648684   -0.0028581320354588986   -3.8907112387281426e-05
-0.002178523438476719   -0.0028032015194882085   1.1958254042055023e-05
-0.0022547201908762276   -0.00026438055116419256   2.559820607069775e-05
-0.0036165732005261284   -0.0028371081872866455   -2.9987223973659564e-05
-0.002199034278628069   -0.002779132764820988   2.5290990681028992e-05
-0.0022547201908762276   -0.00026438055116419256   2.559820607069775e-05
-0.0036509546813066726   -0.00030478183985962033   -1.274498943343564e-05
-0.0036165732005261284   -0.0028371081872866455   -2.9987223973659564e-05
-0.0036690362414651457   -0.00027479985595794574   -6.494033255057404e-06
-0.002199034278628069   -0.002779132764820988   2.5290990681028992e-05
-0.003632976384225689   -0.0028142419467021332   -2.018670674883203e-05
-0.0036690362414651457   -0.00027479985595794574   -6.494033255057404e-06
-0.0036165732005261284   -0.0028371081872866455   -2.9987223973659564e-05
-0.002199034278628069   -0.002779132764820988   2.5290990681028992e-05
-0.0036690362414651457   -0.00027479985595794574   -6.494033255057404e-06
-0.0022871489696007045   -0.00022682709132360965   4.0859560975414446e-05
-0.0022547201908762276   -0.00026438055116419256   2.559820607069775e-05
-0.002199034278628069   -0.002779132764820988   2.5290990681028992e-05
-0.0036690362414651457   -0.00027479985595794574   -6.494033255057404e-06
-0.0022547201908762276   -0.00026438055116419256   2.559820607069775e-05
-0.0036165732005261284   -0.0028371081872866455   -2.9987223973659564e-05
-0.0035805669627809976   -0.002877912244061322   -4.7771403266040915e-05
-0.0036149657228255476   -0.00034912001043601833   -2.025580499511364e-05
-0.0050749684508603074   -0.0028918264516125127   -8.124563209795514e-05
-0.003598895978648684   -0.0028581320354588986   -3.8907112387281426e-05
-0.0036149657228255476   -0.00034912001043601833   -2.025580499511364e-05
-0.005101728921168457   -0.00034811773897009817   -5.313948761301671e-05
-0.0050749684508603074   -0.0028918264516125127   -8.124563209795514e-05
-0.005113710329260759   -0.00033054198526306266   -5.190104961977155e-05
-0.003598895978648684   -0.0028581320354588986   -3.8907112387281426e-05
-0.005091523019074141   -0.002874290243682748   -7.466349649101468e-05
-0.005113710329260759   -0.00033054198526306266   -5.190104961977155e-05
-0.0050749684508603074   -0.0028918264516125127   -8.124563209795514e-05
-0.003598895978648684   -0.0028581320354588986   -3.8907112387281426e-05
-0.005113710329260759   -0.00033054198526306266   -5.190104961977155e-05
-0.0036325805168342653   -0.00032880810199663893   -1.7467792004983234e-05
-0.0036149657228255476   -0.00034912001043601833   -2.025580499511364e-05
-0.003598895978648684   -0.0028581320354588986   -3.8907112387281426e-05
-0.005113710329260759   -0.00033054198526306266   -5.190104961977155e-05
-0.0036149657228255476   -0.00034912001043601833   -2.025580499511364e-05
-0.0050749684508603074   -0.0028918264516125127   -8.124563209795514e-05
-0.003598895978648684   -0.0028581320354588986   -3.8907112387281426e-05
-0.0036325805168342653   -0.00032880810199663893   -1.7467792004983234e-05
-0.005091523019074141   -0.002874290243682748   -7.466349649101468e-05
-0.0036165732005261284   -0.0028371081872866455   -2.9987223973659564e-05
-0.0036325805168342653   -0.00032880810199663893   -1.7467792004983234e-05
-0.005113710329260759   -0.00033054198526306266   -5.190104961977155e-05
-0.005091523019074141   -0.002874290243682748   -7.466349649101468e-05
-0.005126190658381004   -0.0003105443105209616   -5.078931876895664e-05
-0.0036165732005261284   -0.0028371081872866455   -2.9987223973659564e-05
-0.005106283317769045   -0.002855010205993654   -6.819145114431635e-05
-0.005126190658381004   -0.0003105443105209616   -5.078931876895664e-05
-0.005091523019074141   -0.002874290243682748   -7.466349649101468e-05
-0.0036165732005261284   -0.0028371081872866455   -2.9987223973659564e-05
-0.005126190658381004   -0.0003105443105209616   -5.078931876895664e-05
-0.0036509546813066726   -0.00030478183985962033   -1.274498943343564e-05
-0.0036325805168342653   -0.00032880810199663893   -1.7467792004983234e-05
-0.0036165732005261284   -0.0028371081872866455   -2.9987223973659564e-05
-0.005126190658381004   -0.0003105443105209616   -5.078931876895664e-05
-0.0036325805168342653   -0.00032880810199663893   -1.7467792004983234e-05
-0.005091523019074141   -0.002874290243682748   -7.466349649101468e-05
-0.0036165732005261284   -0.0028371081872866455   -2.9987223973659564e-05
-0.0036509546813066726   -0.00030478183985962033   -1.274498943343564e-05
-0.005106283317769045   -0.002855010205993654   -6.819145114431635e-05
-0.003632976384225689   -0.0028142419467021332   -2.018670674883203e-05
-0.0036509546813066726   -0.00030478183985962033   -1.274498943343564e-05
-0.005126190658381004   -0.0003105443105209616   -5.078931876895664e-05
-0.005106283317769045   -0.002855010205993654   -6.819145114431635e-05
-0.005136125204749291   -0.0002884497317770709   -4.983375083726316e-05
-0.003632976384225689   -0.0028142419467021332   -2.018670674883203e-05
-0.005119681965947644   -0.0028343984528804394   -6.143659618981093e-05
-0.005136125204749291   -0.0002884497317770709   -4.983375083726316e-05
-0.005106283317769045   -0.002855010205993654   -6.819145114431635e-05
-0.003632976384225689   -0.0028142419467021332   -2.018670674883203e-05
-0.005136125204749291   -0.0002884497317770709   -4.983375083726316e-05
-0.0036690362414651457   -0.00027479985595794574   -6.494033255057404e-06
-0.0036509546813066726   -0.00030478183985962033   -1.274498943343564e-05
-0.003632976384225689   -0.0028142419467021332   -2.018670674883203e-05
-0.005136125204749291   -0.0002884497317770709   -4.983375083726316e-05
-0.0036509546813066726   -0.00030478183985962033   -1.274498943343564e-05
-0.005106283317769045   -0.002855010205993654   -6.819145114431635e-05
-0.0050749684508603074   -0.0028918264516125127   -8.124563209795514e-05
-0.005101728921168457   -0.00034811773897009817   -5.313948761301671e-05
-0.006625096864264164   -0.002893159089631946   -0.0001084359508223264
-0.005091523019074141   -0.002874290243682748   -7.466349649101468e-05
-0.005101728921168457   -0.00034811773897009817   -5.313948761301671e-05
-0.006631359902901015   -0.0003461287879677524   -8.57282636408363e-05
-0.006625096864264164   -0.002893159089631946   -0.0001084359508223264
-0.006640939544431542   -0.0003272235728906175   -8.556715111084709e-05
-0.005091523019074141   -0.002874290243682748   -7.466349649101468e-05
-0.006639119898396452   -0.002876242222217886   -0.00010537779070206391
-0.006640939544431542   -0.0003272235728906175   -8.556715111084709e-05
-0.006625096864264164   -0.002893159089631946   -0.0001084359508223264
-0.005091523019074141   -0.002874290243682748   -7.466349649101468e-05
-0.006640939544431542   -0.0003272235728906175   -8.556715111084709e-05
-0.005113710329260759   -0.00033054198526306266   -5.190104961977155e-05
-0.005101728921168457   -0.00034811773897009817   -5.313948761301671e-05
-0.005091523019074141   -0.002874290243682748   -7.466349649101468e-05
-0.006640939544431542   -0.0003272235728906175   -8.556715111084709e-05
-0.005101728921168457   -0.00034811773897009817   -5.313948761301671e-05
-0.006625096864264164   -0.002893159089631946   -0.0001084359508223264
-0.005091523019074141   -0.002874290243682748   -7.466349649101468e-05
-0.005113710329260759   -0.00033054198526306266   -5.190104961977155e-05
-0.006639119898396452   -0.002876242222217886   -0.00010537779070206391
-0.005106283317769045   -0.002855010205993654   -6.819145114431635e-05
-0.005113710329260759   -0.00033054198526306266   -5.190104961977155e-05
-0.006640939544431542   -0.0003272235728906175   -8.556715111084709e-05
-0.006639119898396452   -0.002876242222217886   -0.00010537779070206391
-0.006651415939068702   -0.0003080426201105461   -8.689675085233756e-05
-0.005106283317769045   -0.002855010205993654   -6.819145114431635e-05
-0.006651683560764981   -0.0028577694008513803   -0.00010175804039991425
-0.006651415939068702   -0.0003080426201105461   -8.689675085233756e-05
-0.006639119898396452   -0.002876242222217886   -0.00010537779070206391
-0.005106283317769045   -0.002855010205993654   -6.819145114431635e-05
-0.006651415939068702   -0.0003080426201105461   -8.689675085233756e-05
-0.005126190658381004   -0.0003105443105209616   -5.078931876895664e-05
-0.005113710329260759   -0.00033054198526306266   -5.190104961977155e-05
-0.005106283317769045   -0.002855010205993654   -6.819145114431635e-05
-0.006651415939068702   -0.0003080426201105461   -8.689675085233756e-05
-0.005113710329260759   -0.00033054198526306266   -5.190104961977155e-05
-0.006639119898396452   -0.002876242222217886   -0.00010537779070206391
-0.005106283317769045   -0.002855010205993654   -6.819145114431635e-05
-0.005126190658381004   -0.0003105443105209616   -5.078931876895664e-05
-0.006651683560764981   -0.0028577694008513803   -0.00010175804039991425
-0.005119681965947644   -0.0028343984528804394   -6.143659618981093e-05
-0.005126190658381004   -0.0003105443105209616   -5.078931876895664e-05
-0.006651415939068702   -0.0003080426201105461   -8.689675085233756e-05
-0.006651683560764981   -0.0028577694008513803   -0.00010175804039991425
-0.006659283542557665   -0.0002869540974916105   -8.824112366146122e-05
-0.005119681965947644   -0.0028343984528804394   -6.143659618981093e-05
-0.006661990105621672   -0.002838243073225188   -9.824364387848785e-05
-0.006659283542557665   -0.0002869540974916105   -8.824112366146122e-05
-0.006651683560764981   -0.0028577694008513803   -0.00010175804039991425
-0.005119681965947644   -0.0028343984528804394   -6.143659618981093e-05
-0.006659283542557665   -0.0002869540974916105   -8.824112366146122e-05
-0.005136125204749291   -0.0002884497317770709   -4.983375083726316e-05
-0.005126190658381004   -0.0003105443105209616   -5.078931876895664e-05
-0.005119681965947644   -0.0028343984528804394   -6.143659618981093e-05
-0.006659283542557665   -0.0002869540974916105   -8.824112366146122e-05
-0.005126190658381004   -0.0003105443105209616   -5.078931876895664e-05
-0.006651683560764981   -0.0028577694008513803   -0.00010175804039991425
              </DataArray>   
          </PointData>  
       </Piece>  
   </UnstructuredGrid> 
</VTKFile> 
