<?xml version="1.0"?> 
<VTKFile type="UnstructuredGrid"> 
   <UnstructuredGrid> 
      <Piece NumberOfPoints="6000"  NumberOfCells="1500">  
          <Points>  
             <DataArray type="Float64" NumberOfComponents="3" format="ascii">   
-500.0   0.0   0.0
-450.0   0.0   0.0
-500.0   30.0   0.0
-500.0   0.0   16.666666666666668
-450.0   0.0   0.0
-450.0   30.0   0.0
-500.0   30.0   0.0
-450.0   30.0   16.666666666666668
-500.0   0.0   16.666666666666668
-500.0   30.0   16.666666666666668
-450.0   30.0   16.666666666666668
-500.0   30.0   0.0
-500.0   0.0   16.666666666666668
-450.0   30.0   16.666666666666668
-450.0   0.0   16.666666666666668
-450.0   0.0   0.0
-500.0   0.0   16.666666666666668
-450.0   30.0   16.666666666666668
-450.0   0.0   0.0
-500.0   30.0   0.0
-500.0   0.0   16.666666666666668
-450.0   0.0   16.666666666666668
-500.0   30.0   16.666666666666668
-500.0   0.0   33.333333333333336
-450.0   0.0   16.666666666666668
-450.0   30.0   16.666666666666668
-500.0   30.0   16.666666666666668
-450.0   30.0   33.333333333333336
-500.0   0.0   33.333333333333336
-500.0   30.0   33.333333333333336
-450.0   30.0   33.333333333333336
-500.0   30.0   16.666666666666668
-500.0   0.0   33.333333333333336
-450.0   30.0   33.333333333333336
-450.0   0.0   33.333333333333336
-450.0   0.0   16.666666666666668
-500.0   0.0   33.333333333333336
-450.0   30.0   33.333333333333336
-450.0   0.0   16.666666666666668
-500.0   30.0   16.666666666666668
-500.0   0.0   33.333333333333336
-450.0   0.0   33.333333333333336
-500.0   30.0   33.333333333333336
-500.0   0.0   50.0
-450.0   0.0   33.333333333333336
-450.0   30.0   33.333333333333336
-500.0   30.0   33.333333333333336
-450.0   30.0   50.0
-500.0   0.0   50.0
-500.0   30.0   50.0
-450.0   30.0   50.0
-500.0   30.0   33.333333333333336
-500.0   0.0   50.0
-450.0   30.0   50.0
-450.0   0.0   50.0
-450.0   0.0   33.333333333333336
-500.0   0.0   50.0
-450.0   30.0   50.0
-450.0   0.0   33.333333333333336
-500.0   30.0   33.333333333333336
-500.0   30.0   0.0
-450.0   30.0   0.0
-500.0   60.0   0.0
-500.0   30.0   16.666666666666668
-450.0   30.0   0.0
-450.0   60.0   0.0
-500.0   60.0   0.0
-450.0   60.0   16.666666666666668
-500.0   30.0   16.666666666666668
-500.0   60.0   16.666666666666668
-450.0   60.0   16.666666666666668
-500.0   60.0   0.0
-500.0   30.0   16.666666666666668
-450.0   60.0   16.666666666666668
-450.0   30.0   16.666666666666668
-450.0   30.0   0.0
-500.0   30.0   16.666666666666668
-450.0   60.0   16.666666666666668
-450.0   30.0   0.0
-500.0   60.0   0.0
-500.0   30.0   16.666666666666668
-450.0   30.0   16.666666666666668
-500.0   60.0   16.666666666666668
-500.0   30.0   33.333333333333336
-450.0   30.0   16.666666666666668
-450.0   60.0   16.666666666666668
-500.0   60.0   16.666666666666668
-450.0   60.0   33.333333333333336
-500.0   30.0   33.333333333333336
-500.0   60.0   33.333333333333336
-450.0   60.0   33.333333333333336
-500.0   60.0   16.666666666666668
-500.0   30.0   33.333333333333336
-450.0   60.0   33.333333333333336
-450.0   30.0   33.333333333333336
-450.0   30.0   16.666666666666668
-500.0   30.0   33.333333333333336
-450.0   60.0   33.333333333333336
-450.0   30.0   16.666666666666668
-500.0   60.0   16.666666666666668
-500.0   30.0   33.333333333333336
-450.0   30.0   33.333333333333336
-500.0   60.0   33.333333333333336
-500.0   30.0   50.0
-450.0   30.0   33.333333333333336
-450.0   60.0   33.333333333333336
-500.0   60.0   33.333333333333336
-450.0   60.0   50.0
-500.0   30.0   50.0
-500.0   60.0   50.0
-450.0   60.0   50.0
-500.0   60.0   33.333333333333336
-500.0   30.0   50.0
-450.0   60.0   50.0
-450.0   30.0   50.0
-450.0   30.0   33.333333333333336
-500.0   30.0   50.0
-450.0   60.0   50.0
-450.0   30.0   33.333333333333336
-500.0   60.0   33.333333333333336
-500.0   60.0   0.0
-450.0   60.0   0.0
-500.0   90.0   0.0
-500.0   60.0   16.666666666666668
-450.0   60.0   0.0
-450.0   90.0   0.0
-500.0   90.0   0.0
-450.0   90.0   16.666666666666668
-500.0   60.0   16.666666666666668
-500.0   90.0   16.666666666666668
-450.0   90.0   16.666666666666668
-500.0   90.0   0.0
-500.0   60.0   16.666666666666668
-450.0   90.0   16.666666666666668
-450.0   60.0   16.666666666666668
-450.0   60.0   0.0
-500.0   60.0   16.666666666666668
-450.0   90.0   16.666666666666668
-450.0   60.0   0.0
-500.0   90.0   0.0
-500.0   60.0   16.666666666666668
-450.0   60.0   16.666666666666668
-500.0   90.0   16.666666666666668
-500.0   60.0   33.333333333333336
-450.0   60.0   16.666666666666668
-450.0   90.0   16.666666666666668
-500.0   90.0   16.666666666666668
-450.0   90.0   33.333333333333336
-500.0   60.0   33.333333333333336
-500.0   90.0   33.333333333333336
-450.0   90.0   33.333333333333336
-500.0   90.0   16.666666666666668
-500.0   60.0   33.333333333333336
-450.0   90.0   33.333333333333336
-450.0   60.0   33.333333333333336
-450.0   60.0   16.666666666666668
-500.0   60.0   33.333333333333336
-450.0   90.0   33.333333333333336
-450.0   60.0   16.666666666666668
-500.0   90.0   16.666666666666668
-500.0   60.0   33.333333333333336
-450.0   60.0   33.333333333333336
-500.0   90.0   33.333333333333336
-500.0   60.0   50.0
-450.0   60.0   33.333333333333336
-450.0   90.0   33.333333333333336
-500.0   90.0   33.333333333333336
-450.0   90.0   50.0
-500.0   60.0   50.0
-500.0   90.0   50.0
-450.0   90.0   50.0
-500.0   90.0   33.333333333333336
-500.0   60.0   50.0
-450.0   90.0   50.0
-450.0   60.0   50.0
-450.0   60.0   33.333333333333336
-500.0   60.0   50.0
-450.0   90.0   50.0
-450.0   60.0   33.333333333333336
-500.0   90.0   33.333333333333336
-500.0   90.0   0.0
-450.0   90.0   0.0
-500.0   120.0   0.0
-500.0   90.0   16.666666666666668
-450.0   90.0   0.0
-450.0   120.0   0.0
-500.0   120.0   0.0
-450.0   120.0   16.666666666666668
-500.0   90.0   16.666666666666668
-500.0   120.0   16.666666666666668
-450.0   120.0   16.666666666666668
-500.0   120.0   0.0
-500.0   90.0   16.666666666666668
-450.0   120.0   16.666666666666668
-450.0   90.0   16.666666666666668
-450.0   90.0   0.0
-500.0   90.0   16.666666666666668
-450.0   120.0   16.666666666666668
-450.0   90.0   0.0
-500.0   120.0   0.0
-500.0   90.0   16.666666666666668
-450.0   90.0   16.666666666666668
-500.0   120.0   16.666666666666668
-500.0   90.0   33.333333333333336
-450.0   90.0   16.666666666666668
-450.0   120.0   16.666666666666668
-500.0   120.0   16.666666666666668
-450.0   120.0   33.333333333333336
-500.0   90.0   33.333333333333336
-500.0   120.0   33.333333333333336
-450.0   120.0   33.333333333333336
-500.0   120.0   16.666666666666668
-500.0   90.0   33.333333333333336
-450.0   120.0   33.333333333333336
-450.0   90.0   33.333333333333336
-450.0   90.0   16.666666666666668
-500.0   90.0   33.333333333333336
-450.0   120.0   33.333333333333336
-450.0   90.0   16.666666666666668
-500.0   120.0   16.666666666666668
-500.0   90.0   33.333333333333336
-450.0   90.0   33.333333333333336
-500.0   120.0   33.333333333333336
-500.0   90.0   50.0
-450.0   90.0   33.333333333333336
-450.0   120.0   33.333333333333336
-500.0   120.0   33.333333333333336
-450.0   120.0   50.0
-500.0   90.0   50.0
-500.0   120.0   50.0
-450.0   120.0   50.0
-500.0   120.0   33.333333333333336
-500.0   90.0   50.0
-450.0   120.0   50.0
-450.0   90.0   50.0
-450.0   90.0   33.333333333333336
-500.0   90.0   50.0
-450.0   120.0   50.0
-450.0   90.0   33.333333333333336
-500.0   120.0   33.333333333333336
-500.0   120.0   0.0
-450.0   120.0   0.0
-500.0   150.0   0.0
-500.0   120.0   16.666666666666668
-450.0   120.0   0.0
-450.0   150.0   0.0
-500.0   150.0   0.0
-450.0   150.0   16.666666666666668
-500.0   120.0   16.666666666666668
-500.0   150.0   16.666666666666668
-450.0   150.0   16.666666666666668
-500.0   150.0   0.0
-500.0   120.0   16.666666666666668
-450.0   150.0   16.666666666666668
-450.0   120.0   16.666666666666668
-450.0   120.0   0.0
-500.0   120.0   16.666666666666668
-450.0   150.0   16.666666666666668
-450.0   120.0   0.0
-500.0   150.0   0.0
-500.0   120.0   16.666666666666668
-450.0   120.0   16.666666666666668
-500.0   150.0   16.666666666666668
-500.0   120.0   33.333333333333336
-450.0   120.0   16.666666666666668
-450.0   150.0   16.666666666666668
-500.0   150.0   16.666666666666668
-450.0   150.0   33.333333333333336
-500.0   120.0   33.333333333333336
-500.0   150.0   33.333333333333336
-450.0   150.0   33.333333333333336
-500.0   150.0   16.666666666666668
-500.0   120.0   33.333333333333336
-450.0   150.0   33.333333333333336
-450.0   120.0   33.333333333333336
-450.0   120.0   16.666666666666668
-500.0   120.0   33.333333333333336
-450.0   150.0   33.333333333333336
-450.0   120.0   16.666666666666668
-500.0   150.0   16.666666666666668
-500.0   120.0   33.333333333333336
-450.0   120.0   33.333333333333336
-500.0   150.0   33.333333333333336
-500.0   120.0   50.0
-450.0   120.0   33.333333333333336
-450.0   150.0   33.333333333333336
-500.0   150.0   33.333333333333336
-450.0   150.0   50.0
-500.0   120.0   50.0
-500.0   150.0   50.0
-450.0   150.0   50.0
-500.0   150.0   33.333333333333336
-500.0   120.0   50.0
-450.0   150.0   50.0
-450.0   120.0   50.0
-450.0   120.0   33.333333333333336
-500.0   120.0   50.0
-450.0   150.0   50.0
-450.0   120.0   33.333333333333336
-500.0   150.0   33.333333333333336
-450.0   0.0   0.0
-400.0   0.0   0.0
-450.0   30.0   0.0
-450.0   0.0   16.666666666666668
-400.0   0.0   0.0
-400.0   30.0   0.0
-450.0   30.0   0.0
-400.0   30.0   16.666666666666668
-450.0   0.0   16.666666666666668
-450.0   30.0   16.666666666666668
-400.0   30.0   16.666666666666668
-450.0   30.0   0.0
-450.0   0.0   16.666666666666668
-400.0   30.0   16.666666666666668
-400.0   0.0   16.666666666666668
-400.0   0.0   0.0
-450.0   0.0   16.666666666666668
-400.0   30.0   16.666666666666668
-400.0   0.0   0.0
-450.0   30.0   0.0
-450.0   0.0   16.666666666666668
-400.0   0.0   16.666666666666668
-450.0   30.0   16.666666666666668
-450.0   0.0   33.333333333333336
-400.0   0.0   16.666666666666668
-400.0   30.0   16.666666666666668
-450.0   30.0   16.666666666666668
-400.0   30.0   33.333333333333336
-450.0   0.0   33.333333333333336
-450.0   30.0   33.333333333333336
-400.0   30.0   33.333333333333336
-450.0   30.0   16.666666666666668
-450.0   0.0   33.333333333333336
-400.0   30.0   33.333333333333336
-400.0   0.0   33.333333333333336
-400.0   0.0   16.666666666666668
-450.0   0.0   33.333333333333336
-400.0   30.0   33.333333333333336
-400.0   0.0   16.666666666666668
-450.0   30.0   16.666666666666668
-450.0   0.0   33.333333333333336
-400.0   0.0   33.333333333333336
-450.0   30.0   33.333333333333336
-450.0   0.0   50.0
-400.0   0.0   33.333333333333336
-400.0   30.0   33.333333333333336
-450.0   30.0   33.333333333333336
-400.0   30.0   50.0
-450.0   0.0   50.0
-450.0   30.0   50.0
-400.0   30.0   50.0
-450.0   30.0   33.333333333333336
-450.0   0.0   50.0
-400.0   30.0   50.0
-400.0   0.0   50.0
-400.0   0.0   33.333333333333336
-450.0   0.0   50.0
-400.0   30.0   50.0
-400.0   0.0   33.333333333333336
-450.0   30.0   33.333333333333336
-450.0   30.0   0.0
-400.0   30.0   0.0
-450.0   60.0   0.0
-450.0   30.0   16.666666666666668
-400.0   30.0   0.0
-400.0   60.0   0.0
-450.0   60.0   0.0
-400.0   60.0   16.666666666666668
-450.0   30.0   16.666666666666668
-450.0   60.0   16.666666666666668
-400.0   60.0   16.666666666666668
-450.0   60.0   0.0
-450.0   30.0   16.666666666666668
-400.0   60.0   16.666666666666668
-400.0   30.0   16.666666666666668
-400.0   30.0   0.0
-450.0   30.0   16.666666666666668
-400.0   60.0   16.666666666666668
-400.0   30.0   0.0
-450.0   60.0   0.0
-450.0   30.0   16.666666666666668
-400.0   30.0   16.666666666666668
-450.0   60.0   16.666666666666668
-450.0   30.0   33.333333333333336
-400.0   30.0   16.666666666666668
-400.0   60.0   16.666666666666668
-450.0   60.0   16.666666666666668
-400.0   60.0   33.333333333333336
-450.0   30.0   33.333333333333336
-450.0   60.0   33.333333333333336
-400.0   60.0   33.333333333333336
-450.0   60.0   16.666666666666668
-450.0   30.0   33.333333333333336
-400.0   60.0   33.333333333333336
-400.0   30.0   33.333333333333336
-400.0   30.0   16.666666666666668
-450.0   30.0   33.333333333333336
-400.0   60.0   33.333333333333336
-400.0   30.0   16.666666666666668
-450.0   60.0   16.666666666666668
-450.0   30.0   33.333333333333336
-400.0   30.0   33.333333333333336
-450.0   60.0   33.333333333333336
-450.0   30.0   50.0
-400.0   30.0   33.333333333333336
-400.0   60.0   33.333333333333336
-450.0   60.0   33.333333333333336
-400.0   60.0   50.0
-450.0   30.0   50.0
-450.0   60.0   50.0
-400.0   60.0   50.0
-450.0   60.0   33.333333333333336
-450.0   30.0   50.0
-400.0   60.0   50.0
-400.0   30.0   50.0
-400.0   30.0   33.333333333333336
-450.0   30.0   50.0
-400.0   60.0   50.0
-400.0   30.0   33.333333333333336
-450.0   60.0   33.333333333333336
-450.0   60.0   0.0
-400.0   60.0   0.0
-450.0   90.0   0.0
-450.0   60.0   16.666666666666668
-400.0   60.0   0.0
-400.0   90.0   0.0
-450.0   90.0   0.0
-400.0   90.0   16.666666666666668
-450.0   60.0   16.666666666666668
-450.0   90.0   16.666666666666668
-400.0   90.0   16.666666666666668
-450.0   90.0   0.0
-450.0   60.0   16.666666666666668
-400.0   90.0   16.666666666666668
-400.0   60.0   16.666666666666668
-400.0   60.0   0.0
-450.0   60.0   16.666666666666668
-400.0   90.0   16.666666666666668
-400.0   60.0   0.0
-450.0   90.0   0.0
-450.0   60.0   16.666666666666668
-400.0   60.0   16.666666666666668
-450.0   90.0   16.666666666666668
-450.0   60.0   33.333333333333336
-400.0   60.0   16.666666666666668
-400.0   90.0   16.666666666666668
-450.0   90.0   16.666666666666668
-400.0   90.0   33.333333333333336
-450.0   60.0   33.333333333333336
-450.0   90.0   33.333333333333336
-400.0   90.0   33.333333333333336
-450.0   90.0   16.666666666666668
-450.0   60.0   33.333333333333336
-400.0   90.0   33.333333333333336
-400.0   60.0   33.333333333333336
-400.0   60.0   16.666666666666668
-450.0   60.0   33.333333333333336
-400.0   90.0   33.333333333333336
-400.0   60.0   16.666666666666668
-450.0   90.0   16.666666666666668
-450.0   60.0   33.333333333333336
-400.0   60.0   33.333333333333336
-450.0   90.0   33.333333333333336
-450.0   60.0   50.0
-400.0   60.0   33.333333333333336
-400.0   90.0   33.333333333333336
-450.0   90.0   33.333333333333336
-400.0   90.0   50.0
-450.0   60.0   50.0
-450.0   90.0   50.0
-400.0   90.0   50.0
-450.0   90.0   33.333333333333336
-450.0   60.0   50.0
-400.0   90.0   50.0
-400.0   60.0   50.0
-400.0   60.0   33.333333333333336
-450.0   60.0   50.0
-400.0   90.0   50.0
-400.0   60.0   33.333333333333336
-450.0   90.0   33.333333333333336
-450.0   90.0   0.0
-400.0   90.0   0.0
-450.0   120.0   0.0
-450.0   90.0   16.666666666666668
-400.0   90.0   0.0
-400.0   120.0   0.0
-450.0   120.0   0.0
-400.0   120.0   16.666666666666668
-450.0   90.0   16.666666666666668
-450.0   120.0   16.666666666666668
-400.0   120.0   16.666666666666668
-450.0   120.0   0.0
-450.0   90.0   16.666666666666668
-400.0   120.0   16.666666666666668
-400.0   90.0   16.666666666666668
-400.0   90.0   0.0
-450.0   90.0   16.666666666666668
-400.0   120.0   16.666666666666668
-400.0   90.0   0.0
-450.0   120.0   0.0
-450.0   90.0   16.666666666666668
-400.0   90.0   16.666666666666668
-450.0   120.0   16.666666666666668
-450.0   90.0   33.333333333333336
-400.0   90.0   16.666666666666668
-400.0   120.0   16.666666666666668
-450.0   120.0   16.666666666666668
-400.0   120.0   33.333333333333336
-450.0   90.0   33.333333333333336
-450.0   120.0   33.333333333333336
-400.0   120.0   33.333333333333336
-450.0   120.0   16.666666666666668
-450.0   90.0   33.333333333333336
-400.0   120.0   33.333333333333336
-400.0   90.0   33.333333333333336
-400.0   90.0   16.666666666666668
-450.0   90.0   33.333333333333336
-400.0   120.0   33.333333333333336
-400.0   90.0   16.666666666666668
-450.0   120.0   16.666666666666668
-450.0   90.0   33.333333333333336
-400.0   90.0   33.333333333333336
-450.0   120.0   33.333333333333336
-450.0   90.0   50.0
-400.0   90.0   33.333333333333336
-400.0   120.0   33.333333333333336
-450.0   120.0   33.333333333333336
-400.0   120.0   50.0
-450.0   90.0   50.0
-450.0   120.0   50.0
-400.0   120.0   50.0
-450.0   120.0   33.333333333333336
-450.0   90.0   50.0
-400.0   120.0   50.0
-400.0   90.0   50.0
-400.0   90.0   33.333333333333336
-450.0   90.0   50.0
-400.0   120.0   50.0
-400.0   90.0   33.333333333333336
-450.0   120.0   33.333333333333336
-450.0   120.0   0.0
-400.0   120.0   0.0
-450.0   150.0   0.0
-450.0   120.0   16.666666666666668
-400.0   120.0   0.0
-400.0   150.0   0.0
-450.0   150.0   0.0
-400.0   150.0   16.666666666666668
-450.0   120.0   16.666666666666668
-450.0   150.0   16.666666666666668
-400.0   150.0   16.666666666666668
-450.0   150.0   0.0
-450.0   120.0   16.666666666666668
-400.0   150.0   16.666666666666668
-400.0   120.0   16.666666666666668
-400.0   120.0   0.0
-450.0   120.0   16.666666666666668
-400.0   150.0   16.666666666666668
-400.0   120.0   0.0
-450.0   150.0   0.0
-450.0   120.0   16.666666666666668
-400.0   120.0   16.666666666666668
-450.0   150.0   16.666666666666668
-450.0   120.0   33.333333333333336
-400.0   120.0   16.666666666666668
-400.0   150.0   16.666666666666668
-450.0   150.0   16.666666666666668
-400.0   150.0   33.333333333333336
-450.0   120.0   33.333333333333336
-450.0   150.0   33.333333333333336
-400.0   150.0   33.333333333333336
-450.0   150.0   16.666666666666668
-450.0   120.0   33.333333333333336
-400.0   150.0   33.333333333333336
-400.0   120.0   33.333333333333336
-400.0   120.0   16.666666666666668
-450.0   120.0   33.333333333333336
-400.0   150.0   33.333333333333336
-400.0   120.0   16.666666666666668
-450.0   150.0   16.666666666666668
-450.0   120.0   33.333333333333336
-400.0   120.0   33.333333333333336
-450.0   150.0   33.333333333333336
-450.0   120.0   50.0
-400.0   120.0   33.333333333333336
-400.0   150.0   33.333333333333336
-450.0   150.0   33.333333333333336
-400.0   150.0   50.0
-450.0   120.0   50.0
-450.0   150.0   50.0
-400.0   150.0   50.0
-450.0   150.0   33.333333333333336
-450.0   120.0   50.0
-400.0   150.0   50.0
-400.0   120.0   50.0
-400.0   120.0   33.333333333333336
-450.0   120.0   50.0
-400.0   150.0   50.0
-400.0   120.0   33.333333333333336
-450.0   150.0   33.333333333333336
-400.0   0.0   0.0
-350.0   0.0   0.0
-400.0   30.0   0.0
-400.0   0.0   16.666666666666668
-350.0   0.0   0.0
-350.0   30.0   0.0
-400.0   30.0   0.0
-350.0   30.0   16.666666666666668
-400.0   0.0   16.666666666666668
-400.0   30.0   16.666666666666668
-350.0   30.0   16.666666666666668
-400.0   30.0   0.0
-400.0   0.0   16.666666666666668
-350.0   30.0   16.666666666666668
-350.0   0.0   16.666666666666668
-350.0   0.0   0.0
-400.0   0.0   16.666666666666668
-350.0   30.0   16.666666666666668
-350.0   0.0   0.0
-400.0   30.0   0.0
-400.0   0.0   16.666666666666668
-350.0   0.0   16.666666666666668
-400.0   30.0   16.666666666666668
-400.0   0.0   33.333333333333336
-350.0   0.0   16.666666666666668
-350.0   30.0   16.666666666666668
-400.0   30.0   16.666666666666668
-350.0   30.0   33.333333333333336
-400.0   0.0   33.333333333333336
-400.0   30.0   33.333333333333336
-350.0   30.0   33.333333333333336
-400.0   30.0   16.666666666666668
-400.0   0.0   33.333333333333336
-350.0   30.0   33.333333333333336
-350.0   0.0   33.333333333333336
-350.0   0.0   16.666666666666668
-400.0   0.0   33.333333333333336
-350.0   30.0   33.333333333333336
-350.0   0.0   16.666666666666668
-400.0   30.0   16.666666666666668
-400.0   0.0   33.333333333333336
-350.0   0.0   33.333333333333336
-400.0   30.0   33.333333333333336
-400.0   0.0   50.0
-350.0   0.0   33.333333333333336
-350.0   30.0   33.333333333333336
-400.0   30.0   33.333333333333336
-350.0   30.0   50.0
-400.0   0.0   50.0
-400.0   30.0   50.0
-350.0   30.0   50.0
-400.0   30.0   33.333333333333336
-400.0   0.0   50.0
-350.0   30.0   50.0
-350.0   0.0   50.0
-350.0   0.0   33.333333333333336
-400.0   0.0   50.0
-350.0   30.0   50.0
-350.0   0.0   33.333333333333336
-400.0   30.0   33.333333333333336
-400.0   30.0   0.0
-350.0   30.0   0.0
-400.0   60.0   0.0
-400.0   30.0   16.666666666666668
-350.0   30.0   0.0
-350.0   60.0   0.0
-400.0   60.0   0.0
-350.0   60.0   16.666666666666668
-400.0   30.0   16.666666666666668
-400.0   60.0   16.666666666666668
-350.0   60.0   16.666666666666668
-400.0   60.0   0.0
-400.0   30.0   16.666666666666668
-350.0   60.0   16.666666666666668
-350.0   30.0   16.666666666666668
-350.0   30.0   0.0
-400.0   30.0   16.666666666666668
-350.0   60.0   16.666666666666668
-350.0   30.0   0.0
-400.0   60.0   0.0
-400.0   30.0   16.666666666666668
-350.0   30.0   16.666666666666668
-400.0   60.0   16.666666666666668
-400.0   30.0   33.333333333333336
-350.0   30.0   16.666666666666668
-350.0   60.0   16.666666666666668
-400.0   60.0   16.666666666666668
-350.0   60.0   33.333333333333336
-400.0   30.0   33.333333333333336
-400.0   60.0   33.333333333333336
-350.0   60.0   33.333333333333336
-400.0   60.0   16.666666666666668
-400.0   30.0   33.333333333333336
-350.0   60.0   33.333333333333336
-350.0   30.0   33.333333333333336
-350.0   30.0   16.666666666666668
-400.0   30.0   33.333333333333336
-350.0   60.0   33.333333333333336
-350.0   30.0   16.666666666666668
-400.0   60.0   16.666666666666668
-400.0   30.0   33.333333333333336
-350.0   30.0   33.333333333333336
-400.0   60.0   33.333333333333336
-400.0   30.0   50.0
-350.0   30.0   33.333333333333336
-350.0   60.0   33.333333333333336
-400.0   60.0   33.333333333333336
-350.0   60.0   50.0
-400.0   30.0   50.0
-400.0   60.0   50.0
-350.0   60.0   50.0
-400.0   60.0   33.333333333333336
-400.0   30.0   50.0
-350.0   60.0   50.0
-350.0   30.0   50.0
-350.0   30.0   33.333333333333336
-400.0   30.0   50.0
-350.0   60.0   50.0
-350.0   30.0   33.333333333333336
-400.0   60.0   33.333333333333336
-400.0   60.0   0.0
-350.0   60.0   0.0
-400.0   90.0   0.0
-400.0   60.0   16.666666666666668
-350.0   60.0   0.0
-350.0   90.0   0.0
-400.0   90.0   0.0
-350.0   90.0   16.666666666666668
-400.0   60.0   16.666666666666668
-400.0   90.0   16.666666666666668
-350.0   90.0   16.666666666666668
-400.0   90.0   0.0
-400.0   60.0   16.666666666666668
-350.0   90.0   16.666666666666668
-350.0   60.0   16.666666666666668
-350.0   60.0   0.0
-400.0   60.0   16.666666666666668
-350.0   90.0   16.666666666666668
-350.0   60.0   0.0
-400.0   90.0   0.0
-400.0   60.0   16.666666666666668
-350.0   60.0   16.666666666666668
-400.0   90.0   16.666666666666668
-400.0   60.0   33.333333333333336
-350.0   60.0   16.666666666666668
-350.0   90.0   16.666666666666668
-400.0   90.0   16.666666666666668
-350.0   90.0   33.333333333333336
-400.0   60.0   33.333333333333336
-400.0   90.0   33.333333333333336
-350.0   90.0   33.333333333333336
-400.0   90.0   16.666666666666668
-400.0   60.0   33.333333333333336
-350.0   90.0   33.333333333333336
-350.0   60.0   33.333333333333336
-350.0   60.0   16.666666666666668
-400.0   60.0   33.333333333333336
-350.0   90.0   33.333333333333336
-350.0   60.0   16.666666666666668
-400.0   90.0   16.666666666666668
-400.0   60.0   33.333333333333336
-350.0   60.0   33.333333333333336
-400.0   90.0   33.333333333333336
-400.0   60.0   50.0
-350.0   60.0   33.333333333333336
-350.0   90.0   33.333333333333336
-400.0   90.0   33.333333333333336
-350.0   90.0   50.0
-400.0   60.0   50.0
-400.0   90.0   50.0
-350.0   90.0   50.0
-400.0   90.0   33.333333333333336
-400.0   60.0   50.0
-350.0   90.0   50.0
-350.0   60.0   50.0
-350.0   60.0   33.333333333333336
-400.0   60.0   50.0
-350.0   90.0   50.0
-350.0   60.0   33.333333333333336
-400.0   90.0   33.333333333333336
-400.0   90.0   0.0
-350.0   90.0   0.0
-400.0   120.0   0.0
-400.0   90.0   16.666666666666668
-350.0   90.0   0.0
-350.0   120.0   0.0
-400.0   120.0   0.0
-350.0   120.0   16.666666666666668
-400.0   90.0   16.666666666666668
-400.0   120.0   16.666666666666668
-350.0   120.0   16.666666666666668
-400.0   120.0   0.0
-400.0   90.0   16.666666666666668
-350.0   120.0   16.666666666666668
-350.0   90.0   16.666666666666668
-350.0   90.0   0.0
-400.0   90.0   16.666666666666668
-350.0   120.0   16.666666666666668
-350.0   90.0   0.0
-400.0   120.0   0.0
-400.0   90.0   16.666666666666668
-350.0   90.0   16.666666666666668
-400.0   120.0   16.666666666666668
-400.0   90.0   33.333333333333336
-350.0   90.0   16.666666666666668
-350.0   120.0   16.666666666666668
-400.0   120.0   16.666666666666668
-350.0   120.0   33.333333333333336
-400.0   90.0   33.333333333333336
-400.0   120.0   33.333333333333336
-350.0   120.0   33.333333333333336
-400.0   120.0   16.666666666666668
-400.0   90.0   33.333333333333336
-350.0   120.0   33.333333333333336
-350.0   90.0   33.333333333333336
-350.0   90.0   16.666666666666668
-400.0   90.0   33.333333333333336
-350.0   120.0   33.333333333333336
-350.0   90.0   16.666666666666668
-400.0   120.0   16.666666666666668
-400.0   90.0   33.333333333333336
-350.0   90.0   33.333333333333336
-400.0   120.0   33.333333333333336
-400.0   90.0   50.0
-350.0   90.0   33.333333333333336
-350.0   120.0   33.333333333333336
-400.0   120.0   33.333333333333336
-350.0   120.0   50.0
-400.0   90.0   50.0
-400.0   120.0   50.0
-350.0   120.0   50.0
-400.0   120.0   33.333333333333336
-400.0   90.0   50.0
-350.0   120.0   50.0
-350.0   90.0   50.0
-350.0   90.0   33.333333333333336
-400.0   90.0   50.0
-350.0   120.0   50.0
-350.0   90.0   33.333333333333336
-400.0   120.0   33.333333333333336
-400.0   120.0   0.0
-350.0   120.0   0.0
-400.0   150.0   0.0
-400.0   120.0   16.666666666666668
-350.0   120.0   0.0
-350.0   150.0   0.0
-400.0   150.0   0.0
-350.0   150.0   16.666666666666668
-400.0   120.0   16.666666666666668
-400.0   150.0   16.666666666666668
-350.0   150.0   16.666666666666668
-400.0   150.0   0.0
-400.0   120.0   16.666666666666668
-350.0   150.0   16.666666666666668
-350.0   120.0   16.666666666666668
-350.0   120.0   0.0
-400.0   120.0   16.666666666666668
-350.0   150.0   16.666666666666668
-350.0   120.0   0.0
-400.0   150.0   0.0
-400.0   120.0   16.666666666666668
-350.0   120.0   16.666666666666668
-400.0   150.0   16.666666666666668
-400.0   120.0   33.333333333333336
-350.0   120.0   16.666666666666668
-350.0   150.0   16.666666666666668
-400.0   150.0   16.666666666666668
-350.0   150.0   33.333333333333336
-400.0   120.0   33.333333333333336
-400.0   150.0   33.333333333333336
-350.0   150.0   33.333333333333336
-400.0   150.0   16.666666666666668
-400.0   120.0   33.333333333333336
-350.0   150.0   33.333333333333336
-350.0   120.0   33.333333333333336
-350.0   120.0   16.666666666666668
-400.0   120.0   33.333333333333336
-350.0   150.0   33.333333333333336
-350.0   120.0   16.666666666666668
-400.0   150.0   16.666666666666668
-400.0   120.0   33.333333333333336
-350.0   120.0   33.333333333333336
-400.0   150.0   33.333333333333336
-400.0   120.0   50.0
-350.0   120.0   33.333333333333336
-350.0   150.0   33.333333333333336
-400.0   150.0   33.333333333333336
-350.0   150.0   50.0
-400.0   120.0   50.0
-400.0   150.0   50.0
-350.0   150.0   50.0
-400.0   150.0   33.333333333333336
-400.0   120.0   50.0
-350.0   150.0   50.0
-350.0   120.0   50.0
-350.0   120.0   33.333333333333336
-400.0   120.0   50.0
-350.0   150.0   50.0
-350.0   120.0   33.333333333333336
-400.0   150.0   33.333333333333336
-350.0   0.0   0.0
-300.0   0.0   0.0
-350.0   30.0   0.0
-350.0   0.0   16.666666666666668
-300.0   0.0   0.0
-300.0   30.0   0.0
-350.0   30.0   0.0
-300.0   30.0   16.666666666666668
-350.0   0.0   16.666666666666668
-350.0   30.0   16.666666666666668
-300.0   30.0   16.666666666666668
-350.0   30.0   0.0
-350.0   0.0   16.666666666666668
-300.0   30.0   16.666666666666668
-300.0   0.0   16.666666666666668
-300.0   0.0   0.0
-350.0   0.0   16.666666666666668
-300.0   30.0   16.666666666666668
-300.0   0.0   0.0
-350.0   30.0   0.0
-350.0   0.0   16.666666666666668
-300.0   0.0   16.666666666666668
-350.0   30.0   16.666666666666668
-350.0   0.0   33.333333333333336
-300.0   0.0   16.666666666666668
-300.0   30.0   16.666666666666668
-350.0   30.0   16.666666666666668
-300.0   30.0   33.333333333333336
-350.0   0.0   33.333333333333336
-350.0   30.0   33.333333333333336
-300.0   30.0   33.333333333333336
-350.0   30.0   16.666666666666668
-350.0   0.0   33.333333333333336
-300.0   30.0   33.333333333333336
-300.0   0.0   33.333333333333336
-300.0   0.0   16.666666666666668
-350.0   0.0   33.333333333333336
-300.0   30.0   33.333333333333336
-300.0   0.0   16.666666666666668
-350.0   30.0   16.666666666666668
-350.0   0.0   33.333333333333336
-300.0   0.0   33.333333333333336
-350.0   30.0   33.333333333333336
-350.0   0.0   50.0
-300.0   0.0   33.333333333333336
-300.0   30.0   33.333333333333336
-350.0   30.0   33.333333333333336
-300.0   30.0   50.0
-350.0   0.0   50.0
-350.0   30.0   50.0
-300.0   30.0   50.0
-350.0   30.0   33.333333333333336
-350.0   0.0   50.0
-300.0   30.0   50.0
-300.0   0.0   50.0
-300.0   0.0   33.333333333333336
-350.0   0.0   50.0
-300.0   30.0   50.0
-300.0   0.0   33.333333333333336
-350.0   30.0   33.333333333333336
-350.0   30.0   0.0
-300.0   30.0   0.0
-350.0   60.0   0.0
-350.0   30.0   16.666666666666668
-300.0   30.0   0.0
-300.0   60.0   0.0
-350.0   60.0   0.0
-300.0   60.0   16.666666666666668
-350.0   30.0   16.666666666666668
-350.0   60.0   16.666666666666668
-300.0   60.0   16.666666666666668
-350.0   60.0   0.0
-350.0   30.0   16.666666666666668
-300.0   60.0   16.666666666666668
-300.0   30.0   16.666666666666668
-300.0   30.0   0.0
-350.0   30.0   16.666666666666668
-300.0   60.0   16.666666666666668
-300.0   30.0   0.0
-350.0   60.0   0.0
-350.0   30.0   16.666666666666668
-300.0   30.0   16.666666666666668
-350.0   60.0   16.666666666666668
-350.0   30.0   33.333333333333336
-300.0   30.0   16.666666666666668
-300.0   60.0   16.666666666666668
-350.0   60.0   16.666666666666668
-300.0   60.0   33.333333333333336
-350.0   30.0   33.333333333333336
-350.0   60.0   33.333333333333336
-300.0   60.0   33.333333333333336
-350.0   60.0   16.666666666666668
-350.0   30.0   33.333333333333336
-300.0   60.0   33.333333333333336
-300.0   30.0   33.333333333333336
-300.0   30.0   16.666666666666668
-350.0   30.0   33.333333333333336
-300.0   60.0   33.333333333333336
-300.0   30.0   16.666666666666668
-350.0   60.0   16.666666666666668
-350.0   30.0   33.333333333333336
-300.0   30.0   33.333333333333336
-350.0   60.0   33.333333333333336
-350.0   30.0   50.0
-300.0   30.0   33.333333333333336
-300.0   60.0   33.333333333333336
-350.0   60.0   33.333333333333336
-300.0   60.0   50.0
-350.0   30.0   50.0
-350.0   60.0   50.0
-300.0   60.0   50.0
-350.0   60.0   33.333333333333336
-350.0   30.0   50.0
-300.0   60.0   50.0
-300.0   30.0   50.0
-300.0   30.0   33.333333333333336
-350.0   30.0   50.0
-300.0   60.0   50.0
-300.0   30.0   33.333333333333336
-350.0   60.0   33.333333333333336
-350.0   60.0   0.0
-300.0   60.0   0.0
-350.0   90.0   0.0
-350.0   60.0   16.666666666666668
-300.0   60.0   0.0
-300.0   90.0   0.0
-350.0   90.0   0.0
-300.0   90.0   16.666666666666668
-350.0   60.0   16.666666666666668
-350.0   90.0   16.666666666666668
-300.0   90.0   16.666666666666668
-350.0   90.0   0.0
-350.0   60.0   16.666666666666668
-300.0   90.0   16.666666666666668
-300.0   60.0   16.666666666666668
-300.0   60.0   0.0
-350.0   60.0   16.666666666666668
-300.0   90.0   16.666666666666668
-300.0   60.0   0.0
-350.0   90.0   0.0
-350.0   60.0   16.666666666666668
-300.0   60.0   16.666666666666668
-350.0   90.0   16.666666666666668
-350.0   60.0   33.333333333333336
-300.0   60.0   16.666666666666668
-300.0   90.0   16.666666666666668
-350.0   90.0   16.666666666666668
-300.0   90.0   33.333333333333336
-350.0   60.0   33.333333333333336
-350.0   90.0   33.333333333333336
-300.0   90.0   33.333333333333336
-350.0   90.0   16.666666666666668
-350.0   60.0   33.333333333333336
-300.0   90.0   33.333333333333336
-300.0   60.0   33.333333333333336
-300.0   60.0   16.666666666666668
-350.0   60.0   33.333333333333336
-300.0   90.0   33.333333333333336
-300.0   60.0   16.666666666666668
-350.0   90.0   16.666666666666668
-350.0   60.0   33.333333333333336
-300.0   60.0   33.333333333333336
-350.0   90.0   33.333333333333336
-350.0   60.0   50.0
-300.0   60.0   33.333333333333336
-300.0   90.0   33.333333333333336
-350.0   90.0   33.333333333333336
-300.0   90.0   50.0
-350.0   60.0   50.0
-350.0   90.0   50.0
-300.0   90.0   50.0
-350.0   90.0   33.333333333333336
-350.0   60.0   50.0
-300.0   90.0   50.0
-300.0   60.0   50.0
-300.0   60.0   33.333333333333336
-350.0   60.0   50.0
-300.0   90.0   50.0
-300.0   60.0   33.333333333333336
-350.0   90.0   33.333333333333336
-350.0   90.0   0.0
-300.0   90.0   0.0
-350.0   120.0   0.0
-350.0   90.0   16.666666666666668
-300.0   90.0   0.0
-300.0   120.0   0.0
-350.0   120.0   0.0
-300.0   120.0   16.666666666666668
-350.0   90.0   16.666666666666668
-350.0   120.0   16.666666666666668
-300.0   120.0   16.666666666666668
-350.0   120.0   0.0
-350.0   90.0   16.666666666666668
-300.0   120.0   16.666666666666668
-300.0   90.0   16.666666666666668
-300.0   90.0   0.0
-350.0   90.0   16.666666666666668
-300.0   120.0   16.666666666666668
-300.0   90.0   0.0
-350.0   120.0   0.0
-350.0   90.0   16.666666666666668
-300.0   90.0   16.666666666666668
-350.0   120.0   16.666666666666668
-350.0   90.0   33.333333333333336
-300.0   90.0   16.666666666666668
-300.0   120.0   16.666666666666668
-350.0   120.0   16.666666666666668
-300.0   120.0   33.333333333333336
-350.0   90.0   33.333333333333336
-350.0   120.0   33.333333333333336
-300.0   120.0   33.333333333333336
-350.0   120.0   16.666666666666668
-350.0   90.0   33.333333333333336
-300.0   120.0   33.333333333333336
-300.0   90.0   33.333333333333336
-300.0   90.0   16.666666666666668
-350.0   90.0   33.333333333333336
-300.0   120.0   33.333333333333336
-300.0   90.0   16.666666666666668
-350.0   120.0   16.666666666666668
-350.0   90.0   33.333333333333336
-300.0   90.0   33.333333333333336
-350.0   120.0   33.333333333333336
-350.0   90.0   50.0
-300.0   90.0   33.333333333333336
-300.0   120.0   33.333333333333336
-350.0   120.0   33.333333333333336
-300.0   120.0   50.0
-350.0   90.0   50.0
-350.0   120.0   50.0
-300.0   120.0   50.0
-350.0   120.0   33.333333333333336
-350.0   90.0   50.0
-300.0   120.0   50.0
-300.0   90.0   50.0
-300.0   90.0   33.333333333333336
-350.0   90.0   50.0
-300.0   120.0   50.0
-300.0   90.0   33.333333333333336
-350.0   120.0   33.333333333333336
-350.0   120.0   0.0
-300.0   120.0   0.0
-350.0   150.0   0.0
-350.0   120.0   16.666666666666668
-300.0   120.0   0.0
-300.0   150.0   0.0
-350.0   150.0   0.0
-300.0   150.0   16.666666666666668
-350.0   120.0   16.666666666666668
-350.0   150.0   16.666666666666668
-300.0   150.0   16.666666666666668
-350.0   150.0   0.0
-350.0   120.0   16.666666666666668
-300.0   150.0   16.666666666666668
-300.0   120.0   16.666666666666668
-300.0   120.0   0.0
-350.0   120.0   16.666666666666668
-300.0   150.0   16.666666666666668
-300.0   120.0   0.0
-350.0   150.0   0.0
-350.0   120.0   16.666666666666668
-300.0   120.0   16.666666666666668
-350.0   150.0   16.666666666666668
-350.0   120.0   33.333333333333336
-300.0   120.0   16.666666666666668
-300.0   150.0   16.666666666666668
-350.0   150.0   16.666666666666668
-300.0   150.0   33.333333333333336
-350.0   120.0   33.333333333333336
-350.0   150.0   33.333333333333336
-300.0   150.0   33.333333333333336
-350.0   150.0   16.666666666666668
-350.0   120.0   33.333333333333336
-300.0   150.0   33.333333333333336
-300.0   120.0   33.333333333333336
-300.0   120.0   16.666666666666668
-350.0   120.0   33.333333333333336
-300.0   150.0   33.333333333333336
-300.0   120.0   16.666666666666668
-350.0   150.0   16.666666666666668
-350.0   120.0   33.333333333333336
-300.0   120.0   33.333333333333336
-350.0   150.0   33.333333333333336
-350.0   120.0   50.0
-300.0   120.0   33.333333333333336
-300.0   150.0   33.333333333333336
-350.0   150.0   33.333333333333336
-300.0   150.0   50.0
-350.0   120.0   50.0
-350.0   150.0   50.0
-300.0   150.0   50.0
-350.0   150.0   33.333333333333336
-350.0   120.0   50.0
-300.0   150.0   50.0
-300.0   120.0   50.0
-300.0   120.0   33.333333333333336
-350.0   120.0   50.0
-300.0   150.0   50.0
-300.0   120.0   33.333333333333336
-350.0   150.0   33.333333333333336
-300.0   0.0   0.0
-250.0   0.0   0.0
-300.0   30.0   0.0
-300.0   0.0   16.666666666666668
-250.0   0.0   0.0
-250.0   30.0   0.0
-300.0   30.0   0.0
-250.0   30.0   16.666666666666668
-300.0   0.0   16.666666666666668
-300.0   30.0   16.666666666666668
-250.0   30.0   16.666666666666668
-300.0   30.0   0.0
-300.0   0.0   16.666666666666668
-250.0   30.0   16.666666666666668
-250.0   0.0   16.666666666666668
-250.0   0.0   0.0
-300.0   0.0   16.666666666666668
-250.0   30.0   16.666666666666668
-250.0   0.0   0.0
-300.0   30.0   0.0
-300.0   0.0   16.666666666666668
-250.0   0.0   16.666666666666668
-300.0   30.0   16.666666666666668
-300.0   0.0   33.333333333333336
-250.0   0.0   16.666666666666668
-250.0   30.0   16.666666666666668
-300.0   30.0   16.666666666666668
-250.0   30.0   33.333333333333336
-300.0   0.0   33.333333333333336
-300.0   30.0   33.333333333333336
-250.0   30.0   33.333333333333336
-300.0   30.0   16.666666666666668
-300.0   0.0   33.333333333333336
-250.0   30.0   33.333333333333336
-250.0   0.0   33.333333333333336
-250.0   0.0   16.666666666666668
-300.0   0.0   33.333333333333336
-250.0   30.0   33.333333333333336
-250.0   0.0   16.666666666666668
-300.0   30.0   16.666666666666668
-300.0   0.0   33.333333333333336
-250.0   0.0   33.333333333333336
-300.0   30.0   33.333333333333336
-300.0   0.0   50.0
-250.0   0.0   33.333333333333336
-250.0   30.0   33.333333333333336
-300.0   30.0   33.333333333333336
-250.0   30.0   50.0
-300.0   0.0   50.0
-300.0   30.0   50.0
-250.0   30.0   50.0
-300.0   30.0   33.333333333333336
-300.0   0.0   50.0
-250.0   30.0   50.0
-250.0   0.0   50.0
-250.0   0.0   33.333333333333336
-300.0   0.0   50.0
-250.0   30.0   50.0
-250.0   0.0   33.333333333333336
-300.0   30.0   33.333333333333336
-300.0   30.0   0.0
-250.0   30.0   0.0
-300.0   60.0   0.0
-300.0   30.0   16.666666666666668
-250.0   30.0   0.0
-250.0   60.0   0.0
-300.0   60.0   0.0
-250.0   60.0   16.666666666666668
-300.0   30.0   16.666666666666668
-300.0   60.0   16.666666666666668
-250.0   60.0   16.666666666666668
-300.0   60.0   0.0
-300.0   30.0   16.666666666666668
-250.0   60.0   16.666666666666668
-250.0   30.0   16.666666666666668
-250.0   30.0   0.0
-300.0   30.0   16.666666666666668
-250.0   60.0   16.666666666666668
-250.0   30.0   0.0
-300.0   60.0   0.0
-300.0   30.0   16.666666666666668
-250.0   30.0   16.666666666666668
-300.0   60.0   16.666666666666668
-300.0   30.0   33.333333333333336
-250.0   30.0   16.666666666666668
-250.0   60.0   16.666666666666668
-300.0   60.0   16.666666666666668
-250.0   60.0   33.333333333333336
-300.0   30.0   33.333333333333336
-300.0   60.0   33.333333333333336
-250.0   60.0   33.333333333333336
-300.0   60.0   16.666666666666668
-300.0   30.0   33.333333333333336
-250.0   60.0   33.333333333333336
-250.0   30.0   33.333333333333336
-250.0   30.0   16.666666666666668
-300.0   30.0   33.333333333333336
-250.0   60.0   33.333333333333336
-250.0   30.0   16.666666666666668
-300.0   60.0   16.666666666666668
-300.0   30.0   33.333333333333336
-250.0   30.0   33.333333333333336
-300.0   60.0   33.333333333333336
-300.0   30.0   50.0
-250.0   30.0   33.333333333333336
-250.0   60.0   33.333333333333336
-300.0   60.0   33.333333333333336
-250.0   60.0   50.0
-300.0   30.0   50.0
-300.0   60.0   50.0
-250.0   60.0   50.0
-300.0   60.0   33.333333333333336
-300.0   30.0   50.0
-250.0   60.0   50.0
-250.0   30.0   50.0
-250.0   30.0   33.333333333333336
-300.0   30.0   50.0
-250.0   60.0   50.0
-250.0   30.0   33.333333333333336
-300.0   60.0   33.333333333333336
-300.0   60.0   0.0
-250.0   60.0   0.0
-300.0   90.0   0.0
-300.0   60.0   16.666666666666668
-250.0   60.0   0.0
-250.0   90.0   0.0
-300.0   90.0   0.0
-250.0   90.0   16.666666666666668
-300.0   60.0   16.666666666666668
-300.0   90.0   16.666666666666668
-250.0   90.0   16.666666666666668
-300.0   90.0   0.0
-300.0   60.0   16.666666666666668
-250.0   90.0   16.666666666666668
-250.0   60.0   16.666666666666668
-250.0   60.0   0.0
-300.0   60.0   16.666666666666668
-250.0   90.0   16.666666666666668
-250.0   60.0   0.0
-300.0   90.0   0.0
-300.0   60.0   16.666666666666668
-250.0   60.0   16.666666666666668
-300.0   90.0   16.666666666666668
-300.0   60.0   33.333333333333336
-250.0   60.0   16.666666666666668
-250.0   90.0   16.666666666666668
-300.0   90.0   16.666666666666668
-250.0   90.0   33.333333333333336
-300.0   60.0   33.333333333333336
-300.0   90.0   33.333333333333336
-250.0   90.0   33.333333333333336
-300.0   90.0   16.666666666666668
-300.0   60.0   33.333333333333336
-250.0   90.0   33.333333333333336
-250.0   60.0   33.333333333333336
-250.0   60.0   16.666666666666668
-300.0   60.0   33.333333333333336
-250.0   90.0   33.333333333333336
-250.0   60.0   16.666666666666668
-300.0   90.0   16.666666666666668
-300.0   60.0   33.333333333333336
-250.0   60.0   33.333333333333336
-300.0   90.0   33.333333333333336
-300.0   60.0   50.0
-250.0   60.0   33.333333333333336
-250.0   90.0   33.333333333333336
-300.0   90.0   33.333333333333336
-250.0   90.0   50.0
-300.0   60.0   50.0
-300.0   90.0   50.0
-250.0   90.0   50.0
-300.0   90.0   33.333333333333336
-300.0   60.0   50.0
-250.0   90.0   50.0
-250.0   60.0   50.0
-250.0   60.0   33.333333333333336
-300.0   60.0   50.0
-250.0   90.0   50.0
-250.0   60.0   33.333333333333336
-300.0   90.0   33.333333333333336
-300.0   90.0   0.0
-250.0   90.0   0.0
-300.0   120.0   0.0
-300.0   90.0   16.666666666666668
-250.0   90.0   0.0
-250.0   120.0   0.0
-300.0   120.0   0.0
-250.0   120.0   16.666666666666668
-300.0   90.0   16.666666666666668
-300.0   120.0   16.666666666666668
-250.0   120.0   16.666666666666668
-300.0   120.0   0.0
-300.0   90.0   16.666666666666668
-250.0   120.0   16.666666666666668
-250.0   90.0   16.666666666666668
-250.0   90.0   0.0
-300.0   90.0   16.666666666666668
-250.0   120.0   16.666666666666668
-250.0   90.0   0.0
-300.0   120.0   0.0
-300.0   90.0   16.666666666666668
-250.0   90.0   16.666666666666668
-300.0   120.0   16.666666666666668
-300.0   90.0   33.333333333333336
-250.0   90.0   16.666666666666668
-250.0   120.0   16.666666666666668
-300.0   120.0   16.666666666666668
-250.0   120.0   33.333333333333336
-300.0   90.0   33.333333333333336
-300.0   120.0   33.333333333333336
-250.0   120.0   33.333333333333336
-300.0   120.0   16.666666666666668
-300.0   90.0   33.333333333333336
-250.0   120.0   33.333333333333336
-250.0   90.0   33.333333333333336
-250.0   90.0   16.666666666666668
-300.0   90.0   33.333333333333336
-250.0   120.0   33.333333333333336
-250.0   90.0   16.666666666666668
-300.0   120.0   16.666666666666668
-300.0   90.0   33.333333333333336
-250.0   90.0   33.333333333333336
-300.0   120.0   33.333333333333336
-300.0   90.0   50.0
-250.0   90.0   33.333333333333336
-250.0   120.0   33.333333333333336
-300.0   120.0   33.333333333333336
-250.0   120.0   50.0
-300.0   90.0   50.0
-300.0   120.0   50.0
-250.0   120.0   50.0
-300.0   120.0   33.333333333333336
-300.0   90.0   50.0
-250.0   120.0   50.0
-250.0   90.0   50.0
-250.0   90.0   33.333333333333336
-300.0   90.0   50.0
-250.0   120.0   50.0
-250.0   90.0   33.333333333333336
-300.0   120.0   33.333333333333336
-300.0   120.0   0.0
-250.0   120.0   0.0
-300.0   150.0   0.0
-300.0   120.0   16.666666666666668
-250.0   120.0   0.0
-250.0   150.0   0.0
-300.0   150.0   0.0
-250.0   150.0   16.666666666666668
-300.0   120.0   16.666666666666668
-300.0   150.0   16.666666666666668
-250.0   150.0   16.666666666666668
-300.0   150.0   0.0
-300.0   120.0   16.666666666666668
-250.0   150.0   16.666666666666668
-250.0   120.0   16.666666666666668
-250.0   120.0   0.0
-300.0   120.0   16.666666666666668
-250.0   150.0   16.666666666666668
-250.0   120.0   0.0
-300.0   150.0   0.0
-300.0   120.0   16.666666666666668
-250.0   120.0   16.666666666666668
-300.0   150.0   16.666666666666668
-300.0   120.0   33.333333333333336
-250.0   120.0   16.666666666666668
-250.0   150.0   16.666666666666668
-300.0   150.0   16.666666666666668
-250.0   150.0   33.333333333333336
-300.0   120.0   33.333333333333336
-300.0   150.0   33.333333333333336
-250.0   150.0   33.333333333333336
-300.0   150.0   16.666666666666668
-300.0   120.0   33.333333333333336
-250.0   150.0   33.333333333333336
-250.0   120.0   33.333333333333336
-250.0   120.0   16.666666666666668
-300.0   120.0   33.333333333333336
-250.0   150.0   33.333333333333336
-250.0   120.0   16.666666666666668
-300.0   150.0   16.666666666666668
-300.0   120.0   33.333333333333336
-250.0   120.0   33.333333333333336
-300.0   150.0   33.333333333333336
-300.0   120.0   50.0
-250.0   120.0   33.333333333333336
-250.0   150.0   33.333333333333336
-300.0   150.0   33.333333333333336
-250.0   150.0   50.0
-300.0   120.0   50.0
-300.0   150.0   50.0
-250.0   150.0   50.0
-300.0   150.0   33.333333333333336
-300.0   120.0   50.0
-250.0   150.0   50.0
-250.0   120.0   50.0
-250.0   120.0   33.333333333333336
-300.0   120.0   50.0
-250.0   150.0   50.0
-250.0   120.0   33.333333333333336
-300.0   150.0   33.333333333333336
-250.0   0.0   0.0
-200.0   0.0   0.0
-250.0   30.0   0.0
-250.0   0.0   16.666666666666668
-200.0   0.0   0.0
-200.0   30.0   0.0
-250.0   30.0   0.0
-200.0   30.0   16.666666666666668
-250.0   0.0   16.666666666666668
-250.0   30.0   16.666666666666668
-200.0   30.0   16.666666666666668
-250.0   30.0   0.0
-250.0   0.0   16.666666666666668
-200.0   30.0   16.666666666666668
-200.0   0.0   16.666666666666668
-200.0   0.0   0.0
-250.0   0.0   16.666666666666668
-200.0   30.0   16.666666666666668
-200.0   0.0   0.0
-250.0   30.0   0.0
-250.0   0.0   16.666666666666668
-200.0   0.0   16.666666666666668
-250.0   30.0   16.666666666666668
-250.0   0.0   33.333333333333336
-200.0   0.0   16.666666666666668
-200.0   30.0   16.666666666666668
-250.0   30.0   16.666666666666668
-200.0   30.0   33.333333333333336
-250.0   0.0   33.333333333333336
-250.0   30.0   33.333333333333336
-200.0   30.0   33.333333333333336
-250.0   30.0   16.666666666666668
-250.0   0.0   33.333333333333336
-200.0   30.0   33.333333333333336
-200.0   0.0   33.333333333333336
-200.0   0.0   16.666666666666668
-250.0   0.0   33.333333333333336
-200.0   30.0   33.333333333333336
-200.0   0.0   16.666666666666668
-250.0   30.0   16.666666666666668
-250.0   0.0   33.333333333333336
-200.0   0.0   33.333333333333336
-250.0   30.0   33.333333333333336
-250.0   0.0   50.0
-200.0   0.0   33.333333333333336
-200.0   30.0   33.333333333333336
-250.0   30.0   33.333333333333336
-200.0   30.0   50.0
-250.0   0.0   50.0
-250.0   30.0   50.0
-200.0   30.0   50.0
-250.0   30.0   33.333333333333336
-250.0   0.0   50.0
-200.0   30.0   50.0
-200.0   0.0   50.0
-200.0   0.0   33.333333333333336
-250.0   0.0   50.0
-200.0   30.0   50.0
-200.0   0.0   33.333333333333336
-250.0   30.0   33.333333333333336
-250.0   30.0   0.0
-200.0   30.0   0.0
-250.0   60.0   0.0
-250.0   30.0   16.666666666666668
-200.0   30.0   0.0
-200.0   60.0   0.0
-250.0   60.0   0.0
-200.0   60.0   16.666666666666668
-250.0   30.0   16.666666666666668
-250.0   60.0   16.666666666666668
-200.0   60.0   16.666666666666668
-250.0   60.0   0.0
-250.0   30.0   16.666666666666668
-200.0   60.0   16.666666666666668
-200.0   30.0   16.666666666666668
-200.0   30.0   0.0
-250.0   30.0   16.666666666666668
-200.0   60.0   16.666666666666668
-200.0   30.0   0.0
-250.0   60.0   0.0
-250.0   30.0   16.666666666666668
-200.0   30.0   16.666666666666668
-250.0   60.0   16.666666666666668
-250.0   30.0   33.333333333333336
-200.0   30.0   16.666666666666668
-200.0   60.0   16.666666666666668
-250.0   60.0   16.666666666666668
-200.0   60.0   33.333333333333336
-250.0   30.0   33.333333333333336
-250.0   60.0   33.333333333333336
-200.0   60.0   33.333333333333336
-250.0   60.0   16.666666666666668
-250.0   30.0   33.333333333333336
-200.0   60.0   33.333333333333336
-200.0   30.0   33.333333333333336
-200.0   30.0   16.666666666666668
-250.0   30.0   33.333333333333336
-200.0   60.0   33.333333333333336
-200.0   30.0   16.666666666666668
-250.0   60.0   16.666666666666668
-250.0   30.0   33.333333333333336
-200.0   30.0   33.333333333333336
-250.0   60.0   33.333333333333336
-250.0   30.0   50.0
-200.0   30.0   33.333333333333336
-200.0   60.0   33.333333333333336
-250.0   60.0   33.333333333333336
-200.0   60.0   50.0
-250.0   30.0   50.0
-250.0   60.0   50.0
-200.0   60.0   50.0
-250.0   60.0   33.333333333333336
-250.0   30.0   50.0
-200.0   60.0   50.0
-200.0   30.0   50.0
-200.0   30.0   33.333333333333336
-250.0   30.0   50.0
-200.0   60.0   50.0
-200.0   30.0   33.333333333333336
-250.0   60.0   33.333333333333336
-250.0   60.0   0.0
-200.0   60.0   0.0
-250.0   90.0   0.0
-250.0   60.0   16.666666666666668
-200.0   60.0   0.0
-200.0   90.0   0.0
-250.0   90.0   0.0
-200.0   90.0   16.666666666666668
-250.0   60.0   16.666666666666668
-250.0   90.0   16.666666666666668
-200.0   90.0   16.666666666666668
-250.0   90.0   0.0
-250.0   60.0   16.666666666666668
-200.0   90.0   16.666666666666668
-200.0   60.0   16.666666666666668
-200.0   60.0   0.0
-250.0   60.0   16.666666666666668
-200.0   90.0   16.666666666666668
-200.0   60.0   0.0
-250.0   90.0   0.0
-250.0   60.0   16.666666666666668
-200.0   60.0   16.666666666666668
-250.0   90.0   16.666666666666668
-250.0   60.0   33.333333333333336
-200.0   60.0   16.666666666666668
-200.0   90.0   16.666666666666668
-250.0   90.0   16.666666666666668
-200.0   90.0   33.333333333333336
-250.0   60.0   33.333333333333336
-250.0   90.0   33.333333333333336
-200.0   90.0   33.333333333333336
-250.0   90.0   16.666666666666668
-250.0   60.0   33.333333333333336
-200.0   90.0   33.333333333333336
-200.0   60.0   33.333333333333336
-200.0   60.0   16.666666666666668
-250.0   60.0   33.333333333333336
-200.0   90.0   33.333333333333336
-200.0   60.0   16.666666666666668
-250.0   90.0   16.666666666666668
-250.0   60.0   33.333333333333336
-200.0   60.0   33.333333333333336
-250.0   90.0   33.333333333333336
-250.0   60.0   50.0
-200.0   60.0   33.333333333333336
-200.0   90.0   33.333333333333336
-250.0   90.0   33.333333333333336
-200.0   90.0   50.0
-250.0   60.0   50.0
-250.0   90.0   50.0
-200.0   90.0   50.0
-250.0   90.0   33.333333333333336
-250.0   60.0   50.0
-200.0   90.0   50.0
-200.0   60.0   50.0
-200.0   60.0   33.333333333333336
-250.0   60.0   50.0
-200.0   90.0   50.0
-200.0   60.0   33.333333333333336
-250.0   90.0   33.333333333333336
-250.0   90.0   0.0
-200.0   90.0   0.0
-250.0   120.0   0.0
-250.0   90.0   16.666666666666668
-200.0   90.0   0.0
-200.0   120.0   0.0
-250.0   120.0   0.0
-200.0   120.0   16.666666666666668
-250.0   90.0   16.666666666666668
-250.0   120.0   16.666666666666668
-200.0   120.0   16.666666666666668
-250.0   120.0   0.0
-250.0   90.0   16.666666666666668
-200.0   120.0   16.666666666666668
-200.0   90.0   16.666666666666668
-200.0   90.0   0.0
-250.0   90.0   16.666666666666668
-200.0   120.0   16.666666666666668
-200.0   90.0   0.0
-250.0   120.0   0.0
-250.0   90.0   16.666666666666668
-200.0   90.0   16.666666666666668
-250.0   120.0   16.666666666666668
-250.0   90.0   33.333333333333336
-200.0   90.0   16.666666666666668
-200.0   120.0   16.666666666666668
-250.0   120.0   16.666666666666668
-200.0   120.0   33.333333333333336
-250.0   90.0   33.333333333333336
-250.0   120.0   33.333333333333336
-200.0   120.0   33.333333333333336
-250.0   120.0   16.666666666666668
-250.0   90.0   33.333333333333336
-200.0   120.0   33.333333333333336
-200.0   90.0   33.333333333333336
-200.0   90.0   16.666666666666668
-250.0   90.0   33.333333333333336
-200.0   120.0   33.333333333333336
-200.0   90.0   16.666666666666668
-250.0   120.0   16.666666666666668
-250.0   90.0   33.333333333333336
-200.0   90.0   33.333333333333336
-250.0   120.0   33.333333333333336
-250.0   90.0   50.0
-200.0   90.0   33.333333333333336
-200.0   120.0   33.333333333333336
-250.0   120.0   33.333333333333336
-200.0   120.0   50.0
-250.0   90.0   50.0
-250.0   120.0   50.0
-200.0   120.0   50.0
-250.0   120.0   33.333333333333336
-250.0   90.0   50.0
-200.0   120.0   50.0
-200.0   90.0   50.0
-200.0   90.0   33.333333333333336
-250.0   90.0   50.0
-200.0   120.0   50.0
-200.0   90.0   33.333333333333336
-250.0   120.0   33.333333333333336
-250.0   120.0   0.0
-200.0   120.0   0.0
-250.0   150.0   0.0
-250.0   120.0   16.666666666666668
-200.0   120.0   0.0
-200.0   150.0   0.0
-250.0   150.0   0.0
-200.0   150.0   16.666666666666668
-250.0   120.0   16.666666666666668
-250.0   150.0   16.666666666666668
-200.0   150.0   16.666666666666668
-250.0   150.0   0.0
-250.0   120.0   16.666666666666668
-200.0   150.0   16.666666666666668
-200.0   120.0   16.666666666666668
-200.0   120.0   0.0
-250.0   120.0   16.666666666666668
-200.0   150.0   16.666666666666668
-200.0   120.0   0.0
-250.0   150.0   0.0
-250.0   120.0   16.666666666666668
-200.0   120.0   16.666666666666668
-250.0   150.0   16.666666666666668
-250.0   120.0   33.333333333333336
-200.0   120.0   16.666666666666668
-200.0   150.0   16.666666666666668
-250.0   150.0   16.666666666666668
-200.0   150.0   33.333333333333336
-250.0   120.0   33.333333333333336
-250.0   150.0   33.333333333333336
-200.0   150.0   33.333333333333336
-250.0   150.0   16.666666666666668
-250.0   120.0   33.333333333333336
-200.0   150.0   33.333333333333336
-200.0   120.0   33.333333333333336
-200.0   120.0   16.666666666666668
-250.0   120.0   33.333333333333336
-200.0   150.0   33.333333333333336
-200.0   120.0   16.666666666666668
-250.0   150.0   16.666666666666668
-250.0   120.0   33.333333333333336
-200.0   120.0   33.333333333333336
-250.0   150.0   33.333333333333336
-250.0   120.0   50.0
-200.0   120.0   33.333333333333336
-200.0   150.0   33.333333333333336
-250.0   150.0   33.333333333333336
-200.0   150.0   50.0
-250.0   120.0   50.0
-250.0   150.0   50.0
-200.0   150.0   50.0
-250.0   150.0   33.333333333333336
-250.0   120.0   50.0
-200.0   150.0   50.0
-200.0   120.0   50.0
-200.0   120.0   33.333333333333336
-250.0   120.0   50.0
-200.0   150.0   50.0
-200.0   120.0   33.333333333333336
-250.0   150.0   33.333333333333336
-200.0   0.0   0.0
-150.0   0.0   0.0
-200.0   30.0   0.0
-200.0   0.0   16.666666666666668
-150.0   0.0   0.0
-150.0   30.0   0.0
-200.0   30.0   0.0
-150.0   30.0   16.666666666666668
-200.0   0.0   16.666666666666668
-200.0   30.0   16.666666666666668
-150.0   30.0   16.666666666666668
-200.0   30.0   0.0
-200.0   0.0   16.666666666666668
-150.0   30.0   16.666666666666668
-150.0   0.0   16.666666666666668
-150.0   0.0   0.0
-200.0   0.0   16.666666666666668
-150.0   30.0   16.666666666666668
-150.0   0.0   0.0
-200.0   30.0   0.0
-200.0   0.0   16.666666666666668
-150.0   0.0   16.666666666666668
-200.0   30.0   16.666666666666668
-200.0   0.0   33.333333333333336
-150.0   0.0   16.666666666666668
-150.0   30.0   16.666666666666668
-200.0   30.0   16.666666666666668
-150.0   30.0   33.333333333333336
-200.0   0.0   33.333333333333336
-200.0   30.0   33.333333333333336
-150.0   30.0   33.333333333333336
-200.0   30.0   16.666666666666668
-200.0   0.0   33.333333333333336
-150.0   30.0   33.333333333333336
-150.0   0.0   33.333333333333336
-150.0   0.0   16.666666666666668
-200.0   0.0   33.333333333333336
-150.0   30.0   33.333333333333336
-150.0   0.0   16.666666666666668
-200.0   30.0   16.666666666666668
-200.0   0.0   33.333333333333336
-150.0   0.0   33.333333333333336
-200.0   30.0   33.333333333333336
-200.0   0.0   50.0
-150.0   0.0   33.333333333333336
-150.0   30.0   33.333333333333336
-200.0   30.0   33.333333333333336
-150.0   30.0   50.0
-200.0   0.0   50.0
-200.0   30.0   50.0
-150.0   30.0   50.0
-200.0   30.0   33.333333333333336
-200.0   0.0   50.0
-150.0   30.0   50.0
-150.0   0.0   50.0
-150.0   0.0   33.333333333333336
-200.0   0.0   50.0
-150.0   30.0   50.0
-150.0   0.0   33.333333333333336
-200.0   30.0   33.333333333333336
-200.0   30.0   0.0
-150.0   30.0   0.0
-200.0   60.0   0.0
-200.0   30.0   16.666666666666668
-150.0   30.0   0.0
-150.0   60.0   0.0
-200.0   60.0   0.0
-150.0   60.0   16.666666666666668
-200.0   30.0   16.666666666666668
-200.0   60.0   16.666666666666668
-150.0   60.0   16.666666666666668
-200.0   60.0   0.0
-200.0   30.0   16.666666666666668
-150.0   60.0   16.666666666666668
-150.0   30.0   16.666666666666668
-150.0   30.0   0.0
-200.0   30.0   16.666666666666668
-150.0   60.0   16.666666666666668
-150.0   30.0   0.0
-200.0   60.0   0.0
-200.0   30.0   16.666666666666668
-150.0   30.0   16.666666666666668
-200.0   60.0   16.666666666666668
-200.0   30.0   33.333333333333336
-150.0   30.0   16.666666666666668
-150.0   60.0   16.666666666666668
-200.0   60.0   16.666666666666668
-150.0   60.0   33.333333333333336
-200.0   30.0   33.333333333333336
-200.0   60.0   33.333333333333336
-150.0   60.0   33.333333333333336
-200.0   60.0   16.666666666666668
-200.0   30.0   33.333333333333336
-150.0   60.0   33.333333333333336
-150.0   30.0   33.333333333333336
-150.0   30.0   16.666666666666668
-200.0   30.0   33.333333333333336
-150.0   60.0   33.333333333333336
-150.0   30.0   16.666666666666668
-200.0   60.0   16.666666666666668
-200.0   30.0   33.333333333333336
-150.0   30.0   33.333333333333336
-200.0   60.0   33.333333333333336
-200.0   30.0   50.0
-150.0   30.0   33.333333333333336
-150.0   60.0   33.333333333333336
-200.0   60.0   33.333333333333336
-150.0   60.0   50.0
-200.0   30.0   50.0
-200.0   60.0   50.0
-150.0   60.0   50.0
-200.0   60.0   33.333333333333336
-200.0   30.0   50.0
-150.0   60.0   50.0
-150.0   30.0   50.0
-150.0   30.0   33.333333333333336
-200.0   30.0   50.0
-150.0   60.0   50.0
-150.0   30.0   33.333333333333336
-200.0   60.0   33.333333333333336
-200.0   60.0   0.0
-150.0   60.0   0.0
-200.0   90.0   0.0
-200.0   60.0   16.666666666666668
-150.0   60.0   0.0
-150.0   90.0   0.0
-200.0   90.0   0.0
-150.0   90.0   16.666666666666668
-200.0   60.0   16.666666666666668
-200.0   90.0   16.666666666666668
-150.0   90.0   16.666666666666668
-200.0   90.0   0.0
-200.0   60.0   16.666666666666668
-150.0   90.0   16.666666666666668
-150.0   60.0   16.666666666666668
-150.0   60.0   0.0
-200.0   60.0   16.666666666666668
-150.0   90.0   16.666666666666668
-150.0   60.0   0.0
-200.0   90.0   0.0
-200.0   60.0   16.666666666666668
-150.0   60.0   16.666666666666668
-200.0   90.0   16.666666666666668
-200.0   60.0   33.333333333333336
-150.0   60.0   16.666666666666668
-150.0   90.0   16.666666666666668
-200.0   90.0   16.666666666666668
-150.0   90.0   33.333333333333336
-200.0   60.0   33.333333333333336
-200.0   90.0   33.333333333333336
-150.0   90.0   33.333333333333336
-200.0   90.0   16.666666666666668
-200.0   60.0   33.333333333333336
-150.0   90.0   33.333333333333336
-150.0   60.0   33.333333333333336
-150.0   60.0   16.666666666666668
-200.0   60.0   33.333333333333336
-150.0   90.0   33.333333333333336
-150.0   60.0   16.666666666666668
-200.0   90.0   16.666666666666668
-200.0   60.0   33.333333333333336
-150.0   60.0   33.333333333333336
-200.0   90.0   33.333333333333336
-200.0   60.0   50.0
-150.0   60.0   33.333333333333336
-150.0   90.0   33.333333333333336
-200.0   90.0   33.333333333333336
-150.0   90.0   50.0
-200.0   60.0   50.0
-200.0   90.0   50.0
-150.0   90.0   50.0
-200.0   90.0   33.333333333333336
-200.0   60.0   50.0
-150.0   90.0   50.0
-150.0   60.0   50.0
-150.0   60.0   33.333333333333336
-200.0   60.0   50.0
-150.0   90.0   50.0
-150.0   60.0   33.333333333333336
-200.0   90.0   33.333333333333336
-200.0   90.0   0.0
-150.0   90.0   0.0
-200.0   120.0   0.0
-200.0   90.0   16.666666666666668
-150.0   90.0   0.0
-150.0   120.0   0.0
-200.0   120.0   0.0
-150.0   120.0   16.666666666666668
-200.0   90.0   16.666666666666668
-200.0   120.0   16.666666666666668
-150.0   120.0   16.666666666666668
-200.0   120.0   0.0
-200.0   90.0   16.666666666666668
-150.0   120.0   16.666666666666668
-150.0   90.0   16.666666666666668
-150.0   90.0   0.0
-200.0   90.0   16.666666666666668
-150.0   120.0   16.666666666666668
-150.0   90.0   0.0
-200.0   120.0   0.0
-200.0   90.0   16.666666666666668
-150.0   90.0   16.666666666666668
-200.0   120.0   16.666666666666668
-200.0   90.0   33.333333333333336
-150.0   90.0   16.666666666666668
-150.0   120.0   16.666666666666668
-200.0   120.0   16.666666666666668
-150.0   120.0   33.333333333333336
-200.0   90.0   33.333333333333336
-200.0   120.0   33.333333333333336
-150.0   120.0   33.333333333333336
-200.0   120.0   16.666666666666668
-200.0   90.0   33.333333333333336
-150.0   120.0   33.333333333333336
-150.0   90.0   33.333333333333336
-150.0   90.0   16.666666666666668
-200.0   90.0   33.333333333333336
-150.0   120.0   33.333333333333336
-150.0   90.0   16.666666666666668
-200.0   120.0   16.666666666666668
-200.0   90.0   33.333333333333336
-150.0   90.0   33.333333333333336
-200.0   120.0   33.333333333333336
-200.0   90.0   50.0
-150.0   90.0   33.333333333333336
-150.0   120.0   33.333333333333336
-200.0   120.0   33.333333333333336
-150.0   120.0   50.0
-200.0   90.0   50.0
-200.0   120.0   50.0
-150.0   120.0   50.0
-200.0   120.0   33.333333333333336
-200.0   90.0   50.0
-150.0   120.0   50.0
-150.0   90.0   50.0
-150.0   90.0   33.333333333333336
-200.0   90.0   50.0
-150.0   120.0   50.0
-150.0   90.0   33.333333333333336
-200.0   120.0   33.333333333333336
-200.0   120.0   0.0
-150.0   120.0   0.0
-200.0   150.0   0.0
-200.0   120.0   16.666666666666668
-150.0   120.0   0.0
-150.0   150.0   0.0
-200.0   150.0   0.0
-150.0   150.0   16.666666666666668
-200.0   120.0   16.666666666666668
-200.0   150.0   16.666666666666668
-150.0   150.0   16.666666666666668
-200.0   150.0   0.0
-200.0   120.0   16.666666666666668
-150.0   150.0   16.666666666666668
-150.0   120.0   16.666666666666668
-150.0   120.0   0.0
-200.0   120.0   16.666666666666668
-150.0   150.0   16.666666666666668
-150.0   120.0   0.0
-200.0   150.0   0.0
-200.0   120.0   16.666666666666668
-150.0   120.0   16.666666666666668
-200.0   150.0   16.666666666666668
-200.0   120.0   33.333333333333336
-150.0   120.0   16.666666666666668
-150.0   150.0   16.666666666666668
-200.0   150.0   16.666666666666668
-150.0   150.0   33.333333333333336
-200.0   120.0   33.333333333333336
-200.0   150.0   33.333333333333336
-150.0   150.0   33.333333333333336
-200.0   150.0   16.666666666666668
-200.0   120.0   33.333333333333336
-150.0   150.0   33.333333333333336
-150.0   120.0   33.333333333333336
-150.0   120.0   16.666666666666668
-200.0   120.0   33.333333333333336
-150.0   150.0   33.333333333333336
-150.0   120.0   16.666666666666668
-200.0   150.0   16.666666666666668
-200.0   120.0   33.333333333333336
-150.0   120.0   33.333333333333336
-200.0   150.0   33.333333333333336
-200.0   120.0   50.0
-150.0   120.0   33.333333333333336
-150.0   150.0   33.333333333333336
-200.0   150.0   33.333333333333336
-150.0   150.0   50.0
-200.0   120.0   50.0
-200.0   150.0   50.0
-150.0   150.0   50.0
-200.0   150.0   33.333333333333336
-200.0   120.0   50.0
-150.0   150.0   50.0
-150.0   120.0   50.0
-150.0   120.0   33.333333333333336
-200.0   120.0   50.0
-150.0   150.0   50.0
-150.0   120.0   33.333333333333336
-200.0   150.0   33.333333333333336
-150.0   0.0   0.0
-100.0   0.0   0.0
-150.0   30.0   0.0
-150.0   0.0   16.666666666666668
-100.0   0.0   0.0
-100.0   30.0   0.0
-150.0   30.0   0.0
-100.0   30.0   16.666666666666668
-150.0   0.0   16.666666666666668
-150.0   30.0   16.666666666666668
-100.0   30.0   16.666666666666668
-150.0   30.0   0.0
-150.0   0.0   16.666666666666668
-100.0   30.0   16.666666666666668
-100.0   0.0   16.666666666666668
-100.0   0.0   0.0
-150.0   0.0   16.666666666666668
-100.0   30.0   16.666666666666668
-100.0   0.0   0.0
-150.0   30.0   0.0
-150.0   0.0   16.666666666666668
-100.0   0.0   16.666666666666668
-150.0   30.0   16.666666666666668
-150.0   0.0   33.333333333333336
-100.0   0.0   16.666666666666668
-100.0   30.0   16.666666666666668
-150.0   30.0   16.666666666666668
-100.0   30.0   33.333333333333336
-150.0   0.0   33.333333333333336
-150.0   30.0   33.333333333333336
-100.0   30.0   33.333333333333336
-150.0   30.0   16.666666666666668
-150.0   0.0   33.333333333333336
-100.0   30.0   33.333333333333336
-100.0   0.0   33.333333333333336
-100.0   0.0   16.666666666666668
-150.0   0.0   33.333333333333336
-100.0   30.0   33.333333333333336
-100.0   0.0   16.666666666666668
-150.0   30.0   16.666666666666668
-150.0   0.0   33.333333333333336
-100.0   0.0   33.333333333333336
-150.0   30.0   33.333333333333336
-150.0   0.0   50.0
-100.0   0.0   33.333333333333336
-100.0   30.0   33.333333333333336
-150.0   30.0   33.333333333333336
-100.0   30.0   50.0
-150.0   0.0   50.0
-150.0   30.0   50.0
-100.0   30.0   50.0
-150.0   30.0   33.333333333333336
-150.0   0.0   50.0
-100.0   30.0   50.0
-100.0   0.0   50.0
-100.0   0.0   33.333333333333336
-150.0   0.0   50.0
-100.0   30.0   50.0
-100.0   0.0   33.333333333333336
-150.0   30.0   33.333333333333336
-150.0   30.0   0.0
-100.0   30.0   0.0
-150.0   60.0   0.0
-150.0   30.0   16.666666666666668
-100.0   30.0   0.0
-100.0   60.0   0.0
-150.0   60.0   0.0
-100.0   60.0   16.666666666666668
-150.0   30.0   16.666666666666668
-150.0   60.0   16.666666666666668
-100.0   60.0   16.666666666666668
-150.0   60.0   0.0
-150.0   30.0   16.666666666666668
-100.0   60.0   16.666666666666668
-100.0   30.0   16.666666666666668
-100.0   30.0   0.0
-150.0   30.0   16.666666666666668
-100.0   60.0   16.666666666666668
-100.0   30.0   0.0
-150.0   60.0   0.0
-150.0   30.0   16.666666666666668
-100.0   30.0   16.666666666666668
-150.0   60.0   16.666666666666668
-150.0   30.0   33.333333333333336
-100.0   30.0   16.666666666666668
-100.0   60.0   16.666666666666668
-150.0   60.0   16.666666666666668
-100.0   60.0   33.333333333333336
-150.0   30.0   33.333333333333336
-150.0   60.0   33.333333333333336
-100.0   60.0   33.333333333333336
-150.0   60.0   16.666666666666668
-150.0   30.0   33.333333333333336
-100.0   60.0   33.333333333333336
-100.0   30.0   33.333333333333336
-100.0   30.0   16.666666666666668
-150.0   30.0   33.333333333333336
-100.0   60.0   33.333333333333336
-100.0   30.0   16.666666666666668
-150.0   60.0   16.666666666666668
-150.0   30.0   33.333333333333336
-100.0   30.0   33.333333333333336
-150.0   60.0   33.333333333333336
-150.0   30.0   50.0
-100.0   30.0   33.333333333333336
-100.0   60.0   33.333333333333336
-150.0   60.0   33.333333333333336
-100.0   60.0   50.0
-150.0   30.0   50.0
-150.0   60.0   50.0
-100.0   60.0   50.0
-150.0   60.0   33.333333333333336
-150.0   30.0   50.0
-100.0   60.0   50.0
-100.0   30.0   50.0
-100.0   30.0   33.333333333333336
-150.0   30.0   50.0
-100.0   60.0   50.0
-100.0   30.0   33.333333333333336
-150.0   60.0   33.333333333333336
-150.0   60.0   0.0
-100.0   60.0   0.0
-150.0   90.0   0.0
-150.0   60.0   16.666666666666668
-100.0   60.0   0.0
-100.0   90.0   0.0
-150.0   90.0   0.0
-100.0   90.0   16.666666666666668
-150.0   60.0   16.666666666666668
-150.0   90.0   16.666666666666668
-100.0   90.0   16.666666666666668
-150.0   90.0   0.0
-150.0   60.0   16.666666666666668
-100.0   90.0   16.666666666666668
-100.0   60.0   16.666666666666668
-100.0   60.0   0.0
-150.0   60.0   16.666666666666668
-100.0   90.0   16.666666666666668
-100.0   60.0   0.0
-150.0   90.0   0.0
-150.0   60.0   16.666666666666668
-100.0   60.0   16.666666666666668
-150.0   90.0   16.666666666666668
-150.0   60.0   33.333333333333336
-100.0   60.0   16.666666666666668
-100.0   90.0   16.666666666666668
-150.0   90.0   16.666666666666668
-100.0   90.0   33.333333333333336
-150.0   60.0   33.333333333333336
-150.0   90.0   33.333333333333336
-100.0   90.0   33.333333333333336
-150.0   90.0   16.666666666666668
-150.0   60.0   33.333333333333336
-100.0   90.0   33.333333333333336
-100.0   60.0   33.333333333333336
-100.0   60.0   16.666666666666668
-150.0   60.0   33.333333333333336
-100.0   90.0   33.333333333333336
-100.0   60.0   16.666666666666668
-150.0   90.0   16.666666666666668
-150.0   60.0   33.333333333333336
-100.0   60.0   33.333333333333336
-150.0   90.0   33.333333333333336
-150.0   60.0   50.0
-100.0   60.0   33.333333333333336
-100.0   90.0   33.333333333333336
-150.0   90.0   33.333333333333336
-100.0   90.0   50.0
-150.0   60.0   50.0
-150.0   90.0   50.0
-100.0   90.0   50.0
-150.0   90.0   33.333333333333336
-150.0   60.0   50.0
-100.0   90.0   50.0
-100.0   60.0   50.0
-100.0   60.0   33.333333333333336
-150.0   60.0   50.0
-100.0   90.0   50.0
-100.0   60.0   33.333333333333336
-150.0   90.0   33.333333333333336
-150.0   90.0   0.0
-100.0   90.0   0.0
-150.0   120.0   0.0
-150.0   90.0   16.666666666666668
-100.0   90.0   0.0
-100.0   120.0   0.0
-150.0   120.0   0.0
-100.0   120.0   16.666666666666668
-150.0   90.0   16.666666666666668
-150.0   120.0   16.666666666666668
-100.0   120.0   16.666666666666668
-150.0   120.0   0.0
-150.0   90.0   16.666666666666668
-100.0   120.0   16.666666666666668
-100.0   90.0   16.666666666666668
-100.0   90.0   0.0
-150.0   90.0   16.666666666666668
-100.0   120.0   16.666666666666668
-100.0   90.0   0.0
-150.0   120.0   0.0
-150.0   90.0   16.666666666666668
-100.0   90.0   16.666666666666668
-150.0   120.0   16.666666666666668
-150.0   90.0   33.333333333333336
-100.0   90.0   16.666666666666668
-100.0   120.0   16.666666666666668
-150.0   120.0   16.666666666666668
-100.0   120.0   33.333333333333336
-150.0   90.0   33.333333333333336
-150.0   120.0   33.333333333333336
-100.0   120.0   33.333333333333336
-150.0   120.0   16.666666666666668
-150.0   90.0   33.333333333333336
-100.0   120.0   33.333333333333336
-100.0   90.0   33.333333333333336
-100.0   90.0   16.666666666666668
-150.0   90.0   33.333333333333336
-100.0   120.0   33.333333333333336
-100.0   90.0   16.666666666666668
-150.0   120.0   16.666666666666668
-150.0   90.0   33.333333333333336
-100.0   90.0   33.333333333333336
-150.0   120.0   33.333333333333336
-150.0   90.0   50.0
-100.0   90.0   33.333333333333336
-100.0   120.0   33.333333333333336
-150.0   120.0   33.333333333333336
-100.0   120.0   50.0
-150.0   90.0   50.0
-150.0   120.0   50.0
-100.0   120.0   50.0
-150.0   120.0   33.333333333333336
-150.0   90.0   50.0
-100.0   120.0   50.0
-100.0   90.0   50.0
-100.0   90.0   33.333333333333336
-150.0   90.0   50.0
-100.0   120.0   50.0
-100.0   90.0   33.333333333333336
-150.0   120.0   33.333333333333336
-150.0   120.0   0.0
-100.0   120.0   0.0
-150.0   150.0   0.0
-150.0   120.0   16.666666666666668
-100.0   120.0   0.0
-100.0   150.0   0.0
-150.0   150.0   0.0
-100.0   150.0   16.666666666666668
-150.0   120.0   16.666666666666668
-150.0   150.0   16.666666666666668
-100.0   150.0   16.666666666666668
-150.0   150.0   0.0
-150.0   120.0   16.666666666666668
-100.0   150.0   16.666666666666668
-100.0   120.0   16.666666666666668
-100.0   120.0   0.0
-150.0   120.0   16.666666666666668
-100.0   150.0   16.666666666666668
-100.0   120.0   0.0
-150.0   150.0   0.0
-150.0   120.0   16.666666666666668
-100.0   120.0   16.666666666666668
-150.0   150.0   16.666666666666668
-150.0   120.0   33.333333333333336
-100.0   120.0   16.666666666666668
-100.0   150.0   16.666666666666668
-150.0   150.0   16.666666666666668
-100.0   150.0   33.333333333333336
-150.0   120.0   33.333333333333336
-150.0   150.0   33.333333333333336
-100.0   150.0   33.333333333333336
-150.0   150.0   16.666666666666668
-150.0   120.0   33.333333333333336
-100.0   150.0   33.333333333333336
-100.0   120.0   33.333333333333336
-100.0   120.0   16.666666666666668
-150.0   120.0   33.333333333333336
-100.0   150.0   33.333333333333336
-100.0   120.0   16.666666666666668
-150.0   150.0   16.666666666666668
-150.0   120.0   33.333333333333336
-100.0   120.0   33.333333333333336
-150.0   150.0   33.333333333333336
-150.0   120.0   50.0
-100.0   120.0   33.333333333333336
-100.0   150.0   33.333333333333336
-150.0   150.0   33.333333333333336
-100.0   150.0   50.0
-150.0   120.0   50.0
-150.0   150.0   50.0
-100.0   150.0   50.0
-150.0   150.0   33.333333333333336
-150.0   120.0   50.0
-100.0   150.0   50.0
-100.0   120.0   50.0
-100.0   120.0   33.333333333333336
-150.0   120.0   50.0
-100.0   150.0   50.0
-100.0   120.0   33.333333333333336
-150.0   150.0   33.333333333333336
-100.0   0.0   0.0
-50.0   0.0   0.0
-100.0   30.0   0.0
-100.0   0.0   16.666666666666668
-50.0   0.0   0.0
-50.0   30.0   0.0
-100.0   30.0   0.0
-50.0   30.0   16.666666666666668
-100.0   0.0   16.666666666666668
-100.0   30.0   16.666666666666668
-50.0   30.0   16.666666666666668
-100.0   30.0   0.0
-100.0   0.0   16.666666666666668
-50.0   30.0   16.666666666666668
-50.0   0.0   16.666666666666668
-50.0   0.0   0.0
-100.0   0.0   16.666666666666668
-50.0   30.0   16.666666666666668
-50.0   0.0   0.0
-100.0   30.0   0.0
-100.0   0.0   16.666666666666668
-50.0   0.0   16.666666666666668
-100.0   30.0   16.666666666666668
-100.0   0.0   33.333333333333336
-50.0   0.0   16.666666666666668
-50.0   30.0   16.666666666666668
-100.0   30.0   16.666666666666668
-50.0   30.0   33.333333333333336
-100.0   0.0   33.333333333333336
-100.0   30.0   33.333333333333336
-50.0   30.0   33.333333333333336
-100.0   30.0   16.666666666666668
-100.0   0.0   33.333333333333336
-50.0   30.0   33.333333333333336
-50.0   0.0   33.333333333333336
-50.0   0.0   16.666666666666668
-100.0   0.0   33.333333333333336
-50.0   30.0   33.333333333333336
-50.0   0.0   16.666666666666668
-100.0   30.0   16.666666666666668
-100.0   0.0   33.333333333333336
-50.0   0.0   33.333333333333336
-100.0   30.0   33.333333333333336
-100.0   0.0   50.0
-50.0   0.0   33.333333333333336
-50.0   30.0   33.333333333333336
-100.0   30.0   33.333333333333336
-50.0   30.0   50.0
-100.0   0.0   50.0
-100.0   30.0   50.0
-50.0   30.0   50.0
-100.0   30.0   33.333333333333336
-100.0   0.0   50.0
-50.0   30.0   50.0
-50.0   0.0   50.0
-50.0   0.0   33.333333333333336
-100.0   0.0   50.0
-50.0   30.0   50.0
-50.0   0.0   33.333333333333336
-100.0   30.0   33.333333333333336
-100.0   30.0   0.0
-50.0   30.0   0.0
-100.0   60.0   0.0
-100.0   30.0   16.666666666666668
-50.0   30.0   0.0
-50.0   60.0   0.0
-100.0   60.0   0.0
-50.0   60.0   16.666666666666668
-100.0   30.0   16.666666666666668
-100.0   60.0   16.666666666666668
-50.0   60.0   16.666666666666668
-100.0   60.0   0.0
-100.0   30.0   16.666666666666668
-50.0   60.0   16.666666666666668
-50.0   30.0   16.666666666666668
-50.0   30.0   0.0
-100.0   30.0   16.666666666666668
-50.0   60.0   16.666666666666668
-50.0   30.0   0.0
-100.0   60.0   0.0
-100.0   30.0   16.666666666666668
-50.0   30.0   16.666666666666668
-100.0   60.0   16.666666666666668
-100.0   30.0   33.333333333333336
-50.0   30.0   16.666666666666668
-50.0   60.0   16.666666666666668
-100.0   60.0   16.666666666666668
-50.0   60.0   33.333333333333336
-100.0   30.0   33.333333333333336
-100.0   60.0   33.333333333333336
-50.0   60.0   33.333333333333336
-100.0   60.0   16.666666666666668
-100.0   30.0   33.333333333333336
-50.0   60.0   33.333333333333336
-50.0   30.0   33.333333333333336
-50.0   30.0   16.666666666666668
-100.0   30.0   33.333333333333336
-50.0   60.0   33.333333333333336
-50.0   30.0   16.666666666666668
-100.0   60.0   16.666666666666668
-100.0   30.0   33.333333333333336
-50.0   30.0   33.333333333333336
-100.0   60.0   33.333333333333336
-100.0   30.0   50.0
-50.0   30.0   33.333333333333336
-50.0   60.0   33.333333333333336
-100.0   60.0   33.333333333333336
-50.0   60.0   50.0
-100.0   30.0   50.0
-100.0   60.0   50.0
-50.0   60.0   50.0
-100.0   60.0   33.333333333333336
-100.0   30.0   50.0
-50.0   60.0   50.0
-50.0   30.0   50.0
-50.0   30.0   33.333333333333336
-100.0   30.0   50.0
-50.0   60.0   50.0
-50.0   30.0   33.333333333333336
-100.0   60.0   33.333333333333336
-100.0   60.0   0.0
-50.0   60.0   0.0
-100.0   90.0   0.0
-100.0   60.0   16.666666666666668
-50.0   60.0   0.0
-50.0   90.0   0.0
-100.0   90.0   0.0
-50.0   90.0   16.666666666666668
-100.0   60.0   16.666666666666668
-100.0   90.0   16.666666666666668
-50.0   90.0   16.666666666666668
-100.0   90.0   0.0
-100.0   60.0   16.666666666666668
-50.0   90.0   16.666666666666668
-50.0   60.0   16.666666666666668
-50.0   60.0   0.0
-100.0   60.0   16.666666666666668
-50.0   90.0   16.666666666666668
-50.0   60.0   0.0
-100.0   90.0   0.0
-100.0   60.0   16.666666666666668
-50.0   60.0   16.666666666666668
-100.0   90.0   16.666666666666668
-100.0   60.0   33.333333333333336
-50.0   60.0   16.666666666666668
-50.0   90.0   16.666666666666668
-100.0   90.0   16.666666666666668
-50.0   90.0   33.333333333333336
-100.0   60.0   33.333333333333336
-100.0   90.0   33.333333333333336
-50.0   90.0   33.333333333333336
-100.0   90.0   16.666666666666668
-100.0   60.0   33.333333333333336
-50.0   90.0   33.333333333333336
-50.0   60.0   33.333333333333336
-50.0   60.0   16.666666666666668
-100.0   60.0   33.333333333333336
-50.0   90.0   33.333333333333336
-50.0   60.0   16.666666666666668
-100.0   90.0   16.666666666666668
-100.0   60.0   33.333333333333336
-50.0   60.0   33.333333333333336
-100.0   90.0   33.333333333333336
-100.0   60.0   50.0
-50.0   60.0   33.333333333333336
-50.0   90.0   33.333333333333336
-100.0   90.0   33.333333333333336
-50.0   90.0   50.0
-100.0   60.0   50.0
-100.0   90.0   50.0
-50.0   90.0   50.0
-100.0   90.0   33.333333333333336
-100.0   60.0   50.0
-50.0   90.0   50.0
-50.0   60.0   50.0
-50.0   60.0   33.333333333333336
-100.0   60.0   50.0
-50.0   90.0   50.0
-50.0   60.0   33.333333333333336
-100.0   90.0   33.333333333333336
-100.0   90.0   0.0
-50.0   90.0   0.0
-100.0   120.0   0.0
-100.0   90.0   16.666666666666668
-50.0   90.0   0.0
-50.0   120.0   0.0
-100.0   120.0   0.0
-50.0   120.0   16.666666666666668
-100.0   90.0   16.666666666666668
-100.0   120.0   16.666666666666668
-50.0   120.0   16.666666666666668
-100.0   120.0   0.0
-100.0   90.0   16.666666666666668
-50.0   120.0   16.666666666666668
-50.0   90.0   16.666666666666668
-50.0   90.0   0.0
-100.0   90.0   16.666666666666668
-50.0   120.0   16.666666666666668
-50.0   90.0   0.0
-100.0   120.0   0.0
-100.0   90.0   16.666666666666668
-50.0   90.0   16.666666666666668
-100.0   120.0   16.666666666666668
-100.0   90.0   33.333333333333336
-50.0   90.0   16.666666666666668
-50.0   120.0   16.666666666666668
-100.0   120.0   16.666666666666668
-50.0   120.0   33.333333333333336
-100.0   90.0   33.333333333333336
-100.0   120.0   33.333333333333336
-50.0   120.0   33.333333333333336
-100.0   120.0   16.666666666666668
-100.0   90.0   33.333333333333336
-50.0   120.0   33.333333333333336
-50.0   90.0   33.333333333333336
-50.0   90.0   16.666666666666668
-100.0   90.0   33.333333333333336
-50.0   120.0   33.333333333333336
-50.0   90.0   16.666666666666668
-100.0   120.0   16.666666666666668
-100.0   90.0   33.333333333333336
-50.0   90.0   33.333333333333336
-100.0   120.0   33.333333333333336
-100.0   90.0   50.0
-50.0   90.0   33.333333333333336
-50.0   120.0   33.333333333333336
-100.0   120.0   33.333333333333336
-50.0   120.0   50.0
-100.0   90.0   50.0
-100.0   120.0   50.0
-50.0   120.0   50.0
-100.0   120.0   33.333333333333336
-100.0   90.0   50.0
-50.0   120.0   50.0
-50.0   90.0   50.0
-50.0   90.0   33.333333333333336
-100.0   90.0   50.0
-50.0   120.0   50.0
-50.0   90.0   33.333333333333336
-100.0   120.0   33.333333333333336
-100.0   120.0   0.0
-50.0   120.0   0.0
-100.0   150.0   0.0
-100.0   120.0   16.666666666666668
-50.0   120.0   0.0
-50.0   150.0   0.0
-100.0   150.0   0.0
-50.0   150.0   16.666666666666668
-100.0   120.0   16.666666666666668
-100.0   150.0   16.666666666666668
-50.0   150.0   16.666666666666668
-100.0   150.0   0.0
-100.0   120.0   16.666666666666668
-50.0   150.0   16.666666666666668
-50.0   120.0   16.666666666666668
-50.0   120.0   0.0
-100.0   120.0   16.666666666666668
-50.0   150.0   16.666666666666668
-50.0   120.0   0.0
-100.0   150.0   0.0
-100.0   120.0   16.666666666666668
-50.0   120.0   16.666666666666668
-100.0   150.0   16.666666666666668
-100.0   120.0   33.333333333333336
-50.0   120.0   16.666666666666668
-50.0   150.0   16.666666666666668
-100.0   150.0   16.666666666666668
-50.0   150.0   33.333333333333336
-100.0   120.0   33.333333333333336
-100.0   150.0   33.333333333333336
-50.0   150.0   33.333333333333336
-100.0   150.0   16.666666666666668
-100.0   120.0   33.333333333333336
-50.0   150.0   33.333333333333336
-50.0   120.0   33.333333333333336
-50.0   120.0   16.666666666666668
-100.0   120.0   33.333333333333336
-50.0   150.0   33.333333333333336
-50.0   120.0   16.666666666666668
-100.0   150.0   16.666666666666668
-100.0   120.0   33.333333333333336
-50.0   120.0   33.333333333333336
-100.0   150.0   33.333333333333336
-100.0   120.0   50.0
-50.0   120.0   33.333333333333336
-50.0   150.0   33.333333333333336
-100.0   150.0   33.333333333333336
-50.0   150.0   50.0
-100.0   120.0   50.0
-100.0   150.0   50.0
-50.0   150.0   50.0
-100.0   150.0   33.333333333333336
-100.0   120.0   50.0
-50.0   150.0   50.0
-50.0   120.0   50.0
-50.0   120.0   33.333333333333336
-100.0   120.0   50.0
-50.0   150.0   50.0
-50.0   120.0   33.333333333333336
-100.0   150.0   33.333333333333336
-50.0   0.0   0.0
0.0   0.0   0.0
-50.0   30.0   0.0
-50.0   0.0   16.666666666666668
0.0   0.0   0.0
0.0   30.0   0.0
-50.0   30.0   0.0
0.0   30.0   16.666666666666668
-50.0   0.0   16.666666666666668
-50.0   30.0   16.666666666666668
0.0   30.0   16.666666666666668
-50.0   30.0   0.0
-50.0   0.0   16.666666666666668
0.0   30.0   16.666666666666668
0.0   0.0   16.666666666666668
0.0   0.0   0.0
-50.0   0.0   16.666666666666668
0.0   30.0   16.666666666666668
0.0   0.0   0.0
-50.0   30.0   0.0
-50.0   0.0   16.666666666666668
0.0   0.0   16.666666666666668
-50.0   30.0   16.666666666666668
-50.0   0.0   33.333333333333336
0.0   0.0   16.666666666666668
0.0   30.0   16.666666666666668
-50.0   30.0   16.666666666666668
0.0   30.0   33.333333333333336
-50.0   0.0   33.333333333333336
-50.0   30.0   33.333333333333336
0.0   30.0   33.333333333333336
-50.0   30.0   16.666666666666668
-50.0   0.0   33.333333333333336
0.0   30.0   33.333333333333336
0.0   0.0   33.333333333333336
0.0   0.0   16.666666666666668
-50.0   0.0   33.333333333333336
0.0   30.0   33.333333333333336
0.0   0.0   16.666666666666668
-50.0   30.0   16.666666666666668
-50.0   0.0   33.333333333333336
0.0   0.0   33.333333333333336
-50.0   30.0   33.333333333333336
-50.0   0.0   50.0
0.0   0.0   33.333333333333336
0.0   30.0   33.333333333333336
-50.0   30.0   33.333333333333336
0.0   30.0   50.0
-50.0   0.0   50.0
-50.0   30.0   50.0
0.0   30.0   50.0
-50.0   30.0   33.333333333333336
-50.0   0.0   50.0
0.0   30.0   50.0
0.0   0.0   50.0
0.0   0.0   33.333333333333336
-50.0   0.0   50.0
0.0   30.0   50.0
0.0   0.0   33.333333333333336
-50.0   30.0   33.333333333333336
-50.0   30.0   0.0
0.0   30.0   0.0
-50.0   60.0   0.0
-50.0   30.0   16.666666666666668
0.0   30.0   0.0
0.0   60.0   0.0
-50.0   60.0   0.0
0.0   60.0   16.666666666666668
-50.0   30.0   16.666666666666668
-50.0   60.0   16.666666666666668
0.0   60.0   16.666666666666668
-50.0   60.0   0.0
-50.0   30.0   16.666666666666668
0.0   60.0   16.666666666666668
0.0   30.0   16.666666666666668
0.0   30.0   0.0
-50.0   30.0   16.666666666666668
0.0   60.0   16.666666666666668
0.0   30.0   0.0
-50.0   60.0   0.0
-50.0   30.0   16.666666666666668
0.0   30.0   16.666666666666668
-50.0   60.0   16.666666666666668
-50.0   30.0   33.333333333333336
0.0   30.0   16.666666666666668
0.0   60.0   16.666666666666668
-50.0   60.0   16.666666666666668
0.0   60.0   33.333333333333336
-50.0   30.0   33.333333333333336
-50.0   60.0   33.333333333333336
0.0   60.0   33.333333333333336
-50.0   60.0   16.666666666666668
-50.0   30.0   33.333333333333336
0.0   60.0   33.333333333333336
0.0   30.0   33.333333333333336
0.0   30.0   16.666666666666668
-50.0   30.0   33.333333333333336
0.0   60.0   33.333333333333336
0.0   30.0   16.666666666666668
-50.0   60.0   16.666666666666668
-50.0   30.0   33.333333333333336
0.0   30.0   33.333333333333336
-50.0   60.0   33.333333333333336
-50.0   30.0   50.0
0.0   30.0   33.333333333333336
0.0   60.0   33.333333333333336
-50.0   60.0   33.333333333333336
0.0   60.0   50.0
-50.0   30.0   50.0
-50.0   60.0   50.0
0.0   60.0   50.0
-50.0   60.0   33.333333333333336
-50.0   30.0   50.0
0.0   60.0   50.0
0.0   30.0   50.0
0.0   30.0   33.333333333333336
-50.0   30.0   50.0
0.0   60.0   50.0
0.0   30.0   33.333333333333336
-50.0   60.0   33.333333333333336
-50.0   60.0   0.0
0.0   60.0   0.0
-50.0   90.0   0.0
-50.0   60.0   16.666666666666668
0.0   60.0   0.0
0.0   90.0   0.0
-50.0   90.0   0.0
0.0   90.0   16.666666666666668
-50.0   60.0   16.666666666666668
-50.0   90.0   16.666666666666668
0.0   90.0   16.666666666666668
-50.0   90.0   0.0
-50.0   60.0   16.666666666666668
0.0   90.0   16.666666666666668
0.0   60.0   16.666666666666668
0.0   60.0   0.0
-50.0   60.0   16.666666666666668
0.0   90.0   16.666666666666668
0.0   60.0   0.0
-50.0   90.0   0.0
-50.0   60.0   16.666666666666668
0.0   60.0   16.666666666666668
-50.0   90.0   16.666666666666668
-50.0   60.0   33.333333333333336
0.0   60.0   16.666666666666668
0.0   90.0   16.666666666666668
-50.0   90.0   16.666666666666668
0.0   90.0   33.333333333333336
-50.0   60.0   33.333333333333336
-50.0   90.0   33.333333333333336
0.0   90.0   33.333333333333336
-50.0   90.0   16.666666666666668
-50.0   60.0   33.333333333333336
0.0   90.0   33.333333333333336
0.0   60.0   33.333333333333336
0.0   60.0   16.666666666666668
-50.0   60.0   33.333333333333336
0.0   90.0   33.333333333333336
0.0   60.0   16.666666666666668
-50.0   90.0   16.666666666666668
-50.0   60.0   33.333333333333336
0.0   60.0   33.333333333333336
-50.0   90.0   33.333333333333336
-50.0   60.0   50.0
0.0   60.0   33.333333333333336
0.0   90.0   33.333333333333336
-50.0   90.0   33.333333333333336
0.0   90.0   50.0
-50.0   60.0   50.0
-50.0   90.0   50.0
0.0   90.0   50.0
-50.0   90.0   33.333333333333336
-50.0   60.0   50.0
0.0   90.0   50.0
0.0   60.0   50.0
0.0   60.0   33.333333333333336
-50.0   60.0   50.0
0.0   90.0   50.0
0.0   60.0   33.333333333333336
-50.0   90.0   33.333333333333336
-50.0   90.0   0.0
0.0   90.0   0.0
-50.0   120.0   0.0
-50.0   90.0   16.666666666666668
0.0   90.0   0.0
0.0   120.0   0.0
-50.0   120.0   0.0
0.0   120.0   16.666666666666668
-50.0   90.0   16.666666666666668
-50.0   120.0   16.666666666666668
0.0   120.0   16.666666666666668
-50.0   120.0   0.0
-50.0   90.0   16.666666666666668
0.0   120.0   16.666666666666668
0.0   90.0   16.666666666666668
0.0   90.0   0.0
-50.0   90.0   16.666666666666668
0.0   120.0   16.666666666666668
0.0   90.0   0.0
-50.0   120.0   0.0
-50.0   90.0   16.666666666666668
0.0   90.0   16.666666666666668
-50.0   120.0   16.666666666666668
-50.0   90.0   33.333333333333336
0.0   90.0   16.666666666666668
0.0   120.0   16.666666666666668
-50.0   120.0   16.666666666666668
0.0   120.0   33.333333333333336
-50.0   90.0   33.333333333333336
-50.0   120.0   33.333333333333336
0.0   120.0   33.333333333333336
-50.0   120.0   16.666666666666668
-50.0   90.0   33.333333333333336
0.0   120.0   33.333333333333336
0.0   90.0   33.333333333333336
0.0   90.0   16.666666666666668
-50.0   90.0   33.333333333333336
0.0   120.0   33.333333333333336
0.0   90.0   16.666666666666668
-50.0   120.0   16.666666666666668
-50.0   90.0   33.333333333333336
0.0   90.0   33.333333333333336
-50.0   120.0   33.333333333333336
-50.0   90.0   50.0
0.0   90.0   33.333333333333336
0.0   120.0   33.333333333333336
-50.0   120.0   33.333333333333336
0.0   120.0   50.0
-50.0   90.0   50.0
-50.0   120.0   50.0
0.0   120.0   50.0
-50.0   120.0   33.333333333333336
-50.0   90.0   50.0
0.0   120.0   50.0
0.0   90.0   50.0
0.0   90.0   33.333333333333336
-50.0   90.0   50.0
0.0   120.0   50.0
0.0   90.0   33.333333333333336
-50.0   120.0   33.333333333333336
-50.0   120.0   0.0
0.0   120.0   0.0
-50.0   150.0   0.0
-50.0   120.0   16.666666666666668
0.0   120.0   0.0
0.0   150.0   0.0
-50.0   150.0   0.0
0.0   150.0   16.666666666666668
-50.0   120.0   16.666666666666668
-50.0   150.0   16.666666666666668
0.0   150.0   16.666666666666668
-50.0   150.0   0.0
-50.0   120.0   16.666666666666668
0.0   150.0   16.666666666666668
0.0   120.0   16.666666666666668
0.0   120.0   0.0
-50.0   120.0   16.666666666666668
0.0   150.0   16.666666666666668
0.0   120.0   0.0
-50.0   150.0   0.0
-50.0   120.0   16.666666666666668
0.0   120.0   16.666666666666668
-50.0   150.0   16.666666666666668
-50.0   120.0   33.333333333333336
0.0   120.0   16.666666666666668
0.0   150.0   16.666666666666668
-50.0   150.0   16.666666666666668
0.0   150.0   33.333333333333336
-50.0   120.0   33.333333333333336
-50.0   150.0   33.333333333333336
0.0   150.0   33.333333333333336
-50.0   150.0   16.666666666666668
-50.0   120.0   33.333333333333336
0.0   150.0   33.333333333333336
0.0   120.0   33.333333333333336
0.0   120.0   16.666666666666668
-50.0   120.0   33.333333333333336
0.0   150.0   33.333333333333336
0.0   120.0   16.666666666666668
-50.0   150.0   16.666666666666668
-50.0   120.0   33.333333333333336
0.0   120.0   33.333333333333336
-50.0   150.0   33.333333333333336
-50.0   120.0   50.0
0.0   120.0   33.333333333333336
0.0   150.0   33.333333333333336
-50.0   150.0   33.333333333333336
0.0   150.0   50.0
-50.0   120.0   50.0
-50.0   150.0   50.0
0.0   150.0   50.0
-50.0   150.0   33.333333333333336
-50.0   120.0   50.0
0.0   150.0   50.0
0.0   120.0   50.0
0.0   120.0   33.333333333333336
-50.0   120.0   50.0
0.0   150.0   50.0
0.0   120.0   33.333333333333336
-50.0   150.0   33.333333333333336
0.0   0.0   0.0
50.0   0.0   0.0
0.0   30.0   0.0
0.0   0.0   16.666666666666668
50.0   0.0   0.0
50.0   30.0   0.0
0.0   30.0   0.0
50.0   30.0   16.666666666666668
0.0   0.0   16.666666666666668
0.0   30.0   16.666666666666668
50.0   30.0   16.666666666666668
0.0   30.0   0.0
0.0   0.0   16.666666666666668
50.0   30.0   16.666666666666668
50.0   0.0   16.666666666666668
50.0   0.0   0.0
0.0   0.0   16.666666666666668
50.0   30.0   16.666666666666668
50.0   0.0   0.0
0.0   30.0   0.0
0.0   0.0   16.666666666666668
50.0   0.0   16.666666666666668
0.0   30.0   16.666666666666668
0.0   0.0   33.333333333333336
50.0   0.0   16.666666666666668
50.0   30.0   16.666666666666668
0.0   30.0   16.666666666666668
50.0   30.0   33.333333333333336
0.0   0.0   33.333333333333336
0.0   30.0   33.333333333333336
50.0   30.0   33.333333333333336
0.0   30.0   16.666666666666668
0.0   0.0   33.333333333333336
50.0   30.0   33.333333333333336
50.0   0.0   33.333333333333336
50.0   0.0   16.666666666666668
0.0   0.0   33.333333333333336
50.0   30.0   33.333333333333336
50.0   0.0   16.666666666666668
0.0   30.0   16.666666666666668
0.0   0.0   33.333333333333336
50.0   0.0   33.333333333333336
0.0   30.0   33.333333333333336
0.0   0.0   50.0
50.0   0.0   33.333333333333336
50.0   30.0   33.333333333333336
0.0   30.0   33.333333333333336
50.0   30.0   50.0
0.0   0.0   50.0
0.0   30.0   50.0
50.0   30.0   50.0
0.0   30.0   33.333333333333336
0.0   0.0   50.0
50.0   30.0   50.0
50.0   0.0   50.0
50.0   0.0   33.333333333333336
0.0   0.0   50.0
50.0   30.0   50.0
50.0   0.0   33.333333333333336
0.0   30.0   33.333333333333336
0.0   30.0   0.0
50.0   30.0   0.0
0.0   60.0   0.0
0.0   30.0   16.666666666666668
50.0   30.0   0.0
50.0   60.0   0.0
0.0   60.0   0.0
50.0   60.0   16.666666666666668
0.0   30.0   16.666666666666668
0.0   60.0   16.666666666666668
50.0   60.0   16.666666666666668
0.0   60.0   0.0
0.0   30.0   16.666666666666668
50.0   60.0   16.666666666666668
50.0   30.0   16.666666666666668
50.0   30.0   0.0
0.0   30.0   16.666666666666668
50.0   60.0   16.666666666666668
50.0   30.0   0.0
0.0   60.0   0.0
0.0   30.0   16.666666666666668
50.0   30.0   16.666666666666668
0.0   60.0   16.666666666666668
0.0   30.0   33.333333333333336
50.0   30.0   16.666666666666668
50.0   60.0   16.666666666666668
0.0   60.0   16.666666666666668
50.0   60.0   33.333333333333336
0.0   30.0   33.333333333333336
0.0   60.0   33.333333333333336
50.0   60.0   33.333333333333336
0.0   60.0   16.666666666666668
0.0   30.0   33.333333333333336
50.0   60.0   33.333333333333336
50.0   30.0   33.333333333333336
50.0   30.0   16.666666666666668
0.0   30.0   33.333333333333336
50.0   60.0   33.333333333333336
50.0   30.0   16.666666666666668
0.0   60.0   16.666666666666668
0.0   30.0   33.333333333333336
50.0   30.0   33.333333333333336
0.0   60.0   33.333333333333336
0.0   30.0   50.0
50.0   30.0   33.333333333333336
50.0   60.0   33.333333333333336
0.0   60.0   33.333333333333336
50.0   60.0   50.0
0.0   30.0   50.0
0.0   60.0   50.0
50.0   60.0   50.0
0.0   60.0   33.333333333333336
0.0   30.0   50.0
50.0   60.0   50.0
50.0   30.0   50.0
50.0   30.0   33.333333333333336
0.0   30.0   50.0
50.0   60.0   50.0
50.0   30.0   33.333333333333336
0.0   60.0   33.333333333333336
0.0   60.0   0.0
50.0   60.0   0.0
0.0   90.0   0.0
0.0   60.0   16.666666666666668
50.0   60.0   0.0
50.0   90.0   0.0
0.0   90.0   0.0
50.0   90.0   16.666666666666668
0.0   60.0   16.666666666666668
0.0   90.0   16.666666666666668
50.0   90.0   16.666666666666668
0.0   90.0   0.0
0.0   60.0   16.666666666666668
50.0   90.0   16.666666666666668
50.0   60.0   16.666666666666668
50.0   60.0   0.0
0.0   60.0   16.666666666666668
50.0   90.0   16.666666666666668
50.0   60.0   0.0
0.0   90.0   0.0
0.0   60.0   16.666666666666668
50.0   60.0   16.666666666666668
0.0   90.0   16.666666666666668
0.0   60.0   33.333333333333336
50.0   60.0   16.666666666666668
50.0   90.0   16.666666666666668
0.0   90.0   16.666666666666668
50.0   90.0   33.333333333333336
0.0   60.0   33.333333333333336
0.0   90.0   33.333333333333336
50.0   90.0   33.333333333333336
0.0   90.0   16.666666666666668
0.0   60.0   33.333333333333336
50.0   90.0   33.333333333333336
50.0   60.0   33.333333333333336
50.0   60.0   16.666666666666668
0.0   60.0   33.333333333333336
50.0   90.0   33.333333333333336
50.0   60.0   16.666666666666668
0.0   90.0   16.666666666666668
0.0   60.0   33.333333333333336
50.0   60.0   33.333333333333336
0.0   90.0   33.333333333333336
0.0   60.0   50.0
50.0   60.0   33.333333333333336
50.0   90.0   33.333333333333336
0.0   90.0   33.333333333333336
50.0   90.0   50.0
0.0   60.0   50.0
0.0   90.0   50.0
50.0   90.0   50.0
0.0   90.0   33.333333333333336
0.0   60.0   50.0
50.0   90.0   50.0
50.0   60.0   50.0
50.0   60.0   33.333333333333336
0.0   60.0   50.0
50.0   90.0   50.0
50.0   60.0   33.333333333333336
0.0   90.0   33.333333333333336
0.0   90.0   0.0
50.0   90.0   0.0
0.0   120.0   0.0
0.0   90.0   16.666666666666668
50.0   90.0   0.0
50.0   120.0   0.0
0.0   120.0   0.0
50.0   120.0   16.666666666666668
0.0   90.0   16.666666666666668
0.0   120.0   16.666666666666668
50.0   120.0   16.666666666666668
0.0   120.0   0.0
0.0   90.0   16.666666666666668
50.0   120.0   16.666666666666668
50.0   90.0   16.666666666666668
50.0   90.0   0.0
0.0   90.0   16.666666666666668
50.0   120.0   16.666666666666668
50.0   90.0   0.0
0.0   120.0   0.0
0.0   90.0   16.666666666666668
50.0   90.0   16.666666666666668
0.0   120.0   16.666666666666668
0.0   90.0   33.333333333333336
50.0   90.0   16.666666666666668
50.0   120.0   16.666666666666668
0.0   120.0   16.666666666666668
50.0   120.0   33.333333333333336
0.0   90.0   33.333333333333336
0.0   120.0   33.333333333333336
50.0   120.0   33.333333333333336
0.0   120.0   16.666666666666668
0.0   90.0   33.333333333333336
50.0   120.0   33.333333333333336
50.0   90.0   33.333333333333336
50.0   90.0   16.666666666666668
0.0   90.0   33.333333333333336
50.0   120.0   33.333333333333336
50.0   90.0   16.666666666666668
0.0   120.0   16.666666666666668
0.0   90.0   33.333333333333336
50.0   90.0   33.333333333333336
0.0   120.0   33.333333333333336
0.0   90.0   50.0
50.0   90.0   33.333333333333336
50.0   120.0   33.333333333333336
0.0   120.0   33.333333333333336
50.0   120.0   50.0
0.0   90.0   50.0
0.0   120.0   50.0
50.0   120.0   50.0
0.0   120.0   33.333333333333336
0.0   90.0   50.0
50.0   120.0   50.0
50.0   90.0   50.0
50.0   90.0   33.333333333333336
0.0   90.0   50.0
50.0   120.0   50.0
50.0   90.0   33.333333333333336
0.0   120.0   33.333333333333336
0.0   120.0   0.0
50.0   120.0   0.0
0.0   150.0   0.0
0.0   120.0   16.666666666666668
50.0   120.0   0.0
50.0   150.0   0.0
0.0   150.0   0.0
50.0   150.0   16.666666666666668
0.0   120.0   16.666666666666668
0.0   150.0   16.666666666666668
50.0   150.0   16.666666666666668
0.0   150.0   0.0
0.0   120.0   16.666666666666668
50.0   150.0   16.666666666666668
50.0   120.0   16.666666666666668
50.0   120.0   0.0
0.0   120.0   16.666666666666668
50.0   150.0   16.666666666666668
50.0   120.0   0.0
0.0   150.0   0.0
0.0   120.0   16.666666666666668
50.0   120.0   16.666666666666668
0.0   150.0   16.666666666666668
0.0   120.0   33.333333333333336
50.0   120.0   16.666666666666668
50.0   150.0   16.666666666666668
0.0   150.0   16.666666666666668
50.0   150.0   33.333333333333336
0.0   120.0   33.333333333333336
0.0   150.0   33.333333333333336
50.0   150.0   33.333333333333336
0.0   150.0   16.666666666666668
0.0   120.0   33.333333333333336
50.0   150.0   33.333333333333336
50.0   120.0   33.333333333333336
50.0   120.0   16.666666666666668
0.0   120.0   33.333333333333336
50.0   150.0   33.333333333333336
50.0   120.0   16.666666666666668
0.0   150.0   16.666666666666668
0.0   120.0   33.333333333333336
50.0   120.0   33.333333333333336
0.0   150.0   33.333333333333336
0.0   120.0   50.0
50.0   120.0   33.333333333333336
50.0   150.0   33.333333333333336
0.0   150.0   33.333333333333336
50.0   150.0   50.0
0.0   120.0   50.0
0.0   150.0   50.0
50.0   150.0   50.0
0.0   150.0   33.333333333333336
0.0   120.0   50.0
50.0   150.0   50.0
50.0   120.0   50.0
50.0   120.0   33.333333333333336
0.0   120.0   50.0
50.0   150.0   50.0
50.0   120.0   33.333333333333336
0.0   150.0   33.333333333333336
50.0   0.0   0.0
100.0   0.0   0.0
50.0   30.0   0.0
50.0   0.0   16.666666666666668
100.0   0.0   0.0
100.0   30.0   0.0
50.0   30.0   0.0
100.0   30.0   16.666666666666668
50.0   0.0   16.666666666666668
50.0   30.0   16.666666666666668
100.0   30.0   16.666666666666668
50.0   30.0   0.0
50.0   0.0   16.666666666666668
100.0   30.0   16.666666666666668
100.0   0.0   16.666666666666668
100.0   0.0   0.0
50.0   0.0   16.666666666666668
100.0   30.0   16.666666666666668
100.0   0.0   0.0
50.0   30.0   0.0
50.0   0.0   16.666666666666668
100.0   0.0   16.666666666666668
50.0   30.0   16.666666666666668
50.0   0.0   33.333333333333336
100.0   0.0   16.666666666666668
100.0   30.0   16.666666666666668
50.0   30.0   16.666666666666668
100.0   30.0   33.333333333333336
50.0   0.0   33.333333333333336
50.0   30.0   33.333333333333336
100.0   30.0   33.333333333333336
50.0   30.0   16.666666666666668
50.0   0.0   33.333333333333336
100.0   30.0   33.333333333333336
100.0   0.0   33.333333333333336
100.0   0.0   16.666666666666668
50.0   0.0   33.333333333333336
100.0   30.0   33.333333333333336
100.0   0.0   16.666666666666668
50.0   30.0   16.666666666666668
50.0   0.0   33.333333333333336
100.0   0.0   33.333333333333336
50.0   30.0   33.333333333333336
50.0   0.0   50.0
100.0   0.0   33.333333333333336
100.0   30.0   33.333333333333336
50.0   30.0   33.333333333333336
100.0   30.0   50.0
50.0   0.0   50.0
50.0   30.0   50.0
100.0   30.0   50.0
50.0   30.0   33.333333333333336
50.0   0.0   50.0
100.0   30.0   50.0
100.0   0.0   50.0
100.0   0.0   33.333333333333336
50.0   0.0   50.0
100.0   30.0   50.0
100.0   0.0   33.333333333333336
50.0   30.0   33.333333333333336
50.0   30.0   0.0
100.0   30.0   0.0
50.0   60.0   0.0
50.0   30.0   16.666666666666668
100.0   30.0   0.0
100.0   60.0   0.0
50.0   60.0   0.0
100.0   60.0   16.666666666666668
50.0   30.0   16.666666666666668
50.0   60.0   16.666666666666668
100.0   60.0   16.666666666666668
50.0   60.0   0.0
50.0   30.0   16.666666666666668
100.0   60.0   16.666666666666668
100.0   30.0   16.666666666666668
100.0   30.0   0.0
50.0   30.0   16.666666666666668
100.0   60.0   16.666666666666668
100.0   30.0   0.0
50.0   60.0   0.0
50.0   30.0   16.666666666666668
100.0   30.0   16.666666666666668
50.0   60.0   16.666666666666668
50.0   30.0   33.333333333333336
100.0   30.0   16.666666666666668
100.0   60.0   16.666666666666668
50.0   60.0   16.666666666666668
100.0   60.0   33.333333333333336
50.0   30.0   33.333333333333336
50.0   60.0   33.333333333333336
100.0   60.0   33.333333333333336
50.0   60.0   16.666666666666668
50.0   30.0   33.333333333333336
100.0   60.0   33.333333333333336
100.0   30.0   33.333333333333336
100.0   30.0   16.666666666666668
50.0   30.0   33.333333333333336
100.0   60.0   33.333333333333336
100.0   30.0   16.666666666666668
50.0   60.0   16.666666666666668
50.0   30.0   33.333333333333336
100.0   30.0   33.333333333333336
50.0   60.0   33.333333333333336
50.0   30.0   50.0
100.0   30.0   33.333333333333336
100.0   60.0   33.333333333333336
50.0   60.0   33.333333333333336
100.0   60.0   50.0
50.0   30.0   50.0
50.0   60.0   50.0
100.0   60.0   50.0
50.0   60.0   33.333333333333336
50.0   30.0   50.0
100.0   60.0   50.0
100.0   30.0   50.0
100.0   30.0   33.333333333333336
50.0   30.0   50.0
100.0   60.0   50.0
100.0   30.0   33.333333333333336
50.0   60.0   33.333333333333336
50.0   60.0   0.0
100.0   60.0   0.0
50.0   90.0   0.0
50.0   60.0   16.666666666666668
100.0   60.0   0.0
100.0   90.0   0.0
50.0   90.0   0.0
100.0   90.0   16.666666666666668
50.0   60.0   16.666666666666668
50.0   90.0   16.666666666666668
100.0   90.0   16.666666666666668
50.0   90.0   0.0
50.0   60.0   16.666666666666668
100.0   90.0   16.666666666666668
100.0   60.0   16.666666666666668
100.0   60.0   0.0
50.0   60.0   16.666666666666668
100.0   90.0   16.666666666666668
100.0   60.0   0.0
50.0   90.0   0.0
50.0   60.0   16.666666666666668
100.0   60.0   16.666666666666668
50.0   90.0   16.666666666666668
50.0   60.0   33.333333333333336
100.0   60.0   16.666666666666668
100.0   90.0   16.666666666666668
50.0   90.0   16.666666666666668
100.0   90.0   33.333333333333336
50.0   60.0   33.333333333333336
50.0   90.0   33.333333333333336
100.0   90.0   33.333333333333336
50.0   90.0   16.666666666666668
50.0   60.0   33.333333333333336
100.0   90.0   33.333333333333336
100.0   60.0   33.333333333333336
100.0   60.0   16.666666666666668
50.0   60.0   33.333333333333336
100.0   90.0   33.333333333333336
100.0   60.0   16.666666666666668
50.0   90.0   16.666666666666668
50.0   60.0   33.333333333333336
100.0   60.0   33.333333333333336
50.0   90.0   33.333333333333336
50.0   60.0   50.0
100.0   60.0   33.333333333333336
100.0   90.0   33.333333333333336
50.0   90.0   33.333333333333336
100.0   90.0   50.0
50.0   60.0   50.0
50.0   90.0   50.0
100.0   90.0   50.0
50.0   90.0   33.333333333333336
50.0   60.0   50.0
100.0   90.0   50.0
100.0   60.0   50.0
100.0   60.0   33.333333333333336
50.0   60.0   50.0
100.0   90.0   50.0
100.0   60.0   33.333333333333336
50.0   90.0   33.333333333333336
50.0   90.0   0.0
100.0   90.0   0.0
50.0   120.0   0.0
50.0   90.0   16.666666666666668
100.0   90.0   0.0
100.0   120.0   0.0
50.0   120.0   0.0
100.0   120.0   16.666666666666668
50.0   90.0   16.666666666666668
50.0   120.0   16.666666666666668
100.0   120.0   16.666666666666668
50.0   120.0   0.0
50.0   90.0   16.666666666666668
100.0   120.0   16.666666666666668
100.0   90.0   16.666666666666668
100.0   90.0   0.0
50.0   90.0   16.666666666666668
100.0   120.0   16.666666666666668
100.0   90.0   0.0
50.0   120.0   0.0
50.0   90.0   16.666666666666668
100.0   90.0   16.666666666666668
50.0   120.0   16.666666666666668
50.0   90.0   33.333333333333336
100.0   90.0   16.666666666666668
100.0   120.0   16.666666666666668
50.0   120.0   16.666666666666668
100.0   120.0   33.333333333333336
50.0   90.0   33.333333333333336
50.0   120.0   33.333333333333336
100.0   120.0   33.333333333333336
50.0   120.0   16.666666666666668
50.0   90.0   33.333333333333336
100.0   120.0   33.333333333333336
100.0   90.0   33.333333333333336
100.0   90.0   16.666666666666668
50.0   90.0   33.333333333333336
100.0   120.0   33.333333333333336
100.0   90.0   16.666666666666668
50.0   120.0   16.666666666666668
50.0   90.0   33.333333333333336
100.0   90.0   33.333333333333336
50.0   120.0   33.333333333333336
50.0   90.0   50.0
100.0   90.0   33.333333333333336
100.0   120.0   33.333333333333336
50.0   120.0   33.333333333333336
100.0   120.0   50.0
50.0   90.0   50.0
50.0   120.0   50.0
100.0   120.0   50.0
50.0   120.0   33.333333333333336
50.0   90.0   50.0
100.0   120.0   50.0
100.0   90.0   50.0
100.0   90.0   33.333333333333336
50.0   90.0   50.0
100.0   120.0   50.0
100.0   90.0   33.333333333333336
50.0   120.0   33.333333333333336
50.0   120.0   0.0
100.0   120.0   0.0
50.0   150.0   0.0
50.0   120.0   16.666666666666668
100.0   120.0   0.0
100.0   150.0   0.0
50.0   150.0   0.0
100.0   150.0   16.666666666666668
50.0   120.0   16.666666666666668
50.0   150.0   16.666666666666668
100.0   150.0   16.666666666666668
50.0   150.0   0.0
50.0   120.0   16.666666666666668
100.0   150.0   16.666666666666668
100.0   120.0   16.666666666666668
100.0   120.0   0.0
50.0   120.0   16.666666666666668
100.0   150.0   16.666666666666668
100.0   120.0   0.0
50.0   150.0   0.0
50.0   120.0   16.666666666666668
100.0   120.0   16.666666666666668
50.0   150.0   16.666666666666668
50.0   120.0   33.333333333333336
100.0   120.0   16.666666666666668
100.0   150.0   16.666666666666668
50.0   150.0   16.666666666666668
100.0   150.0   33.333333333333336
50.0   120.0   33.333333333333336
50.0   150.0   33.333333333333336
100.0   150.0   33.333333333333336
50.0   150.0   16.666666666666668
50.0   120.0   33.333333333333336
100.0   150.0   33.333333333333336
100.0   120.0   33.333333333333336
100.0   120.0   16.666666666666668
50.0   120.0   33.333333333333336
100.0   150.0   33.333333333333336
100.0   120.0   16.666666666666668
50.0   150.0   16.666666666666668
50.0   120.0   33.333333333333336
100.0   120.0   33.333333333333336
50.0   150.0   33.333333333333336
50.0   120.0   50.0
100.0   120.0   33.333333333333336
100.0   150.0   33.333333333333336
50.0   150.0   33.333333333333336
100.0   150.0   50.0
50.0   120.0   50.0
50.0   150.0   50.0
100.0   150.0   50.0
50.0   150.0   33.333333333333336
50.0   120.0   50.0
100.0   150.0   50.0
100.0   120.0   50.0
100.0   120.0   33.333333333333336
50.0   120.0   50.0
100.0   150.0   50.0
100.0   120.0   33.333333333333336
50.0   150.0   33.333333333333336
100.0   0.0   0.0
150.0   0.0   0.0
100.0   30.0   0.0
100.0   0.0   16.666666666666668
150.0   0.0   0.0
150.0   30.0   0.0
100.0   30.0   0.0
150.0   30.0   16.666666666666668
100.0   0.0   16.666666666666668
100.0   30.0   16.666666666666668
150.0   30.0   16.666666666666668
100.0   30.0   0.0
100.0   0.0   16.666666666666668
150.0   30.0   16.666666666666668
150.0   0.0   16.666666666666668
150.0   0.0   0.0
100.0   0.0   16.666666666666668
150.0   30.0   16.666666666666668
150.0   0.0   0.0
100.0   30.0   0.0
100.0   0.0   16.666666666666668
150.0   0.0   16.666666666666668
100.0   30.0   16.666666666666668
100.0   0.0   33.333333333333336
150.0   0.0   16.666666666666668
150.0   30.0   16.666666666666668
100.0   30.0   16.666666666666668
150.0   30.0   33.333333333333336
100.0   0.0   33.333333333333336
100.0   30.0   33.333333333333336
150.0   30.0   33.333333333333336
100.0   30.0   16.666666666666668
100.0   0.0   33.333333333333336
150.0   30.0   33.333333333333336
150.0   0.0   33.333333333333336
150.0   0.0   16.666666666666668
100.0   0.0   33.333333333333336
150.0   30.0   33.333333333333336
150.0   0.0   16.666666666666668
100.0   30.0   16.666666666666668
100.0   0.0   33.333333333333336
150.0   0.0   33.333333333333336
100.0   30.0   33.333333333333336
100.0   0.0   50.0
150.0   0.0   33.333333333333336
150.0   30.0   33.333333333333336
100.0   30.0   33.333333333333336
150.0   30.0   50.0
100.0   0.0   50.0
100.0   30.0   50.0
150.0   30.0   50.0
100.0   30.0   33.333333333333336
100.0   0.0   50.0
150.0   30.0   50.0
150.0   0.0   50.0
150.0   0.0   33.333333333333336
100.0   0.0   50.0
150.0   30.0   50.0
150.0   0.0   33.333333333333336
100.0   30.0   33.333333333333336
100.0   30.0   0.0
150.0   30.0   0.0
100.0   60.0   0.0
100.0   30.0   16.666666666666668
150.0   30.0   0.0
150.0   60.0   0.0
100.0   60.0   0.0
150.0   60.0   16.666666666666668
100.0   30.0   16.666666666666668
100.0   60.0   16.666666666666668
150.0   60.0   16.666666666666668
100.0   60.0   0.0
100.0   30.0   16.666666666666668
150.0   60.0   16.666666666666668
150.0   30.0   16.666666666666668
150.0   30.0   0.0
100.0   30.0   16.666666666666668
150.0   60.0   16.666666666666668
150.0   30.0   0.0
100.0   60.0   0.0
100.0   30.0   16.666666666666668
150.0   30.0   16.666666666666668
100.0   60.0   16.666666666666668
100.0   30.0   33.333333333333336
150.0   30.0   16.666666666666668
150.0   60.0   16.666666666666668
100.0   60.0   16.666666666666668
150.0   60.0   33.333333333333336
100.0   30.0   33.333333333333336
100.0   60.0   33.333333333333336
150.0   60.0   33.333333333333336
100.0   60.0   16.666666666666668
100.0   30.0   33.333333333333336
150.0   60.0   33.333333333333336
150.0   30.0   33.333333333333336
150.0   30.0   16.666666666666668
100.0   30.0   33.333333333333336
150.0   60.0   33.333333333333336
150.0   30.0   16.666666666666668
100.0   60.0   16.666666666666668
100.0   30.0   33.333333333333336
150.0   30.0   33.333333333333336
100.0   60.0   33.333333333333336
100.0   30.0   50.0
150.0   30.0   33.333333333333336
150.0   60.0   33.333333333333336
100.0   60.0   33.333333333333336
150.0   60.0   50.0
100.0   30.0   50.0
100.0   60.0   50.0
150.0   60.0   50.0
100.0   60.0   33.333333333333336
100.0   30.0   50.0
150.0   60.0   50.0
150.0   30.0   50.0
150.0   30.0   33.333333333333336
100.0   30.0   50.0
150.0   60.0   50.0
150.0   30.0   33.333333333333336
100.0   60.0   33.333333333333336
100.0   60.0   0.0
150.0   60.0   0.0
100.0   90.0   0.0
100.0   60.0   16.666666666666668
150.0   60.0   0.0
150.0   90.0   0.0
100.0   90.0   0.0
150.0   90.0   16.666666666666668
100.0   60.0   16.666666666666668
100.0   90.0   16.666666666666668
150.0   90.0   16.666666666666668
100.0   90.0   0.0
100.0   60.0   16.666666666666668
150.0   90.0   16.666666666666668
150.0   60.0   16.666666666666668
150.0   60.0   0.0
100.0   60.0   16.666666666666668
150.0   90.0   16.666666666666668
150.0   60.0   0.0
100.0   90.0   0.0
100.0   60.0   16.666666666666668
150.0   60.0   16.666666666666668
100.0   90.0   16.666666666666668
100.0   60.0   33.333333333333336
150.0   60.0   16.666666666666668
150.0   90.0   16.666666666666668
100.0   90.0   16.666666666666668
150.0   90.0   33.333333333333336
100.0   60.0   33.333333333333336
100.0   90.0   33.333333333333336
150.0   90.0   33.333333333333336
100.0   90.0   16.666666666666668
100.0   60.0   33.333333333333336
150.0   90.0   33.333333333333336
150.0   60.0   33.333333333333336
150.0   60.0   16.666666666666668
100.0   60.0   33.333333333333336
150.0   90.0   33.333333333333336
150.0   60.0   16.666666666666668
100.0   90.0   16.666666666666668
100.0   60.0   33.333333333333336
150.0   60.0   33.333333333333336
100.0   90.0   33.333333333333336
100.0   60.0   50.0
150.0   60.0   33.333333333333336
150.0   90.0   33.333333333333336
100.0   90.0   33.333333333333336
150.0   90.0   50.0
100.0   60.0   50.0
100.0   90.0   50.0
150.0   90.0   50.0
100.0   90.0   33.333333333333336
100.0   60.0   50.0
150.0   90.0   50.0
150.0   60.0   50.0
150.0   60.0   33.333333333333336
100.0   60.0   50.0
150.0   90.0   50.0
150.0   60.0   33.333333333333336
100.0   90.0   33.333333333333336
100.0   90.0   0.0
150.0   90.0   0.0
100.0   120.0   0.0
100.0   90.0   16.666666666666668
150.0   90.0   0.0
150.0   120.0   0.0
100.0   120.0   0.0
150.0   120.0   16.666666666666668
100.0   90.0   16.666666666666668
100.0   120.0   16.666666666666668
150.0   120.0   16.666666666666668
100.0   120.0   0.0
100.0   90.0   16.666666666666668
150.0   120.0   16.666666666666668
150.0   90.0   16.666666666666668
150.0   90.0   0.0
100.0   90.0   16.666666666666668
150.0   120.0   16.666666666666668
150.0   90.0   0.0
100.0   120.0   0.0
100.0   90.0   16.666666666666668
150.0   90.0   16.666666666666668
100.0   120.0   16.666666666666668
100.0   90.0   33.333333333333336
150.0   90.0   16.666666666666668
150.0   120.0   16.666666666666668
100.0   120.0   16.666666666666668
150.0   120.0   33.333333333333336
100.0   90.0   33.333333333333336
100.0   120.0   33.333333333333336
150.0   120.0   33.333333333333336
100.0   120.0   16.666666666666668
100.0   90.0   33.333333333333336
150.0   120.0   33.333333333333336
150.0   90.0   33.333333333333336
150.0   90.0   16.666666666666668
100.0   90.0   33.333333333333336
150.0   120.0   33.333333333333336
150.0   90.0   16.666666666666668
100.0   120.0   16.666666666666668
100.0   90.0   33.333333333333336
150.0   90.0   33.333333333333336
100.0   120.0   33.333333333333336
100.0   90.0   50.0
150.0   90.0   33.333333333333336
150.0   120.0   33.333333333333336
100.0   120.0   33.333333333333336
150.0   120.0   50.0
100.0   90.0   50.0
100.0   120.0   50.0
150.0   120.0   50.0
100.0   120.0   33.333333333333336
100.0   90.0   50.0
150.0   120.0   50.0
150.0   90.0   50.0
150.0   90.0   33.333333333333336
100.0   90.0   50.0
150.0   120.0   50.0
150.0   90.0   33.333333333333336
100.0   120.0   33.333333333333336
100.0   120.0   0.0
150.0   120.0   0.0
100.0   150.0   0.0
100.0   120.0   16.666666666666668
150.0   120.0   0.0
150.0   150.0   0.0
100.0   150.0   0.0
150.0   150.0   16.666666666666668
100.0   120.0   16.666666666666668
100.0   150.0   16.666666666666668
150.0   150.0   16.666666666666668
100.0   150.0   0.0
100.0   120.0   16.666666666666668
150.0   150.0   16.666666666666668
150.0   120.0   16.666666666666668
150.0   120.0   0.0
100.0   120.0   16.666666666666668
150.0   150.0   16.666666666666668
150.0   120.0   0.0
100.0   150.0   0.0
100.0   120.0   16.666666666666668
150.0   120.0   16.666666666666668
100.0   150.0   16.666666666666668
100.0   120.0   33.333333333333336
150.0   120.0   16.666666666666668
150.0   150.0   16.666666666666668
100.0   150.0   16.666666666666668
150.0   150.0   33.333333333333336
100.0   120.0   33.333333333333336
100.0   150.0   33.333333333333336
150.0   150.0   33.333333333333336
100.0   150.0   16.666666666666668
100.0   120.0   33.333333333333336
150.0   150.0   33.333333333333336
150.0   120.0   33.333333333333336
150.0   120.0   16.666666666666668
100.0   120.0   33.333333333333336
150.0   150.0   33.333333333333336
150.0   120.0   16.666666666666668
100.0   150.0   16.666666666666668
100.0   120.0   33.333333333333336
150.0   120.0   33.333333333333336
100.0   150.0   33.333333333333336
100.0   120.0   50.0
150.0   120.0   33.333333333333336
150.0   150.0   33.333333333333336
100.0   150.0   33.333333333333336
150.0   150.0   50.0
100.0   120.0   50.0
100.0   150.0   50.0
150.0   150.0   50.0
100.0   150.0   33.333333333333336
100.0   120.0   50.0
150.0   150.0   50.0
150.0   120.0   50.0
150.0   120.0   33.333333333333336
100.0   120.0   50.0
150.0   150.0   50.0
150.0   120.0   33.333333333333336
100.0   150.0   33.333333333333336
150.0   0.0   0.0
200.0   0.0   0.0
150.0   30.0   0.0
150.0   0.0   16.666666666666668
200.0   0.0   0.0
200.0   30.0   0.0
150.0   30.0   0.0
200.0   30.0   16.666666666666668
150.0   0.0   16.666666666666668
150.0   30.0   16.666666666666668
200.0   30.0   16.666666666666668
150.0   30.0   0.0
150.0   0.0   16.666666666666668
200.0   30.0   16.666666666666668
200.0   0.0   16.666666666666668
200.0   0.0   0.0
150.0   0.0   16.666666666666668
200.0   30.0   16.666666666666668
200.0   0.0   0.0
150.0   30.0   0.0
150.0   0.0   16.666666666666668
200.0   0.0   16.666666666666668
150.0   30.0   16.666666666666668
150.0   0.0   33.333333333333336
200.0   0.0   16.666666666666668
200.0   30.0   16.666666666666668
150.0   30.0   16.666666666666668
200.0   30.0   33.333333333333336
150.0   0.0   33.333333333333336
150.0   30.0   33.333333333333336
200.0   30.0   33.333333333333336
150.0   30.0   16.666666666666668
150.0   0.0   33.333333333333336
200.0   30.0   33.333333333333336
200.0   0.0   33.333333333333336
200.0   0.0   16.666666666666668
150.0   0.0   33.333333333333336
200.0   30.0   33.333333333333336
200.0   0.0   16.666666666666668
150.0   30.0   16.666666666666668
150.0   0.0   33.333333333333336
200.0   0.0   33.333333333333336
150.0   30.0   33.333333333333336
150.0   0.0   50.0
200.0   0.0   33.333333333333336
200.0   30.0   33.333333333333336
150.0   30.0   33.333333333333336
200.0   30.0   50.0
150.0   0.0   50.0
150.0   30.0   50.0
200.0   30.0   50.0
150.0   30.0   33.333333333333336
150.0   0.0   50.0
200.0   30.0   50.0
200.0   0.0   50.0
200.0   0.0   33.333333333333336
150.0   0.0   50.0
200.0   30.0   50.0
200.0   0.0   33.333333333333336
150.0   30.0   33.333333333333336
150.0   30.0   0.0
200.0   30.0   0.0
150.0   60.0   0.0
150.0   30.0   16.666666666666668
200.0   30.0   0.0
200.0   60.0   0.0
150.0   60.0   0.0
200.0   60.0   16.666666666666668
150.0   30.0   16.666666666666668
150.0   60.0   16.666666666666668
200.0   60.0   16.666666666666668
150.0   60.0   0.0
150.0   30.0   16.666666666666668
200.0   60.0   16.666666666666668
200.0   30.0   16.666666666666668
200.0   30.0   0.0
150.0   30.0   16.666666666666668
200.0   60.0   16.666666666666668
200.0   30.0   0.0
150.0   60.0   0.0
150.0   30.0   16.666666666666668
200.0   30.0   16.666666666666668
150.0   60.0   16.666666666666668
150.0   30.0   33.333333333333336
200.0   30.0   16.666666666666668
200.0   60.0   16.666666666666668
150.0   60.0   16.666666666666668
200.0   60.0   33.333333333333336
150.0   30.0   33.333333333333336
150.0   60.0   33.333333333333336
200.0   60.0   33.333333333333336
150.0   60.0   16.666666666666668
150.0   30.0   33.333333333333336
200.0   60.0   33.333333333333336
200.0   30.0   33.333333333333336
200.0   30.0   16.666666666666668
150.0   30.0   33.333333333333336
200.0   60.0   33.333333333333336
200.0   30.0   16.666666666666668
150.0   60.0   16.666666666666668
150.0   30.0   33.333333333333336
200.0   30.0   33.333333333333336
150.0   60.0   33.333333333333336
150.0   30.0   50.0
200.0   30.0   33.333333333333336
200.0   60.0   33.333333333333336
150.0   60.0   33.333333333333336
200.0   60.0   50.0
150.0   30.0   50.0
150.0   60.0   50.0
200.0   60.0   50.0
150.0   60.0   33.333333333333336
150.0   30.0   50.0
200.0   60.0   50.0
200.0   30.0   50.0
200.0   30.0   33.333333333333336
150.0   30.0   50.0
200.0   60.0   50.0
200.0   30.0   33.333333333333336
150.0   60.0   33.333333333333336
150.0   60.0   0.0
200.0   60.0   0.0
150.0   90.0   0.0
150.0   60.0   16.666666666666668
200.0   60.0   0.0
200.0   90.0   0.0
150.0   90.0   0.0
200.0   90.0   16.666666666666668
150.0   60.0   16.666666666666668
150.0   90.0   16.666666666666668
200.0   90.0   16.666666666666668
150.0   90.0   0.0
150.0   60.0   16.666666666666668
200.0   90.0   16.666666666666668
200.0   60.0   16.666666666666668
200.0   60.0   0.0
150.0   60.0   16.666666666666668
200.0   90.0   16.666666666666668
200.0   60.0   0.0
150.0   90.0   0.0
150.0   60.0   16.666666666666668
200.0   60.0   16.666666666666668
150.0   90.0   16.666666666666668
150.0   60.0   33.333333333333336
200.0   60.0   16.666666666666668
200.0   90.0   16.666666666666668
150.0   90.0   16.666666666666668
200.0   90.0   33.333333333333336
150.0   60.0   33.333333333333336
150.0   90.0   33.333333333333336
200.0   90.0   33.333333333333336
150.0   90.0   16.666666666666668
150.0   60.0   33.333333333333336
200.0   90.0   33.333333333333336
200.0   60.0   33.333333333333336
200.0   60.0   16.666666666666668
150.0   60.0   33.333333333333336
200.0   90.0   33.333333333333336
200.0   60.0   16.666666666666668
150.0   90.0   16.666666666666668
150.0   60.0   33.333333333333336
200.0   60.0   33.333333333333336
150.0   90.0   33.333333333333336
150.0   60.0   50.0
200.0   60.0   33.333333333333336
200.0   90.0   33.333333333333336
150.0   90.0   33.333333333333336
200.0   90.0   50.0
150.0   60.0   50.0
150.0   90.0   50.0
200.0   90.0   50.0
150.0   90.0   33.333333333333336
150.0   60.0   50.0
200.0   90.0   50.0
200.0   60.0   50.0
200.0   60.0   33.333333333333336
150.0   60.0   50.0
200.0   90.0   50.0
200.0   60.0   33.333333333333336
150.0   90.0   33.333333333333336
150.0   90.0   0.0
200.0   90.0   0.0
150.0   120.0   0.0
150.0   90.0   16.666666666666668
200.0   90.0   0.0
200.0   120.0   0.0
150.0   120.0   0.0
200.0   120.0   16.666666666666668
150.0   90.0   16.666666666666668
150.0   120.0   16.666666666666668
200.0   120.0   16.666666666666668
150.0   120.0   0.0
150.0   90.0   16.666666666666668
200.0   120.0   16.666666666666668
200.0   90.0   16.666666666666668
200.0   90.0   0.0
150.0   90.0   16.666666666666668
200.0   120.0   16.666666666666668
200.0   90.0   0.0
150.0   120.0   0.0
150.0   90.0   16.666666666666668
200.0   90.0   16.666666666666668
150.0   120.0   16.666666666666668
150.0   90.0   33.333333333333336
200.0   90.0   16.666666666666668
200.0   120.0   16.666666666666668
150.0   120.0   16.666666666666668
200.0   120.0   33.333333333333336
150.0   90.0   33.333333333333336
150.0   120.0   33.333333333333336
200.0   120.0   33.333333333333336
150.0   120.0   16.666666666666668
150.0   90.0   33.333333333333336
200.0   120.0   33.333333333333336
200.0   90.0   33.333333333333336
200.0   90.0   16.666666666666668
150.0   90.0   33.333333333333336
200.0   120.0   33.333333333333336
200.0   90.0   16.666666666666668
150.0   120.0   16.666666666666668
150.0   90.0   33.333333333333336
200.0   90.0   33.333333333333336
150.0   120.0   33.333333333333336
150.0   90.0   50.0
200.0   90.0   33.333333333333336
200.0   120.0   33.333333333333336
150.0   120.0   33.333333333333336
200.0   120.0   50.0
150.0   90.0   50.0
150.0   120.0   50.0
200.0   120.0   50.0
150.0   120.0   33.333333333333336
150.0   90.0   50.0
200.0   120.0   50.0
200.0   90.0   50.0
200.0   90.0   33.333333333333336
150.0   90.0   50.0
200.0   120.0   50.0
200.0   90.0   33.333333333333336
150.0   120.0   33.333333333333336
150.0   120.0   0.0
200.0   120.0   0.0
150.0   150.0   0.0
150.0   120.0   16.666666666666668
200.0   120.0   0.0
200.0   150.0   0.0
150.0   150.0   0.0
200.0   150.0   16.666666666666668
150.0   120.0   16.666666666666668
150.0   150.0   16.666666666666668
200.0   150.0   16.666666666666668
150.0   150.0   0.0
150.0   120.0   16.666666666666668
200.0   150.0   16.666666666666668
200.0   120.0   16.666666666666668
200.0   120.0   0.0
150.0   120.0   16.666666666666668
200.0   150.0   16.666666666666668
200.0   120.0   0.0
150.0   150.0   0.0
150.0   120.0   16.666666666666668
200.0   120.0   16.666666666666668
150.0   150.0   16.666666666666668
150.0   120.0   33.333333333333336
200.0   120.0   16.666666666666668
200.0   150.0   16.666666666666668
150.0   150.0   16.666666666666668
200.0   150.0   33.333333333333336
150.0   120.0   33.333333333333336
150.0   150.0   33.333333333333336
200.0   150.0   33.333333333333336
150.0   150.0   16.666666666666668
150.0   120.0   33.333333333333336
200.0   150.0   33.333333333333336
200.0   120.0   33.333333333333336
200.0   120.0   16.666666666666668
150.0   120.0   33.333333333333336
200.0   150.0   33.333333333333336
200.0   120.0   16.666666666666668
150.0   150.0   16.666666666666668
150.0   120.0   33.333333333333336
200.0   120.0   33.333333333333336
150.0   150.0   33.333333333333336
150.0   120.0   50.0
200.0   120.0   33.333333333333336
200.0   150.0   33.333333333333336
150.0   150.0   33.333333333333336
200.0   150.0   50.0
150.0   120.0   50.0
150.0   150.0   50.0
200.0   150.0   50.0
150.0   150.0   33.333333333333336
150.0   120.0   50.0
200.0   150.0   50.0
200.0   120.0   50.0
200.0   120.0   33.333333333333336
150.0   120.0   50.0
200.0   150.0   50.0
200.0   120.0   33.333333333333336
150.0   150.0   33.333333333333336
200.0   0.0   0.0
250.0   0.0   0.0
200.0   30.0   0.0
200.0   0.0   16.666666666666668
250.0   0.0   0.0
250.0   30.0   0.0
200.0   30.0   0.0
250.0   30.0   16.666666666666668
200.0   0.0   16.666666666666668
200.0   30.0   16.666666666666668
250.0   30.0   16.666666666666668
200.0   30.0   0.0
200.0   0.0   16.666666666666668
250.0   30.0   16.666666666666668
250.0   0.0   16.666666666666668
250.0   0.0   0.0
200.0   0.0   16.666666666666668
250.0   30.0   16.666666666666668
250.0   0.0   0.0
200.0   30.0   0.0
200.0   0.0   16.666666666666668
250.0   0.0   16.666666666666668
200.0   30.0   16.666666666666668
200.0   0.0   33.333333333333336
250.0   0.0   16.666666666666668
250.0   30.0   16.666666666666668
200.0   30.0   16.666666666666668
250.0   30.0   33.333333333333336
200.0   0.0   33.333333333333336
200.0   30.0   33.333333333333336
250.0   30.0   33.333333333333336
200.0   30.0   16.666666666666668
200.0   0.0   33.333333333333336
250.0   30.0   33.333333333333336
250.0   0.0   33.333333333333336
250.0   0.0   16.666666666666668
200.0   0.0   33.333333333333336
250.0   30.0   33.333333333333336
250.0   0.0   16.666666666666668
200.0   30.0   16.666666666666668
200.0   0.0   33.333333333333336
250.0   0.0   33.333333333333336
200.0   30.0   33.333333333333336
200.0   0.0   50.0
250.0   0.0   33.333333333333336
250.0   30.0   33.333333333333336
200.0   30.0   33.333333333333336
250.0   30.0   50.0
200.0   0.0   50.0
200.0   30.0   50.0
250.0   30.0   50.0
200.0   30.0   33.333333333333336
200.0   0.0   50.0
250.0   30.0   50.0
250.0   0.0   50.0
250.0   0.0   33.333333333333336
200.0   0.0   50.0
250.0   30.0   50.0
250.0   0.0   33.333333333333336
200.0   30.0   33.333333333333336
200.0   30.0   0.0
250.0   30.0   0.0
200.0   60.0   0.0
200.0   30.0   16.666666666666668
250.0   30.0   0.0
250.0   60.0   0.0
200.0   60.0   0.0
250.0   60.0   16.666666666666668
200.0   30.0   16.666666666666668
200.0   60.0   16.666666666666668
250.0   60.0   16.666666666666668
200.0   60.0   0.0
200.0   30.0   16.666666666666668
250.0   60.0   16.666666666666668
250.0   30.0   16.666666666666668
250.0   30.0   0.0
200.0   30.0   16.666666666666668
250.0   60.0   16.666666666666668
250.0   30.0   0.0
200.0   60.0   0.0
200.0   30.0   16.666666666666668
250.0   30.0   16.666666666666668
200.0   60.0   16.666666666666668
200.0   30.0   33.333333333333336
250.0   30.0   16.666666666666668
250.0   60.0   16.666666666666668
200.0   60.0   16.666666666666668
250.0   60.0   33.333333333333336
200.0   30.0   33.333333333333336
200.0   60.0   33.333333333333336
250.0   60.0   33.333333333333336
200.0   60.0   16.666666666666668
200.0   30.0   33.333333333333336
250.0   60.0   33.333333333333336
250.0   30.0   33.333333333333336
250.0   30.0   16.666666666666668
200.0   30.0   33.333333333333336
250.0   60.0   33.333333333333336
250.0   30.0   16.666666666666668
200.0   60.0   16.666666666666668
200.0   30.0   33.333333333333336
250.0   30.0   33.333333333333336
200.0   60.0   33.333333333333336
200.0   30.0   50.0
250.0   30.0   33.333333333333336
250.0   60.0   33.333333333333336
200.0   60.0   33.333333333333336
250.0   60.0   50.0
200.0   30.0   50.0
200.0   60.0   50.0
250.0   60.0   50.0
200.0   60.0   33.333333333333336
200.0   30.0   50.0
250.0   60.0   50.0
250.0   30.0   50.0
250.0   30.0   33.333333333333336
200.0   30.0   50.0
250.0   60.0   50.0
250.0   30.0   33.333333333333336
200.0   60.0   33.333333333333336
200.0   60.0   0.0
250.0   60.0   0.0
200.0   90.0   0.0
200.0   60.0   16.666666666666668
250.0   60.0   0.0
250.0   90.0   0.0
200.0   90.0   0.0
250.0   90.0   16.666666666666668
200.0   60.0   16.666666666666668
200.0   90.0   16.666666666666668
250.0   90.0   16.666666666666668
200.0   90.0   0.0
200.0   60.0   16.666666666666668
250.0   90.0   16.666666666666668
250.0   60.0   16.666666666666668
250.0   60.0   0.0
200.0   60.0   16.666666666666668
250.0   90.0   16.666666666666668
250.0   60.0   0.0
200.0   90.0   0.0
200.0   60.0   16.666666666666668
250.0   60.0   16.666666666666668
200.0   90.0   16.666666666666668
200.0   60.0   33.333333333333336
250.0   60.0   16.666666666666668
250.0   90.0   16.666666666666668
200.0   90.0   16.666666666666668
250.0   90.0   33.333333333333336
200.0   60.0   33.333333333333336
200.0   90.0   33.333333333333336
250.0   90.0   33.333333333333336
200.0   90.0   16.666666666666668
200.0   60.0   33.333333333333336
250.0   90.0   33.333333333333336
250.0   60.0   33.333333333333336
250.0   60.0   16.666666666666668
200.0   60.0   33.333333333333336
250.0   90.0   33.333333333333336
250.0   60.0   16.666666666666668
200.0   90.0   16.666666666666668
200.0   60.0   33.333333333333336
250.0   60.0   33.333333333333336
200.0   90.0   33.333333333333336
200.0   60.0   50.0
250.0   60.0   33.333333333333336
250.0   90.0   33.333333333333336
200.0   90.0   33.333333333333336
250.0   90.0   50.0
200.0   60.0   50.0
200.0   90.0   50.0
250.0   90.0   50.0
200.0   90.0   33.333333333333336
200.0   60.0   50.0
250.0   90.0   50.0
250.0   60.0   50.0
250.0   60.0   33.333333333333336
200.0   60.0   50.0
250.0   90.0   50.0
250.0   60.0   33.333333333333336
200.0   90.0   33.333333333333336
200.0   90.0   0.0
250.0   90.0   0.0
200.0   120.0   0.0
200.0   90.0   16.666666666666668
250.0   90.0   0.0
250.0   120.0   0.0
200.0   120.0   0.0
250.0   120.0   16.666666666666668
200.0   90.0   16.666666666666668
200.0   120.0   16.666666666666668
250.0   120.0   16.666666666666668
200.0   120.0   0.0
200.0   90.0   16.666666666666668
250.0   120.0   16.666666666666668
250.0   90.0   16.666666666666668
250.0   90.0   0.0
200.0   90.0   16.666666666666668
250.0   120.0   16.666666666666668
250.0   90.0   0.0
200.0   120.0   0.0
200.0   90.0   16.666666666666668
250.0   90.0   16.666666666666668
200.0   120.0   16.666666666666668
200.0   90.0   33.333333333333336
250.0   90.0   16.666666666666668
250.0   120.0   16.666666666666668
200.0   120.0   16.666666666666668
250.0   120.0   33.333333333333336
200.0   90.0   33.333333333333336
200.0   120.0   33.333333333333336
250.0   120.0   33.333333333333336
200.0   120.0   16.666666666666668
200.0   90.0   33.333333333333336
250.0   120.0   33.333333333333336
250.0   90.0   33.333333333333336
250.0   90.0   16.666666666666668
200.0   90.0   33.333333333333336
250.0   120.0   33.333333333333336
250.0   90.0   16.666666666666668
200.0   120.0   16.666666666666668
200.0   90.0   33.333333333333336
250.0   90.0   33.333333333333336
200.0   120.0   33.333333333333336
200.0   90.0   50.0
250.0   90.0   33.333333333333336
250.0   120.0   33.333333333333336
200.0   120.0   33.333333333333336
250.0   120.0   50.0
200.0   90.0   50.0
200.0   120.0   50.0
250.0   120.0   50.0
200.0   120.0   33.333333333333336
200.0   90.0   50.0
250.0   120.0   50.0
250.0   90.0   50.0
250.0   90.0   33.333333333333336
200.0   90.0   50.0
250.0   120.0   50.0
250.0   90.0   33.333333333333336
200.0   120.0   33.333333333333336
200.0   120.0   0.0
250.0   120.0   0.0
200.0   150.0   0.0
200.0   120.0   16.666666666666668
250.0   120.0   0.0
250.0   150.0   0.0
200.0   150.0   0.0
250.0   150.0   16.666666666666668
200.0   120.0   16.666666666666668
200.0   150.0   16.666666666666668
250.0   150.0   16.666666666666668
200.0   150.0   0.0
200.0   120.0   16.666666666666668
250.0   150.0   16.666666666666668
250.0   120.0   16.666666666666668
250.0   120.0   0.0
200.0   120.0   16.666666666666668
250.0   150.0   16.666666666666668
250.0   120.0   0.0
200.0   150.0   0.0
200.0   120.0   16.666666666666668
250.0   120.0   16.666666666666668
200.0   150.0   16.666666666666668
200.0   120.0   33.333333333333336
250.0   120.0   16.666666666666668
250.0   150.0   16.666666666666668
200.0   150.0   16.666666666666668
250.0   150.0   33.333333333333336
200.0   120.0   33.333333333333336
200.0   150.0   33.333333333333336
250.0   150.0   33.333333333333336
200.0   150.0   16.666666666666668
200.0   120.0   33.333333333333336
250.0   150.0   33.333333333333336
250.0   120.0   33.333333333333336
250.0   120.0   16.666666666666668
200.0   120.0   33.333333333333336
250.0   150.0   33.333333333333336
250.0   120.0   16.666666666666668
200.0   150.0   16.666666666666668
200.0   120.0   33.333333333333336
250.0   120.0   33.333333333333336
200.0   150.0   33.333333333333336
200.0   120.0   50.0
250.0   120.0   33.333333333333336
250.0   150.0   33.333333333333336
200.0   150.0   33.333333333333336
250.0   150.0   50.0
200.0   120.0   50.0
200.0   150.0   50.0
250.0   150.0   50.0
200.0   150.0   33.333333333333336
200.0   120.0   50.0
250.0   150.0   50.0
250.0   120.0   50.0
250.0   120.0   33.333333333333336
200.0   120.0   50.0
250.0   150.0   50.0
250.0   120.0   33.333333333333336
200.0   150.0   33.333333333333336
250.0   0.0   0.0
300.0   0.0   0.0
250.0   30.0   0.0
250.0   0.0   16.666666666666668
300.0   0.0   0.0
300.0   30.0   0.0
250.0   30.0   0.0
300.0   30.0   16.666666666666668
250.0   0.0   16.666666666666668
250.0   30.0   16.666666666666668
300.0   30.0   16.666666666666668
250.0   30.0   0.0
250.0   0.0   16.666666666666668
300.0   30.0   16.666666666666668
300.0   0.0   16.666666666666668
300.0   0.0   0.0
250.0   0.0   16.666666666666668
300.0   30.0   16.666666666666668
300.0   0.0   0.0
250.0   30.0   0.0
250.0   0.0   16.666666666666668
300.0   0.0   16.666666666666668
250.0   30.0   16.666666666666668
250.0   0.0   33.333333333333336
300.0   0.0   16.666666666666668
300.0   30.0   16.666666666666668
250.0   30.0   16.666666666666668
300.0   30.0   33.333333333333336
250.0   0.0   33.333333333333336
250.0   30.0   33.333333333333336
300.0   30.0   33.333333333333336
250.0   30.0   16.666666666666668
250.0   0.0   33.333333333333336
300.0   30.0   33.333333333333336
300.0   0.0   33.333333333333336
300.0   0.0   16.666666666666668
250.0   0.0   33.333333333333336
300.0   30.0   33.333333333333336
300.0   0.0   16.666666666666668
250.0   30.0   16.666666666666668
250.0   0.0   33.333333333333336
300.0   0.0   33.333333333333336
250.0   30.0   33.333333333333336
250.0   0.0   50.0
300.0   0.0   33.333333333333336
300.0   30.0   33.333333333333336
250.0   30.0   33.333333333333336
300.0   30.0   50.0
250.0   0.0   50.0
250.0   30.0   50.0
300.0   30.0   50.0
250.0   30.0   33.333333333333336
250.0   0.0   50.0
300.0   30.0   50.0
300.0   0.0   50.0
300.0   0.0   33.333333333333336
250.0   0.0   50.0
300.0   30.0   50.0
300.0   0.0   33.333333333333336
250.0   30.0   33.333333333333336
250.0   30.0   0.0
300.0   30.0   0.0
250.0   60.0   0.0
250.0   30.0   16.666666666666668
300.0   30.0   0.0
300.0   60.0   0.0
250.0   60.0   0.0
300.0   60.0   16.666666666666668
250.0   30.0   16.666666666666668
250.0   60.0   16.666666666666668
300.0   60.0   16.666666666666668
250.0   60.0   0.0
250.0   30.0   16.666666666666668
300.0   60.0   16.666666666666668
300.0   30.0   16.666666666666668
300.0   30.0   0.0
250.0   30.0   16.666666666666668
300.0   60.0   16.666666666666668
300.0   30.0   0.0
250.0   60.0   0.0
250.0   30.0   16.666666666666668
300.0   30.0   16.666666666666668
250.0   60.0   16.666666666666668
250.0   30.0   33.333333333333336
300.0   30.0   16.666666666666668
300.0   60.0   16.666666666666668
250.0   60.0   16.666666666666668
300.0   60.0   33.333333333333336
250.0   30.0   33.333333333333336
250.0   60.0   33.333333333333336
300.0   60.0   33.333333333333336
250.0   60.0   16.666666666666668
250.0   30.0   33.333333333333336
300.0   60.0   33.333333333333336
300.0   30.0   33.333333333333336
300.0   30.0   16.666666666666668
250.0   30.0   33.333333333333336
300.0   60.0   33.333333333333336
300.0   30.0   16.666666666666668
250.0   60.0   16.666666666666668
250.0   30.0   33.333333333333336
300.0   30.0   33.333333333333336
250.0   60.0   33.333333333333336
250.0   30.0   50.0
300.0   30.0   33.333333333333336
300.0   60.0   33.333333333333336
250.0   60.0   33.333333333333336
300.0   60.0   50.0
250.0   30.0   50.0
250.0   60.0   50.0
300.0   60.0   50.0
250.0   60.0   33.333333333333336
250.0   30.0   50.0
300.0   60.0   50.0
300.0   30.0   50.0
300.0   30.0   33.333333333333336
250.0   30.0   50.0
300.0   60.0   50.0
300.0   30.0   33.333333333333336
250.0   60.0   33.333333333333336
250.0   60.0   0.0
300.0   60.0   0.0
250.0   90.0   0.0
250.0   60.0   16.666666666666668
300.0   60.0   0.0
300.0   90.0   0.0
250.0   90.0   0.0
300.0   90.0   16.666666666666668
250.0   60.0   16.666666666666668
250.0   90.0   16.666666666666668
300.0   90.0   16.666666666666668
250.0   90.0   0.0
250.0   60.0   16.666666666666668
300.0   90.0   16.666666666666668
300.0   60.0   16.666666666666668
300.0   60.0   0.0
250.0   60.0   16.666666666666668
300.0   90.0   16.666666666666668
300.0   60.0   0.0
250.0   90.0   0.0
250.0   60.0   16.666666666666668
300.0   60.0   16.666666666666668
250.0   90.0   16.666666666666668
250.0   60.0   33.333333333333336
300.0   60.0   16.666666666666668
300.0   90.0   16.666666666666668
250.0   90.0   16.666666666666668
300.0   90.0   33.333333333333336
250.0   60.0   33.333333333333336
250.0   90.0   33.333333333333336
300.0   90.0   33.333333333333336
250.0   90.0   16.666666666666668
250.0   60.0   33.333333333333336
300.0   90.0   33.333333333333336
300.0   60.0   33.333333333333336
300.0   60.0   16.666666666666668
250.0   60.0   33.333333333333336
300.0   90.0   33.333333333333336
300.0   60.0   16.666666666666668
250.0   90.0   16.666666666666668
250.0   60.0   33.333333333333336
300.0   60.0   33.333333333333336
250.0   90.0   33.333333333333336
250.0   60.0   50.0
300.0   60.0   33.333333333333336
300.0   90.0   33.333333333333336
250.0   90.0   33.333333333333336
300.0   90.0   50.0
250.0   60.0   50.0
250.0   90.0   50.0
300.0   90.0   50.0
250.0   90.0   33.333333333333336
250.0   60.0   50.0
300.0   90.0   50.0
300.0   60.0   50.0
300.0   60.0   33.333333333333336
250.0   60.0   50.0
300.0   90.0   50.0
300.0   60.0   33.333333333333336
250.0   90.0   33.333333333333336
250.0   90.0   0.0
300.0   90.0   0.0
250.0   120.0   0.0
250.0   90.0   16.666666666666668
300.0   90.0   0.0
300.0   120.0   0.0
250.0   120.0   0.0
300.0   120.0   16.666666666666668
250.0   90.0   16.666666666666668
250.0   120.0   16.666666666666668
300.0   120.0   16.666666666666668
250.0   120.0   0.0
250.0   90.0   16.666666666666668
300.0   120.0   16.666666666666668
300.0   90.0   16.666666666666668
300.0   90.0   0.0
250.0   90.0   16.666666666666668
300.0   120.0   16.666666666666668
300.0   90.0   0.0
250.0   120.0   0.0
250.0   90.0   16.666666666666668
300.0   90.0   16.666666666666668
250.0   120.0   16.666666666666668
250.0   90.0   33.333333333333336
300.0   90.0   16.666666666666668
300.0   120.0   16.666666666666668
250.0   120.0   16.666666666666668
300.0   120.0   33.333333333333336
250.0   90.0   33.333333333333336
250.0   120.0   33.333333333333336
300.0   120.0   33.333333333333336
250.0   120.0   16.666666666666668
250.0   90.0   33.333333333333336
300.0   120.0   33.333333333333336
300.0   90.0   33.333333333333336
300.0   90.0   16.666666666666668
250.0   90.0   33.333333333333336
300.0   120.0   33.333333333333336
300.0   90.0   16.666666666666668
250.0   120.0   16.666666666666668
250.0   90.0   33.333333333333336
300.0   90.0   33.333333333333336
250.0   120.0   33.333333333333336
250.0   90.0   50.0
300.0   90.0   33.333333333333336
300.0   120.0   33.333333333333336
250.0   120.0   33.333333333333336
300.0   120.0   50.0
250.0   90.0   50.0
250.0   120.0   50.0
300.0   120.0   50.0
250.0   120.0   33.333333333333336
250.0   90.0   50.0
300.0   120.0   50.0
300.0   90.0   50.0
300.0   90.0   33.333333333333336
250.0   90.0   50.0
300.0   120.0   50.0
300.0   90.0   33.333333333333336
250.0   120.0   33.333333333333336
250.0   120.0   0.0
300.0   120.0   0.0
250.0   150.0   0.0
250.0   120.0   16.666666666666668
300.0   120.0   0.0
300.0   150.0   0.0
250.0   150.0   0.0
300.0   150.0   16.666666666666668
250.0   120.0   16.666666666666668
250.0   150.0   16.666666666666668
300.0   150.0   16.666666666666668
250.0   150.0   0.0
250.0   120.0   16.666666666666668
300.0   150.0   16.666666666666668
300.0   120.0   16.666666666666668
300.0   120.0   0.0
250.0   120.0   16.666666666666668
300.0   150.0   16.666666666666668
300.0   120.0   0.0
250.0   150.0   0.0
250.0   120.0   16.666666666666668
300.0   120.0   16.666666666666668
250.0   150.0   16.666666666666668
250.0   120.0   33.333333333333336
300.0   120.0   16.666666666666668
300.0   150.0   16.666666666666668
250.0   150.0   16.666666666666668
300.0   150.0   33.333333333333336
250.0   120.0   33.333333333333336
250.0   150.0   33.333333333333336
300.0   150.0   33.333333333333336
250.0   150.0   16.666666666666668
250.0   120.0   33.333333333333336
300.0   150.0   33.333333333333336
300.0   120.0   33.333333333333336
300.0   120.0   16.666666666666668
250.0   120.0   33.333333333333336
300.0   150.0   33.333333333333336
300.0   120.0   16.666666666666668
250.0   150.0   16.666666666666668
250.0   120.0   33.333333333333336
300.0   120.0   33.333333333333336
250.0   150.0   33.333333333333336
250.0   120.0   50.0
300.0   120.0   33.333333333333336
300.0   150.0   33.333333333333336
250.0   150.0   33.333333333333336
300.0   150.0   50.0
250.0   120.0   50.0
250.0   150.0   50.0
300.0   150.0   50.0
250.0   150.0   33.333333333333336
250.0   120.0   50.0
300.0   150.0   50.0
300.0   120.0   50.0
300.0   120.0   33.333333333333336
250.0   120.0   50.0
300.0   150.0   50.0
300.0   120.0   33.333333333333336
250.0   150.0   33.333333333333336
300.0   0.0   0.0
350.0   0.0   0.0
300.0   30.0   0.0
300.0   0.0   16.666666666666668
350.0   0.0   0.0
350.0   30.0   0.0
300.0   30.0   0.0
350.0   30.0   16.666666666666668
300.0   0.0   16.666666666666668
300.0   30.0   16.666666666666668
350.0   30.0   16.666666666666668
300.0   30.0   0.0
300.0   0.0   16.666666666666668
350.0   30.0   16.666666666666668
350.0   0.0   16.666666666666668
350.0   0.0   0.0
300.0   0.0   16.666666666666668
350.0   30.0   16.666666666666668
350.0   0.0   0.0
300.0   30.0   0.0
300.0   0.0   16.666666666666668
350.0   0.0   16.666666666666668
300.0   30.0   16.666666666666668
300.0   0.0   33.333333333333336
350.0   0.0   16.666666666666668
350.0   30.0   16.666666666666668
300.0   30.0   16.666666666666668
350.0   30.0   33.333333333333336
300.0   0.0   33.333333333333336
300.0   30.0   33.333333333333336
350.0   30.0   33.333333333333336
300.0   30.0   16.666666666666668
300.0   0.0   33.333333333333336
350.0   30.0   33.333333333333336
350.0   0.0   33.333333333333336
350.0   0.0   16.666666666666668
300.0   0.0   33.333333333333336
350.0   30.0   33.333333333333336
350.0   0.0   16.666666666666668
300.0   30.0   16.666666666666668
300.0   0.0   33.333333333333336
350.0   0.0   33.333333333333336
300.0   30.0   33.333333333333336
300.0   0.0   50.0
350.0   0.0   33.333333333333336
350.0   30.0   33.333333333333336
300.0   30.0   33.333333333333336
350.0   30.0   50.0
300.0   0.0   50.0
300.0   30.0   50.0
350.0   30.0   50.0
300.0   30.0   33.333333333333336
300.0   0.0   50.0
350.0   30.0   50.0
350.0   0.0   50.0
350.0   0.0   33.333333333333336
300.0   0.0   50.0
350.0   30.0   50.0
350.0   0.0   33.333333333333336
300.0   30.0   33.333333333333336
300.0   30.0   0.0
350.0   30.0   0.0
300.0   60.0   0.0
300.0   30.0   16.666666666666668
350.0   30.0   0.0
350.0   60.0   0.0
300.0   60.0   0.0
350.0   60.0   16.666666666666668
300.0   30.0   16.666666666666668
300.0   60.0   16.666666666666668
350.0   60.0   16.666666666666668
300.0   60.0   0.0
300.0   30.0   16.666666666666668
350.0   60.0   16.666666666666668
350.0   30.0   16.666666666666668
350.0   30.0   0.0
300.0   30.0   16.666666666666668
350.0   60.0   16.666666666666668
350.0   30.0   0.0
300.0   60.0   0.0
300.0   30.0   16.666666666666668
350.0   30.0   16.666666666666668
300.0   60.0   16.666666666666668
300.0   30.0   33.333333333333336
350.0   30.0   16.666666666666668
350.0   60.0   16.666666666666668
300.0   60.0   16.666666666666668
350.0   60.0   33.333333333333336
300.0   30.0   33.333333333333336
300.0   60.0   33.333333333333336
350.0   60.0   33.333333333333336
300.0   60.0   16.666666666666668
300.0   30.0   33.333333333333336
350.0   60.0   33.333333333333336
350.0   30.0   33.333333333333336
350.0   30.0   16.666666666666668
300.0   30.0   33.333333333333336
350.0   60.0   33.333333333333336
350.0   30.0   16.666666666666668
300.0   60.0   16.666666666666668
300.0   30.0   33.333333333333336
350.0   30.0   33.333333333333336
300.0   60.0   33.333333333333336
300.0   30.0   50.0
350.0   30.0   33.333333333333336
350.0   60.0   33.333333333333336
300.0   60.0   33.333333333333336
350.0   60.0   50.0
300.0   30.0   50.0
300.0   60.0   50.0
350.0   60.0   50.0
300.0   60.0   33.333333333333336
300.0   30.0   50.0
350.0   60.0   50.0
350.0   30.0   50.0
350.0   30.0   33.333333333333336
300.0   30.0   50.0
350.0   60.0   50.0
350.0   30.0   33.333333333333336
300.0   60.0   33.333333333333336
300.0   60.0   0.0
350.0   60.0   0.0
300.0   90.0   0.0
300.0   60.0   16.666666666666668
350.0   60.0   0.0
350.0   90.0   0.0
300.0   90.0   0.0
350.0   90.0   16.666666666666668
300.0   60.0   16.666666666666668
300.0   90.0   16.666666666666668
350.0   90.0   16.666666666666668
300.0   90.0   0.0
300.0   60.0   16.666666666666668
350.0   90.0   16.666666666666668
350.0   60.0   16.666666666666668
350.0   60.0   0.0
300.0   60.0   16.666666666666668
350.0   90.0   16.666666666666668
350.0   60.0   0.0
300.0   90.0   0.0
300.0   60.0   16.666666666666668
350.0   60.0   16.666666666666668
300.0   90.0   16.666666666666668
300.0   60.0   33.333333333333336
350.0   60.0   16.666666666666668
350.0   90.0   16.666666666666668
300.0   90.0   16.666666666666668
350.0   90.0   33.333333333333336
300.0   60.0   33.333333333333336
300.0   90.0   33.333333333333336
350.0   90.0   33.333333333333336
300.0   90.0   16.666666666666668
300.0   60.0   33.333333333333336
350.0   90.0   33.333333333333336
350.0   60.0   33.333333333333336
350.0   60.0   16.666666666666668
300.0   60.0   33.333333333333336
350.0   90.0   33.333333333333336
350.0   60.0   16.666666666666668
300.0   90.0   16.666666666666668
300.0   60.0   33.333333333333336
350.0   60.0   33.333333333333336
300.0   90.0   33.333333333333336
300.0   60.0   50.0
350.0   60.0   33.333333333333336
350.0   90.0   33.333333333333336
300.0   90.0   33.333333333333336
350.0   90.0   50.0
300.0   60.0   50.0
300.0   90.0   50.0
350.0   90.0   50.0
300.0   90.0   33.333333333333336
300.0   60.0   50.0
350.0   90.0   50.0
350.0   60.0   50.0
350.0   60.0   33.333333333333336
300.0   60.0   50.0
350.0   90.0   50.0
350.0   60.0   33.333333333333336
300.0   90.0   33.333333333333336
300.0   90.0   0.0
350.0   90.0   0.0
300.0   120.0   0.0
300.0   90.0   16.666666666666668
350.0   90.0   0.0
350.0   120.0   0.0
300.0   120.0   0.0
350.0   120.0   16.666666666666668
300.0   90.0   16.666666666666668
300.0   120.0   16.666666666666668
350.0   120.0   16.666666666666668
300.0   120.0   0.0
300.0   90.0   16.666666666666668
350.0   120.0   16.666666666666668
350.0   90.0   16.666666666666668
350.0   90.0   0.0
300.0   90.0   16.666666666666668
350.0   120.0   16.666666666666668
350.0   90.0   0.0
300.0   120.0   0.0
300.0   90.0   16.666666666666668
350.0   90.0   16.666666666666668
300.0   120.0   16.666666666666668
300.0   90.0   33.333333333333336
350.0   90.0   16.666666666666668
350.0   120.0   16.666666666666668
300.0   120.0   16.666666666666668
350.0   120.0   33.333333333333336
300.0   90.0   33.333333333333336
300.0   120.0   33.333333333333336
350.0   120.0   33.333333333333336
300.0   120.0   16.666666666666668
300.0   90.0   33.333333333333336
350.0   120.0   33.333333333333336
350.0   90.0   33.333333333333336
350.0   90.0   16.666666666666668
300.0   90.0   33.333333333333336
350.0   120.0   33.333333333333336
350.0   90.0   16.666666666666668
300.0   120.0   16.666666666666668
300.0   90.0   33.333333333333336
350.0   90.0   33.333333333333336
300.0   120.0   33.333333333333336
300.0   90.0   50.0
350.0   90.0   33.333333333333336
350.0   120.0   33.333333333333336
300.0   120.0   33.333333333333336
350.0   120.0   50.0
300.0   90.0   50.0
300.0   120.0   50.0
350.0   120.0   50.0
300.0   120.0   33.333333333333336
300.0   90.0   50.0
350.0   120.0   50.0
350.0   90.0   50.0
350.0   90.0   33.333333333333336
300.0   90.0   50.0
350.0   120.0   50.0
350.0   90.0   33.333333333333336
300.0   120.0   33.333333333333336
300.0   120.0   0.0
350.0   120.0   0.0
300.0   150.0   0.0
300.0   120.0   16.666666666666668
350.0   120.0   0.0
350.0   150.0   0.0
300.0   150.0   0.0
350.0   150.0   16.666666666666668
300.0   120.0   16.666666666666668
300.0   150.0   16.666666666666668
350.0   150.0   16.666666666666668
300.0   150.0   0.0
300.0   120.0   16.666666666666668
350.0   150.0   16.666666666666668
350.0   120.0   16.666666666666668
350.0   120.0   0.0
300.0   120.0   16.666666666666668
350.0   150.0   16.666666666666668
350.0   120.0   0.0
300.0   150.0   0.0
300.0   120.0   16.666666666666668
350.0   120.0   16.666666666666668
300.0   150.0   16.666666666666668
300.0   120.0   33.333333333333336
350.0   120.0   16.666666666666668
350.0   150.0   16.666666666666668
300.0   150.0   16.666666666666668
350.0   150.0   33.333333333333336
300.0   120.0   33.333333333333336
300.0   150.0   33.333333333333336
350.0   150.0   33.333333333333336
300.0   150.0   16.666666666666668
300.0   120.0   33.333333333333336
350.0   150.0   33.333333333333336
350.0   120.0   33.333333333333336
350.0   120.0   16.666666666666668
300.0   120.0   33.333333333333336
350.0   150.0   33.333333333333336
350.0   120.0   16.666666666666668
300.0   150.0   16.666666666666668
300.0   120.0   33.333333333333336
350.0   120.0   33.333333333333336
300.0   150.0   33.333333333333336
300.0   120.0   50.0
350.0   120.0   33.333333333333336
350.0   150.0   33.333333333333336
300.0   150.0   33.333333333333336
350.0   150.0   50.0
300.0   120.0   50.0
300.0   150.0   50.0
350.0   150.0   50.0
300.0   150.0   33.333333333333336
300.0   120.0   50.0
350.0   150.0   50.0
350.0   120.0   50.0
350.0   120.0   33.333333333333336
300.0   120.0   50.0
350.0   150.0   50.0
350.0   120.0   33.333333333333336
300.0   150.0   33.333333333333336
350.0   0.0   0.0
400.0   0.0   0.0
350.0   30.0   0.0
350.0   0.0   16.666666666666668
400.0   0.0   0.0
400.0   30.0   0.0
350.0   30.0   0.0
400.0   30.0   16.666666666666668
350.0   0.0   16.666666666666668
350.0   30.0   16.666666666666668
400.0   30.0   16.666666666666668
350.0   30.0   0.0
350.0   0.0   16.666666666666668
400.0   30.0   16.666666666666668
400.0   0.0   16.666666666666668
400.0   0.0   0.0
350.0   0.0   16.666666666666668
400.0   30.0   16.666666666666668
400.0   0.0   0.0
350.0   30.0   0.0
350.0   0.0   16.666666666666668
400.0   0.0   16.666666666666668
350.0   30.0   16.666666666666668
350.0   0.0   33.333333333333336
400.0   0.0   16.666666666666668
400.0   30.0   16.666666666666668
350.0   30.0   16.666666666666668
400.0   30.0   33.333333333333336
350.0   0.0   33.333333333333336
350.0   30.0   33.333333333333336
400.0   30.0   33.333333333333336
350.0   30.0   16.666666666666668
350.0   0.0   33.333333333333336
400.0   30.0   33.333333333333336
400.0   0.0   33.333333333333336
400.0   0.0   16.666666666666668
350.0   0.0   33.333333333333336
400.0   30.0   33.333333333333336
400.0   0.0   16.666666666666668
350.0   30.0   16.666666666666668
350.0   0.0   33.333333333333336
400.0   0.0   33.333333333333336
350.0   30.0   33.333333333333336
350.0   0.0   50.0
400.0   0.0   33.333333333333336
400.0   30.0   33.333333333333336
350.0   30.0   33.333333333333336
400.0   30.0   50.0
350.0   0.0   50.0
350.0   30.0   50.0
400.0   30.0   50.0
350.0   30.0   33.333333333333336
350.0   0.0   50.0
400.0   30.0   50.0
400.0   0.0   50.0
400.0   0.0   33.333333333333336
350.0   0.0   50.0
400.0   30.0   50.0
400.0   0.0   33.333333333333336
350.0   30.0   33.333333333333336
350.0   30.0   0.0
400.0   30.0   0.0
350.0   60.0   0.0
350.0   30.0   16.666666666666668
400.0   30.0   0.0
400.0   60.0   0.0
350.0   60.0   0.0
400.0   60.0   16.666666666666668
350.0   30.0   16.666666666666668
350.0   60.0   16.666666666666668
400.0   60.0   16.666666666666668
350.0   60.0   0.0
350.0   30.0   16.666666666666668
400.0   60.0   16.666666666666668
400.0   30.0   16.666666666666668
400.0   30.0   0.0
350.0   30.0   16.666666666666668
400.0   60.0   16.666666666666668
400.0   30.0   0.0
350.0   60.0   0.0
350.0   30.0   16.666666666666668
400.0   30.0   16.666666666666668
350.0   60.0   16.666666666666668
350.0   30.0   33.333333333333336
400.0   30.0   16.666666666666668
400.0   60.0   16.666666666666668
350.0   60.0   16.666666666666668
400.0   60.0   33.333333333333336
350.0   30.0   33.333333333333336
350.0   60.0   33.333333333333336
400.0   60.0   33.333333333333336
350.0   60.0   16.666666666666668
350.0   30.0   33.333333333333336
400.0   60.0   33.333333333333336
400.0   30.0   33.333333333333336
400.0   30.0   16.666666666666668
350.0   30.0   33.333333333333336
400.0   60.0   33.333333333333336
400.0   30.0   16.666666666666668
350.0   60.0   16.666666666666668
350.0   30.0   33.333333333333336
400.0   30.0   33.333333333333336
350.0   60.0   33.333333333333336
350.0   30.0   50.0
400.0   30.0   33.333333333333336
400.0   60.0   33.333333333333336
350.0   60.0   33.333333333333336
400.0   60.0   50.0
350.0   30.0   50.0
350.0   60.0   50.0
400.0   60.0   50.0
350.0   60.0   33.333333333333336
350.0   30.0   50.0
400.0   60.0   50.0
400.0   30.0   50.0
400.0   30.0   33.333333333333336
350.0   30.0   50.0
400.0   60.0   50.0
400.0   30.0   33.333333333333336
350.0   60.0   33.333333333333336
350.0   60.0   0.0
400.0   60.0   0.0
350.0   90.0   0.0
350.0   60.0   16.666666666666668
400.0   60.0   0.0
400.0   90.0   0.0
350.0   90.0   0.0
400.0   90.0   16.666666666666668
350.0   60.0   16.666666666666668
350.0   90.0   16.666666666666668
400.0   90.0   16.666666666666668
350.0   90.0   0.0
350.0   60.0   16.666666666666668
400.0   90.0   16.666666666666668
400.0   60.0   16.666666666666668
400.0   60.0   0.0
350.0   60.0   16.666666666666668
400.0   90.0   16.666666666666668
400.0   60.0   0.0
350.0   90.0   0.0
350.0   60.0   16.666666666666668
400.0   60.0   16.666666666666668
350.0   90.0   16.666666666666668
350.0   60.0   33.333333333333336
400.0   60.0   16.666666666666668
400.0   90.0   16.666666666666668
350.0   90.0   16.666666666666668
400.0   90.0   33.333333333333336
350.0   60.0   33.333333333333336
350.0   90.0   33.333333333333336
400.0   90.0   33.333333333333336
350.0   90.0   16.666666666666668
350.0   60.0   33.333333333333336
400.0   90.0   33.333333333333336
400.0   60.0   33.333333333333336
400.0   60.0   16.666666666666668
350.0   60.0   33.333333333333336
400.0   90.0   33.333333333333336
400.0   60.0   16.666666666666668
350.0   90.0   16.666666666666668
350.0   60.0   33.333333333333336
400.0   60.0   33.333333333333336
350.0   90.0   33.333333333333336
350.0   60.0   50.0
400.0   60.0   33.333333333333336
400.0   90.0   33.333333333333336
350.0   90.0   33.333333333333336
400.0   90.0   50.0
350.0   60.0   50.0
350.0   90.0   50.0
400.0   90.0   50.0
350.0   90.0   33.333333333333336
350.0   60.0   50.0
400.0   90.0   50.0
400.0   60.0   50.0
400.0   60.0   33.333333333333336
350.0   60.0   50.0
400.0   90.0   50.0
400.0   60.0   33.333333333333336
350.0   90.0   33.333333333333336
350.0   90.0   0.0
400.0   90.0   0.0
350.0   120.0   0.0
350.0   90.0   16.666666666666668
400.0   90.0   0.0
400.0   120.0   0.0
350.0   120.0   0.0
400.0   120.0   16.666666666666668
350.0   90.0   16.666666666666668
350.0   120.0   16.666666666666668
400.0   120.0   16.666666666666668
350.0   120.0   0.0
350.0   90.0   16.666666666666668
400.0   120.0   16.666666666666668
400.0   90.0   16.666666666666668
400.0   90.0   0.0
350.0   90.0   16.666666666666668
400.0   120.0   16.666666666666668
400.0   90.0   0.0
350.0   120.0   0.0
350.0   90.0   16.666666666666668
400.0   90.0   16.666666666666668
350.0   120.0   16.666666666666668
350.0   90.0   33.333333333333336
400.0   90.0   16.666666666666668
400.0   120.0   16.666666666666668
350.0   120.0   16.666666666666668
400.0   120.0   33.333333333333336
350.0   90.0   33.333333333333336
350.0   120.0   33.333333333333336
400.0   120.0   33.333333333333336
350.0   120.0   16.666666666666668
350.0   90.0   33.333333333333336
400.0   120.0   33.333333333333336
400.0   90.0   33.333333333333336
400.0   90.0   16.666666666666668
350.0   90.0   33.333333333333336
400.0   120.0   33.333333333333336
400.0   90.0   16.666666666666668
350.0   120.0   16.666666666666668
350.0   90.0   33.333333333333336
400.0   90.0   33.333333333333336
350.0   120.0   33.333333333333336
350.0   90.0   50.0
400.0   90.0   33.333333333333336
400.0   120.0   33.333333333333336
350.0   120.0   33.333333333333336
400.0   120.0   50.0
350.0   90.0   50.0
350.0   120.0   50.0
400.0   120.0   50.0
350.0   120.0   33.333333333333336
350.0   90.0   50.0
400.0   120.0   50.0
400.0   90.0   50.0
400.0   90.0   33.333333333333336
350.0   90.0   50.0
400.0   120.0   50.0
400.0   90.0   33.333333333333336
350.0   120.0   33.333333333333336
350.0   120.0   0.0
400.0   120.0   0.0
350.0   150.0   0.0
350.0   120.0   16.666666666666668
400.0   120.0   0.0
400.0   150.0   0.0
350.0   150.0   0.0
400.0   150.0   16.666666666666668
350.0   120.0   16.666666666666668
350.0   150.0   16.666666666666668
400.0   150.0   16.666666666666668
350.0   150.0   0.0
350.0   120.0   16.666666666666668
400.0   150.0   16.666666666666668
400.0   120.0   16.666666666666668
400.0   120.0   0.0
350.0   120.0   16.666666666666668
400.0   150.0   16.666666666666668
400.0   120.0   0.0
350.0   150.0   0.0
350.0   120.0   16.666666666666668
400.0   120.0   16.666666666666668
350.0   150.0   16.666666666666668
350.0   120.0   33.333333333333336
400.0   120.0   16.666666666666668
400.0   150.0   16.666666666666668
350.0   150.0   16.666666666666668
400.0   150.0   33.333333333333336
350.0   120.0   33.333333333333336
350.0   150.0   33.333333333333336
400.0   150.0   33.333333333333336
350.0   150.0   16.666666666666668
350.0   120.0   33.333333333333336
400.0   150.0   33.333333333333336
400.0   120.0   33.333333333333336
400.0   120.0   16.666666666666668
350.0   120.0   33.333333333333336
400.0   150.0   33.333333333333336
400.0   120.0   16.666666666666668
350.0   150.0   16.666666666666668
350.0   120.0   33.333333333333336
400.0   120.0   33.333333333333336
350.0   150.0   33.333333333333336
350.0   120.0   50.0
400.0   120.0   33.333333333333336
400.0   150.0   33.333333333333336
350.0   150.0   33.333333333333336
400.0   150.0   50.0
350.0   120.0   50.0
350.0   150.0   50.0
400.0   150.0   50.0
350.0   150.0   33.333333333333336
350.0   120.0   50.0
400.0   150.0   50.0
400.0   120.0   50.0
400.0   120.0   33.333333333333336
350.0   120.0   50.0
400.0   150.0   50.0
400.0   120.0   33.333333333333336
350.0   150.0   33.333333333333336
400.0   0.0   0.0
450.0   0.0   0.0
400.0   30.0   0.0
400.0   0.0   16.666666666666668
450.0   0.0   0.0
450.0   30.0   0.0
400.0   30.0   0.0
450.0   30.0   16.666666666666668
400.0   0.0   16.666666666666668
400.0   30.0   16.666666666666668
450.0   30.0   16.666666666666668
400.0   30.0   0.0
400.0   0.0   16.666666666666668
450.0   30.0   16.666666666666668
450.0   0.0   16.666666666666668
450.0   0.0   0.0
400.0   0.0   16.666666666666668
450.0   30.0   16.666666666666668
450.0   0.0   0.0
400.0   30.0   0.0
400.0   0.0   16.666666666666668
450.0   0.0   16.666666666666668
400.0   30.0   16.666666666666668
400.0   0.0   33.333333333333336
450.0   0.0   16.666666666666668
450.0   30.0   16.666666666666668
400.0   30.0   16.666666666666668
450.0   30.0   33.333333333333336
400.0   0.0   33.333333333333336
400.0   30.0   33.333333333333336
450.0   30.0   33.333333333333336
400.0   30.0   16.666666666666668
400.0   0.0   33.333333333333336
450.0   30.0   33.333333333333336
450.0   0.0   33.333333333333336
450.0   0.0   16.666666666666668
400.0   0.0   33.333333333333336
450.0   30.0   33.333333333333336
450.0   0.0   16.666666666666668
400.0   30.0   16.666666666666668
400.0   0.0   33.333333333333336
450.0   0.0   33.333333333333336
400.0   30.0   33.333333333333336
400.0   0.0   50.0
450.0   0.0   33.333333333333336
450.0   30.0   33.333333333333336
400.0   30.0   33.333333333333336
450.0   30.0   50.0
400.0   0.0   50.0
400.0   30.0   50.0
450.0   30.0   50.0
400.0   30.0   33.333333333333336
400.0   0.0   50.0
450.0   30.0   50.0
450.0   0.0   50.0
450.0   0.0   33.333333333333336
400.0   0.0   50.0
450.0   30.0   50.0
450.0   0.0   33.333333333333336
400.0   30.0   33.333333333333336
400.0   30.0   0.0
450.0   30.0   0.0
400.0   60.0   0.0
400.0   30.0   16.666666666666668
450.0   30.0   0.0
450.0   60.0   0.0
400.0   60.0   0.0
450.0   60.0   16.666666666666668
400.0   30.0   16.666666666666668
400.0   60.0   16.666666666666668
450.0   60.0   16.666666666666668
400.0   60.0   0.0
400.0   30.0   16.666666666666668
450.0   60.0   16.666666666666668
450.0   30.0   16.666666666666668
450.0   30.0   0.0
400.0   30.0   16.666666666666668
450.0   60.0   16.666666666666668
450.0   30.0   0.0
400.0   60.0   0.0
400.0   30.0   16.666666666666668
450.0   30.0   16.666666666666668
400.0   60.0   16.666666666666668
400.0   30.0   33.333333333333336
450.0   30.0   16.666666666666668
450.0   60.0   16.666666666666668
400.0   60.0   16.666666666666668
450.0   60.0   33.333333333333336
400.0   30.0   33.333333333333336
400.0   60.0   33.333333333333336
450.0   60.0   33.333333333333336
400.0   60.0   16.666666666666668
400.0   30.0   33.333333333333336
450.0   60.0   33.333333333333336
450.0   30.0   33.333333333333336
450.0   30.0   16.666666666666668
400.0   30.0   33.333333333333336
450.0   60.0   33.333333333333336
450.0   30.0   16.666666666666668
400.0   60.0   16.666666666666668
400.0   30.0   33.333333333333336
450.0   30.0   33.333333333333336
400.0   60.0   33.333333333333336
400.0   30.0   50.0
450.0   30.0   33.333333333333336
450.0   60.0   33.333333333333336
400.0   60.0   33.333333333333336
450.0   60.0   50.0
400.0   30.0   50.0
400.0   60.0   50.0
450.0   60.0   50.0
400.0   60.0   33.333333333333336
400.0   30.0   50.0
450.0   60.0   50.0
450.0   30.0   50.0
450.0   30.0   33.333333333333336
400.0   30.0   50.0
450.0   60.0   50.0
450.0   30.0   33.333333333333336
400.0   60.0   33.333333333333336
400.0   60.0   0.0
450.0   60.0   0.0
400.0   90.0   0.0
400.0   60.0   16.666666666666668
450.0   60.0   0.0
450.0   90.0   0.0
400.0   90.0   0.0
450.0   90.0   16.666666666666668
400.0   60.0   16.666666666666668
400.0   90.0   16.666666666666668
450.0   90.0   16.666666666666668
400.0   90.0   0.0
400.0   60.0   16.666666666666668
450.0   90.0   16.666666666666668
450.0   60.0   16.666666666666668
450.0   60.0   0.0
400.0   60.0   16.666666666666668
450.0   90.0   16.666666666666668
450.0   60.0   0.0
400.0   90.0   0.0
400.0   60.0   16.666666666666668
450.0   60.0   16.666666666666668
400.0   90.0   16.666666666666668
400.0   60.0   33.333333333333336
450.0   60.0   16.666666666666668
450.0   90.0   16.666666666666668
400.0   90.0   16.666666666666668
450.0   90.0   33.333333333333336
400.0   60.0   33.333333333333336
400.0   90.0   33.333333333333336
450.0   90.0   33.333333333333336
400.0   90.0   16.666666666666668
400.0   60.0   33.333333333333336
450.0   90.0   33.333333333333336
450.0   60.0   33.333333333333336
450.0   60.0   16.666666666666668
400.0   60.0   33.333333333333336
450.0   90.0   33.333333333333336
450.0   60.0   16.666666666666668
400.0   90.0   16.666666666666668
400.0   60.0   33.333333333333336
450.0   60.0   33.333333333333336
400.0   90.0   33.333333333333336
400.0   60.0   50.0
450.0   60.0   33.333333333333336
450.0   90.0   33.333333333333336
400.0   90.0   33.333333333333336
450.0   90.0   50.0
400.0   60.0   50.0
400.0   90.0   50.0
450.0   90.0   50.0
400.0   90.0   33.333333333333336
400.0   60.0   50.0
450.0   90.0   50.0
450.0   60.0   50.0
450.0   60.0   33.333333333333336
400.0   60.0   50.0
450.0   90.0   50.0
450.0   60.0   33.333333333333336
400.0   90.0   33.333333333333336
400.0   90.0   0.0
450.0   90.0   0.0
400.0   120.0   0.0
400.0   90.0   16.666666666666668
450.0   90.0   0.0
450.0   120.0   0.0
400.0   120.0   0.0
450.0   120.0   16.666666666666668
400.0   90.0   16.666666666666668
400.0   120.0   16.666666666666668
450.0   120.0   16.666666666666668
400.0   120.0   0.0
400.0   90.0   16.666666666666668
450.0   120.0   16.666666666666668
450.0   90.0   16.666666666666668
450.0   90.0   0.0
400.0   90.0   16.666666666666668
450.0   120.0   16.666666666666668
450.0   90.0   0.0
400.0   120.0   0.0
400.0   90.0   16.666666666666668
450.0   90.0   16.666666666666668
400.0   120.0   16.666666666666668
400.0   90.0   33.333333333333336
450.0   90.0   16.666666666666668
450.0   120.0   16.666666666666668
400.0   120.0   16.666666666666668
450.0   120.0   33.333333333333336
400.0   90.0   33.333333333333336
400.0   120.0   33.333333333333336
450.0   120.0   33.333333333333336
400.0   120.0   16.666666666666668
400.0   90.0   33.333333333333336
450.0   120.0   33.333333333333336
450.0   90.0   33.333333333333336
450.0   90.0   16.666666666666668
400.0   90.0   33.333333333333336
450.0   120.0   33.333333333333336
450.0   90.0   16.666666666666668
400.0   120.0   16.666666666666668
400.0   90.0   33.333333333333336
450.0   90.0   33.333333333333336
400.0   120.0   33.333333333333336
400.0   90.0   50.0
450.0   90.0   33.333333333333336
450.0   120.0   33.333333333333336
400.0   120.0   33.333333333333336
450.0   120.0   50.0
400.0   90.0   50.0
400.0   120.0   50.0
450.0   120.0   50.0
400.0   120.0   33.333333333333336
400.0   90.0   50.0
450.0   120.0   50.0
450.0   90.0   50.0
450.0   90.0   33.333333333333336
400.0   90.0   50.0
450.0   120.0   50.0
450.0   90.0   33.333333333333336
400.0   120.0   33.333333333333336
400.0   120.0   0.0
450.0   120.0   0.0
400.0   150.0   0.0
400.0   120.0   16.666666666666668
450.0   120.0   0.0
450.0   150.0   0.0
400.0   150.0   0.0
450.0   150.0   16.666666666666668
400.0   120.0   16.666666666666668
400.0   150.0   16.666666666666668
450.0   150.0   16.666666666666668
400.0   150.0   0.0
400.0   120.0   16.666666666666668
450.0   150.0   16.666666666666668
450.0   120.0   16.666666666666668
450.0   120.0   0.0
400.0   120.0   16.666666666666668
450.0   150.0   16.666666666666668
450.0   120.0   0.0
400.0   150.0   0.0
400.0   120.0   16.666666666666668
450.0   120.0   16.666666666666668
400.0   150.0   16.666666666666668
400.0   120.0   33.333333333333336
450.0   120.0   16.666666666666668
450.0   150.0   16.666666666666668
400.0   150.0   16.666666666666668
450.0   150.0   33.333333333333336
400.0   120.0   33.333333333333336
400.0   150.0   33.333333333333336
450.0   150.0   33.333333333333336
400.0   150.0   16.666666666666668
400.0   120.0   33.333333333333336
450.0   150.0   33.333333333333336
450.0   120.0   33.333333333333336
450.0   120.0   16.666666666666668
400.0   120.0   33.333333333333336
450.0   150.0   33.333333333333336
450.0   120.0   16.666666666666668
400.0   150.0   16.666666666666668
400.0   120.0   33.333333333333336
450.0   120.0   33.333333333333336
400.0   150.0   33.333333333333336
400.0   120.0   50.0
450.0   120.0   33.333333333333336
450.0   150.0   33.333333333333336
400.0   150.0   33.333333333333336
450.0   150.0   50.0
400.0   120.0   50.0
400.0   150.0   50.0
450.0   150.0   50.0
400.0   150.0   33.333333333333336
400.0   120.0   50.0
450.0   150.0   50.0
450.0   120.0   50.0
450.0   120.0   33.333333333333336
400.0   120.0   50.0
450.0   150.0   50.0
450.0   120.0   33.333333333333336
400.0   150.0   33.333333333333336
450.0   0.0   0.0
500.0   0.0   0.0
450.0   30.0   0.0
450.0   0.0   16.666666666666668
500.0   0.0   0.0
500.0   30.0   0.0
450.0   30.0   0.0
500.0   30.0   16.666666666666668
450.0   0.0   16.666666666666668
450.0   30.0   16.666666666666668
500.0   30.0   16.666666666666668
450.0   30.0   0.0
450.0   0.0   16.666666666666668
500.0   30.0   16.666666666666668
500.0   0.0   16.666666666666668
500.0   0.0   0.0
450.0   0.0   16.666666666666668
500.0   30.0   16.666666666666668
500.0   0.0   0.0
450.0   30.0   0.0
450.0   0.0   16.666666666666668
500.0   0.0   16.666666666666668
450.0   30.0   16.666666666666668
450.0   0.0   33.333333333333336
500.0   0.0   16.666666666666668
500.0   30.0   16.666666666666668
450.0   30.0   16.666666666666668
500.0   30.0   33.333333333333336
450.0   0.0   33.333333333333336
450.0   30.0   33.333333333333336
500.0   30.0   33.333333333333336
450.0   30.0   16.666666666666668
450.0   0.0   33.333333333333336
500.0   30.0   33.333333333333336
500.0   0.0   33.333333333333336
500.0   0.0   16.666666666666668
450.0   0.0   33.333333333333336
500.0   30.0   33.333333333333336
500.0   0.0   16.666666666666668
450.0   30.0   16.666666666666668
450.0   0.0   33.333333333333336
500.0   0.0   33.333333333333336
450.0   30.0   33.333333333333336
450.0   0.0   50.0
500.0   0.0   33.333333333333336
500.0   30.0   33.333333333333336
450.0   30.0   33.333333333333336
500.0   30.0   50.0
450.0   0.0   50.0
450.0   30.0   50.0
500.0   30.0   50.0
450.0   30.0   33.333333333333336
450.0   0.0   50.0
500.0   30.0   50.0
500.0   0.0   50.0
500.0   0.0   33.333333333333336
450.0   0.0   50.0
500.0   30.0   50.0
500.0   0.0   33.333333333333336
450.0   30.0   33.333333333333336
450.0   30.0   0.0
500.0   30.0   0.0
450.0   60.0   0.0
450.0   30.0   16.666666666666668
500.0   30.0   0.0
500.0   60.0   0.0
450.0   60.0   0.0
500.0   60.0   16.666666666666668
450.0   30.0   16.666666666666668
450.0   60.0   16.666666666666668
500.0   60.0   16.666666666666668
450.0   60.0   0.0
450.0   30.0   16.666666666666668
500.0   60.0   16.666666666666668
500.0   30.0   16.666666666666668
500.0   30.0   0.0
450.0   30.0   16.666666666666668
500.0   60.0   16.666666666666668
500.0   30.0   0.0
450.0   60.0   0.0
450.0   30.0   16.666666666666668
500.0   30.0   16.666666666666668
450.0   60.0   16.666666666666668
450.0   30.0   33.333333333333336
500.0   30.0   16.666666666666668
500.0   60.0   16.666666666666668
450.0   60.0   16.666666666666668
500.0   60.0   33.333333333333336
450.0   30.0   33.333333333333336
450.0   60.0   33.333333333333336
500.0   60.0   33.333333333333336
450.0   60.0   16.666666666666668
450.0   30.0   33.333333333333336
500.0   60.0   33.333333333333336
500.0   30.0   33.333333333333336
500.0   30.0   16.666666666666668
450.0   30.0   33.333333333333336
500.0   60.0   33.333333333333336
500.0   30.0   16.666666666666668
450.0   60.0   16.666666666666668
450.0   30.0   33.333333333333336
500.0   30.0   33.333333333333336
450.0   60.0   33.333333333333336
450.0   30.0   50.0
500.0   30.0   33.333333333333336
500.0   60.0   33.333333333333336
450.0   60.0   33.333333333333336
500.0   60.0   50.0
450.0   30.0   50.0
450.0   60.0   50.0
500.0   60.0   50.0
450.0   60.0   33.333333333333336
450.0   30.0   50.0
500.0   60.0   50.0
500.0   30.0   50.0
500.0   30.0   33.333333333333336
450.0   30.0   50.0
500.0   60.0   50.0
500.0   30.0   33.333333333333336
450.0   60.0   33.333333333333336
450.0   60.0   0.0
500.0   60.0   0.0
450.0   90.0   0.0
450.0   60.0   16.666666666666668
500.0   60.0   0.0
500.0   90.0   0.0
450.0   90.0   0.0
500.0   90.0   16.666666666666668
450.0   60.0   16.666666666666668
450.0   90.0   16.666666666666668
500.0   90.0   16.666666666666668
450.0   90.0   0.0
450.0   60.0   16.666666666666668
500.0   90.0   16.666666666666668
500.0   60.0   16.666666666666668
500.0   60.0   0.0
450.0   60.0   16.666666666666668
500.0   90.0   16.666666666666668
500.0   60.0   0.0
450.0   90.0   0.0
450.0   60.0   16.666666666666668
500.0   60.0   16.666666666666668
450.0   90.0   16.666666666666668
450.0   60.0   33.333333333333336
500.0   60.0   16.666666666666668
500.0   90.0   16.666666666666668
450.0   90.0   16.666666666666668
500.0   90.0   33.333333333333336
450.0   60.0   33.333333333333336
450.0   90.0   33.333333333333336
500.0   90.0   33.333333333333336
450.0   90.0   16.666666666666668
450.0   60.0   33.333333333333336
500.0   90.0   33.333333333333336
500.0   60.0   33.333333333333336
500.0   60.0   16.666666666666668
450.0   60.0   33.333333333333336
500.0   90.0   33.333333333333336
500.0   60.0   16.666666666666668
450.0   90.0   16.666666666666668
450.0   60.0   33.333333333333336
500.0   60.0   33.333333333333336
450.0   90.0   33.333333333333336
450.0   60.0   50.0
500.0   60.0   33.333333333333336
500.0   90.0   33.333333333333336
450.0   90.0   33.333333333333336
500.0   90.0   50.0
450.0   60.0   50.0
450.0   90.0   50.0
500.0   90.0   50.0
450.0   90.0   33.333333333333336
450.0   60.0   50.0
500.0   90.0   50.0
500.0   60.0   50.0
500.0   60.0   33.333333333333336
450.0   60.0   50.0
500.0   90.0   50.0
500.0   60.0   33.333333333333336
450.0   90.0   33.333333333333336
450.0   90.0   0.0
500.0   90.0   0.0
450.0   120.0   0.0
450.0   90.0   16.666666666666668
500.0   90.0   0.0
500.0   120.0   0.0
450.0   120.0   0.0
500.0   120.0   16.666666666666668
450.0   90.0   16.666666666666668
450.0   120.0   16.666666666666668
500.0   120.0   16.666666666666668
450.0   120.0   0.0
450.0   90.0   16.666666666666668
500.0   120.0   16.666666666666668
500.0   90.0   16.666666666666668
500.0   90.0   0.0
450.0   90.0   16.666666666666668
500.0   120.0   16.666666666666668
500.0   90.0   0.0
450.0   120.0   0.0
450.0   90.0   16.666666666666668
500.0   90.0   16.666666666666668
450.0   120.0   16.666666666666668
450.0   90.0   33.333333333333336
500.0   90.0   16.666666666666668
500.0   120.0   16.666666666666668
450.0   120.0   16.666666666666668
500.0   120.0   33.333333333333336
450.0   90.0   33.333333333333336
450.0   120.0   33.333333333333336
500.0   120.0   33.333333333333336
450.0   120.0   16.666666666666668
450.0   90.0   33.333333333333336
500.0   120.0   33.333333333333336
500.0   90.0   33.333333333333336
500.0   90.0   16.666666666666668
450.0   90.0   33.333333333333336
500.0   120.0   33.333333333333336
500.0   90.0   16.666666666666668
450.0   120.0   16.666666666666668
450.0   90.0   33.333333333333336
500.0   90.0   33.333333333333336
450.0   120.0   33.333333333333336
450.0   90.0   50.0
500.0   90.0   33.333333333333336
500.0   120.0   33.333333333333336
450.0   120.0   33.333333333333336
500.0   120.0   50.0
450.0   90.0   50.0
450.0   120.0   50.0
500.0   120.0   50.0
450.0   120.0   33.333333333333336
450.0   90.0   50.0
500.0   120.0   50.0
500.0   90.0   50.0
500.0   90.0   33.333333333333336
450.0   90.0   50.0
500.0   120.0   50.0
500.0   90.0   33.333333333333336
450.0   120.0   33.333333333333336
450.0   120.0   0.0
500.0   120.0   0.0
450.0   150.0   0.0
450.0   120.0   16.666666666666668
500.0   120.0   0.0
500.0   150.0   0.0
450.0   150.0   0.0
500.0   150.0   16.666666666666668
450.0   120.0   16.666666666666668
450.0   150.0   16.666666666666668
500.0   150.0   16.666666666666668
450.0   150.0   0.0
450.0   120.0   16.666666666666668
500.0   150.0   16.666666666666668
500.0   120.0   16.666666666666668
500.0   120.0   0.0
450.0   120.0   16.666666666666668
500.0   150.0   16.666666666666668
500.0   120.0   0.0
450.0   150.0   0.0
450.0   120.0   16.666666666666668
500.0   120.0   16.666666666666668
450.0   150.0   16.666666666666668
450.0   120.0   33.333333333333336
500.0   120.0   16.666666666666668
500.0   150.0   16.666666666666668
450.0   150.0   16.666666666666668
500.0   150.0   33.333333333333336
450.0   120.0   33.333333333333336
450.0   150.0   33.333333333333336
500.0   150.0   33.333333333333336
450.0   150.0   16.666666666666668
450.0   120.0   33.333333333333336
500.0   150.0   33.333333333333336
500.0   120.0   33.333333333333336
500.0   120.0   16.666666666666668
450.0   120.0   33.333333333333336
500.0   150.0   33.333333333333336
500.0   120.0   16.666666666666668
450.0   150.0   16.666666666666668
450.0   120.0   33.333333333333336
500.0   120.0   33.333333333333336
450.0   150.0   33.333333333333336
450.0   120.0   50.0
500.0   120.0   33.333333333333336
500.0   150.0   33.333333333333336
450.0   150.0   33.333333333333336
500.0   150.0   50.0
450.0   120.0   50.0
450.0   150.0   50.0
500.0   150.0   50.0
450.0   150.0   33.333333333333336
450.0   120.0   50.0
500.0   150.0   50.0
500.0   120.0   50.0
500.0   120.0   33.333333333333336
450.0   120.0   50.0
500.0   150.0   50.0
500.0   120.0   33.333333333333336
450.0   150.0   33.333333333333336
             </DataArray>   
          </Points>  
          <Cells>  
             <DataArray type="Int32" Name="connectivity" format="ascii">   
0   1   2   3
4   5   6   7
8   9   10   11
12   13   14   15
16   17   18   19
20   21   22   23
24   25   26   27
28   29   30   31
32   33   34   35
36   37   38   39
40   41   42   43
44   45   46   47
48   49   50   51
52   53   54   55
56   57   58   59
60   61   62   63
64   65   66   67
68   69   70   71
72   73   74   75
76   77   78   79
80   81   82   83
84   85   86   87
88   89   90   91
92   93   94   95
96   97   98   99
100   101   102   103
104   105   106   107
108   109   110   111
112   113   114   115
116   117   118   119
120   121   122   123
124   125   126   127
128   129   130   131
132   133   134   135
136   137   138   139
140   141   142   143
144   145   146   147
148   149   150   151
152   153   154   155
156   157   158   159
160   161   162   163
164   165   166   167
168   169   170   171
172   173   174   175
176   177   178   179
180   181   182   183
184   185   186   187
188   189   190   191
192   193   194   195
196   197   198   199
200   201   202   203
204   205   206   207
208   209   210   211
212   213   214   215
216   217   218   219
220   221   222   223
224   225   226   227
228   229   230   231
232   233   234   235
236   237   238   239
240   241   242   243
244   245   246   247
248   249   250   251
252   253   254   255
256   257   258   259
260   261   262   263
264   265   266   267
268   269   270   271
272   273   274   275
276   277   278   279
280   281   282   283
284   285   286   287
288   289   290   291
292   293   294   295
296   297   298   299
300   301   302   303
304   305   306   307
308   309   310   311
312   313   314   315
316   317   318   319
320   321   322   323
324   325   326   327
328   329   330   331
332   333   334   335
336   337   338   339
340   341   342   343
344   345   346   347
348   349   350   351
352   353   354   355
356   357   358   359
360   361   362   363
364   365   366   367
368   369   370   371
372   373   374   375
376   377   378   379
380   381   382   383
384   385   386   387
388   389   390   391
392   393   394   395
396   397   398   399
400   401   402   403
404   405   406   407
408   409   410   411
412   413   414   415
416   417   418   419
420   421   422   423
424   425   426   427
428   429   430   431
432   433   434   435
436   437   438   439
440   441   442   443
444   445   446   447
448   449   450   451
452   453   454   455
456   457   458   459
460   461   462   463
464   465   466   467
468   469   470   471
472   473   474   475
476   477   478   479
480   481   482   483
484   485   486   487
488   489   490   491
492   493   494   495
496   497   498   499
500   501   502   503
504   505   506   507
508   509   510   511
512   513   514   515
516   517   518   519
520   521   522   523
524   525   526   527
528   529   530   531
532   533   534   535
536   537   538   539
540   541   542   543
544   545   546   547
548   549   550   551
552   553   554   555
556   557   558   559
560   561   562   563
564   565   566   567
568   569   570   571
572   573   574   575
576   577   578   579
580   581   582   583
584   585   586   587
588   589   590   591
592   593   594   595
596   597   598   599
600   601   602   603
604   605   606   607
608   609   610   611
612   613   614   615
616   617   618   619
620   621   622   623
624   625   626   627
628   629   630   631
632   633   634   635
636   637   638   639
640   641   642   643
644   645   646   647
648   649   650   651
652   653   654   655
656   657   658   659
660   661   662   663
664   665   666   667
668   669   670   671
672   673   674   675
676   677   678   679
680   681   682   683
684   685   686   687
688   689   690   691
692   693   694   695
696   697   698   699
700   701   702   703
704   705   706   707
708   709   710   711
712   713   714   715
716   717   718   719
720   721   722   723
724   725   726   727
728   729   730   731
732   733   734   735
736   737   738   739
740   741   742   743
744   745   746   747
748   749   750   751
752   753   754   755
756   757   758   759
760   761   762   763
764   765   766   767
768   769   770   771
772   773   774   775
776   777   778   779
780   781   782   783
784   785   786   787
788   789   790   791
792   793   794   795
796   797   798   799
800   801   802   803
804   805   806   807
808   809   810   811
812   813   814   815
816   817   818   819
820   821   822   823
824   825   826   827
828   829   830   831
832   833   834   835
836   837   838   839
840   841   842   843
844   845   846   847
848   849   850   851
852   853   854   855
856   857   858   859
860   861   862   863
864   865   866   867
868   869   870   871
872   873   874   875
876   877   878   879
880   881   882   883
884   885   886   887
888   889   890   891
892   893   894   895
896   897   898   899
900   901   902   903
904   905   906   907
908   909   910   911
912   913   914   915
916   917   918   919
920   921   922   923
924   925   926   927
928   929   930   931
932   933   934   935
936   937   938   939
940   941   942   943
944   945   946   947
948   949   950   951
952   953   954   955
956   957   958   959
960   961   962   963
964   965   966   967
968   969   970   971
972   973   974   975
976   977   978   979
980   981   982   983
984   985   986   987
988   989   990   991
992   993   994   995
996   997   998   999
1000   1001   1002   1003
1004   1005   1006   1007
1008   1009   1010   1011
1012   1013   1014   1015
1016   1017   1018   1019
1020   1021   1022   1023
1024   1025   1026   1027
1028   1029   1030   1031
1032   1033   1034   1035
1036   1037   1038   1039
1040   1041   1042   1043
1044   1045   1046   1047
1048   1049   1050   1051
1052   1053   1054   1055
1056   1057   1058   1059
1060   1061   1062   1063
1064   1065   1066   1067
1068   1069   1070   1071
1072   1073   1074   1075
1076   1077   1078   1079
1080   1081   1082   1083
1084   1085   1086   1087
1088   1089   1090   1091
1092   1093   1094   1095
1096   1097   1098   1099
1100   1101   1102   1103
1104   1105   1106   1107
1108   1109   1110   1111
1112   1113   1114   1115
1116   1117   1118   1119
1120   1121   1122   1123
1124   1125   1126   1127
1128   1129   1130   1131
1132   1133   1134   1135
1136   1137   1138   1139
1140   1141   1142   1143
1144   1145   1146   1147
1148   1149   1150   1151
1152   1153   1154   1155
1156   1157   1158   1159
1160   1161   1162   1163
1164   1165   1166   1167
1168   1169   1170   1171
1172   1173   1174   1175
1176   1177   1178   1179
1180   1181   1182   1183
1184   1185   1186   1187
1188   1189   1190   1191
1192   1193   1194   1195
1196   1197   1198   1199
1200   1201   1202   1203
1204   1205   1206   1207
1208   1209   1210   1211
1212   1213   1214   1215
1216   1217   1218   1219
1220   1221   1222   1223
1224   1225   1226   1227
1228   1229   1230   1231
1232   1233   1234   1235
1236   1237   1238   1239
1240   1241   1242   1243
1244   1245   1246   1247
1248   1249   1250   1251
1252   1253   1254   1255
1256   1257   1258   1259
1260   1261   1262   1263
1264   1265   1266   1267
1268   1269   1270   1271
1272   1273   1274   1275
1276   1277   1278   1279
1280   1281   1282   1283
1284   1285   1286   1287
1288   1289   1290   1291
1292   1293   1294   1295
1296   1297   1298   1299
1300   1301   1302   1303
1304   1305   1306   1307
1308   1309   1310   1311
1312   1313   1314   1315
1316   1317   1318   1319
1320   1321   1322   1323
1324   1325   1326   1327
1328   1329   1330   1331
1332   1333   1334   1335
1336   1337   1338   1339
1340   1341   1342   1343
1344   1345   1346   1347
1348   1349   1350   1351
1352   1353   1354   1355
1356   1357   1358   1359
1360   1361   1362   1363
1364   1365   1366   1367
1368   1369   1370   1371
1372   1373   1374   1375
1376   1377   1378   1379
1380   1381   1382   1383
1384   1385   1386   1387
1388   1389   1390   1391
1392   1393   1394   1395
1396   1397   1398   1399
1400   1401   1402   1403
1404   1405   1406   1407
1408   1409   1410   1411
1412   1413   1414   1415
1416   1417   1418   1419
1420   1421   1422   1423
1424   1425   1426   1427
1428   1429   1430   1431
1432   1433   1434   1435
1436   1437   1438   1439
1440   1441   1442   1443
1444   1445   1446   1447
1448   1449   1450   1451
1452   1453   1454   1455
1456   1457   1458   1459
1460   1461   1462   1463
1464   1465   1466   1467
1468   1469   1470   1471
1472   1473   1474   1475
1476   1477   1478   1479
1480   1481   1482   1483
1484   1485   1486   1487
1488   1489   1490   1491
1492   1493   1494   1495
1496   1497   1498   1499
1500   1501   1502   1503
1504   1505   1506   1507
1508   1509   1510   1511
1512   1513   1514   1515
1516   1517   1518   1519
1520   1521   1522   1523
1524   1525   1526   1527
1528   1529   1530   1531
1532   1533   1534   1535
1536   1537   1538   1539
1540   1541   1542   1543
1544   1545   1546   1547
1548   1549   1550   1551
1552   1553   1554   1555
1556   1557   1558   1559
1560   1561   1562   1563
1564   1565   1566   1567
1568   1569   1570   1571
1572   1573   1574   1575
1576   1577   1578   1579
1580   1581   1582   1583
1584   1585   1586   1587
1588   1589   1590   1591
1592   1593   1594   1595
1596   1597   1598   1599
1600   1601   1602   1603
1604   1605   1606   1607
1608   1609   1610   1611
1612   1613   1614   1615
1616   1617   1618   1619
1620   1621   1622   1623
1624   1625   1626   1627
1628   1629   1630   1631
1632   1633   1634   1635
1636   1637   1638   1639
1640   1641   1642   1643
1644   1645   1646   1647
1648   1649   1650   1651
1652   1653   1654   1655
1656   1657   1658   1659
1660   1661   1662   1663
1664   1665   1666   1667
1668   1669   1670   1671
1672   1673   1674   1675
1676   1677   1678   1679
1680   1681   1682   1683
1684   1685   1686   1687
1688   1689   1690   1691
1692   1693   1694   1695
1696   1697   1698   1699
1700   1701   1702   1703
1704   1705   1706   1707
1708   1709   1710   1711
1712   1713   1714   1715
1716   1717   1718   1719
1720   1721   1722   1723
1724   1725   1726   1727
1728   1729   1730   1731
1732   1733   1734   1735
1736   1737   1738   1739
1740   1741   1742   1743
1744   1745   1746   1747
1748   1749   1750   1751
1752   1753   1754   1755
1756   1757   1758   1759
1760   1761   1762   1763
1764   1765   1766   1767
1768   1769   1770   1771
1772   1773   1774   1775
1776   1777   1778   1779
1780   1781   1782   1783
1784   1785   1786   1787
1788   1789   1790   1791
1792   1793   1794   1795
1796   1797   1798   1799
1800   1801   1802   1803
1804   1805   1806   1807
1808   1809   1810   1811
1812   1813   1814   1815
1816   1817   1818   1819
1820   1821   1822   1823
1824   1825   1826   1827
1828   1829   1830   1831
1832   1833   1834   1835
1836   1837   1838   1839
1840   1841   1842   1843
1844   1845   1846   1847
1848   1849   1850   1851
1852   1853   1854   1855
1856   1857   1858   1859
1860   1861   1862   1863
1864   1865   1866   1867
1868   1869   1870   1871
1872   1873   1874   1875
1876   1877   1878   1879
1880   1881   1882   1883
1884   1885   1886   1887
1888   1889   1890   1891
1892   1893   1894   1895
1896   1897   1898   1899
1900   1901   1902   1903
1904   1905   1906   1907
1908   1909   1910   1911
1912   1913   1914   1915
1916   1917   1918   1919
1920   1921   1922   1923
1924   1925   1926   1927
1928   1929   1930   1931
1932   1933   1934   1935
1936   1937   1938   1939
1940   1941   1942   1943
1944   1945   1946   1947
1948   1949   1950   1951
1952   1953   1954   1955
1956   1957   1958   1959
1960   1961   1962   1963
1964   1965   1966   1967
1968   1969   1970   1971
1972   1973   1974   1975
1976   1977   1978   1979
1980   1981   1982   1983
1984   1985   1986   1987
1988   1989   1990   1991
1992   1993   1994   1995
1996   1997   1998   1999
2000   2001   2002   2003
2004   2005   2006   2007
2008   2009   2010   2011
2012   2013   2014   2015
2016   2017   2018   2019
2020   2021   2022   2023
2024   2025   2026   2027
2028   2029   2030   2031
2032   2033   2034   2035
2036   2037   2038   2039
2040   2041   2042   2043
2044   2045   2046   2047
2048   2049   2050   2051
2052   2053   2054   2055
2056   2057   2058   2059
2060   2061   2062   2063
2064   2065   2066   2067
2068   2069   2070   2071
2072   2073   2074   2075
2076   2077   2078   2079
2080   2081   2082   2083
2084   2085   2086   2087
2088   2089   2090   2091
2092   2093   2094   2095
2096   2097   2098   2099
2100   2101   2102   2103
2104   2105   2106   2107
2108   2109   2110   2111
2112   2113   2114   2115
2116   2117   2118   2119
2120   2121   2122   2123
2124   2125   2126   2127
2128   2129   2130   2131
2132   2133   2134   2135
2136   2137   2138   2139
2140   2141   2142   2143
2144   2145   2146   2147
2148   2149   2150   2151
2152   2153   2154   2155
2156   2157   2158   2159
2160   2161   2162   2163
2164   2165   2166   2167
2168   2169   2170   2171
2172   2173   2174   2175
2176   2177   2178   2179
2180   2181   2182   2183
2184   2185   2186   2187
2188   2189   2190   2191
2192   2193   2194   2195
2196   2197   2198   2199
2200   2201   2202   2203
2204   2205   2206   2207
2208   2209   2210   2211
2212   2213   2214   2215
2216   2217   2218   2219
2220   2221   2222   2223
2224   2225   2226   2227
2228   2229   2230   2231
2232   2233   2234   2235
2236   2237   2238   2239
2240   2241   2242   2243
2244   2245   2246   2247
2248   2249   2250   2251
2252   2253   2254   2255
2256   2257   2258   2259
2260   2261   2262   2263
2264   2265   2266   2267
2268   2269   2270   2271
2272   2273   2274   2275
2276   2277   2278   2279
2280   2281   2282   2283
2284   2285   2286   2287
2288   2289   2290   2291
2292   2293   2294   2295
2296   2297   2298   2299
2300   2301   2302   2303
2304   2305   2306   2307
2308   2309   2310   2311
2312   2313   2314   2315
2316   2317   2318   2319
2320   2321   2322   2323
2324   2325   2326   2327
2328   2329   2330   2331
2332   2333   2334   2335
2336   2337   2338   2339
2340   2341   2342   2343
2344   2345   2346   2347
2348   2349   2350   2351
2352   2353   2354   2355
2356   2357   2358   2359
2360   2361   2362   2363
2364   2365   2366   2367
2368   2369   2370   2371
2372   2373   2374   2375
2376   2377   2378   2379
2380   2381   2382   2383
2384   2385   2386   2387
2388   2389   2390   2391
2392   2393   2394   2395
2396   2397   2398   2399
2400   2401   2402   2403
2404   2405   2406   2407
2408   2409   2410   2411
2412   2413   2414   2415
2416   2417   2418   2419
2420   2421   2422   2423
2424   2425   2426   2427
2428   2429   2430   2431
2432   2433   2434   2435
2436   2437   2438   2439
2440   2441   2442   2443
2444   2445   2446   2447
2448   2449   2450   2451
2452   2453   2454   2455
2456   2457   2458   2459
2460   2461   2462   2463
2464   2465   2466   2467
2468   2469   2470   2471
2472   2473   2474   2475
2476   2477   2478   2479
2480   2481   2482   2483
2484   2485   2486   2487
2488   2489   2490   2491
2492   2493   2494   2495
2496   2497   2498   2499
2500   2501   2502   2503
2504   2505   2506   2507
2508   2509   2510   2511
2512   2513   2514   2515
2516   2517   2518   2519
2520   2521   2522   2523
2524   2525   2526   2527
2528   2529   2530   2531
2532   2533   2534   2535
2536   2537   2538   2539
2540   2541   2542   2543
2544   2545   2546   2547
2548   2549   2550   2551
2552   2553   2554   2555
2556   2557   2558   2559
2560   2561   2562   2563
2564   2565   2566   2567
2568   2569   2570   2571
2572   2573   2574   2575
2576   2577   2578   2579
2580   2581   2582   2583
2584   2585   2586   2587
2588   2589   2590   2591
2592   2593   2594   2595
2596   2597   2598   2599
2600   2601   2602   2603
2604   2605   2606   2607
2608   2609   2610   2611
2612   2613   2614   2615
2616   2617   2618   2619
2620   2621   2622   2623
2624   2625   2626   2627
2628   2629   2630   2631
2632   2633   2634   2635
2636   2637   2638   2639
2640   2641   2642   2643
2644   2645   2646   2647
2648   2649   2650   2651
2652   2653   2654   2655
2656   2657   2658   2659
2660   2661   2662   2663
2664   2665   2666   2667
2668   2669   2670   2671
2672   2673   2674   2675
2676   2677   2678   2679
2680   2681   2682   2683
2684   2685   2686   2687
2688   2689   2690   2691
2692   2693   2694   2695
2696   2697   2698   2699
2700   2701   2702   2703
2704   2705   2706   2707
2708   2709   2710   2711
2712   2713   2714   2715
2716   2717   2718   2719
2720   2721   2722   2723
2724   2725   2726   2727
2728   2729   2730   2731
2732   2733   2734   2735
2736   2737   2738   2739
2740   2741   2742   2743
2744   2745   2746   2747
2748   2749   2750   2751
2752   2753   2754   2755
2756   2757   2758   2759
2760   2761   2762   2763
2764   2765   2766   2767
2768   2769   2770   2771
2772   2773   2774   2775
2776   2777   2778   2779
2780   2781   2782   2783
2784   2785   2786   2787
2788   2789   2790   2791
2792   2793   2794   2795
2796   2797   2798   2799
2800   2801   2802   2803
2804   2805   2806   2807
2808   2809   2810   2811
2812   2813   2814   2815
2816   2817   2818   2819
2820   2821   2822   2823
2824   2825   2826   2827
2828   2829   2830   2831
2832   2833   2834   2835
2836   2837   2838   2839
2840   2841   2842   2843
2844   2845   2846   2847
2848   2849   2850   2851
2852   2853   2854   2855
2856   2857   2858   2859
2860   2861   2862   2863
2864   2865   2866   2867
2868   2869   2870   2871
2872   2873   2874   2875
2876   2877   2878   2879
2880   2881   2882   2883
2884   2885   2886   2887
2888   2889   2890   2891
2892   2893   2894   2895
2896   2897   2898   2899
2900   2901   2902   2903
2904   2905   2906   2907
2908   2909   2910   2911
2912   2913   2914   2915
2916   2917   2918   2919
2920   2921   2922   2923
2924   2925   2926   2927
2928   2929   2930   2931
2932   2933   2934   2935
2936   2937   2938   2939
2940   2941   2942   2943
2944   2945   2946   2947
2948   2949   2950   2951
2952   2953   2954   2955
2956   2957   2958   2959
2960   2961   2962   2963
2964   2965   2966   2967
2968   2969   2970   2971
2972   2973   2974   2975
2976   2977   2978   2979
2980   2981   2982   2983
2984   2985   2986   2987
2988   2989   2990   2991
2992   2993   2994   2995
2996   2997   2998   2999
3000   3001   3002   3003
3004   3005   3006   3007
3008   3009   3010   3011
3012   3013   3014   3015
3016   3017   3018   3019
3020   3021   3022   3023
3024   3025   3026   3027
3028   3029   3030   3031
3032   3033   3034   3035
3036   3037   3038   3039
3040   3041   3042   3043
3044   3045   3046   3047
3048   3049   3050   3051
3052   3053   3054   3055
3056   3057   3058   3059
3060   3061   3062   3063
3064   3065   3066   3067
3068   3069   3070   3071
3072   3073   3074   3075
3076   3077   3078   3079
3080   3081   3082   3083
3084   3085   3086   3087
3088   3089   3090   3091
3092   3093   3094   3095
3096   3097   3098   3099
3100   3101   3102   3103
3104   3105   3106   3107
3108   3109   3110   3111
3112   3113   3114   3115
3116   3117   3118   3119
3120   3121   3122   3123
3124   3125   3126   3127
3128   3129   3130   3131
3132   3133   3134   3135
3136   3137   3138   3139
3140   3141   3142   3143
3144   3145   3146   3147
3148   3149   3150   3151
3152   3153   3154   3155
3156   3157   3158   3159
3160   3161   3162   3163
3164   3165   3166   3167
3168   3169   3170   3171
3172   3173   3174   3175
3176   3177   3178   3179
3180   3181   3182   3183
3184   3185   3186   3187
3188   3189   3190   3191
3192   3193   3194   3195
3196   3197   3198   3199
3200   3201   3202   3203
3204   3205   3206   3207
3208   3209   3210   3211
3212   3213   3214   3215
3216   3217   3218   3219
3220   3221   3222   3223
3224   3225   3226   3227
3228   3229   3230   3231
3232   3233   3234   3235
3236   3237   3238   3239
3240   3241   3242   3243
3244   3245   3246   3247
3248   3249   3250   3251
3252   3253   3254   3255
3256   3257   3258   3259
3260   3261   3262   3263
3264   3265   3266   3267
3268   3269   3270   3271
3272   3273   3274   3275
3276   3277   3278   3279
3280   3281   3282   3283
3284   3285   3286   3287
3288   3289   3290   3291
3292   3293   3294   3295
3296   3297   3298   3299
3300   3301   3302   3303
3304   3305   3306   3307
3308   3309   3310   3311
3312   3313   3314   3315
3316   3317   3318   3319
3320   3321   3322   3323
3324   3325   3326   3327
3328   3329   3330   3331
3332   3333   3334   3335
3336   3337   3338   3339
3340   3341   3342   3343
3344   3345   3346   3347
3348   3349   3350   3351
3352   3353   3354   3355
3356   3357   3358   3359
3360   3361   3362   3363
3364   3365   3366   3367
3368   3369   3370   3371
3372   3373   3374   3375
3376   3377   3378   3379
3380   3381   3382   3383
3384   3385   3386   3387
3388   3389   3390   3391
3392   3393   3394   3395
3396   3397   3398   3399
3400   3401   3402   3403
3404   3405   3406   3407
3408   3409   3410   3411
3412   3413   3414   3415
3416   3417   3418   3419
3420   3421   3422   3423
3424   3425   3426   3427
3428   3429   3430   3431
3432   3433   3434   3435
3436   3437   3438   3439
3440   3441   3442   3443
3444   3445   3446   3447
3448   3449   3450   3451
3452   3453   3454   3455
3456   3457   3458   3459
3460   3461   3462   3463
3464   3465   3466   3467
3468   3469   3470   3471
3472   3473   3474   3475
3476   3477   3478   3479
3480   3481   3482   3483
3484   3485   3486   3487
3488   3489   3490   3491
3492   3493   3494   3495
3496   3497   3498   3499
3500   3501   3502   3503
3504   3505   3506   3507
3508   3509   3510   3511
3512   3513   3514   3515
3516   3517   3518   3519
3520   3521   3522   3523
3524   3525   3526   3527
3528   3529   3530   3531
3532   3533   3534   3535
3536   3537   3538   3539
3540   3541   3542   3543
3544   3545   3546   3547
3548   3549   3550   3551
3552   3553   3554   3555
3556   3557   3558   3559
3560   3561   3562   3563
3564   3565   3566   3567
3568   3569   3570   3571
3572   3573   3574   3575
3576   3577   3578   3579
3580   3581   3582   3583
3584   3585   3586   3587
3588   3589   3590   3591
3592   3593   3594   3595
3596   3597   3598   3599
3600   3601   3602   3603
3604   3605   3606   3607
3608   3609   3610   3611
3612   3613   3614   3615
3616   3617   3618   3619
3620   3621   3622   3623
3624   3625   3626   3627
3628   3629   3630   3631
3632   3633   3634   3635
3636   3637   3638   3639
3640   3641   3642   3643
3644   3645   3646   3647
3648   3649   3650   3651
3652   3653   3654   3655
3656   3657   3658   3659
3660   3661   3662   3663
3664   3665   3666   3667
3668   3669   3670   3671
3672   3673   3674   3675
3676   3677   3678   3679
3680   3681   3682   3683
3684   3685   3686   3687
3688   3689   3690   3691
3692   3693   3694   3695
3696   3697   3698   3699
3700   3701   3702   3703
3704   3705   3706   3707
3708   3709   3710   3711
3712   3713   3714   3715
3716   3717   3718   3719
3720   3721   3722   3723
3724   3725   3726   3727
3728   3729   3730   3731
3732   3733   3734   3735
3736   3737   3738   3739
3740   3741   3742   3743
3744   3745   3746   3747
3748   3749   3750   3751
3752   3753   3754   3755
3756   3757   3758   3759
3760   3761   3762   3763
3764   3765   3766   3767
3768   3769   3770   3771
3772   3773   3774   3775
3776   3777   3778   3779
3780   3781   3782   3783
3784   3785   3786   3787
3788   3789   3790   3791
3792   3793   3794   3795
3796   3797   3798   3799
3800   3801   3802   3803
3804   3805   3806   3807
3808   3809   3810   3811
3812   3813   3814   3815
3816   3817   3818   3819
3820   3821   3822   3823
3824   3825   3826   3827
3828   3829   3830   3831
3832   3833   3834   3835
3836   3837   3838   3839
3840   3841   3842   3843
3844   3845   3846   3847
3848   3849   3850   3851
3852   3853   3854   3855
3856   3857   3858   3859
3860   3861   3862   3863
3864   3865   3866   3867
3868   3869   3870   3871
3872   3873   3874   3875
3876   3877   3878   3879
3880   3881   3882   3883
3884   3885   3886   3887
3888   3889   3890   3891
3892   3893   3894   3895
3896   3897   3898   3899
3900   3901   3902   3903
3904   3905   3906   3907
3908   3909   3910   3911
3912   3913   3914   3915
3916   3917   3918   3919
3920   3921   3922   3923
3924   3925   3926   3927
3928   3929   3930   3931
3932   3933   3934   3935
3936   3937   3938   3939
3940   3941   3942   3943
3944   3945   3946   3947
3948   3949   3950   3951
3952   3953   3954   3955
3956   3957   3958   3959
3960   3961   3962   3963
3964   3965   3966   3967
3968   3969   3970   3971
3972   3973   3974   3975
3976   3977   3978   3979
3980   3981   3982   3983
3984   3985   3986   3987
3988   3989   3990   3991
3992   3993   3994   3995
3996   3997   3998   3999
4000   4001   4002   4003
4004   4005   4006   4007
4008   4009   4010   4011
4012   4013   4014   4015
4016   4017   4018   4019
4020   4021   4022   4023
4024   4025   4026   4027
4028   4029   4030   4031
4032   4033   4034   4035
4036   4037   4038   4039
4040   4041   4042   4043
4044   4045   4046   4047
4048   4049   4050   4051
4052   4053   4054   4055
4056   4057   4058   4059
4060   4061   4062   4063
4064   4065   4066   4067
4068   4069   4070   4071
4072   4073   4074   4075
4076   4077   4078   4079
4080   4081   4082   4083
4084   4085   4086   4087
4088   4089   4090   4091
4092   4093   4094   4095
4096   4097   4098   4099
4100   4101   4102   4103
4104   4105   4106   4107
4108   4109   4110   4111
4112   4113   4114   4115
4116   4117   4118   4119
4120   4121   4122   4123
4124   4125   4126   4127
4128   4129   4130   4131
4132   4133   4134   4135
4136   4137   4138   4139
4140   4141   4142   4143
4144   4145   4146   4147
4148   4149   4150   4151
4152   4153   4154   4155
4156   4157   4158   4159
4160   4161   4162   4163
4164   4165   4166   4167
4168   4169   4170   4171
4172   4173   4174   4175
4176   4177   4178   4179
4180   4181   4182   4183
4184   4185   4186   4187
4188   4189   4190   4191
4192   4193   4194   4195
4196   4197   4198   4199
4200   4201   4202   4203
4204   4205   4206   4207
4208   4209   4210   4211
4212   4213   4214   4215
4216   4217   4218   4219
4220   4221   4222   4223
4224   4225   4226   4227
4228   4229   4230   4231
4232   4233   4234   4235
4236   4237   4238   4239
4240   4241   4242   4243
4244   4245   4246   4247
4248   4249   4250   4251
4252   4253   4254   4255
4256   4257   4258   4259
4260   4261   4262   4263
4264   4265   4266   4267
4268   4269   4270   4271
4272   4273   4274   4275
4276   4277   4278   4279
4280   4281   4282   4283
4284   4285   4286   4287
4288   4289   4290   4291
4292   4293   4294   4295
4296   4297   4298   4299
4300   4301   4302   4303
4304   4305   4306   4307
4308   4309   4310   4311
4312   4313   4314   4315
4316   4317   4318   4319
4320   4321   4322   4323
4324   4325   4326   4327
4328   4329   4330   4331
4332   4333   4334   4335
4336   4337   4338   4339
4340   4341   4342   4343
4344   4345   4346   4347
4348   4349   4350   4351
4352   4353   4354   4355
4356   4357   4358   4359
4360   4361   4362   4363
4364   4365   4366   4367
4368   4369   4370   4371
4372   4373   4374   4375
4376   4377   4378   4379
4380   4381   4382   4383
4384   4385   4386   4387
4388   4389   4390   4391
4392   4393   4394   4395
4396   4397   4398   4399
4400   4401   4402   4403
4404   4405   4406   4407
4408   4409   4410   4411
4412   4413   4414   4415
4416   4417   4418   4419
4420   4421   4422   4423
4424   4425   4426   4427
4428   4429   4430   4431
4432   4433   4434   4435
4436   4437   4438   4439
4440   4441   4442   4443
4444   4445   4446   4447
4448   4449   4450   4451
4452   4453   4454   4455
4456   4457   4458   4459
4460   4461   4462   4463
4464   4465   4466   4467
4468   4469   4470   4471
4472   4473   4474   4475
4476   4477   4478   4479
4480   4481   4482   4483
4484   4485   4486   4487
4488   4489   4490   4491
4492   4493   4494   4495
4496   4497   4498   4499
4500   4501   4502   4503
4504   4505   4506   4507
4508   4509   4510   4511
4512   4513   4514   4515
4516   4517   4518   4519
4520   4521   4522   4523
4524   4525   4526   4527
4528   4529   4530   4531
4532   4533   4534   4535
4536   4537   4538   4539
4540   4541   4542   4543
4544   4545   4546   4547
4548   4549   4550   4551
4552   4553   4554   4555
4556   4557   4558   4559
4560   4561   4562   4563
4564   4565   4566   4567
4568   4569   4570   4571
4572   4573   4574   4575
4576   4577   4578   4579
4580   4581   4582   4583
4584   4585   4586   4587
4588   4589   4590   4591
4592   4593   4594   4595
4596   4597   4598   4599
4600   4601   4602   4603
4604   4605   4606   4607
4608   4609   4610   4611
4612   4613   4614   4615
4616   4617   4618   4619
4620   4621   4622   4623
4624   4625   4626   4627
4628   4629   4630   4631
4632   4633   4634   4635
4636   4637   4638   4639
4640   4641   4642   4643
4644   4645   4646   4647
4648   4649   4650   4651
4652   4653   4654   4655
4656   4657   4658   4659
4660   4661   4662   4663
4664   4665   4666   4667
4668   4669   4670   4671
4672   4673   4674   4675
4676   4677   4678   4679
4680   4681   4682   4683
4684   4685   4686   4687
4688   4689   4690   4691
4692   4693   4694   4695
4696   4697   4698   4699
4700   4701   4702   4703
4704   4705   4706   4707
4708   4709   4710   4711
4712   4713   4714   4715
4716   4717   4718   4719
4720   4721   4722   4723
4724   4725   4726   4727
4728   4729   4730   4731
4732   4733   4734   4735
4736   4737   4738   4739
4740   4741   4742   4743
4744   4745   4746   4747
4748   4749   4750   4751
4752   4753   4754   4755
4756   4757   4758   4759
4760   4761   4762   4763
4764   4765   4766   4767
4768   4769   4770   4771
4772   4773   4774   4775
4776   4777   4778   4779
4780   4781   4782   4783
4784   4785   4786   4787
4788   4789   4790   4791
4792   4793   4794   4795
4796   4797   4798   4799
4800   4801   4802   4803
4804   4805   4806   4807
4808   4809   4810   4811
4812   4813   4814   4815
4816   4817   4818   4819
4820   4821   4822   4823
4824   4825   4826   4827
4828   4829   4830   4831
4832   4833   4834   4835
4836   4837   4838   4839
4840   4841   4842   4843
4844   4845   4846   4847
4848   4849   4850   4851
4852   4853   4854   4855
4856   4857   4858   4859
4860   4861   4862   4863
4864   4865   4866   4867
4868   4869   4870   4871
4872   4873   4874   4875
4876   4877   4878   4879
4880   4881   4882   4883
4884   4885   4886   4887
4888   4889   4890   4891
4892   4893   4894   4895
4896   4897   4898   4899
4900   4901   4902   4903
4904   4905   4906   4907
4908   4909   4910   4911
4912   4913   4914   4915
4916   4917   4918   4919
4920   4921   4922   4923
4924   4925   4926   4927
4928   4929   4930   4931
4932   4933   4934   4935
4936   4937   4938   4939
4940   4941   4942   4943
4944   4945   4946   4947
4948   4949   4950   4951
4952   4953   4954   4955
4956   4957   4958   4959
4960   4961   4962   4963
4964   4965   4966   4967
4968   4969   4970   4971
4972   4973   4974   4975
4976   4977   4978   4979
4980   4981   4982   4983
4984   4985   4986   4987
4988   4989   4990   4991
4992   4993   4994   4995
4996   4997   4998   4999
5000   5001   5002   5003
5004   5005   5006   5007
5008   5009   5010   5011
5012   5013   5014   5015
5016   5017   5018   5019
5020   5021   5022   5023
5024   5025   5026   5027
5028   5029   5030   5031
5032   5033   5034   5035
5036   5037   5038   5039
5040   5041   5042   5043
5044   5045   5046   5047
5048   5049   5050   5051
5052   5053   5054   5055
5056   5057   5058   5059
5060   5061   5062   5063
5064   5065   5066   5067
5068   5069   5070   5071
5072   5073   5074   5075
5076   5077   5078   5079
5080   5081   5082   5083
5084   5085   5086   5087
5088   5089   5090   5091
5092   5093   5094   5095
5096   5097   5098   5099
5100   5101   5102   5103
5104   5105   5106   5107
5108   5109   5110   5111
5112   5113   5114   5115
5116   5117   5118   5119
5120   5121   5122   5123
5124   5125   5126   5127
5128   5129   5130   5131
5132   5133   5134   5135
5136   5137   5138   5139
5140   5141   5142   5143
5144   5145   5146   5147
5148   5149   5150   5151
5152   5153   5154   5155
5156   5157   5158   5159
5160   5161   5162   5163
5164   5165   5166   5167
5168   5169   5170   5171
5172   5173   5174   5175
5176   5177   5178   5179
5180   5181   5182   5183
5184   5185   5186   5187
5188   5189   5190   5191
5192   5193   5194   5195
5196   5197   5198   5199
5200   5201   5202   5203
5204   5205   5206   5207
5208   5209   5210   5211
5212   5213   5214   5215
5216   5217   5218   5219
5220   5221   5222   5223
5224   5225   5226   5227
5228   5229   5230   5231
5232   5233   5234   5235
5236   5237   5238   5239
5240   5241   5242   5243
5244   5245   5246   5247
5248   5249   5250   5251
5252   5253   5254   5255
5256   5257   5258   5259
5260   5261   5262   5263
5264   5265   5266   5267
5268   5269   5270   5271
5272   5273   5274   5275
5276   5277   5278   5279
5280   5281   5282   5283
5284   5285   5286   5287
5288   5289   5290   5291
5292   5293   5294   5295
5296   5297   5298   5299
5300   5301   5302   5303
5304   5305   5306   5307
5308   5309   5310   5311
5312   5313   5314   5315
5316   5317   5318   5319
5320   5321   5322   5323
5324   5325   5326   5327
5328   5329   5330   5331
5332   5333   5334   5335
5336   5337   5338   5339
5340   5341   5342   5343
5344   5345   5346   5347
5348   5349   5350   5351
5352   5353   5354   5355
5356   5357   5358   5359
5360   5361   5362   5363
5364   5365   5366   5367
5368   5369   5370   5371
5372   5373   5374   5375
5376   5377   5378   5379
5380   5381   5382   5383
5384   5385   5386   5387
5388   5389   5390   5391
5392   5393   5394   5395
5396   5397   5398   5399
5400   5401   5402   5403
5404   5405   5406   5407
5408   5409   5410   5411
5412   5413   5414   5415
5416   5417   5418   5419
5420   5421   5422   5423
5424   5425   5426   5427
5428   5429   5430   5431
5432   5433   5434   5435
5436   5437   5438   5439
5440   5441   5442   5443
5444   5445   5446   5447
5448   5449   5450   5451
5452   5453   5454   5455
5456   5457   5458   5459
5460   5461   5462   5463
5464   5465   5466   5467
5468   5469   5470   5471
5472   5473   5474   5475
5476   5477   5478   5479
5480   5481   5482   5483
5484   5485   5486   5487
5488   5489   5490   5491
5492   5493   5494   5495
5496   5497   5498   5499
5500   5501   5502   5503
5504   5505   5506   5507
5508   5509   5510   5511
5512   5513   5514   5515
5516   5517   5518   5519
5520   5521   5522   5523
5524   5525   5526   5527
5528   5529   5530   5531
5532   5533   5534   5535
5536   5537   5538   5539
5540   5541   5542   5543
5544   5545   5546   5547
5548   5549   5550   5551
5552   5553   5554   5555
5556   5557   5558   5559
5560   5561   5562   5563
5564   5565   5566   5567
5568   5569   5570   5571
5572   5573   5574   5575
5576   5577   5578   5579
5580   5581   5582   5583
5584   5585   5586   5587
5588   5589   5590   5591
5592   5593   5594   5595
5596   5597   5598   5599
5600   5601   5602   5603
5604   5605   5606   5607
5608   5609   5610   5611
5612   5613   5614   5615
5616   5617   5618   5619
5620   5621   5622   5623
5624   5625   5626   5627
5628   5629   5630   5631
5632   5633   5634   5635
5636   5637   5638   5639
5640   5641   5642   5643
5644   5645   5646   5647
5648   5649   5650   5651
5652   5653   5654   5655
5656   5657   5658   5659
5660   5661   5662   5663
5664   5665   5666   5667
5668   5669   5670   5671
5672   5673   5674   5675
5676   5677   5678   5679
5680   5681   5682   5683
5684   5685   5686   5687
5688   5689   5690   5691
5692   5693   5694   5695
5696   5697   5698   5699
5700   5701   5702   5703
5704   5705   5706   5707
5708   5709   5710   5711
5712   5713   5714   5715
5716   5717   5718   5719
5720   5721   5722   5723
5724   5725   5726   5727
5728   5729   5730   5731
5732   5733   5734   5735
5736   5737   5738   5739
5740   5741   5742   5743
5744   5745   5746   5747
5748   5749   5750   5751
5752   5753   5754   5755
5756   5757   5758   5759
5760   5761   5762   5763
5764   5765   5766   5767
5768   5769   5770   5771
5772   5773   5774   5775
5776   5777   5778   5779
5780   5781   5782   5783
5784   5785   5786   5787
5788   5789   5790   5791
5792   5793   5794   5795
5796   5797   5798   5799
5800   5801   5802   5803
5804   5805   5806   5807
5808   5809   5810   5811
5812   5813   5814   5815
5816   5817   5818   5819
5820   5821   5822   5823
5824   5825   5826   5827
5828   5829   5830   5831
5832   5833   5834   5835
5836   5837   5838   5839
5840   5841   5842   5843
5844   5845   5846   5847
5848   5849   5850   5851
5852   5853   5854   5855
5856   5857   5858   5859
5860   5861   5862   5863
5864   5865   5866   5867
5868   5869   5870   5871
5872   5873   5874   5875
5876   5877   5878   5879
5880   5881   5882   5883
5884   5885   5886   5887
5888   5889   5890   5891
5892   5893   5894   5895
5896   5897   5898   5899
5900   5901   5902   5903
5904   5905   5906   5907
5908   5909   5910   5911
5912   5913   5914   5915
5916   5917   5918   5919
5920   5921   5922   5923
5924   5925   5926   5927
5928   5929   5930   5931
5932   5933   5934   5935
5936   5937   5938   5939
5940   5941   5942   5943
5944   5945   5946   5947
5948   5949   5950   5951
5952   5953   5954   5955
5956   5957   5958   5959
5960   5961   5962   5963
5964   5965   5966   5967
5968   5969   5970   5971
5972   5973   5974   5975
5976   5977   5978   5979
5980   5981   5982   5983
5984   5985   5986   5987
5988   5989   5990   5991
5992   5993   5994   5995
5996   5997   5998   5999
              </DataArray>   
              <DataArray type="Int32" Name="offsets" format="ascii">   
4
8
12
16
20
24
28
32
36
40
44
48
52
56
60
64
68
72
76
80
84
88
92
96
100
104
108
112
116
120
124
128
132
136
140
144
148
152
156
160
164
168
172
176
180
184
188
192
196
200
204
208
212
216
220
224
228
232
236
240
244
248
252
256
260
264
268
272
276
280
284
288
292
296
300
304
308
312
316
320
324
328
332
336
340
344
348
352
356
360
364
368
372
376
380
384
388
392
396
400
404
408
412
416
420
424
428
432
436
440
444
448
452
456
460
464
468
472
476
480
484
488
492
496
500
504
508
512
516
520
524
528
532
536
540
544
548
552
556
560
564
568
572
576
580
584
588
592
596
600
604
608
612
616
620
624
628
632
636
640
644
648
652
656
660
664
668
672
676
680
684
688
692
696
700
704
708
712
716
720
724
728
732
736
740
744
748
752
756
760
764
768
772
776
780
784
788
792
796
800
804
808
812
816
820
824
828
832
836
840
844
848
852
856
860
864
868
872
876
880
884
888
892
896
900
904
908
912
916
920
924
928
932
936
940
944
948
952
956
960
964
968
972
976
980
984
988
992
996
1000
1004
1008
1012
1016
1020
1024
1028
1032
1036
1040
1044
1048
1052
1056
1060
1064
1068
1072
1076
1080
1084
1088
1092
1096
1100
1104
1108
1112
1116
1120
1124
1128
1132
1136
1140
1144
1148
1152
1156
1160
1164
1168
1172
1176
1180
1184
1188
1192
1196
1200
1204
1208
1212
1216
1220
1224
1228
1232
1236
1240
1244
1248
1252
1256
1260
1264
1268
1272
1276
1280
1284
1288
1292
1296
1300
1304
1308
1312
1316
1320
1324
1328
1332
1336
1340
1344
1348
1352
1356
1360
1364
1368
1372
1376
1380
1384
1388
1392
1396
1400
1404
1408
1412
1416
1420
1424
1428
1432
1436
1440
1444
1448
1452
1456
1460
1464
1468
1472
1476
1480
1484
1488
1492
1496
1500
1504
1508
1512
1516
1520
1524
1528
1532
1536
1540
1544
1548
1552
1556
1560
1564
1568
1572
1576
1580
1584
1588
1592
1596
1600
1604
1608
1612
1616
1620
1624
1628
1632
1636
1640
1644
1648
1652
1656
1660
1664
1668
1672
1676
1680
1684
1688
1692
1696
1700
1704
1708
1712
1716
1720
1724
1728
1732
1736
1740
1744
1748
1752
1756
1760
1764
1768
1772
1776
1780
1784
1788
1792
1796
1800
1804
1808
1812
1816
1820
1824
1828
1832
1836
1840
1844
1848
1852
1856
1860
1864
1868
1872
1876
1880
1884
1888
1892
1896
1900
1904
1908
1912
1916
1920
1924
1928
1932
1936
1940
1944
1948
1952
1956
1960
1964
1968
1972
1976
1980
1984
1988
1992
1996
2000
2004
2008
2012
2016
2020
2024
2028
2032
2036
2040
2044
2048
2052
2056
2060
2064
2068
2072
2076
2080
2084
2088
2092
2096
2100
2104
2108
2112
2116
2120
2124
2128
2132
2136
2140
2144
2148
2152
2156
2160
2164
2168
2172
2176
2180
2184
2188
2192
2196
2200
2204
2208
2212
2216
2220
2224
2228
2232
2236
2240
2244
2248
2252
2256
2260
2264
2268
2272
2276
2280
2284
2288
2292
2296
2300
2304
2308
2312
2316
2320
2324
2328
2332
2336
2340
2344
2348
2352
2356
2360
2364
2368
2372
2376
2380
2384
2388
2392
2396
2400
2404
2408
2412
2416
2420
2424
2428
2432
2436
2440
2444
2448
2452
2456
2460
2464
2468
2472
2476
2480
2484
2488
2492
2496
2500
2504
2508
2512
2516
2520
2524
2528
2532
2536
2540
2544
2548
2552
2556
2560
2564
2568
2572
2576
2580
2584
2588
2592
2596
2600
2604
2608
2612
2616
2620
2624
2628
2632
2636
2640
2644
2648
2652
2656
2660
2664
2668
2672
2676
2680
2684
2688
2692
2696
2700
2704
2708
2712
2716
2720
2724
2728
2732
2736
2740
2744
2748
2752
2756
2760
2764
2768
2772
2776
2780
2784
2788
2792
2796
2800
2804
2808
2812
2816
2820
2824
2828
2832
2836
2840
2844
2848
2852
2856
2860
2864
2868
2872
2876
2880
2884
2888
2892
2896
2900
2904
2908
2912
2916
2920
2924
2928
2932
2936
2940
2944
2948
2952
2956
2960
2964
2968
2972
2976
2980
2984
2988
2992
2996
3000
3004
3008
3012
3016
3020
3024
3028
3032
3036
3040
3044
3048
3052
3056
3060
3064
3068
3072
3076
3080
3084
3088
3092
3096
3100
3104
3108
3112
3116
3120
3124
3128
3132
3136
3140
3144
3148
3152
3156
3160
3164
3168
3172
3176
3180
3184
3188
3192
3196
3200
3204
3208
3212
3216
3220
3224
3228
3232
3236
3240
3244
3248
3252
3256
3260
3264
3268
3272
3276
3280
3284
3288
3292
3296
3300
3304
3308
3312
3316
3320
3324
3328
3332
3336
3340
3344
3348
3352
3356
3360
3364
3368
3372
3376
3380
3384
3388
3392
3396
3400
3404
3408
3412
3416
3420
3424
3428
3432
3436
3440
3444
3448
3452
3456
3460
3464
3468
3472
3476
3480
3484
3488
3492
3496
3500
3504
3508
3512
3516
3520
3524
3528
3532
3536
3540
3544
3548
3552
3556
3560
3564
3568
3572
3576
3580
3584
3588
3592
3596
3600
3604
3608
3612
3616
3620
3624
3628
3632
3636
3640
3644
3648
3652
3656
3660
3664
3668
3672
3676
3680
3684
3688
3692
3696
3700
3704
3708
3712
3716
3720
3724
3728
3732
3736
3740
3744
3748
3752
3756
3760
3764
3768
3772
3776
3780
3784
3788
3792
3796
3800
3804
3808
3812
3816
3820
3824
3828
3832
3836
3840
3844
3848
3852
3856
3860
3864
3868
3872
3876
3880
3884
3888
3892
3896
3900
3904
3908
3912
3916
3920
3924
3928
3932
3936
3940
3944
3948
3952
3956
3960
3964
3968
3972
3976
3980
3984
3988
3992
3996
4000
4004
4008
4012
4016
4020
4024
4028
4032
4036
4040
4044
4048
4052
4056
4060
4064
4068
4072
4076
4080
4084
4088
4092
4096
4100
4104
4108
4112
4116
4120
4124
4128
4132
4136
4140
4144
4148
4152
4156
4160
4164
4168
4172
4176
4180
4184
4188
4192
4196
4200
4204
4208
4212
4216
4220
4224
4228
4232
4236
4240
4244
4248
4252
4256
4260
4264
4268
4272
4276
4280
4284
4288
4292
4296
4300
4304
4308
4312
4316
4320
4324
4328
4332
4336
4340
4344
4348
4352
4356
4360
4364
4368
4372
4376
4380
4384
4388
4392
4396
4400
4404
4408
4412
4416
4420
4424
4428
4432
4436
4440
4444
4448
4452
4456
4460
4464
4468
4472
4476
4480
4484
4488
4492
4496
4500
4504
4508
4512
4516
4520
4524
4528
4532
4536
4540
4544
4548
4552
4556
4560
4564
4568
4572
4576
4580
4584
4588
4592
4596
4600
4604
4608
4612
4616
4620
4624
4628
4632
4636
4640
4644
4648
4652
4656
4660
4664
4668
4672
4676
4680
4684
4688
4692
4696
4700
4704
4708
4712
4716
4720
4724
4728
4732
4736
4740
4744
4748
4752
4756
4760
4764
4768
4772
4776
4780
4784
4788
4792
4796
4800
4804
4808
4812
4816
4820
4824
4828
4832
4836
4840
4844
4848
4852
4856
4860
4864
4868
4872
4876
4880
4884
4888
4892
4896
4900
4904
4908
4912
4916
4920
4924
4928
4932
4936
4940
4944
4948
4952
4956
4960
4964
4968
4972
4976
4980
4984
4988
4992
4996
5000
5004
5008
5012
5016
5020
5024
5028
5032
5036
5040
5044
5048
5052
5056
5060
5064
5068
5072
5076
5080
5084
5088
5092
5096
5100
5104
5108
5112
5116
5120
5124
5128
5132
5136
5140
5144
5148
5152
5156
5160
5164
5168
5172
5176
5180
5184
5188
5192
5196
5200
5204
5208
5212
5216
5220
5224
5228
5232
5236
5240
5244
5248
5252
5256
5260
5264
5268
5272
5276
5280
5284
5288
5292
5296
5300
5304
5308
5312
5316
5320
5324
5328
5332
5336
5340
5344
5348
5352
5356
5360
5364
5368
5372
5376
5380
5384
5388
5392
5396
5400
5404
5408
5412
5416
5420
5424
5428
5432
5436
5440
5444
5448
5452
5456
5460
5464
5468
5472
5476
5480
5484
5488
5492
5496
5500
5504
5508
5512
5516
5520
5524
5528
5532
5536
5540
5544
5548
5552
5556
5560
5564
5568
5572
5576
5580
5584
5588
5592
5596
5600
5604
5608
5612
5616
5620
5624
5628
5632
5636
5640
5644
5648
5652
5656
5660
5664
5668
5672
5676
5680
5684
5688
5692
5696
5700
5704
5708
5712
5716
5720
5724
5728
5732
5736
5740
5744
5748
5752
5756
5760
5764
5768
5772
5776
5780
5784
5788
5792
5796
5800
5804
5808
5812
5816
5820
5824
5828
5832
5836
5840
5844
5848
5852
5856
5860
5864
5868
5872
5876
5880
5884
5888
5892
5896
5900
5904
5908
5912
5916
5920
5924
5928
5932
5936
5940
5944
5948
5952
5956
5960
5964
5968
5972
5976
5980
5984
5988
5992
5996
6000
              </DataArray>   
              <DataArray type="UInt8" Name="types" format="ascii">   
10
10
10
10
10
10
10
10
10
10
10
10
10
10
10
10
10
10
10
10
10
10
10
10
10
10
10
10
10
10
10
10
10
10
10
10
10
10
10
10
10
10
10
10
10
10
10
10
10
10
10
10
10
10
10
10
10
10
10
10
10
10
10
10
10
10
10
10
10
10
10
10
10
10
10
10
10
10
10
10
10
10
10
10
10
10
10
10
10
10
10
10
10
10
10
10
10
10
10
10
10
10
10
10
10
10
10
10
10
10
10
10
10
10
10
10
10
10
10
10
10
10
10
10
10
10
10
10
10
10
10
10
10
10
10
10
10
10
10
10
10
10
10
10
10
10
10
10
10
10
10
10
10
10
10
10
10
10
10
10
10
10
10
10
10
10
10
10
10
10
10
10
10
10
10
10
10
10
10
10
10
10
10
10
10
10
10
10
10
10
10
10
10
10
10
10
10
10
10
10
10
10
10
10
10
10
10
10
10
10
10
10
10
10
10
10
10
10
10
10
10
10
10
10
10
10
10
10
10
10
10
10
10
10
10
10
10
10
10
10
10
10
10
10
10
10
10
10
10
10
10
10
10
10
10
10
10
10
10
10
10
10
10
10
10
10
10
10
10
10
10
10
10
10
10
10
10
10
10
10
10
10
10
10
10
10
10
10
10
10
10
10
10
10
10
10
10
10
10
10
10
10
10
10
10
10
10
10
10
10
10
10
10
10
10
10
10
10
10
10
10
10
10
10
10
10
10
10
10
10
10
10
10
10
10
10
10
10
10
10
10
10
10
10
10
10
10
10
10
10
10
10
10
10
10
10
10
10
10
10
10
10
10
10
10
10
10
10
10
10
10
10
10
10
10
10
10
10
10
10
10
10
10
10
10
10
10
10
10
10
10
10
10
10
10
10
10
10
10
10
10
10
10
10
10
10
10
10
10
10
10
10
10
10
10
10
10
10
10
10
10
10
10
10
10
10
10
10
10
10
10
10
10
10
10
10
10
10
10
10
10
10
10
10
10
10
10
10
10
10
10
10
10
10
10
10
10
10
10
10
10
10
10
10
10
10
10
10
10
10
10
10
10
10
10
10
10
10
10
10
10
10
10
10
10
10
10
10
10
10
10
10
10
10
10
10
10
10
10
10
10
10
10
10
10
10
10
10
10
10
10
10
10
10
10
10
10
10
10
10
10
10
10
10
10
10
10
10
10
10
10
10
10
10
10
10
10
10
10
10
10
10
10
10
10
10
10
10
10
10
10
10
10
10
10
10
10
10
10
10
10
10
10
10
10
10
10
10
10
10
10
10
10
10
10
10
10
10
10
10
10
10
10
10
10
10
10
10
10
10
10
10
10
10
10
10
10
10
10
10
10
10
10
10
10
10
10
10
10
10
10
10
10
10
10
10
10
10
10
10
10
10
10
10
10
10
10
10
10
10
10
10
10
10
10
10
10
10
10
10
10
10
10
10
10
10
10
10
10
10
10
10
10
10
10
10
10
10
10
10
10
10
10
10
10
10
10
10
10
10
10
10
10
10
10
10
10
10
10
10
10
10
10
10
10
10
10
10
10
10
10
10
10
10
10
10
10
10
10
10
10
10
10
10
10
10
10
10
10
10
10
10
10
10
10
10
10
10
10
10
10
10
10
10
10
10
10
10
10
10
10
10
10
10
10
10
10
10
10
10
10
10
10
10
10
10
10
10
10
10
10
10
10
10
10
10
10
10
10
10
10
10
10
10
10
10
10
10
10
10
10
10
10
10
10
10
10
10
10
10
10
10
10
10
10
10
10
10
10
10
10
10
10
10
10
10
10
10
10
10
10
10
10
10
10
10
10
10
10
10
10
10
10
10
10
10
10
10
10
10
10
10
10
10
10
10
10
10
10
10
10
10
10
10
10
10
10
10
10
10
10
10
10
10
10
10
10
10
10
10
10
10
10
10
10
10
10
10
10
10
10
10
10
10
10
10
10
10
10
10
10
10
10
10
10
10
10
10
10
10
10
10
10
10
10
10
10
10
10
10
10
10
10
10
10
10
10
10
10
10
10
10
10
10
10
10
10
10
10
10
10
10
10
10
10
10
10
10
10
10
10
10
10
10
10
10
10
10
10
10
10
10
10
10
10
10
10
10
10
10
10
10
10
10
10
10
10
10
10
10
10
10
10
10
10
10
10
10
10
10
10
10
10
10
10
10
10
10
10
10
10
10
10
10
10
10
10
10
10
10
10
10
10
10
10
10
10
10
10
10
10
10
10
10
10
10
10
10
10
10
10
10
10
10
10
10
10
10
10
10
10
10
10
10
10
10
10
10
10
10
10
10
10
10
10
10
10
10
10
10
10
10
10
10
10
10
10
10
10
10
10
10
10
10
10
10
10
10
10
10
10
10
10
10
10
10
10
10
10
10
10
10
10
10
10
10
10
10
10
10
10
10
10
10
10
10
10
10
10
10
10
10
10
10
10
10
10
10
10
10
10
10
10
10
10
10
10
10
10
10
10
10
10
10
10
10
10
10
10
10
10
10
10
10
10
10
10
10
10
10
10
10
10
10
10
10
10
10
10
10
10
10
10
10
10
10
10
10
10
10
10
10
10
10
10
10
10
10
10
10
10
10
10
10
10
10
10
10
10
10
10
10
10
10
10
10
10
10
10
10
10
10
10
10
10
10
10
10
10
10
10
10
10
10
10
10
10
10
10
10
10
10
10
10
10
10
10
10
10
10
10
10
10
10
10
10
10
10
10
10
10
10
10
10
10
10
10
10
10
10
10
10
10
10
10
10
10
10
10
10
10
10
10
10
10
10
10
10
10
10
10
10
10
10
10
10
10
10
10
10
10
10
10
10
10
10
10
10
10
10
10
10
10
10
10
10
10
10
10
10
10
10
10
10
10
10
10
10
10
10
10
10
10
10
10
10
10
10
10
10
10
10
10
10
10
10
10
10
10
10
10
10
10
10
10
10
10
10
10
10
10
10
10
10
10
10
10
10
10
10
10
10
10
10
10
10
10
10
10
10
10
10
10
10
10
10
10
10
10
10
10
10
10
10
10
10
10
10
10
10
10
10
10
10
10
10
10
10
10
10
10
10
10
10
10
10
10
10
10
10
10
10
10
10
10
10
10
10
10
10
10
10
10
10
10
10
10
10
10
10
10
10
10
10
10
10
10
10
10
10
10
10
10
10
10
10
10
10
10
10
10
10
10
10
10
10
10
10
10
10
10
10
10
10
10
10
10
10
10
10
10
10
10
10
10
10
10
10
10
10
10
10
10
10
10
10
10
10
10
10
10
10
10
10
10
10
10
10
10
10
10
10
10
10
10
10
10
10
10
10
10
10
10
10
10
10
10
10
10
10
10
10
10
10
10
10
10
10
10
10
10
10
10
10
10
10
10
10
10
10
              </DataArray>   
          </Cells>  
          <PointData>  
             <DataArray type="Float64" NumberOfComponents="3" Name="Strains" format="ascii">   
-6.30803281191236e-05   0.0   -4.148688028665039e-05
-6.30803281191236e-05   0.0   -4.148688028665039e-05
-6.30803281191236e-05   0.0   -4.148688028665039e-05
-6.30803281191236e-05   0.0   -4.148688028665039e-05
-4.013061422964569e-05   6.976526895806169e-06   9.485589999630635e-07
-4.013061422964569e-05   6.976526895806169e-06   9.485589999630635e-07
-4.013061422964569e-05   6.976526895806169e-06   9.485589999630635e-07
-4.013061422964569e-05   6.976526895806169e-06   9.485589999630635e-07
-3.933111155235514e-05   0.0   -3.916690832647918e-05
-3.933111155235514e-05   0.0   -3.916690832647918e-05
-3.933111155235514e-05   0.0   -3.916690832647918e-05
-3.933111155235514e-05   0.0   -3.916690832647918e-05
-6.60093158481474e-05   8.377704899691573e-06   2.7014256002646933e-07
-6.60093158481474e-05   8.377704899691573e-06   2.7014256002646933e-07
-6.60093158481474e-05   8.377704899691573e-06   2.7014256002646933e-07
-6.60093158481474e-05   8.377704899691573e-06   2.7014256002646933e-07
-5.120571983573928e-05   1.933309966809337e-06   -2.053588050092436e-05
-5.120571983573928e-05   1.933309966809337e-06   -2.053588050092436e-05
-5.120571983573928e-05   1.933309966809337e-06   -2.053588050092436e-05
-5.120571983573928e-05   1.933309966809337e-06   -2.053588050092436e-05
-6.60093158481475e-05   0.0   -4.4193531266294136e-05
-6.60093158481475e-05   0.0   -4.4193531266294136e-05
-6.60093158481475e-05   0.0   -4.4193531266294136e-05
-6.60093158481475e-05   0.0   -4.4193531266294136e-05
-3.933111155235514e-05   8.377704899691587e-06   5.2967654998414105e-06
-3.933111155235514e-05   8.377704899691587e-06   5.2967654998414105e-06
-3.933111155235514e-05   8.377704899691587e-06   5.2967654998414105e-06
-3.933111155235514e-05   8.377704899691587e-06   5.2967654998414105e-06
-3.9435707561972064e-05   0.0   -4.012387426149976e-05
-3.9435707561972064e-05   0.0   -4.012387426149976e-05
-3.9435707561972064e-05   0.0   -4.012387426149976e-05
-3.9435707561972064e-05   0.0   -4.012387426149976e-05
-6.80634116940876e-05   8.976950608332871e-06   2.202795593693238e-06
-6.80634116940876e-05   8.976950608332871e-06   2.202795593693238e-06
-6.80634116940876e-05   8.976950608332871e-06   2.202795593693238e-06
-6.80634116940876e-05   8.976950608332871e-06   2.202795593693238e-06
-5.27225117050597e-05   3.3913808373286413e-06   -2.001402919208402e-05
-5.27225117050597e-05   3.3913808373286413e-06   -2.001402919208402e-05
-5.27225117050597e-05   3.3913808373286413e-06   -2.001402919208402e-05
-5.27225117050597e-05   3.3913808373286413e-06   -2.001402919208402e-05
-6.806341169408772e-05   0.0   -4.55100446264995e-05
-6.806341169408772e-05   0.0   -4.55100446264995e-05
-6.806341169408772e-05   0.0   -4.55100446264995e-05
-6.806341169408772e-05   0.0   -4.55100446264995e-05
-3.9435707561972064e-05   8.976950608332899e-06   7.58896595869298e-06
-3.9435707561972064e-05   8.976950608332899e-06   7.58896595869298e-06
-3.9435707561972064e-05   8.976950608332899e-06   7.58896595869298e-06
-3.9435707561972064e-05   8.976950608332899e-06   7.58896595869298e-06
-3.9407849596834885e-05   0.0   -4.037077367689523e-05
-3.9407849596834885e-05   0.0   -4.037077367689523e-05
-3.9407849596834885e-05   0.0   -4.037077367689523e-05
-3.9407849596834885e-05   0.0   -4.037077367689523e-05
-7.24947765933053e-05   1.0231278383703802e-05   8.63533762033337e-06
-7.24947765933053e-05   1.0231278383703802e-05   8.63533762033337e-06
-7.24947765933053e-05   1.0231278383703802e-05   8.63533762033337e-06
-7.24947765933053e-05   1.0231278383703802e-05   8.63533762033337e-06
-5.3735630645461206e-05   4.282725791336893e-06   -1.906077407065329e-05
-5.3735630645461206e-05   4.282725791336893e-06   -1.906077407065329e-05
-5.3735630645461206e-05   4.282725791336893e-06   -1.906077407065329e-05
-5.3735630645461206e-05   4.282725791336893e-06   -1.906077407065329e-05
-4.013061422964576e-05   0.0   -3.7300964149166685e-05
-4.013061422964576e-05   0.0   -3.7300964149166685e-05
-4.013061422964576e-05   0.0   -3.7300964149166685e-05
-4.013061422964576e-05   0.0   -3.7300964149166685e-05
-1.8283012766765974e-05   2.5564845813159855e-06   6.455957044225253e-07
-1.8283012766765974e-05   2.5564845813159855e-06   6.455957044225253e-07
-1.8283012766765974e-05   2.5564845813159855e-06   6.455957044225253e-07
-1.8283012766765974e-05   2.5564845813159855e-06   6.455957044225253e-07
-1.757817874441453e-05   0.0   -3.698083739319481e-05
-1.757817874441453e-05   0.0   -3.698083739319481e-05
-1.757817874441453e-05   0.0   -3.698083739319481e-05
-1.757817874441453e-05   0.0   -3.698083739319481e-05
-3.933111155235514e-05   3.6434515554739535e-06   -2.9120203132448354e-06
-3.933111155235514e-05   3.6434515554739535e-06   -2.9120203132448354e-06
-3.933111155235514e-05   3.6434515554739535e-06   -2.9120203132448354e-06
-3.933111155235514e-05   3.6434515554739535e-06   -2.9120203132448354e-06
-2.8854396487030096e-05   2.667722966432292e-07   -1.8347204533488012e-05
-2.8854396487030096e-05   2.667722966432292e-07   -1.8347204533488012e-05
-2.8854396487030096e-05   2.667722966432292e-07   -1.8347204533488012e-05
-2.8854396487030096e-05   2.667722966432292e-07   -1.8347204533488012e-05
-3.933111155235511e-05   0.0   -3.916690832647915e-05
-3.933111155235511e-05   0.0   -3.916690832647915e-05
-3.933111155235511e-05   0.0   -3.916690832647915e-05
-3.933111155235511e-05   0.0   -3.916690832647915e-05
-1.757817874441453e-05   3.6434515554739535e-06   -7.259493799604606e-07
-1.757817874441453e-05   3.6434515554739535e-06   -7.259493799604606e-07
-1.757817874441453e-05   3.6434515554739535e-06   -7.259493799604606e-07
-1.757817874441453e-05   3.6434515554739535e-06   -7.259493799604606e-07
-1.7179736883791944e-05   0.0   -3.744373871674436e-05
-1.7179736883791944e-05   0.0   -3.744373871674436e-05
-1.7179736883791944e-05   0.0   -3.744373871674436e-05
-1.7179736883791944e-05   0.0   -3.744373871674436e-05
-3.9435707561972064e-05   4.466892574592343e-06   -3.0305897978662297e-06
-3.9435707561972064e-05   4.466892574592343e-06   -3.0305897978662297e-06
-3.9435707561972064e-05   4.466892574592343e-06   -3.0305897978662297e-06
-3.9435707561972064e-05   4.466892574592343e-06   -3.0305897978662297e-06
-2.8255424218073487e-05   1.4359746747790193e-06   -1.984584463114237e-05
-2.8255424218073487e-05   1.4359746747790193e-06   -1.984584463114237e-05
-2.8255424218073487e-05   1.4359746747790193e-06   -1.984584463114237e-05
-2.8255424218073487e-05   1.4359746747790193e-06   -1.984584463114237e-05
-3.9435707561972064e-05   0.0   -4.012387426149976e-05
-3.9435707561972064e-05   0.0   -4.012387426149976e-05
-3.9435707561972064e-05   0.0   -4.012387426149976e-05
-3.9435707561972064e-05   0.0   -4.012387426149976e-05
-1.7179736883791944e-05   4.466892574592343e-06   -3.5045425311082943e-07
-1.7179736883791944e-05   4.466892574592343e-06   -3.5045425311082943e-07
-1.7179736883791944e-05   4.466892574592343e-06   -3.5045425311082943e-07
-1.7179736883791944e-05   4.466892574592343e-06   -3.5045425311082943e-07
-1.681587955809887e-05   0.0   -3.725122304628996e-05
-1.681587955809887e-05   0.0   -3.725122304628996e-05
-1.681587955809887e-05   0.0   -3.725122304628996e-05
-1.681587955809887e-05   0.0   -3.725122304628996e-05
-3.940784959683478e-05   5.199251051008706e-06   -2.717490279001853e-06
-3.940784959683478e-05   5.199251051008706e-06   -2.717490279001853e-06
-3.940784959683478e-05   5.199251051008706e-06   -2.717490279001853e-06
-3.940784959683478e-05   5.199251051008706e-06   -2.717490279001853e-06
-2.812579356003546e-05   2.393876012674803e-06   -1.9837691984000533e-05
-2.812579356003546e-05   2.393876012674803e-06   -1.9837691984000533e-05
-2.812579356003546e-05   2.393876012674803e-06   -1.9837691984000533e-05
-2.812579356003546e-05   2.393876012674803e-06   -1.9837691984000533e-05
-1.828301276676601e-05   0.0   -3.57670734003771e-05
-1.828301276676601e-05   0.0   -3.57670734003771e-05
-1.828301276676601e-05   0.0   -3.57670734003771e-05
-1.828301276676601e-05   0.0   -3.57670734003771e-05
2.353461134121156e-06   -3.292025185593528e-07   -1.5704717433674015e-06
2.353461134121156e-06   -3.292025185593528e-07   -1.5704717433674015e-06
2.353461134121156e-06   -3.292025185593528e-07   -1.5704717433674015e-06
2.353461134121156e-06   -3.292025185593528e-07   -1.5704717433674015e-06
2.8062873733704994e-06   0.0   -3.659283592382567e-05
2.8062873733704994e-06   0.0   -3.659283592382567e-05
2.8062873733704994e-06   0.0   -3.659283592382567e-05
2.8062873733704994e-06   0.0   -3.659283592382567e-05
-1.75781787444145e-05   6.466691156150204e-07   -3.006727196886412e-06
-1.75781787444145e-05   6.466691156150204e-07   -3.006727196886412e-06
-1.75781787444145e-05   6.466691156150204e-07   -3.006727196886412e-06
-1.75781787444145e-05   6.466691156150204e-07   -3.006727196886412e-06
-7.738362696697723e-06   -6.881354362072533e-07   -1.860553787865427e-05
-7.738362696697723e-06   -6.881354362072533e-07   -1.860553787865427e-05
-7.738362696697723e-06   -6.881354362072533e-07   -1.860553787865427e-05
-7.738362696697723e-06   -6.881354362072533e-07   -1.860553787865427e-05
-1.757817874441453e-05   0.0   -3.698083739319481e-05
-1.757817874441453e-05   0.0   -3.698083739319481e-05
-1.757817874441453e-05   0.0   -3.698083739319481e-05
-1.757817874441453e-05   0.0   -3.698083739319481e-05
2.8062873733705045e-06   6.466691156150204e-07   -2.6187257275173998e-06
2.8062873733705045e-06   6.466691156150204e-07   -2.6187257275173998e-06
2.8062873733705045e-06   6.466691156150204e-07   -2.6187257275173998e-06
2.8062873733705045e-06   6.466691156150204e-07   -2.6187257275173998e-06
3.16452250627282e-06   0.0   -3.6539998659224025e-05
3.16452250627282e-06   0.0   -3.6539998659224025e-05
3.16452250627282e-06   0.0   -3.6539998659224025e-05
3.16452250627282e-06   0.0   -3.6539998659224025e-05
-1.7179736883791886e-05   1.506233429200437e-06   -3.536639733303073e-06
-1.7179736883791886e-05   1.506233429200437e-06   -3.536639733303073e-06
-1.7179736883791886e-05   1.506233429200437e-06   -3.536639733303073e-06
-1.7179736883791886e-05   1.506233429200437e-06   -3.536639733303073e-06
-7.20682811907084e-06   3.6736561164226776e-07   -1.9474833650636607e-05
-7.20682811907084e-06   3.6736561164226776e-07   -1.9474833650636607e-05
-7.20682811907084e-06   3.6736561164226776e-07   -1.9474833650636607e-05
-7.20682811907084e-06   3.6736561164226776e-07   -1.9474833650636607e-05
-1.7179736883791944e-05   0.0   -3.744373871674436e-05
-1.7179736883791944e-05   0.0   -3.744373871674436e-05
-1.7179736883791944e-05   0.0   -3.744373871674436e-05
-1.7179736883791944e-05   0.0   -3.744373871674436e-05
3.1645225062728256e-06   1.5062334292004437e-06   -2.632899675782814e-06
3.1645225062728256e-06   1.5062334292004437e-06   -2.632899675782814e-06
3.1645225062728256e-06   1.5062334292004437e-06   -2.632899675782814e-06
3.1645225062728256e-06   1.5062334292004437e-06   -2.632899675782814e-06
3.6444300714141607e-06   0.0   -3.57503518880404e-05
3.6444300714141607e-06   0.0   -3.57503518880404e-05
3.6444300714141607e-06   0.0   -3.57503518880404e-05
3.6444300714141607e-06   0.0   -3.57503518880404e-05
-1.6815879558098827e-05   2.5014519304158826e-06   -3.1507069971015745e-06
-1.6815879558098827e-05   2.5014519304158826e-06   -3.1507069971015745e-06
-1.6815879558098827e-05   2.5014519304158826e-06   -3.1507069971015745e-06
-1.6815879558098827e-05   2.5014519304158826e-06   -3.1507069971015745e-06
-6.767653406188876e-06   1.4111556905865798e-06   -1.924357283972061e-05
-6.767653406188876e-06   1.4111556905865798e-06   -1.924357283972061e-05
-6.767653406188876e-06   1.4111556905865798e-06   -1.924357283972061e-05
-6.767653406188876e-06   1.4111556905865798e-06   -1.924357283972061e-05
2.3534611341211603e-06   0.0   -3.596459491151271e-05
2.3534611341211603e-06   0.0   -3.596459491151271e-05
2.3534611341211603e-06   0.0   -3.596459491151271e-05
2.3534611341211603e-06   0.0   -3.596459491151271e-05
2.4759422192734926e-05   -2.904060653176632e-06   -3.6376287239571665e-07
2.4759422192734926e-05   -2.904060653176632e-06   -3.6376287239571665e-07
2.4759422192734926e-05   -2.904060653176632e-06   -3.6376287239571665e-07
2.4759422192734926e-05   -2.904060653176632e-06   -3.6376287239571665e-07
2.4811015237054575e-05   0.0   -3.790533273574481e-05
2.4811015237054575e-05   0.0   -3.790533273574481e-05
2.4811015237054575e-05   0.0   -3.790533273574481e-05
2.4811015237054575e-05   0.0   -3.790533273574481e-05
2.806287373370509e-06   -2.1874946865316853e-06   8.171051564763771e-08
2.806287373370509e-06   -2.1874946865316853e-06   8.171051564763771e-08
2.806287373370509e-06   -2.1874946865316853e-06   8.171051564763771e-08
2.806287373370509e-06   -2.1874946865316853e-06   8.171051564763771e-08
1.3582238185587867e-05   -1.6172815201934196e-06   -1.822033540451757e-05
1.3582238185587867e-05   -1.6172815201934196e-06   -1.822033540451757e-05
1.3582238185587867e-05   -1.6172815201934196e-06   -1.822033540451757e-05
1.3582238185587867e-05   -1.6172815201934196e-06   -1.822033540451757e-05
2.806287373370509e-06   0.0   -3.65928359238258e-05
2.806287373370509e-06   0.0   -3.65928359238258e-05
2.806287373370509e-06   0.0   -3.65928359238258e-05
2.806287373370509e-06   0.0   -3.65928359238258e-05
2.4811015237054575e-05   -2.1874946865316853e-06   -1.2307862962713728e-06
2.4811015237054575e-05   -2.1874946865316853e-06   -1.2307862962713728e-06
2.4811015237054575e-05   -2.1874946865316853e-06   -1.2307862962713728e-06
2.4811015237054575e-05   -2.1874946865316853e-06   -1.2307862962713728e-06
2.4711274031639415e-05   0.0   -3.736411310441922e-05
2.4711274031639415e-05   0.0   -3.736411310441922e-05
2.4711274031639415e-05   0.0   -3.736411310441922e-05
2.4711274031639415e-05   0.0   -3.736411310441922e-05
3.1645225062728256e-06   -1.3735240753252122e-06   -6.287461169464446e-07
3.1645225062728256e-06   -1.3735240753252122e-06   -6.287461169464446e-07
3.1645225062728256e-06   -1.3735240753252122e-06   -6.287461169464446e-07
3.1645225062728256e-06   -1.3735240753252122e-06   -6.287461169464446e-07
1.3758780702504962e-05   -6.427309838278519e-07   -1.8724318965565073e-05
1.3758780702504962e-05   -6.427309838278519e-07   -1.8724318965565073e-05
1.3758780702504962e-05   -6.427309838278519e-07   -1.8724318965565073e-05
1.3758780702504962e-05   -6.427309838278519e-07   -1.8724318965565073e-05
3.164522506272823e-06   0.0   -3.653999865922406e-05
3.164522506272823e-06   0.0   -3.653999865922406e-05
3.164522506272823e-06   0.0   -3.653999865922406e-05
3.164522506272823e-06   0.0   -3.653999865922406e-05
2.4711274031639415e-05   -1.3735240753252122e-06   -1.4528605621415722e-06
2.4711274031639415e-05   -1.3735240753252122e-06   -1.4528605621415722e-06
2.4711274031639415e-05   -1.3735240753252122e-06   -1.4528605621415722e-06
2.4711274031639415e-05   -1.3735240753252122e-06   -1.4528605621415722e-06
2.519612265091131e-05   0.0   -3.5918427898396685e-05
2.519612265091131e-05   0.0   -3.5918427898396685e-05
2.519612265091131e-05   0.0   -3.5918427898396685e-05
2.519612265091131e-05   0.0   -3.5918427898396685e-05
3.644430071414167e-06   -2.8012668392704494e-07   1.6913574445476676e-07
3.644430071414167e-06   -2.8012668392704494e-07   1.6913574445476676e-07
3.644430071414167e-06   -2.8012668392704494e-07   1.6913574445476676e-07
3.644430071414167e-06   -2.8012668392704494e-07   1.6913574445476676e-07
1.4180322578592057e-05   5.179756340228355e-07   -1.7869546491611625e-05
1.4180322578592057e-05   5.179756340228355e-07   -1.7869546491611625e-05
1.4180322578592057e-05   5.179756340228355e-07   -1.7869546491611625e-05
1.4180322578592057e-05   5.179756340228355e-07   -1.7869546491611625e-05
2.4759422192734926e-05   0.0   -3.770703130341869e-05
2.4759422192734926e-05   0.0   -3.770703130341869e-05
2.4759422192734926e-05   0.0   -3.770703130341869e-05
2.4759422192734926e-05   0.0   -3.770703130341869e-05
5.593793887633673e-05   -7.366870710387495e-06   9.837040743018789e-06
5.593793887633673e-05   -7.366870710387495e-06   9.837040743018789e-06
5.593793887633673e-05   -7.366870710387495e-06   9.837040743018789e-06
5.593793887633673e-05   -7.366870710387495e-06   9.837040743018789e-06
5.2544580286260196e-05   0.0   -4.166375566319906e-05
5.2544580286260196e-05   0.0   -4.166375566319906e-05
5.2544580286260196e-05   0.0   -4.166375566319906e-05
5.2544580286260196e-05   0.0   -4.166375566319906e-05
2.4811015237054575e-05   -6.264038212423751e-06   8.317275679597885e-06
2.4811015237054575e-05   -6.264038212423751e-06   8.317275679597885e-06
2.4811015237054575e-05   -6.264038212423751e-06   8.317275679597885e-06
2.4811015237054575e-05   -6.264038212423751e-06   8.317275679597885e-06
3.865200123949756e-05   -3.297270299816979e-06   -1.6531095072037802e-05
3.865200123949756e-05   -3.297270299816979e-06   -1.6531095072037802e-05
3.865200123949756e-05   -3.297270299816979e-06   -1.6531095072037802e-05
3.865200123949756e-05   -3.297270299816979e-06   -1.6531095072037802e-05
2.4811015237054552e-05   0.0   -3.790533273574478e-05
2.4811015237054552e-05   0.0   -3.790533273574478e-05
2.4811015237054552e-05   0.0   -3.790533273574478e-05
2.4811015237054552e-05   0.0   -3.790533273574478e-05
5.254458028626001e-05   -6.26403821242371e-06   4.558852752143617e-06
5.254458028626001e-05   -6.26403821242371e-06   4.558852752143617e-06
5.254458028626001e-05   -6.26403821242371e-06   4.558852752143617e-06
5.254458028626001e-05   -6.26403821242371e-06   4.558852752143617e-06
5.098271232647824e-05   0.0   -4.079761486280711e-05
5.098271232647824e-05   0.0   -4.079761486280711e-05
5.098271232647824e-05   0.0   -4.079761486280711e-05
5.098271232647824e-05   0.0   -4.079761486280711e-05
2.4711274031639415e-05   -5.722502930646494e-06   6.421617386978806e-06
2.4711274031639415e-05   -5.722502930646494e-06   6.421617386978806e-06
2.4711274031639415e-05   -5.722502930646494e-06   6.421617386978806e-06
2.4711274031639415e-05   -5.722502930646494e-06   6.421617386978806e-06
3.789686378176639e-05   -2.4102351058852528e-06   -1.7541726224756214e-05
3.789686378176639e-05   -2.4102351058852528e-06   -1.7541726224756214e-05
3.789686378176639e-05   -2.4102351058852528e-06   -1.7541726224756214e-05
3.789686378176639e-05   -2.4102351058852528e-06   -1.7541726224756214e-05
2.4711274031639415e-05   0.0   -3.736411310441922e-05
2.4711274031639415e-05   0.0   -3.736411310441922e-05
2.4711274031639415e-05   0.0   -3.736411310441922e-05
2.4711274031639415e-05   0.0   -3.736411310441922e-05
5.098271232647806e-05   -5.722502930646467e-06   2.9881156285909094e-06
5.098271232647806e-05   -5.722502930646467e-06   2.9881156285909094e-06
5.098271232647806e-05   -5.722502930646467e-06   2.9881156285909094e-06
5.098271232647806e-05   -5.722502930646467e-06   2.9881156285909094e-06
4.865297260384539e-05   0.0   -3.8584209723372155e-05
4.865297260384539e-05   0.0   -3.8584209723372155e-05
4.865297260384539e-05   0.0   -3.8584209723372155e-05
4.865297260384539e-05   0.0   -3.8584209723372155e-05
2.519612265091131e-05   -4.442969708292555e-06   3.1763220231602446e-06
2.519612265091131e-05   -4.442969708292555e-06   3.1763220231602446e-06
2.519612265091131e-05   -4.442969708292555e-06   3.1763220231602446e-06
2.519612265091131e-05   -4.442969708292555e-06   3.1763220231602446e-06
3.6682123317742443e-05   -1.0167471824608395e-06   -1.802274593705733e-05
3.6682123317742443e-05   -1.0167471824608395e-06   -1.802274593705733e-05
3.6682123317742443e-05   -1.0167471824608395e-06   -1.802274593705733e-05
3.6682123317742443e-05   -1.0167471824608395e-06   -1.802274593705733e-05
-5.466663259667065e-05   6.976526895806156e-06   -3.592633094148536e-05
-5.466663259667065e-05   6.976526895806156e-06   -3.592633094148536e-05
-5.466663259667065e-05   6.976526895806156e-06   -3.592633094148536e-05
-5.466663259667065e-05   6.976526895806156e-06   -3.592633094148536e-05
-3.5019333373230136e-05   6.269964815418792e-06   -3.6047694839836265e-06
-3.5019333373230136e-05   6.269964815418792e-06   -3.6047694839836265e-06
-3.5019333373230136e-05   6.269964815418792e-06   -3.6047694839836265e-06
-3.5019333373230136e-05   6.269964815418792e-06   -3.6047694839836265e-06
-3.589714516537839e-05   8.37770489969156e-06   -3.017784830695351e-05
-3.589714516537839e-05   8.37770489969156e-06   -3.017784830695351e-05
-3.589714516537839e-05   8.37770489969156e-06   -3.017784830695351e-05
-3.589714516537839e-05   8.37770489969156e-06   -3.017784830695351e-05
-5.525151555971637e-05   7.528937406489617e-06   2.5886961795310525e-06
-5.525151555971637e-05   7.528937406489617e-06   2.5886961795310525e-06
-5.525151555971637e-05   7.528937406489617e-06   2.5886961795310525e-06
-5.525151555971637e-05   7.528937406489617e-06   2.5886961795310525e-06
-4.3417643677867335e-05   7.289059195533001e-06   -1.699049669697695e-05
-4.3417643677867335e-05   7.289059195533001e-06   -1.699049669697695e-05
-4.3417643677867335e-05   7.289059195533001e-06   -1.699049669697695e-05
-4.3417643677867335e-05   7.289059195533001e-06   -1.699049669697695e-05
-5.525151555971637e-05   8.37770489969156e-06   -2.966858781103232e-05
-5.525151555971637e-05   8.37770489969156e-06   -2.966858781103232e-05
-5.525151555971637e-05   8.37770489969156e-06   -2.966858781103232e-05
-5.525151555971637e-05   8.37770489969156e-06   -2.966858781103232e-05
-3.589714516537851e-05   7.528937406489644e-06   2.0794356836099085e-06
-3.589714516537851e-05   7.528937406489644e-06   2.0794356836099085e-06
-3.589714516537851e-05   7.528937406489644e-06   2.0794356836099085e-06
-3.589714516537851e-05   7.528937406489644e-06   2.0794356836099085e-06
-3.60775710198253e-05   8.976950608332871e-06   -2.71356163196003e-05
-3.60775710198253e-05   8.976950608332871e-06   -2.71356163196003e-05
-3.60775710198253e-05   8.976950608332871e-06   -2.71356163196003e-05
-3.60775710198253e-05   8.976950608332871e-06   -2.71356163196003e-05
-5.563440972260876e-05   8.097283780828955e-06   5.986914948207591e-06
-5.563440972260876e-05   8.097283780828955e-06   5.986914948207591e-06
-5.563440972260876e-05   8.097283780828955e-06   5.986914948207591e-06
-5.563440972260876e-05   8.097283780828955e-06   5.986914948207591e-06
-4.4689793371609266e-05   8.080498668645511e-06   -1.224404123614796e-05
-4.4689793371609266e-05   8.080498668645511e-06   -1.224404123614796e-05
-4.4689793371609266e-05   8.080498668645511e-06   -1.224404123614796e-05
-4.4689793371609266e-05   8.080498668645511e-06   -1.224404123614796e-05
-5.563440972260867e-05   8.976950608332871e-06   -2.6607816223097965e-05
-5.563440972260867e-05   8.976950608332871e-06   -2.6607816223097965e-05
-5.563440972260867e-05   8.976950608332871e-06   -2.6607816223097965e-05
-5.563440972260867e-05   8.976950608332871e-06   -2.6607816223097965e-05
-3.607757101982536e-05   8.097283780828955e-06   5.459114851705257e-06
-3.607757101982536e-05   8.097283780828955e-06   5.459114851705257e-06
-3.607757101982536e-05   8.097283780828955e-06   5.459114851705257e-06
-3.607757101982536e-05   8.097283780828955e-06   5.459114851705257e-06
-3.5868776646634593e-05   1.0231278383703788e-05   -2.0062271325942344e-05
-3.5868776646634593e-05   1.0231278383703788e-05   -2.0062271325942344e-05
-3.5868776646634593e-05   1.0231278383703788e-05   -2.0062271325942344e-05
-3.5868776646634593e-05   1.0231278383703788e-05   -2.0062271325942344e-05
-5.4082990026391896e-05   8.551123842485319e-06   1.1302843698384087e-05
-5.4082990026391896e-05   8.551123842485319e-06   1.1302843698384087e-05
-5.4082990026391896e-05   8.551123842485319e-06   1.1302843698384087e-05
-5.4082990026391896e-05   8.551123842485319e-06   1.1302843698384087e-05
-4.3521981752444265e-05   8.865370154266251e-06   -6.487384545263803e-06
-4.3521981752444265e-05   8.865370154266251e-06   -6.487384545263803e-06
-4.3521981752444265e-05   8.865370154266251e-06   -6.487384545263803e-06
-4.3521981752444265e-05   8.865370154266251e-06   -6.487384545263803e-06
-3.5019333373230136e-05   2.5564845813159787e-06   -3.8187122234047915e-05
-3.5019333373230136e-05   2.5564845813159787e-06   -3.8187122234047915e-05
-3.5019333373230136e-05   2.5564845813159787e-06   -3.8187122234047915e-05
-3.5019333373230136e-05   2.5564845813159787e-06   -3.8187122234047915e-05
-1.660449844778597e-05   2.91763378410003e-06   -7.279041169970476e-06
-1.660449844778597e-05   2.91763378410003e-06   -7.279041169970476e-06
-1.660449844778597e-05   2.91763378410003e-06   -7.279041169970476e-06
-1.660449844778597e-05   2.91763378410003e-06   -7.279041169970476e-06
-1.6997707628681295e-05   3.6434515554739535e-06   -3.812755071447875e-05
-1.6997707628681295e-05   3.6434515554739535e-06   -3.812755071447875e-05
-1.6997707628681295e-05   3.6434515554739535e-06   -3.812755071447875e-05
-1.6997707628681295e-05   3.6434515554739535e-06   -3.812755071447875e-05
-3.589714516537839e-05   4.0752572314088934e-06   -6.887571558877799e-06
-3.589714516537839e-05   4.0752572314088934e-06   -6.887571558877799e-06
-3.589714516537839e-05   4.0752572314088934e-06   -6.887571558877799e-06
-3.589714516537839e-05   4.0752572314088934e-06   -6.887571558877799e-06
-2.6055854828425337e-05   3.281095244340299e-06   -2.2813224928225276e-05
-2.6055854828425337e-05   3.281095244340299e-06   -2.2813224928225276e-05
-2.6055854828425337e-05   3.281095244340299e-06   -2.2813224928225276e-05
-2.6055854828425337e-05   3.281095244340299e-06   -2.2813224928225276e-05
-3.5897145165378354e-05   3.6434515554739535e-06   -3.838663412003966e-05
-3.5897145165378354e-05   3.6434515554739535e-06   -3.838663412003966e-05
-3.5897145165378354e-05   3.6434515554739535e-06   -3.838663412003966e-05
-3.5897145165378354e-05   3.6434515554739535e-06   -3.838663412003966e-05
-1.6997707628681325e-05   4.0752572314089206e-06   -6.628488153316851e-06
-1.6997707628681325e-05   4.0752572314089206e-06   -6.628488153316851e-06
-1.6997707628681325e-05   4.0752572314089206e-06   -6.628488153316851e-06
-1.6997707628681325e-05   4.0752572314089206e-06   -6.628488153316851e-06
-1.7118801242894787e-05   4.466892574592329e-06   -3.7414974619688534e-05
-1.7118801242894787e-05   4.466892574592329e-06   -3.7414974619688534e-05
-1.7118801242894787e-05   4.466892574592329e-06   -3.7414974619688534e-05
-1.7118801242894787e-05   4.466892574592329e-06   -3.7414974619688534e-05
-3.60775710198253e-05   5.033888335377227e-06   -6.157222447942e-06
-3.60775710198253e-05   5.033888335377227e-06   -6.157222447942e-06
-3.60775710198253e-05   5.033888335377227e-06   -6.157222447942e-06
-3.60775710198253e-05   5.033888335377227e-06   -6.157222447942e-06
-2.6256454269016867e-05   4.166224606659877e-06   -2.2005152128725555e-05
-2.6256454269016867e-05   4.166224606659877e-06   -2.2005152128725555e-05
-2.6256454269016867e-05   4.166224606659877e-06   -2.2005152128725555e-05
-2.6256454269016867e-05   4.166224606659877e-06   -2.2005152128725555e-05
-3.60775710198253e-05   4.466892574592329e-06   -3.775517207615949e-05
-3.60775710198253e-05   4.466892574592329e-06   -3.775517207615949e-05
-3.60775710198253e-05   4.466892574592329e-06   -3.775517207615949e-05
-3.60775710198253e-05   4.466892574592329e-06   -3.775517207615949e-05
-1.7118801242894845e-05   5.033888335377254e-06   -5.817024991471075e-06
-1.7118801242894845e-05   5.033888335377254e-06   -5.817024991471075e-06
-1.7118801242894845e-05   5.033888335377254e-06   -5.817024991471075e-06
-1.7118801242894845e-05   5.033888335377254e-06   -5.817024991471075e-06
-1.7073735128928777e-05   5.199251051008706e-06   -3.703399833852442e-05
-1.7073735128928777e-05   5.199251051008706e-06   -3.703399833852442e-05
-1.7073735128928777e-05   5.199251051008706e-06   -3.703399833852442e-05
-1.7073735128928777e-05   5.199251051008706e-06   -3.703399833852442e-05
-3.586877664663456e-05   6.065697579300941e-06   -6.228797059323486e-06
-3.586877664663456e-05   6.065697579300941e-06   -6.228797059323486e-06
-3.586877664663456e-05   6.065697579300941e-06   -6.228797059323486e-06
-3.586877664663456e-05   6.065697579300941e-06   -6.228797059323486e-06
-2.6407653394099124e-05   4.967384148946494e-06   -2.133834775533667e-05
-2.6407653394099124e-05   4.967384148946494e-06   -2.133834775533667e-05
-2.6407653394099124e-05   4.967384148946494e-06   -2.133834775533667e-05
-2.6407653394099124e-05   4.967384148946494e-06   -2.133834775533667e-05
-1.660449844778594e-05   -3.292025185593596e-07   -3.99889786490318e-05
-1.660449844778594e-05   -3.292025185593596e-07   -3.99889786490318e-05
-1.660449844778594e-05   -3.292025185593596e-07   -3.99889786490318e-05
-1.660449844778594e-05   -3.292025185593596e-07   -3.99889786490318e-05
1.5774459694238986e-06   -8.79327752774427e-08   -9.540976107712894e-06
1.5774459694238986e-06   -8.79327752774427e-08   -9.540976107712894e-06
1.5774459694238986e-06   -8.79327752774427e-08   -9.540976107712894e-06
1.5774459694238986e-06   -8.79327752774427e-08   -9.540976107712894e-06
1.505800239320163e-06   6.466691156150272e-07   -4.020902144001244e-05
1.505800239320163e-06   6.466691156150272e-07   -4.020902144001244e-05
1.505800239320163e-06   6.466691156150272e-07   -4.020902144001244e-05
1.505800239320163e-06   6.466691156150272e-07   -4.020902144001244e-05
-1.6997707628681295e-05   9.78847601268906e-07   -9.569148751402197e-06
-1.6997707628681295e-05   9.78847601268906e-07   -9.569148751402197e-06
-1.6997707628681295e-05   9.78847601268906e-07   -9.569148751402197e-06
-1.6997707628681295e-05   9.78847601268906e-07   -9.569148751402197e-06
-7.675352995783954e-06   3.253751159080565e-07   -2.4714322981681338e-05
-7.675352995783954e-06   3.253751159080565e-07   -2.4714322981681338e-05
-7.675352995783954e-06   3.253751159080565e-07   -2.4714322981681338e-05
-7.675352995783954e-06   3.253751159080565e-07   -2.4714322981681338e-05
-1.6997707628681295e-05   6.466691156150137e-07   -4.0408328531404694e-05
-1.6997707628681295e-05   6.466691156150137e-07   -4.0408328531404694e-05
-1.6997707628681295e-05   6.466691156150137e-07   -4.0408328531404694e-05
-1.6997707628681295e-05   6.466691156150137e-07   -4.0408328531404694e-05
1.505800239320163e-06   9.788476012688788e-07   -9.369841660009894e-06
1.505800239320163e-06   9.788476012688788e-07   -9.369841660009894e-06
1.505800239320163e-06   9.788476012688788e-07   -9.369841660009894e-06
1.505800239320163e-06   9.788476012688788e-07   -9.369841660009894e-06
1.4074216188733733e-06   1.5062334292004437e-06   -4.029212291460765e-05
1.4074216188733733e-06   1.5062334292004437e-06   -4.029212291460765e-05
1.4074216188733733e-06   1.5062334292004437e-06   -4.029212291460765e-05
1.4074216188733733e-06   1.5062334292004437e-06   -4.029212291460765e-05
-1.7118801242894787e-05   2.021295404655652e-06   -9.724121996933874e-06
-1.7118801242894787e-05   2.021295404655652e-06   -9.724121996933874e-06
-1.7118801242894787e-05   2.021295404655652e-06   -9.724121996933874e-06
-1.7118801242894787e-05   2.021295404655652e-06   -9.724121996933874e-06
-7.815246368764095e-06   1.2291319637945718e-06   -2.475474872263497e-05
-7.815246368764095e-06   1.2291319637945718e-06   -2.475474872263497e-05
-7.815246368764095e-06   1.2291319637945718e-06   -2.475474872263497e-05
-7.815246368764095e-06   1.2291319637945718e-06   -2.475474872263497e-05
-1.7118801242894787e-05   1.5062334292004437e-06   -4.060116009988078e-05
-1.7118801242894787e-05   1.5062334292004437e-06   -4.060116009988078e-05
-1.7118801242894787e-05   1.5062334292004437e-06   -4.060116009988078e-05
-1.7118801242894787e-05   1.5062334292004437e-06   -4.060116009988078e-05
1.4074216188733762e-06   2.021295404655652e-06   -9.415084811660764e-06
1.4074216188733762e-06   2.021295404655652e-06   -9.415084811660764e-06
1.4074216188733762e-06   2.021295404655652e-06   -9.415084811660764e-06
1.4074216188733762e-06   2.021295404655652e-06   -9.415084811660764e-06
1.2055086085390806e-06   2.501451930415876e-06   -4.022327023355787e-05
1.2055086085390806e-06   2.501451930415876e-06   -4.022327023355787e-05
1.2055086085390806e-06   2.501451930415876e-06   -4.022327023355787e-05
1.2055086085390806e-06   2.501451930415876e-06   -4.022327023355787e-05
-1.7073735128928797e-05   3.1072776865350847e-06   -1.0121359458116322e-05
-1.7073735128928797e-05   3.1072776865350847e-06   -1.0121359458116322e-05
-1.7073735128928797e-05   3.1072776865350847e-06   -1.0121359458116322e-05
-1.7073735128928797e-05   3.1072776865350847e-06   -1.0121359458116322e-05
-7.898621197453714e-06   2.157570013621319e-06   -2.4843391406826484e-05
-7.898621197453714e-06   2.157570013621319e-06   -2.4843391406826484e-05
-7.898621197453714e-06   2.157570013621319e-06   -2.4843391406826484e-05
-7.898621197453714e-06   2.157570013621319e-06   -2.4843391406826484e-05
1.5774459694238986e-06   -2.904060653176625e-06   -3.6895071540185e-05
1.5774459694238986e-06   -2.904060653176625e-06   -3.6895071540185e-05
1.5774459694238986e-06   -2.904060653176625e-06   -3.6895071540185e-05
1.5774459694238986e-06   -2.904060653176625e-06   -3.6895071540185e-05
2.0314050468755652e-05   -2.9853573450678694e-06   -5.716175389766794e-06
2.0314050468755652e-05   -2.9853573450678694e-06   -5.716175389766794e-06
2.0314050468755652e-05   -2.9853573450678694e-06   -5.716175389766794e-06
2.0314050468755652e-05   -2.9853573450678694e-06   -5.716175389766794e-06
2.048438581411759e-05   -2.1874946865316786e-06   -3.7405298178954637e-05
2.048438581411759e-05   -2.1874946865316786e-06   -3.7405298178954637e-05
2.048438581411759e-05   -2.1874946865316786e-06   -3.7405298178954637e-05
2.048438581411759e-05   -2.1874946865316786e-06   -3.7405298178954637e-05
1.505800239320163e-06   -2.0153496567106087e-06   -5.877609238851494e-06
1.505800239320163e-06   -2.0153496567106087e-06   -5.877609238851494e-06
1.505800239320163e-06   -2.0153496567106087e-06   -5.877609238851494e-06
1.505800239320163e-06   -2.0153496567106087e-06   -5.877609238851494e-06
1.0830299294305913e-05   -2.4136982092043662e-06   -2.1179431865664898e-05
1.0830299294305913e-05   -2.4136982092043662e-06   -2.1179431865664898e-05
1.0830299294305913e-05   -2.4136982092043662e-06   -2.1179431865664898e-05
1.0830299294305913e-05   -2.4136982092043662e-06   -2.1179431865664898e-05
1.5058002393201604e-06   -2.187494686531672e-06   -3.750858519684735e-05
1.5058002393201604e-06   -2.187494686531672e-06   -3.750858519684735e-05
1.5058002393201604e-06   -2.187494686531672e-06   -3.750858519684735e-05
1.5058002393201604e-06   -2.187494686531672e-06   -3.750858519684735e-05
2.048438581411763e-05   -2.0153496567106358e-06   -5.774322220958834e-06
2.048438581411763e-05   -2.0153496567106358e-06   -5.774322220958834e-06
2.048438581411763e-05   -2.0153496567106358e-06   -5.774322220958834e-06
2.048438581411763e-05   -2.0153496567106358e-06   -5.774322220958834e-06
2.038713681713197e-05   -1.3735240753252054e-06   -3.8103237104460615e-05
2.038713681713197e-05   -1.3735240753252054e-06   -3.8103237104460615e-05
2.038713681713197e-05   -1.3735240753252054e-06   -3.8103237104460615e-05
2.038713681713197e-05   -1.3735240753252054e-06   -3.8103237104460615e-05
1.4074216188733733e-06   -1.065636989807517e-06   -6.655110692006935e-06
1.4074216188733733e-06   -1.065636989807517e-06   -6.655110692006935e-06
1.4074216188733733e-06   -1.065636989807517e-06   -6.655110692006935e-06
1.4074216188733733e-06   -1.065636989807517e-06   -6.655110692006935e-06
1.0717480359067348e-05   -1.6399743896096635e-06   -2.1827272819115534e-05
1.0717480359067348e-05   -1.6399743896096635e-06   -2.1827272819115534e-05
1.0717480359067348e-05   -1.6399743896096635e-06   -2.1827272819115534e-05
1.0717480359067348e-05   -1.6399743896096635e-06   -2.1827272819115534e-05
1.4074216188733724e-06   -1.3735240753252122e-06   -3.8287969355771224e-05
1.4074216188733724e-06   -1.3735240753252122e-06   -3.8287969355771224e-05
1.4074216188733724e-06   -1.3735240753252122e-06   -3.8287969355771224e-05
1.4074216188733724e-06   -1.3735240753252122e-06   -3.8287969355771224e-05
2.038713681713205e-05   -1.065636989807517e-06   -6.470378440696326e-06
2.038713681713205e-05   -1.065636989807517e-06   -6.470378440696326e-06
2.038713681713205e-05   -1.065636989807517e-06   -6.470378440696326e-06
2.038713681713205e-05   -1.065636989807517e-06   -6.470378440696326e-06
1.9793868926041514e-05   -2.8012668392703817e-07   -3.8171141221842615e-05
1.9793868926041514e-05   -2.8012668392703817e-07   -3.8171141221842615e-05
1.9793868926041514e-05   -2.8012668392703817e-07   -3.8171141221842615e-05
1.9793868926041514e-05   -2.8012668392703817e-07   -3.8171141221842615e-05
1.2055086085390806e-06   1.0846903008695174e-07   -7.423698121080313e-06
1.2055086085390806e-06   1.0846903008695174e-07   -7.423698121080313e-06
1.2055086085390806e-06   1.0846903008695174e-07   -7.423698121080313e-06
1.2055086085390806e-06   1.0846903008695174e-07   -7.423698121080313e-06
1.0603115799522737e-05   -7.363311765336126e-07   -2.257949664874737e-05
1.0603115799522737e-05   -7.363311765336126e-07   -2.257949664874737e-05
1.0603115799522737e-05   -7.363311765336126e-07   -2.257949664874737e-05
1.0603115799522737e-05   -7.363311765336126e-07   -2.257949664874737e-05
2.0314050468755652e-05   -7.366870710387495e-06   -2.2322923513672728e-05
2.0314050468755652e-05   -7.366870710387495e-06   -2.2322923513672728e-05
2.0314050468755652e-05   -7.366870710387495e-06   -2.2322923513672728e-05
2.0314050468755652e-05   -7.366870710387495e-06   -2.2322923513672728e-05
3.8798870842897465e-05   -5.545402664324276e-06   9.57799127086813e-06
3.8798870842897465e-05   -5.545402664324276e-06   9.57799127086813e-06
3.8798870842897465e-05   -5.545402664324276e-06   9.57799127086813e-06
3.8798870842897465e-05   -5.545402664324276e-06   9.57799127086813e-06
4.0283211910917674e-05   -6.264038212423737e-06   -2.7115278103664003e-05
4.0283211910917674e-05   -6.264038212423737e-06   -2.7115278103664003e-05
4.0283211910917674e-05   -6.264038212423737e-06   -2.7115278103664003e-05
4.0283211910917674e-05   -6.264038212423737e-06   -2.7115278103664003e-05
2.048438581411766e-05   -5.02744138005458e-06   5.140807291581276e-06
2.048438581411766e-05   -5.02744138005458e-06   5.140807291581276e-06
2.048438581411766e-05   -5.02744138005458e-06   5.140807291581276e-06
2.048438581411766e-05   -5.02744138005458e-06   5.140807291581276e-06
2.8576155372638494e-05   -6.024428238625613e-06   -7.747283190810868e-06
2.8576155372638494e-05   -6.024428238625613e-06   -7.747283190810868e-06
2.8576155372638494e-05   -6.024428238625613e-06   -7.747283190810868e-06
2.8576155372638494e-05   -6.024428238625613e-06   -7.747283190810868e-06
2.048438581411761e-05   -6.264038212423737e-06   -2.7857236203085412e-05
2.048438581411761e-05   -6.264038212423737e-06   -2.7857236203085412e-05
2.048438581411761e-05   -6.264038212423737e-06   -2.7857236203085412e-05
2.048438581411761e-05   -6.264038212423737e-06   -2.7857236203085412e-05
4.0283211910917674e-05   -5.02744138005458e-06   5.88276539100277e-06
4.0283211910917674e-05   -5.02744138005458e-06   5.88276539100277e-06
4.0283211910917674e-05   -5.02744138005458e-06   5.88276539100277e-06
4.0283211910917674e-05   -5.02744138005458e-06   5.88276539100277e-06
4.01374567478588e-05   -5.72250293064648e-06   -2.948385596009456e-05
4.01374567478588e-05   -5.72250293064648e-06   -2.948385596009456e-05
4.01374567478588e-05   -5.72250293064648e-06   -2.948385596009456e-05
4.01374567478588e-05   -5.72250293064648e-06   -2.948385596009456e-05
2.038713681713205e-05   -4.480997605236793e-06   2.688440729204202e-06
2.038713681713205e-05   -4.480997605236793e-06   2.688440729204202e-06
2.038713681713205e-05   -4.480997605236793e-06   2.688440729204202e-06
2.038713681713205e-05   -4.480997605236793e-06   2.688440729204202e-06
2.957985790380479e-05   -5.318055432422032e-06   -1.2130526385605887e-05
2.957985790380479e-05   -5.318055432422032e-06   -1.2130526385605887e-05
2.957985790380479e-05   -5.318055432422032e-06   -1.2130526385605887e-05
2.957985790380479e-05   -5.318055432422032e-06   -1.2130526385605887e-05
2.038713681713201e-05   -5.722502930646467e-06   -3.022875915534032e-05
2.038713681713201e-05   -5.722502930646467e-06   -3.022875915534032e-05
2.038713681713201e-05   -5.722502930646467e-06   -3.022875915534032e-05
2.038713681713201e-05   -5.722502930646467e-06   -3.022875915534032e-05
4.01374567478588e-05   -4.480997605236793e-06   3.4333439244500145e-06
4.01374567478588e-05   -4.480997605236793e-06   3.4333439244500145e-06
4.01374567478588e-05   -4.480997605236793e-06   3.4333439244500145e-06
4.01374567478588e-05   -4.480997605236793e-06   3.4333439244500145e-06
3.9900569670100644e-05   -4.442969708292555e-06   -3.431332242116681e-05
3.9900569670100644e-05   -4.442969708292555e-06   -3.431332242116681e-05
3.9900569670100644e-05   -4.442969708292555e-06   -3.431332242116681e-05
3.9900569670100644e-05   -4.442969708292555e-06   -3.431332242116681e-05
1.979386892604158e-05   -3.3053755222688217e-06   -1.4847110260159796e-06
1.979386892604158e-05   -3.3053755222688217e-06   -1.4847110260159796e-06
1.979386892604158e-05   -3.3053755222688217e-06   -1.4847110260159796e-06
1.979386892604158e-05   -3.3053755222688217e-06   -1.4847110260159796e-06
2.8736559072664015e-05   -4.577388566123959e-06   -1.562598677740691e-05
2.8736559072664015e-05   -4.577388566123959e-06   -1.562598677740691e-05
2.8736559072664015e-05   -4.577388566123959e-06   -1.562598677740691e-05
2.8736559072664015e-05   -4.577388566123959e-06   -1.562598677740691e-05
-4.3493854533634146e-05   6.269964815418819e-06   -3.0060755707151364e-05
-4.3493854533634146e-05   6.269964815418819e-06   -3.0060755707151364e-05
-4.3493854533634146e-05   6.269964815418819e-06   -3.0060755707151364e-05
-4.3493854533634146e-05   6.269964815418819e-06   -3.0060755707151364e-05
-2.852701250268013e-05   4.78627508832761e-06   -6.006232825149422e-06
-2.852701250268013e-05   4.78627508832761e-06   -6.006232825149422e-06
-2.852701250268013e-05   4.78627508832761e-06   -6.006232825149422e-06
-2.852701250268013e-05   4.78627508832761e-06   -6.006232825149422e-06
-2.866306971194354e-05   7.528937406489617e-06   -2.4961902610484178e-05
-2.866306971194354e-05   7.528937406489617e-06   -2.4961902610484178e-05
-2.866306971194354e-05   7.528937406489617e-06   -2.4961902610484178e-05
-2.866306971194354e-05   7.528937406489617e-06   -2.4961902610484178e-05
-4.282938355450831e-05   5.792518312687002e-06   -3.095280832613508e-07
-4.282938355450831e-05   5.792518312687002e-06   -3.095280832613508e-07
-4.282938355450831e-05   5.792518312687002e-06   -3.095280832613508e-07
-4.282938355450831e-05   5.792518312687002e-06   -3.095280832613508e-07
-3.43606813341829e-05   6.376882056493541e-06   -1.4774650030087731e-05
-3.43606813341829e-05   6.376882056493541e-06   -1.4774650030087731e-05
-3.43606813341829e-05   6.376882056493541e-06   -1.4774650030087731e-05
-3.43606813341829e-05   6.376882056493541e-06   -1.4774650030087731e-05
-4.282938355450831e-05   7.528937406489617e-06   -2.392005115420266e-05
-4.282938355450831e-05   7.528937406489617e-06   -2.392005115420266e-05
-4.282938355450831e-05   7.528937406489617e-06   -2.392005115420266e-05
-4.282938355450831e-05   7.528937406489617e-06   -2.392005115420266e-05
-2.866306971194354e-05   5.792518312687056e-06   -1.3513795395428345e-06
-2.866306971194354e-05   5.792518312687056e-06   -1.3513795395428345e-06
-2.866306971194354e-05   5.792518312687056e-06   -1.3513795395428345e-06
-2.866306971194354e-05   5.792518312687056e-06   -1.3513795395428345e-06
-2.863206075979572e-05   8.097283780828955e-06   -2.135696610607718e-05
-2.863206075979572e-05   8.097283780828955e-06   -2.135696610607718e-05
-2.863206075979572e-05   8.097283780828955e-06   -2.135696610607718e-05
-2.863206075979572e-05   8.097283780828955e-06   -2.135696610607718e-05
-4.218274700245223e-05   6.235056937897211e-06   2.3448470707759794e-06
-4.218274700245223e-05   6.235056937897211e-06   2.3448470707759794e-06
-4.218274700245223e-05   6.235056937897211e-06   2.3448470707759794e-06
-4.218274700245223e-05   6.235056937897211e-06   2.3448470707759794e-06
-3.465473808476767e-05   6.960170154918666e-06   -1.0636902388910785e-05
-3.465473808476767e-05   6.960170154918666e-06   -1.0636902388910785e-05
-3.465473808476767e-05   6.960170154918666e-06   -1.0636902388910785e-05
-3.465473808476767e-05   6.960170154918666e-06   -1.0636902388910785e-05
-4.218274700245223e-05   8.097283780828955e-06   -2.023963000031809e-05
-4.218274700245223e-05   8.097283780828955e-06   -2.023963000031809e-05
-4.218274700245223e-05   8.097283780828955e-06   -2.023963000031809e-05
-4.218274700245223e-05   8.097283780828955e-06   -2.023963000031809e-05
-2.863206075979576e-05   6.235056937897211e-06   1.2275109650171172e-06
-2.863206075979576e-05   6.235056937897211e-06   1.2275109650171172e-06
-2.863206075979576e-05   6.235056937897211e-06   1.2275109650171172e-06
-2.863206075979576e-05   6.235056937897211e-06   1.2275109650171172e-06
-2.8659786596565997e-05   8.551123842485319e-06   -1.631244444857624e-05
-2.8659786596565997e-05   8.551123842485319e-06   -1.631244444857624e-05
-2.8659786596565997e-05   8.551123842485319e-06   -1.631244444857624e-05
-2.8659786596565997e-05   8.551123842485319e-06   -1.631244444857624e-05
-4.13398508456986e-05   6.672088329737181e-06   5.948417274293438e-06
-4.13398508456986e-05   6.672088329737181e-06   5.948417274293438e-06
-4.13398508456986e-05   6.672088329737181e-06   5.948417274293438e-06
-4.13398508456986e-05   6.672088329737181e-06   5.948417274293438e-06
-3.386296802884475e-05   7.2682507418189626e-06   -6.870751534378234e-06
-3.386296802884475e-05   7.2682507418189626e-06   -6.870751534378234e-06
-3.386296802884475e-05   7.2682507418189626e-06   -6.870751534378234e-06
-3.386296802884475e-05   7.2682507418189626e-06   -6.870751534378234e-06
-2.852701250268013e-05   2.917633784100003e-06   -3.484193075106341e-05
-2.852701250268013e-05   2.917633784100003e-06   -3.484193075106341e-05
-2.852701250268013e-05   2.917633784100003e-06   -3.484193075106341e-05
-2.852701250268013e-05   2.917633784100003e-06   -3.484193075106341e-05
-1.4533156459638998e-05   2.388328766309022e-06   -1.1836420356669432e-05
-1.4533156459638998e-05   2.388328766309022e-06   -1.1836420356669432e-05
-1.4533156459638998e-05   2.388328766309022e-06   -1.1836420356669432e-05
-1.4533156459638998e-05   2.388328766309022e-06   -1.1836420356669432e-05
-1.4708179021200312e-05   4.0752572314088934e-06   -3.434706453782409e-05
-1.4708179021200312e-05   4.0752572314088934e-06   -3.434706453782409e-05
-1.4708179021200312e-05   4.0752572314088934e-06   -3.434706453782409e-05
-1.4708179021200312e-05   4.0752572314088934e-06   -3.434706453782409e-05
-2.86630697119435e-05   3.378332756655191e-06   -1.0670758701733117e-05
-2.86630697119435e-05   3.378332756655191e-06   -1.0670758701733117e-05
-2.86630697119435e-05   3.378332756655191e-06   -1.0670758701733117e-05
-2.86630697119435e-05   3.378332756655191e-06   -1.0670758701733117e-05
-2.1422628783783344e-05   3.3672590794625785e-06   -2.2731516042351195e-05
-2.1422628783783344e-05   3.3672590794625785e-06   -2.2731516042351195e-05
-2.1422628783783344e-05   3.3672590794625785e-06   -2.2731516042351195e-05
-2.1422628783783344e-05   3.3672590794625785e-06   -2.2731516042351195e-05
-2.8663069711943527e-05   4.0752572314088934e-06   -3.3928909852971764e-05
-2.8663069711943527e-05   4.0752572314088934e-06   -3.3928909852971764e-05
-2.8663069711943527e-05   4.0752572314088934e-06   -3.3928909852971764e-05
-2.8663069711943527e-05   4.0752572314088934e-06   -3.3928909852971764e-05
-1.4708179021200345e-05   3.3783327566552454e-06   -1.1088913386585295e-05
-1.4708179021200345e-05   3.3783327566552454e-06   -1.1088913386585295e-05
-1.4708179021200345e-05   3.3783327566552454e-06   -1.1088913386585295e-05
-1.4708179021200345e-05   3.3783327566552454e-06   -1.1088913386585295e-05
-1.4821162618152104e-05   5.033888335377227e-06   -3.343858144602582e-05
-1.4821162618152104e-05   5.033888335377227e-06   -3.343858144602582e-05
-1.4821162618152104e-05   5.033888335377227e-06   -3.343858144602582e-05
-1.4821162618152104e-05   5.033888335377227e-06   -3.343858144602582e-05
-2.863206075979572e-05   4.258424934874816e-06   -9.955139836318545e-06
-2.863206075979572e-05   4.258424934874816e-06   -9.955139836318545e-06
-2.863206075979572e-05   4.258424934874816e-06   -9.955139836318545e-06
-2.863206075979572e-05   4.258424934874816e-06   -9.955139836318545e-06
-2.1460931109811355e-05   4.18211019130257e-06   -2.1861233740148682e-05
-2.1460931109811355e-05   4.18211019130257e-06   -2.1861233740148682e-05
-2.1460931109811355e-05   4.18211019130257e-06   -2.1861233740148682e-05
-2.1460931109811355e-05   4.18211019130257e-06   -2.1861233740148682e-05
-2.863206075979572e-05   5.033888335377254e-06   -3.2973303405724424e-05
-2.863206075979572e-05   5.033888335377254e-06   -3.2973303405724424e-05
-2.863206075979572e-05   5.033888335377254e-06   -3.2973303405724424e-05
-2.863206075979572e-05   5.033888335377254e-06   -3.2973303405724424e-05
-1.4821162618152159e-05   4.258424934874816e-06   -1.0420417876619865e-05
-1.4821162618152159e-05   4.258424934874816e-06   -1.0420417876619865e-05
-1.4821162618152159e-05   4.258424934874816e-06   -1.0420417876619865e-05
-1.4821162618152159e-05   4.258424934874816e-06   -1.0420417876619865e-05
-1.4967916121518579e-05   6.065697579300968e-06   -3.3358283836141834e-05
-1.4967916121518579e-05   6.065697579300968e-06   -3.3358283836141834e-05
-1.4967916121518579e-05   6.065697579300968e-06   -3.3358283836141834e-05
-1.4967916121518579e-05   6.065697579300968e-06   -3.3358283836141834e-05
-2.8659786596565984e-05   5.195211988319199e-06   -1.0016208356473764e-05
-2.8659786596565984e-05   5.195211988319199e-06   -1.0016208356473764e-05
-2.8659786596565984e-05   5.195211988319199e-06   -1.0016208356473764e-05
-2.8659786596565984e-05   5.195211988319199e-06   -1.0016208356473764e-05
-2.1713852889991532e-05   4.9897105134758565e-06   -2.146946364919161e-05
-2.1713852889991532e-05   4.9897105134758565e-06   -2.146946364919161e-05
-2.1713852889991532e-05   4.9897105134758565e-06   -2.146946364919161e-05
-2.1713852889991532e-05   4.9897105134758565e-06   -2.146946364919161e-05
-1.4533156459638978e-05   -8.79327752774427e-08   -3.7566210545449564e-05
-1.4533156459638978e-05   -8.79327752774427e-08   -3.7566210545449564e-05
-1.4533156459638978e-05   -8.79327752774427e-08   -3.7566210545449564e-05
-1.4533156459638978e-05   -8.79327752774427e-08   -3.7566210545449564e-05
-6.942459957866867e-07   1.274970945403832e-07   -1.4372101850471718e-05
-6.942459957866867e-07   1.274970945403832e-07   -1.4372101850471718e-05
-6.942459957866867e-07   1.274970945403832e-07   -1.4372101850471718e-05
-6.942459957866867e-07   1.274970945403832e-07   -1.4372101850471718e-05
-8.344895708002673e-07   9.788476012688788e-07   -3.7213519949329466e-05
-8.344895708002673e-07   9.788476012688788e-07   -3.7213519949329466e-05
-8.344895708002673e-07   9.788476012688788e-07   -3.7213519949329466e-05
-8.344895708002673e-07   9.788476012688788e-07   -3.7213519949329466e-05
-1.4708179021200312e-05   1.1025229122354346e-06   -1.4164909385242709e-05
-1.4708179021200312e-05   1.1025229122354346e-06   -1.4164909385242709e-05
-1.4708179021200312e-05   1.1025229122354346e-06   -1.4164909385242709e-05
-1.4708179021200312e-05   1.1025229122354346e-06   -1.4164909385242709e-05
-7.64904518137488e-06   6.427611490825895e-07   -2.565427539372672e-05
-7.64904518137488e-06   6.427611490825895e-07   -2.565427539372672e-05
-7.64904518137488e-06   6.427611490825895e-07   -2.565427539372672e-05
-7.64904518137488e-06   6.427611490825895e-07   -2.565427539372672e-05
-1.4708179021200312e-05   9.78847601268906e-07   -3.7287725135909446e-05
-1.4708179021200312e-05   9.78847601268906e-07   -3.7287725135909446e-05
-1.4708179021200312e-05   9.78847601268906e-07   -3.7287725135909446e-05
-1.4708179021200312e-05   9.78847601268906e-07   -3.7287725135909446e-05
-8.34489570800269e-07   1.1025229122354888e-06   -1.4090704198662689e-05
-8.34489570800269e-07   1.1025229122354888e-06   -1.4090704198662689e-05
-8.34489570800269e-07   1.1025229122354888e-06   -1.4090704198662689e-05
-8.34489570800269e-07   1.1025229122354888e-06   -1.4090704198662689e-05
-9.35307838578767e-07   2.021295404655652e-06   -3.731363849840443e-05
-9.35307838578767e-07   2.021295404655652e-06   -3.731363849840443e-05
-9.35307838578767e-07   2.021295404655652e-06   -3.731363849840443e-05
-9.35307838578767e-07   2.021295404655652e-06   -3.731363849840443e-05
-1.4821162618152132e-05   2.0746953264627155e-06   -1.420258715219989e-05
-1.4821162618152132e-05   2.0746953264627155e-06   -1.420258715219989e-05
-1.4821162618152132e-05   2.0746953264627155e-06   -1.420258715219989e-05
-1.4821162618152132e-05   2.0746953264627155e-06   -1.420258715219989e-05
-7.830489296866324e-06   1.5027711091520767e-06   -2.5510554823956294e-05
-7.830489296866324e-06   1.5027711091520767e-06   -2.5510554823956294e-05
-7.830489296866324e-06   1.5027711091520767e-06   -2.5510554823956294e-05
-7.830489296866324e-06   1.5027711091520767e-06   -2.5510554823956294e-05
-1.4821162618152132e-05   2.021295404655652e-06   -3.734567845148873e-05
-1.4821162618152132e-05   2.021295404655652e-06   -3.734567845148873e-05
-1.4821162618152132e-05   2.021295404655652e-06   -3.734567845148873e-05
-1.4821162618152132e-05   2.021295404655652e-06   -3.734567845148873e-05
-9.353078385787692e-07   2.0746953264627155e-06   -1.4170547199115455e-05
-9.353078385787692e-07   2.0746953264627155e-06   -1.4170547199115455e-05
-9.353078385787692e-07   2.0746953264627155e-06   -1.4170547199115455e-05
-9.353078385787692e-07   2.0746953264627155e-06   -1.4170547199115455e-05
-1.0945647369838174e-06   3.1072776865350847e-06   -3.7793434180143114e-05
-1.0945647369838174e-06   3.1072776865350847e-06   -3.7793434180143114e-05
-1.0945647369838174e-06   3.1072776865350847e-06   -3.7793434180143114e-05
-1.0945647369838174e-06   3.1072776865350847e-06   -3.7793434180143114e-05
-1.4967916121518572e-05   3.0694109728130934e-06   -1.464846184435215e-05
-1.4967916121518572e-05   3.0694109728130934e-06   -1.464846184435215e-05
-1.4967916121518572e-05   3.0694109728130934e-06   -1.464846184435215e-05
-1.4967916121518572e-05   3.0694109728130934e-06   -1.464846184435215e-05
-8.023328119993977e-06   2.373002445122405e-06   -2.580493006361181e-05
-8.023328119993977e-06   2.373002445122405e-06   -2.580493006361181e-05
-8.023328119993977e-06   2.373002445122405e-06   -2.580493006361181e-05
-8.023328119993977e-06   2.373002445122405e-06   -2.580493006361181e-05
-6.942459957866879e-07   -2.9853573450678694e-06   -3.356337389047806e-05
-6.942459957866879e-07   -2.9853573450678694e-06   -3.356337389047806e-05
-6.942459957866879e-07   -2.9853573450678694e-06   -3.356337389047806e-05
-6.942459957866879e-07   -2.9853573450678694e-06   -3.356337389047806e-05
1.3071624864781816e-05   -1.998751205159726e-06   -1.0028292105585684e-05
1.3071624864781816e-05   -1.998751205159726e-06   -1.0028292105585684e-05
1.3071624864781816e-05   -1.998751205159726e-06   -1.0028292105585684e-05
1.3071624864781816e-05   -1.998751205159726e-06   -1.0028292105585684e-05
1.3063080063022848e-05   -2.0153496567106087e-06   -3.317464829898487e-05
1.3063080063022848e-05   -2.0153496567106087e-06   -3.317464829898487e-05
1.3063080063022848e-05   -2.0153496567106087e-06   -3.317464829898487e-05
1.3063080063022848e-05   -2.0153496567106087e-06   -3.317464829898487e-05
-8.34489570800269e-07   -1.1042842747334002e-06   -1.0558671471799285e-05
-8.34489570800269e-07   -1.1042842747334002e-06   -1.0558671471799285e-05
-8.34489570800269e-07   -1.1042842747334002e-06   -1.0558671471799285e-05
-8.34489570800269e-07   -1.1042842747334002e-06   -1.0558671471799285e-05
6.1047909738860724e-06   -1.955232008722717e-06   -2.161357040588298e-05
6.1047909738860724e-06   -1.955232008722717e-06   -2.161357040588298e-05
6.1047909738860724e-06   -1.955232008722717e-06   -2.161357040588298e-05
6.1047909738860724e-06   -1.955232008722717e-06   -2.161357040588298e-05
-8.34489570800269e-07   -2.0153496567106358e-06   -3.372128752817111e-05
-8.34489570800269e-07   -2.0153496567106358e-06   -3.372128752817111e-05
-8.34489570800269e-07   -2.0153496567106358e-06   -3.372128752817111e-05
-8.34489570800269e-07   -2.0153496567106358e-06   -3.372128752817111e-05
1.3063080063022848e-05   -1.1042842747334544e-06   -1.0012032242612929e-05
1.3063080063022848e-05   -1.1042842747334544e-06   -1.0012032242612929e-05
1.3063080063022848e-05   -1.1042842747334544e-06   -1.0012032242612929e-05
1.3063080063022848e-05   -1.1042842747334544e-06   -1.0012032242612929e-05
1.3127102020747554e-05   -1.065636989807517e-06   -3.404987186980488e-05
1.3127102020747554e-05   -1.065636989807517e-06   -3.404987186980488e-05
1.3127102020747554e-05   -1.065636989807517e-06   -3.404987186980488e-05
1.3127102020747554e-05   -1.065636989807517e-06   -3.404987186980488e-05
-9.353078385787704e-07   -2.259828082311387e-07   -1.1116314613206946e-05
-9.353078385787704e-07   -2.259828082311387e-07   -1.1116314613206946e-05
-9.353078385787704e-07   -2.259828082311387e-07   -1.1116314613206946e-05
-9.353078385787704e-07   -2.259828082311387e-07   -1.1116314613206946e-05
5.917882867545479e-06   -1.1798042817643133e-06   -2.196600623929391e-05
5.917882867545479e-06   -1.1798042817643133e-06   -2.196600623929391e-05
5.917882867545479e-06   -1.1798042817643133e-06   -2.196600623929391e-05
5.917882867545479e-06   -1.1798042817643133e-06   -2.196600623929391e-05
-9.353078385787679e-07   -1.065636989807517e-06   -3.455366437875059e-05
-9.353078385787679e-07   -1.065636989807517e-06   -3.455366437875059e-05
-9.353078385787679e-07   -1.065636989807517e-06   -3.455366437875059e-05
-9.353078385787679e-07   -1.065636989807517e-06   -3.455366437875059e-05
1.3127102020747554e-05   -2.2598280823119292e-07   -1.0612522104260961e-05
1.3127102020747554e-05   -2.2598280823119292e-07   -1.0612522104260961e-05
1.3127102020747554e-05   -2.2598280823119292e-07   -1.0612522104260961e-05
1.3127102020747554e-05   -2.2598280823119292e-07   -1.0612522104260961e-05
1.3028021600458677e-05   1.0846903008692463e-07   -3.5044173405062673e-05
1.3028021600458677e-05   1.0846903008692463e-07   -3.5044173405062673e-05
1.3028021600458677e-05   1.0846903008692463e-07   -3.5044173405062673e-05
1.3028021600458677e-05   1.0846903008692463e-07   -3.5044173405062673e-05
-1.0945647369838182e-06   8.00293849613715e-07   -1.1921624401041332e-05
-1.0945647369838182e-06   8.00293849613715e-07   -1.1921624401041332e-05
-1.0945647369838182e-06   8.00293849613715e-07   -1.1921624401041332e-05
-1.0945647369838182e-06   8.00293849613715e-07   -1.1921624401041332e-05
5.853149967627121e-06   -3.5065563147340965e-07   -2.2810579220073773e-05
5.853149967627121e-06   -3.5065563147340965e-07   -2.2810579220073773e-05
5.853149967627121e-06   -3.5065563147340965e-07   -2.2810579220073773e-05
5.853149967627121e-06   -3.5065563147340965e-07   -2.2810579220073773e-05
1.3071624864781788e-05   -5.545402664324276e-06   -1.8770124373536126e-05
1.3071624864781788e-05   -5.545402664324276e-06   -1.8770124373536126e-05
1.3071624864781788e-05   -5.545402664324276e-06   -1.8770124373536126e-05
1.3071624864781788e-05   -5.545402664324276e-06   -1.8770124373536126e-05
2.5948474883397135e-05   -3.6203767055380427e-06   3.846307899427908e-06
2.5948474883397135e-05   -3.6203767055380427e-06   3.846307899427908e-06
2.5948474883397135e-05   -3.6203767055380427e-06   3.846307899427908e-06
2.5948474883397135e-05   -3.6203767055380427e-06   3.846307899427908e-06
2.6829657824591562e-05   -5.027441380054553e-06   -2.1105317286614126e-05
2.6829657824591562e-05   -5.027441380054553e-06   -2.1105317286614126e-05
2.6829657824591562e-05   -5.027441380054553e-06   -2.1105317286614126e-05
2.6829657824591562e-05   -5.027441380054553e-06   -2.1105317286614126e-05
1.3063080063022828e-05   -3.103772213670355e-06   6.847774828366247e-07
1.3063080063022828e-05   -3.103772213670355e-06   6.847774828366247e-07
1.3063080063022828e-05   -3.103772213670355e-06   6.847774828366247e-07
1.3063080063022828e-05   -3.103772213670355e-06   6.847774828366247e-07
1.888516838881761e-05   -4.272769016784811e-06   -8.317304978286015e-06
1.888516838881761e-05   -4.272769016784811e-06   -8.317304978286015e-06
1.888516838881761e-05   -4.272769016784811e-06   -8.317304978286015e-06
1.888516838881761e-05   -4.272769016784811e-06   -8.317304978286015e-06
1.3063080063022815e-05   -5.027441380054553e-06   -2.2259518786444554e-05
1.3063080063022815e-05   -5.027441380054553e-06   -2.2259518786444554e-05
1.3063080063022815e-05   -5.027441380054553e-06   -2.2259518786444554e-05
1.3063080063022815e-05   -5.027441380054553e-06   -2.2259518786444554e-05
2.6829657824591562e-05   -3.103772213670301e-06   1.8389789826672763e-06
2.6829657824591562e-05   -3.103772213670301e-06   1.8389789826672763e-06
2.6829657824591562e-05   -3.103772213670301e-06   1.8389789826672763e-06
2.6829657824591562e-05   -3.103772213670301e-06   1.8389789826672763e-06
2.7508188754533686e-05   -4.480997605236793e-06   -2.3799684346301307e-05
2.7508188754533686e-05   -4.480997605236793e-06   -2.3799684346301307e-05
2.7508188754533686e-05   -4.480997605236793e-06   -2.3799684346301307e-05
2.7508188754533686e-05   -4.480997605236793e-06   -2.3799684346301307e-05
1.3127102020747507e-05   -2.662050349231846e-06   -9.225748102607931e-07
1.3127102020747507e-05   -2.662050349231846e-06   -9.225748102607931e-07
1.3127102020747507e-05   -2.662050349231846e-06   -9.225748102607931e-07
1.3127102020747507e-05   -2.662050349231846e-06   -9.225748102607931e-07
1.953031794855818e-05   -3.939589514137109e-06   -1.0828077857668634e-05
1.953031794855818e-05   -3.939589514137109e-06   -1.0828077857668634e-05
1.953031794855818e-05   -3.939589514137109e-06   -1.0828077857668634e-05
1.953031794855818e-05   -3.939589514137109e-06   -1.0828077857668634e-05
1.3127102020747527e-05   -4.480997605236793e-06   -2.4891052699904312e-05
1.3127102020747527e-05   -4.480997605236793e-06   -2.4891052699904312e-05
1.3127102020747527e-05   -4.480997605236793e-06   -2.4891052699904312e-05
1.3127102020747527e-05   -4.480997605236793e-06   -2.4891052699904312e-05
2.7508188754533645e-05   -2.662050349231846e-06   1.6879354334235373e-07
2.7508188754533645e-05   -2.662050349231846e-06   1.6879354334235373e-07
2.7508188754533645e-05   -2.662050349231846e-06   1.6879354334235373e-07
2.7508188754533645e-05   -2.662050349231846e-06   1.6879354334235373e-07
2.8232314478635187e-05   -3.3053755222688217e-06   -2.8386848577394898e-05
2.8232314478635187e-05   -3.3053755222688217e-06   -2.8386848577394898e-05
2.8232314478635187e-05   -3.3053755222688217e-06   -2.8386848577394898e-05
2.8232314478635187e-05   -3.3053755222688217e-06   -2.8386848577394898e-05
1.302802160045863e-05   -1.7195502539159063e-06   -3.997855608112554e-06
1.302802160045863e-05   -1.7195502539159063e-06   -3.997855608112554e-06
1.302802160045863e-05   -1.7195502539159063e-06   -3.997855608112554e-06
1.302802160045863e-05   -1.7195502539159063e-06   -3.997855608112554e-06
1.9450604485405184e-05   -3.3921726719776386e-06   -1.3698586965519609e-05
1.9450604485405184e-05   -3.3921726719776386e-06   -1.3698586965519609e-05
1.9450604485405184e-05   -3.3921726719776386e-06   -1.3698586965519609e-05
1.9450604485405184e-05   -3.3921726719776386e-06   -1.3698586965519609e-05
-3.120920690008079e-05   4.78627508832761e-06   -2.3773795216313416e-05
-3.120920690008079e-05   4.78627508832761e-06   -2.3773795216313416e-05
-3.120920690008079e-05   4.78627508832761e-06   -2.3773795216313416e-05
-3.120920690008079e-05   4.78627508832761e-06   -2.3773795216313416e-05
-2.1268370553638975e-05   3.040310235806823e-06   -8.253313550422812e-06
-2.1268370553638975e-05   3.040310235806823e-06   -8.253313550422812e-06
-2.1268370553638975e-05   3.040310235806823e-06   -8.253313550422812e-06
-2.1268370553638975e-05   3.040310235806823e-06   -8.253313550422812e-06
-2.1190595954624874e-05   5.792518312687002e-06   -2.0197691674136704e-05
-2.1190595954624874e-05   5.792518312687002e-06   -2.0197691674136704e-05
-2.1190595954624874e-05   5.792518312687002e-06   -2.0197691674136704e-05
-2.1190595954624874e-05   5.792518312687002e-06   -2.0197691674136704e-05
-3.0271421505863723e-05   3.8722105341063495e-06   -3.910797754923517e-06
-3.0271421505863723e-05   3.8722105341063495e-06   -3.910797754923517e-06
-3.0271421505863723e-05   3.8722105341063495e-06   -3.910797754923517e-06
-3.0271421505863723e-05   3.8722105341063495e-06   -3.910797754923517e-06
-2.488238473294146e-05   4.609714390067484e-06   -1.3335028023370632e-05
-2.488238473294146e-05   4.609714390067484e-06   -1.3335028023370632e-05
-2.488238473294146e-05   4.609714390067484e-06   -1.3335028023370632e-05
-2.488238473294146e-05   4.609714390067484e-06   -1.3335028023370632e-05
-3.0271421505863723e-05   5.792518312687002e-06   -1.904550700698829e-05
-3.0271421505863723e-05   5.792518312687002e-06   -1.904550700698829e-05
-3.0271421505863723e-05   5.792518312687002e-06   -1.904550700698829e-05
-3.0271421505863723e-05   5.792518312687002e-06   -1.904550700698829e-05
-2.11905959546249e-05   3.8722105341063495e-06   -5.062982422071943e-06
-2.11905959546249e-05   3.8722105341063495e-06   -5.062982422071943e-06
-2.11905959546249e-05   3.8722105341063495e-06   -5.062982422071943e-06
-2.11905959546249e-05   3.8722105341063495e-06   -5.062982422071943e-06
-2.102965051176154e-05   6.235056937897211e-06   -1.7612631539587627e-05
-2.102965051176154e-05   6.235056937897211e-06   -1.7612631539587627e-05
-2.102965051176154e-05   6.235056937897211e-06   -1.7612631539587627e-05
-2.102965051176154e-05   6.235056937897211e-06   -1.7612631539587627e-05
-2.9571168782833323e-05   4.260454961710629e-06   -2.1920065687559376e-06
-2.9571168782833323e-05   4.260454961710629e-06   -2.1920065687559376e-06
-2.9571168782833323e-05   4.260454961710629e-06   -2.1920065687559376e-06
-2.9571168782833323e-05   4.260454961710629e-06   -2.1920065687559376e-06
-2.4882365736382447e-05   5.074044202486492e-06   -1.0494831857306425e-05
-2.4882365736382447e-05   5.074044202486492e-06   -1.0494831857306425e-05
-2.4882365736382447e-05   5.074044202486492e-06   -1.0494831857306425e-05
-2.4882365736382447e-05   5.074044202486492e-06   -1.0494831857306425e-05
-2.9571168782833323e-05   6.235056937897211e-06   -1.6427870353875597e-05
-2.9571168782833323e-05   6.235056937897211e-06   -1.6427870353875597e-05
-2.9571168782833323e-05   6.235056937897211e-06   -1.6427870353875597e-05
-2.9571168782833323e-05   6.235056937897211e-06   -1.6427870353875597e-05
-2.1029650511761582e-05   4.260454961710629e-06   -3.3767677544678427e-06
-2.1029650511761582e-05   4.260454961710629e-06   -3.3767677544678427e-06
-2.1029650511761582e-05   4.260454961710629e-06   -3.3767677544678427e-06
-2.1029650511761582e-05   4.260454961710629e-06   -3.3767677544678427e-06
-2.0965724475610403e-05   6.672088329737181e-06   -1.4036627265557027e-05
-2.0965724475610403e-05   6.672088329737181e-06   -1.4036627265557027e-05
-2.0965724475610403e-05   6.672088329737181e-06   -1.4036627265557027e-05
-2.0965724475610403e-05   6.672088329737181e-06   -1.4036627265557027e-05
-2.8655837859209573e-05   4.749650152356395e-06   -6.630871979648083e-08
-2.8655837859209573e-05   4.749650152356395e-06   -6.630871979648083e-08
-2.8655837859209573e-05   4.749650152356395e-06   -6.630871979648083e-08
-2.8655837859209573e-05   4.749650152356395e-06   -6.630871979648083e-08
-2.4145458855319477e-05   5.3268647243539125e-06   -7.92993580281184e-06
-2.4145458855319477e-05   5.3268647243539125e-06   -7.92993580281184e-06
-2.4145458855319477e-05   5.3268647243539125e-06   -7.92993580281184e-06
-2.4145458855319477e-05   5.3268647243539125e-06   -7.92993580281184e-06
-2.1268370553638934e-05   2.388328766309022e-06   -3.0333978648671225e-05
-2.1268370553638934e-05   2.388328766309022e-06   -3.0333978648671225e-05
-2.1268370553638934e-05   2.388328766309022e-06   -3.0333978648671225e-05
-2.1268370553638934e-05   2.388328766309022e-06   -3.0333978648671225e-05
-1.2252283170807356e-05   1.5748375044731706e-06   -1.5795261101053532e-05
-1.2252283170807356e-05   1.5748375044731706e-06   -1.5795261101053532e-05
-1.2252283170807356e-05   1.5748375044731706e-06   -1.5795261101053532e-05
-1.2252283170807356e-05   1.5748375044731706e-06   -1.5795261101053532e-05
-1.2258409788808582e-05   3.3783327566552454e-06   -3.0071947574663812e-05
-1.2258409788808582e-05   3.3783327566552454e-06   -3.0071947574663812e-05
-1.2258409788808582e-05   3.3783327566552454e-06   -3.0071947574663812e-05
-1.2258409788808582e-05   3.3783327566552454e-06   -3.0071947574663812e-05
-2.1190595954624874e-05   2.453538192760457e-06   -1.4630093893299752e-05
-2.1190595954624874e-05   2.453538192760457e-06   -1.4630093893299752e-05
-2.1190595954624874e-05   2.453538192760457e-06   -1.4630093893299752e-05
-2.1190595954624874e-05   2.453538192760457e-06   -1.4630093893299752e-05
-1.658790586921586e-05   2.614233595355311e-06   -2.2397661277205068e-05
-1.658790586921586e-05   2.614233595355311e-06   -2.2397661277205068e-05
-1.658790586921586e-05   2.614233595355311e-06   -2.2397661277205068e-05
-1.658790586921586e-05   2.614233595355311e-06   -2.2397661277205068e-05
-2.1190595954624847e-05   3.3783327566552454e-06   -2.9517070836326803e-05
-2.1190595954624847e-05   3.3783327566552454e-06   -2.9517070836326803e-05
-2.1190595954624847e-05   3.3783327566552454e-06   -2.9517070836326803e-05
-2.1190595954624847e-05   3.3783327566552454e-06   -2.9517070836326803e-05
-1.2258409788808582e-05   2.453538192760457e-06   -1.5184970631636639e-05
-1.2258409788808582e-05   2.453538192760457e-06   -1.5184970631636639e-05
-1.2258409788808582e-05   2.453538192760457e-06   -1.5184970631636639e-05
-1.2258409788808582e-05   2.453538192760457e-06   -1.5184970631636639e-05
-1.2249593441222342e-05   4.258424934874816e-06   -2.9398095070921708e-05
-1.2249593441222342e-05   4.258424934874816e-06   -2.9398095070921708e-05
-1.2249593441222342e-05   4.258424934874816e-06   -2.9398095070921708e-05
-1.2249593441222342e-05   4.258424934874816e-06   -2.9398095070921708e-05
-2.102965051176154e-05   3.2537370515437576e-06   -1.4161853890024473e-05
-2.102965051176154e-05   3.2537370515437576e-06   -1.4161853890024473e-05
-2.102965051176154e-05   3.2537370515437576e-06   -1.4161853890024473e-05
-2.102965051176154e-05   3.2537370515437576e-06   -1.4161853890024473e-05
-1.651090591723694e-05   3.336445370584213e-06   -2.1742719872322854e-05
-1.651090591723694e-05   3.336445370584213e-06   -2.1742719872322854e-05
-1.651090591723694e-05   3.336445370584213e-06   -2.1742719872322854e-05
-1.651090591723694e-05   3.336445370584213e-06   -2.1742719872322854e-05
-2.102965051176154e-05   4.258424934874816e-06   -2.87952823409231e-05
-2.102965051176154e-05   4.258424934874816e-06   -2.87952823409231e-05
-2.102965051176154e-05   4.258424934874816e-06   -2.87952823409231e-05
-2.102965051176154e-05   4.258424934874816e-06   -2.87952823409231e-05
-1.2249593441222362e-05   3.253737051543866e-06   -1.4764666620023026e-05
-1.2249593441222362e-05   3.253737051543866e-06   -1.4764666620023026e-05
-1.2249593441222362e-05   3.253737051543866e-06   -1.4764666620023026e-05
-1.2249593441222362e-05   3.253737051543866e-06   -1.4764666620023026e-05
-1.2259759146514977e-05   5.195211988319199e-06   -2.951681198480301e-05
-1.2259759146514977e-05   5.195211988319199e-06   -2.951681198480301e-05
-1.2259759146514977e-05   5.195211988319199e-06   -2.951681198480301e-05
-1.2259759146514977e-05   5.195211988319199e-06   -2.951681198480301e-05
-2.0965724475610417e-05   4.123577994773111e-06   -1.4363889373516196e-05
-2.0965724475610417e-05   4.123577994773111e-06   -1.4363889373516196e-05
-2.0965724475610417e-05   4.123577994773111e-06   -1.4363889373516196e-05
-2.0965724475610417e-05   4.123577994773111e-06   -1.4363889373516196e-05
-1.661808311177072e-05   4.051594543453944e-06   -2.1566768242457568e-05
-1.661808311177072e-05   4.051594543453944e-06   -2.1566768242457568e-05
-1.661808311177072e-05   4.051594543453944e-06   -2.1566768242457568e-05
-1.661808311177072e-05   4.051594543453944e-06   -2.1566768242457568e-05
-1.225228317080733e-05   1.274970945403832e-07   -3.348701282146588e-05
-1.225228317080733e-05   1.274970945403832e-07   -3.348701282146588e-05
-1.225228317080733e-05   1.274970945403832e-07   -3.348701282146588e-05
-1.225228317080733e-05   1.274970945403832e-07   -3.348701282146588e-05
-3.358726232642671e-06   2.729936308848739e-07   -1.8577120002718058e-05
-3.358726232642671e-06   2.729936308848739e-07   -1.8577120002718058e-05
-3.358726232642671e-06   2.729936308848739e-07   -1.8577120002718058e-05
-3.358726232642671e-06   2.729936308848739e-07   -1.8577120002718058e-05
-3.365398231081123e-06   1.1025229122354346e-06   -3.311517840986144e-05
-3.365398231081123e-06   1.1025229122354346e-06   -3.311517840986144e-05
-3.365398231081123e-06   1.1025229122354346e-06   -3.311517840986144e-05
-3.365398231081123e-06   1.1025229122354346e-06   -3.311517840986144e-05
-1.2258409788808562e-05   1.1571315180014616e-06   -1.8326257643775374e-05
-1.2258409788808562e-05   1.1571315180014616e-06   -1.8326257643775374e-05
-1.2258409788808562e-05   1.1571315180014616e-06   -1.8326257643775374e-05
-1.2258409788808562e-05   1.1571315180014616e-06   -1.8326257643775374e-05
-7.756673373825605e-06   7.799627710621069e-07   -2.560285042058331e-05
-7.756673373825605e-06   7.799627710621069e-07   -2.560285042058331e-05
-7.756673373825605e-06   7.799627710621069e-07   -2.560285042058331e-05
-7.756673373825605e-06   7.799627710621069e-07   -2.560285042058331e-05
-1.2258409788808562e-05   1.1025229122354346e-06   -3.314794357332112e-05
-1.2258409788808562e-05   1.1025229122354346e-06   -3.314794357332112e-05
-1.2258409788808562e-05   1.1025229122354346e-06   -3.314794357332112e-05
-1.2258409788808562e-05   1.1025229122354346e-06   -3.314794357332112e-05
-3.365398231081123e-06   1.1571315180014616e-06   -1.8293492480315733e-05
-3.365398231081123e-06   1.1571315180014616e-06   -1.8293492480315733e-05
-3.365398231081123e-06   1.1571315180014616e-06   -1.8293492480315733e-05
-3.365398231081123e-06   1.1571315180014616e-06   -1.8293492480315733e-05
-3.353870097968608e-06   2.0746953264627155e-06   -3.319861769669492e-05
-3.353870097968608e-06   2.0746953264627155e-06   -3.319861769669492e-05
-3.353870097968608e-06   2.0746953264627155e-06   -3.319861769669492e-05
-3.353870097968608e-06   2.0746953264627155e-06   -3.319861769669492e-05
-1.2249593441222342e-05   2.0441064094737713e-06   -1.8354058774412076e-05
-1.2249593441222342e-05   2.0441064094737713e-06   -1.8354058774412076e-05
-1.2249593441222342e-05   2.0441064094737713e-06   -1.8354058774412076e-05
-1.2249593441222342e-05   2.0441064094737713e-06   -1.8354058774412076e-05
-7.808803145778713e-06   1.5537784676212065e-06   -2.546117916837323e-05
-7.808803145778713e-06   1.5537784676212065e-06   -2.546117916837323e-05
-7.808803145778713e-06   1.5537784676212065e-06   -2.546117916837323e-05
-7.808803145778713e-06   1.5537784676212065e-06   -2.546117916837323e-05
-1.2249593441222342e-05   2.0746953264627155e-06   -3.3180264346501615e-05
-1.2249593441222342e-05   2.0746953264627155e-06   -3.3180264346501615e-05
-1.2249593441222342e-05   2.0746953264627155e-06   -3.3180264346501615e-05
-1.2249593441222342e-05   2.0746953264627155e-06   -3.3180264346501615e-05
-3.353870097968614e-06   2.0441064094737713e-06   -1.8372412124605363e-05
-3.353870097968614e-06   2.0441064094737713e-06   -1.8372412124605363e-05
-3.353870097968614e-06   2.0441064094737713e-06   -1.8372412124605363e-05
-3.353870097968614e-06   2.0441064094737713e-06   -1.8372412124605363e-05
-3.3592329064676457e-06   3.0694109728130934e-06   -3.370046742522684e-05
-3.3592329064676457e-06   3.0694109728130934e-06   -3.370046742522684e-05
-3.3592329064676457e-06   3.0694109728130934e-06   -3.370046742522684e-05
-3.3592329064676457e-06   3.0694109728130934e-06   -3.370046742522684e-05
-1.2259759146514964e-05   2.946588794255629e-06   -1.8792563718013315e-05
-1.2259759146514964e-05   2.946588794255629e-06   -1.8792563718013315e-05
-1.2259759146514964e-05   2.946588794255629e-06   -1.8792563718013315e-05
-1.2259759146514964e-05   2.946588794255629e-06   -1.8792563718013315e-05
-7.876129313790298e-06   2.3377620838817195e-06   -2.573331741299677e-05
-7.876129313790298e-06   2.3377620838817195e-06   -2.573331741299677e-05
-7.876129313790298e-06   2.3377620838817195e-06   -2.573331741299677e-05
-7.876129313790298e-06   2.3377620838817195e-06   -2.573331741299677e-05
-3.358726232642665e-06   -1.998751205159726e-06   -2.964786883871798e-05
-3.358726232642665e-06   -1.998751205159726e-06   -2.964786883871798e-05
-3.358726232642665e-06   -1.998751205159726e-06   -2.964786883871798e-05
-3.358726232642665e-06   -1.998751205159726e-06   -2.964786883871798e-05
5.401118536400501e-06   -9.170787428279233e-07   -1.4399124079580332e-05
5.401118536400501e-06   -9.170787428279233e-07   -1.4399124079580332e-05
5.401118536400501e-06   -9.170787428279233e-07   -1.4399124079580332e-05
5.401118536400501e-06   -9.170787428279233e-07   -1.4399124079580332e-05
5.472488414334385e-06   -1.1042842747334002e-06   -2.8970755509422156e-05
5.472488414334385e-06   -1.1042842747334002e-06   -2.8970755509422156e-05
5.472488414334385e-06   -1.1042842747334002e-06   -2.8970755509422156e-05
5.472488414334385e-06   -1.1042842747334002e-06   -2.8970755509422156e-05
-3.365398231081123e-06   -8.3633985440432e-08   -1.4853334607305464e-05
-3.365398231081123e-06   -8.3633985440432e-08   -1.4853334607305464e-05
-3.365398231081123e-06   -8.3633985440432e-08   -1.4853334607305464e-05
-3.365398231081123e-06   -8.3633985440432e-08   -1.4853334607305464e-05
1.0431044177411867e-06   -9.489880957981806e-07   -2.1681626555794645e-05
1.0431044177411867e-06   -9.489880957981806e-07   -2.1681626555794645e-05
1.0431044177411867e-06   -9.489880957981806e-07   -2.1681626555794645e-05
1.0431044177411867e-06   -9.489880957981806e-07   -2.1681626555794645e-05
-3.365398231081123e-06   -1.1042842747334002e-06   -2.9583145682997964e-05
-3.365398231081123e-06   -1.1042842747334002e-06   -2.9583145682997964e-05
-3.365398231081123e-06   -1.1042842747334002e-06   -2.9583145682997964e-05
-3.365398231081123e-06   -1.1042842747334002e-06   -2.9583145682997964e-05
5.472488414334419e-06   -8.363398544054042e-08   -1.424094443372968e-05
5.472488414334419e-06   -8.363398544054042e-08   -1.424094443372968e-05
5.472488414334419e-06   -8.363398544054042e-08   -1.424094443372968e-05
5.472488414334419e-06   -8.363398544054042e-08   -1.424094443372968e-05
5.6417775767022e-06   -2.259828082311387e-07   -2.9578268804803063e-05
5.6417775767022e-06   -2.259828082311387e-07   -2.9578268804803063e-05
5.6417775767022e-06   -2.259828082311387e-07   -2.9578268804803063e-05
5.6417775767022e-06   -2.259828082311387e-07   -2.9578268804803063e-05
-3.353870097968614e-06   7.175443684074613e-07   -1.5151638986334905e-05
-3.353870097968614e-06   7.175443684074613e-07   -1.5151638986334905e-05
-3.353870097968614e-06   7.175443684074613e-07   -1.5151638986334905e-05
-3.353870097968614e-06   7.175443684074613e-07   -1.5151638986334905e-05
9.92186428133999e-07   -2.5550490777385146e-07   -2.1811236964130445e-05
9.92186428133999e-07   -2.5550490777385146e-07   -2.1811236964130445e-05
9.92186428133999e-07   -2.5550490777385146e-07   -2.1811236964130445e-05
9.92186428133999e-07   -2.5550490777385146e-07   -2.1811236964130445e-05
-3.3538700979686114e-06   -2.259828082311387e-07   -3.0144385110786158e-05
-3.3538700979686114e-06   -2.259828082311387e-07   -3.0144385110786158e-05
-3.3538700979686114e-06   -2.259828082311387e-07   -3.0144385110786158e-05
-3.3538700979686114e-06   -2.259828082311387e-07   -3.0144385110786158e-05
5.6417775767022275e-06   7.175443684074613e-07   -1.4585522680351647e-05
5.6417775767022275e-06   7.175443684074613e-07   -1.4585522680351647e-05
5.6417775767022275e-06   7.175443684074613e-07   -1.4585522680351647e-05
5.6417775767022275e-06   7.175443684074613e-07   -1.4585522680351647e-05
5.724906013488383e-06   8.00293849613715e-07   -3.045002151067625e-05
5.724906013488383e-06   8.00293849613715e-07   -3.045002151067625e-05
5.724906013488383e-06   8.00293849613715e-07   -3.045002151067625e-05
5.724906013488383e-06   8.00293849613715e-07   -3.045002151067625e-05
-3.3592329064676402e-06   1.6351079212912007e-06   -1.581067842042262e-05
-3.3592329064676402e-06   1.6351079212912007e-06   -1.581067842042262e-05
-3.3592329064676402e-06   1.6351079212912007e-06   -1.581067842042262e-05
-3.3592329064676402e-06   1.6351079212912007e-06   -1.581067842042262e-05
1.0223992835051414e-06   4.855659492681826e-07   -2.2423673553830127e-05
1.0223992835051414e-06   4.855659492681826e-07   -2.2423673553830127e-05
1.0223992835051414e-06   4.855659492681826e-07   -2.2423673553830127e-05
1.0223992835051414e-06   4.855659492681826e-07   -2.2423673553830127e-05
5.401118536400494e-06   -3.6203767055380427e-06   -1.6279280931577085e-05
5.401118536400494e-06   -3.6203767055380427e-06   -1.6279280931577085e-05
5.401118536400494e-06   -3.6203767055380427e-06   -1.6279280931577085e-05
5.401118536400494e-06   -3.6203767055380427e-06   -1.6279280931577085e-05
1.3164961548123714e-05   -1.6813311532165153e-06   -2.176115247312074e-06
1.3164961548123714e-05   -1.6813311532165153e-06   -2.176115247312074e-06
1.3164961548123714e-05   -1.6813311532165153e-06   -2.176115247312074e-06
1.3164961548123714e-05   -1.6813311532165153e-06   -2.176115247312074e-06
1.4092868929695368e-05   -3.103772213670355e-06   -1.7081251293117562e-05
1.4092868929695368e-05   -3.103772213670355e-06   -1.7081251293117562e-05
1.4092868929695368e-05   -3.103772213670355e-06   -1.7081251293117562e-05
1.4092868929695368e-05   -3.103772213670355e-06   -1.7081251293117562e-05
5.472488414334412e-06   -1.1159480622451295e-06   -3.906644925037744e-06
5.472488414334412e-06   -1.1159480622451295e-06   -3.906644925037744e-06
5.472488414334412e-06   -1.1159480622451295e-06   -3.906644925037744e-06
5.472488414334412e-06   -1.1159480622451295e-06   -3.906644925037744e-06
9.126384648655552e-06   -2.306468970909078e-06   -9.282159437041257e-06
9.126384648655552e-06   -2.306468970909078e-06   -9.282159437041257e-06
9.126384648655552e-06   -2.306468970909078e-06   -9.282159437041257e-06
9.126384648655552e-06   -2.306468970909078e-06   -9.282159437041257e-06
5.472488414334392e-06   -3.103772213670355e-06   -1.8273945783972508e-05
5.472488414334392e-06   -3.103772213670355e-06   -1.8273945783972508e-05
5.472488414334392e-06   -3.103772213670355e-06   -1.8273945783972508e-05
5.472488414334392e-06   -3.103772213670355e-06   -1.8273945783972508e-05
1.4092868929695327e-05   -1.115948062245238e-06   -2.7139504341826357e-06
1.4092868929695327e-05   -1.115948062245238e-06   -2.7139504341826357e-06
1.4092868929695327e-05   -1.115948062245238e-06   -2.7139504341826357e-06
1.4092868929695327e-05   -1.115948062245238e-06   -2.7139504341826357e-06
1.4807807146152658e-05   -2.662050349231846e-06   -1.8726933436343435e-05
1.4807807146152658e-05   -2.662050349231846e-06   -1.8726933436343435e-05
1.4807807146152658e-05   -2.662050349231846e-06   -1.8726933436343435e-05
1.4807807146152658e-05   -2.662050349231846e-06   -1.8726933436343435e-05
5.6417775767022275e-06   -7.264035584662052e-07   -4.611605561718758e-06
5.6417775767022275e-06   -7.264035584662052e-07   -4.611605561718758e-06
5.6417775767022275e-06   -7.264035584662052e-07   -4.611605561718758e-06
5.6417775767022275e-06   -7.264035584662052e-07   -4.611605561718758e-06
9.692085806132136e-06   -2.0157843970063463e-06   -1.0588490774311125e-05
9.692085806132136e-06   -2.0157843970063463e-06   -1.0588490774311125e-05
9.692085806132136e-06   -2.0157843970063463e-06   -1.0588490774311125e-05
9.692085806132136e-06   -2.0157843970063463e-06   -1.0588490774311125e-05
5.641777576702221e-06   -2.662050349231846e-06   -1.9888321510802814e-05
5.641777576702221e-06   -2.662050349231846e-06   -1.9888321510802814e-05
5.641777576702221e-06   -2.662050349231846e-06   -1.9888321510802814e-05
5.641777576702221e-06   -2.662050349231846e-06   -1.9888321510802814e-05
1.4807807146152618e-05   -7.264035584660967e-07   -3.450217487259216e-06
1.4807807146152618e-05   -7.264035584660967e-07   -3.450217487259216e-06
1.4807807146152618e-05   -7.264035584660967e-07   -3.450217487259216e-06
1.4807807146152618e-05   -7.264035584660967e-07   -3.450217487259216e-06
1.5758932187856414e-05   -1.7195502539159063e-06   -2.188687225104624e-05
1.5758932187856414e-05   -1.7195502539159063e-06   -2.188687225104624e-05
1.5758932187856414e-05   -1.7195502539159063e-06   -2.188687225104624e-05
1.5758932187856414e-05   -1.7195502539159063e-06   -2.188687225104624e-05
5.72490601348839e-06   3.790867677969448e-08   -6.217970652183506e-06
5.72490601348839e-06   3.790867677969448e-08   -6.217970652183506e-06
5.72490601348839e-06   3.790867677969448e-08   -6.217970652183506e-06
5.72490601348839e-06   3.790867677969448e-08   -6.217970652183506e-06
9.882854190188327e-06   -1.5854239959684e-06   -1.2173884676367896e-05
9.882854190188327e-06   -1.5854239959684e-06   -1.2173884676367896e-05
9.882854190188327e-06   -1.5854239959684e-06   -1.2173884676367896e-05
9.882854190188327e-06   -1.5854239959684e-06   -1.2173884676367896e-05
-1.8850028718370507e-05   3.040310235806823e-06   -1.7693503327571294e-05
-1.8850028718370507e-05   3.040310235806823e-06   -1.7693503327571294e-05
-1.8850028718370507e-05   3.040310235806823e-06   -1.7693503327571294e-05
-1.8850028718370507e-05   3.040310235806823e-06   -1.7693503327571294e-05
-1.3943821148819282e-05   1.2344863468294765e-06   -1.0599985045039038e-05
-1.3943821148819282e-05   1.2344863468294765e-06   -1.0599985045039038e-05
-1.3943821148819282e-05   1.2344863468294765e-06   -1.0599985045039038e-05
-1.3943821148819282e-05   1.2344863468294765e-06   -1.0599985045039038e-05
-1.3740143210646345e-05   3.8722105341063495e-06   -1.560903147783887e-05
-1.3740143210646345e-05   3.8722105341063495e-06   -1.560903147783887e-05
-1.3740143210646345e-05   3.8722105341063495e-06   -1.560903147783887e-05
-1.3740143210646345e-05   3.8722105341063495e-06   -1.560903147783887e-05
-1.782264432859183e-05   1.925806377175163e-06   -7.637020453770847e-06
-1.782264432859183e-05   1.925806377175163e-06   -7.637020453770847e-06
-1.782264432859183e-05   1.925806377175163e-06   -7.637020453770847e-06
-1.782264432859183e-05   1.925806377175163e-06   -7.637020453770847e-06
-1.5407574667698583e-05   2.7280111019279893e-06   -1.2143459390111884e-05
-1.5407574667698583e-05   2.7280111019279893e-06   -1.2143459390111884e-05
-1.5407574667698583e-05   2.7280111019279893e-06   -1.2143459390111884e-05
-1.5407574667698583e-05   2.7280111019279893e-06   -1.2143459390111884e-05
-1.782264432859183e-05   3.8722105341063495e-06   -1.4441188983680179e-05
-1.782264432859183e-05   3.8722105341063495e-06   -1.4441188983680179e-05
-1.782264432859183e-05   3.8722105341063495e-06   -1.4441188983680179e-05
-1.782264432859183e-05   3.8722105341063495e-06   -1.4441188983680179e-05
-1.3740143210646372e-05   1.925806377175163e-06   -8.804862947929686e-06
-1.3740143210646372e-05   1.925806377175163e-06   -8.804862947929686e-06
-1.3740143210646372e-05   1.925806377175163e-06   -8.804862947929686e-06
-1.3740143210646372e-05   1.925806377175163e-06   -8.804862947929686e-06
-1.3449014601229147e-05   4.2604549617105206e-06   -1.3937425226198978e-05
-1.3449014601229147e-05   4.2604549617105206e-06   -1.3937425226198978e-05
-1.3449014601229147e-05   4.2604549617105206e-06   -1.3937425226198978e-05
-1.3449014601229147e-05   4.2604549617105206e-06   -1.3937425226198978e-05
-1.700439964454886e-05   2.275894133954093e-06   -6.82104699067888e-06
-1.700439964454886e-05   2.275894133954093e-06   -6.82104699067888e-06
-1.700439964454886e-05   2.275894133954093e-06   -6.82104699067888e-06
-1.700439964454886e-05   2.275894133954093e-06   -6.82104699067888e-06
-1.5137312832563823e-05   3.1013674559575172e-06   -1.0428142337189387e-05
-1.5137312832563823e-05   3.1013674559575172e-06   -1.0428142337189387e-05
-1.5137312832563823e-05   3.1013674559575172e-06   -1.0428142337189387e-05
-1.5137312832563823e-05   3.1013674559575172e-06   -1.0428142337189387e-05
-1.7004399644548806e-05   4.2604549617105206e-06   -1.2746688729545132e-05
-1.7004399644548806e-05   4.2604549617105206e-06   -1.2746688729545132e-05
-1.7004399644548806e-05   4.2604549617105206e-06   -1.2746688729545132e-05
-1.7004399644548806e-05   4.2604549617105206e-06   -1.2746688729545132e-05
-1.3449014601229174e-05   2.275894133954093e-06   -8.011783487332766e-06
-1.3449014601229174e-05   2.275894133954093e-06   -8.011783487332766e-06
-1.3449014601229174e-05   2.275894133954093e-06   -8.011783487332766e-06
-1.3449014601229174e-05   2.275894133954093e-06   -8.011783487332766e-06
-1.3251807472562785e-05   4.749650152356395e-06   -1.1794703135057966e-05
-1.3251807472562785e-05   4.749650152356395e-06   -1.1794703135057966e-05
-1.3251807472562785e-05   4.749650152356395e-06   -1.1794703135057966e-05
-1.3251807472562785e-05   4.749650152356395e-06   -1.1794703135057966e-05
-1.596279069256888e-05   2.8308415972051184e-06   -6.125112635290146e-06
-1.596279069256888e-05   2.8308415972051184e-06   -6.125112635290146e-06
-1.596279069256888e-05   2.8308415972051184e-06   -6.125112635290146e-06
-1.596279069256888e-05   2.8308415972051184e-06   -6.125112635290146e-06
-1.4430818228389756e-05   3.3614701908668294e-06   -8.996777231786086e-06
-1.4430818228389756e-05   3.3614701908668294e-06   -8.996777231786086e-06
-1.4430818228389756e-05   3.3614701908668294e-06   -8.996777231786086e-06
-1.4430818228389756e-05   3.3614701908668294e-06   -8.996777231786086e-06
-1.3943821148819282e-05   1.5748375044730622e-06   -2.583085045448685e-05
-1.3943821148819282e-05   1.5748375044730622e-06   -2.583085045448685e-05
-1.3943821148819282e-05   1.5748375044730622e-06   -2.583085045448685e-05
-1.3943821148819282e-05   1.5748375044730622e-06   -2.583085045448685e-05
-9.954338311754865e-06   7.130459468210597e-07   -1.969878732730406e-05
-9.954338311754865e-06   7.130459468210597e-07   -1.969878732730406e-05
-9.954338311754865e-06   7.130459468210597e-07   -1.969878732730406e-05
-9.954338311754865e-06   7.130459468210597e-07   -1.969878732730406e-05
-9.821949825441172e-06   2.453538192760457e-06   -2.57445530957585e-05
-9.821949825441172e-06   2.453538192760457e-06   -2.57445530957585e-05
-9.821949825441172e-06   2.453538192760457e-06   -2.57445530957585e-05
-9.821949825441172e-06   2.453538192760457e-06   -2.57445530957585e-05
-1.3740143210646372e-05   1.5061879482742083e-06   -1.864582064039122e-05
-1.3740143210646372e-05   1.5061879482742083e-06   -1.864582064039122e-05
-1.3740143210646372e-05   1.5061879482742083e-06   -1.864582064039122e-05
-1.3740143210646372e-05   1.5061879482742083e-06   -1.864582064039122e-05
-1.1749351793629972e-05   1.7151753878337115e-06   -2.2089198799154803e-05
-1.1749351793629972e-05   1.7151753878337115e-06   -2.2089198799154803e-05
-1.1749351793629972e-05   1.7151753878337115e-06   -2.2089198799154803e-05
-1.1749351793629972e-05   1.7151753878337115e-06   -2.2089198799154803e-05
-1.3740143210646345e-05   2.453538192760457e-06   -2.5176142949066556e-05
-1.3740143210646345e-05   2.453538192760457e-06   -2.5176142949066556e-05
-1.3740143210646345e-05   2.453538192760457e-06   -2.5176142949066556e-05
-1.3740143210646345e-05   2.453538192760457e-06   -2.5176142949066556e-05
-9.821949825441172e-06   1.5061879482742083e-06   -1.9214230787083003e-05
-9.821949825441172e-06   1.5061879482742083e-06   -1.9214230787083003e-05
-9.821949825441172e-06   1.5061879482742083e-06   -1.9214230787083003e-05
-9.821949825441172e-06   1.5061879482742083e-06   -1.9214230787083003e-05
-9.675605885365606e-06   3.2537370515437576e-06   -2.5328140185036673e-05
-9.675605885365606e-06   3.2537370515437576e-06   -2.5328140185036673e-05
-9.675605885365606e-06   3.2537370515437576e-06   -2.5328140185036673e-05
-9.675605885365606e-06   3.2537370515437576e-06   -2.5328140185036673e-05
-1.3449014601229174e-05   2.2443556794085476e-06   -1.843349683531618e-05
-1.3449014601229174e-05   2.2443556794085476e-06   -1.843349683531618e-05
-1.3449014601229174e-05   2.2443556794085476e-06   -1.843349683531618e-05
-1.3449014601229174e-05   2.2443556794085476e-06   -1.843349683531618e-05
-1.1574750314957891e-05   2.357183722599232e-06   -2.16249674716825e-05
-1.1574750314957891e-05   2.357183722599232e-06   -2.16249674716825e-05
-1.1574750314957891e-05   2.357183722599232e-06   -2.16249674716825e-05
-1.1574750314957891e-05   2.357183722599232e-06   -2.16249674716825e-05
-1.3449014601229147e-05   3.2537370515437576e-06   -2.4722511361755428e-05
-1.3449014601229147e-05   3.2537370515437576e-06   -2.4722511361755428e-05
-1.3449014601229147e-05   3.2537370515437576e-06   -2.4722511361755428e-05
-1.3449014601229147e-05   3.2537370515437576e-06   -2.4722511361755428e-05
-9.675605885365592e-06   2.2443556794085476e-06   -1.903912565859726e-05
-9.675605885365592e-06   2.2443556794085476e-06   -1.903912565859726e-05
-9.675605885365592e-06   2.2443556794085476e-06   -1.903912565859726e-05
-9.675605885365592e-06   2.2443556794085476e-06   -1.903912565859726e-05
-9.545838609302935e-06   4.123577994773111e-06   -2.5573821890725922e-05
-9.545838609302935e-06   4.123577994773111e-06   -2.5573821890725922e-05
-9.545838609302935e-06   4.123577994773111e-06   -2.5573821890725922e-05
-9.545838609302935e-06   4.123577994773111e-06   -2.5573821890725922e-05
-1.3251807472562839e-05   3.0652429808119153e-06   -1.8762206110249196e-05
-1.3251807472562839e-05   3.0652429808119153e-06   -1.8762206110249196e-05
-1.3251807472562839e-05   3.0652429808119153e-06   -1.8762206110249196e-05
-1.3251807472562839e-05   3.0652429808119153e-06   -1.8762206110249196e-05
-1.1507850758620389e-05   3.0081880638894217e-06   -2.163456768333334e-05
-1.1507850758620389e-05   3.0081880638894217e-06   -2.163456768333334e-05
-1.1507850758620389e-05   3.0081880638894217e-06   -2.163456768333334e-05
-1.1507850758620389e-05   3.0081880638894217e-06   -2.163456768333334e-05
-9.954338311754838e-06   2.729936308848739e-07   -2.921708221254927e-05
-9.954338311754838e-06   2.729936308848739e-07   -2.921708221254927e-05
-9.954338311754838e-06   2.729936308848739e-07   -2.921708221254927e-05
-9.954338311754838e-06   2.729936308848739e-07   -2.921708221254927e-05
-6.0641175748804676e-06   4.1151657130815596e-07   -2.2650267220171482e-05
-6.0641175748804676e-06   4.1151657130815596e-07   -2.2650267220171482e-05
-6.0641175748804676e-06   4.1151657130815596e-07   -2.2650267220171482e-05
-6.0641175748804676e-06   4.1151657130815596e-07   -2.2650267220171482e-05
-5.935328439093568e-06   1.1571315180014616e-06   -2.884805992781227e-05
-5.935328439093568e-06   1.1571315180014616e-06   -2.884805992781227e-05
-5.935328439093568e-06   1.1571315180014616e-06   -2.884805992781227e-05
-5.935328439093568e-06   1.1571315180014616e-06   -2.884805992781227e-05
-9.821949825441172e-06   1.220098484809736e-06   -2.2408137797317698e-05
-9.821949825441172e-06   1.220098484809736e-06   -2.2408137797317698e-05
-9.821949825441172e-06   1.220098484809736e-06   -2.2408137797317698e-05
-9.821949825441172e-06   1.220098484809736e-06   -2.2408137797317698e-05
-7.892938738524207e-06   8.784293758902582e-07   -2.541815481016144e-05
-7.892938738524207e-06   8.784293758902582e-07   -2.541815481016144e-05
-7.892938738524207e-06   8.784293758902582e-07   -2.541815481016144e-05
-7.892938738524207e-06   8.784293758902582e-07   -2.541815481016144e-05
-9.821949825441145e-06   1.1571315180014616e-06   -2.888584010789718e-05
-9.821949825441145e-06   1.1571315180014616e-06   -2.888584010789718e-05
-9.821949825441145e-06   1.1571315180014616e-06   -2.888584010789718e-05
-9.821949825441145e-06   1.1571315180014616e-06   -2.888584010789718e-05
-5.935328439093568e-06   1.220098484809736e-06   -2.2370357617232828e-05
-5.935328439093568e-06   1.220098484809736e-06   -2.2370357617232828e-05
-5.935328439093568e-06   1.220098484809736e-06   -2.2370357617232828e-05
-5.935328439093568e-06   1.220098484809736e-06   -2.2370357617232828e-05
-5.790004530044524e-06   2.044106409473663e-06   -2.8922558473702686e-05
-5.790004530044524e-06   2.044106409473663e-06   -2.8922558473702686e-05
-5.790004530044524e-06   2.044106409473663e-06   -2.8922558473702686e-05
-5.790004530044524e-06   2.044106409473663e-06   -2.8922558473702686e-05
-9.675605885365592e-06   2.0357295190119888e-06   -2.2441530080557055e-05
-9.675605885365592e-06   2.0357295190119888e-06   -2.2441530080557055e-05
-9.675605885365592e-06   2.0357295190119888e-06   -2.2441530080557055e-05
-9.675605885365592e-06   2.0357295190119888e-06   -2.2441530080557055e-05
-7.807284487369827e-06   1.5736517411969742e-06   -2.527815241052769e-05
-7.807284487369827e-06   1.5736517411969742e-06   -2.527815241052769e-05
-7.807284487369827e-06   1.5736517411969742e-06   -2.527815241052769e-05
-7.807284487369827e-06   1.5736517411969742e-06   -2.527815241052769e-05
-9.675605885365579e-06   2.0441064094737713e-06   -2.8917532339425573e-05
-9.675605885365579e-06   2.0441064094737713e-06   -2.8917532339425573e-05
-9.675605885365579e-06   2.0441064094737713e-06   -2.8917532339425573e-05
-9.675605885365579e-06   2.0441064094737713e-06   -2.8917532339425573e-05
-5.790004530044534e-06   2.0357295190119888e-06   -2.244655621483414e-05
-5.790004530044534e-06   2.0357295190119888e-06   -2.244655621483414e-05
-5.790004530044534e-06   2.0357295190119888e-06   -2.244655621483414e-05
-5.790004530044534e-06   2.0357295190119888e-06   -2.244655621483414e-05
-5.659565000891913e-06   2.946588794255629e-06   -2.9409243321102893e-05
-5.659565000891913e-06   2.946588794255629e-06   -2.9409243321102893e-05
-5.659565000891913e-06   2.946588794255629e-06   -2.9409243321102893e-05
-5.659565000891913e-06   2.946588794255629e-06   -2.9409243321102893e-05
-9.545838609302949e-06   2.8637096575766024e-06   -2.2882393158410263e-05
-9.545838609302949e-06   2.8637096575766024e-06   -2.2882393158410263e-05
-9.545838609302949e-06   2.8637096575766024e-06   -2.2882393158410263e-05
-9.545838609302949e-06   2.8637096575766024e-06   -2.2882393158410263e-05
-7.736900134677256e-06   2.2781292603238877e-06   -2.554594237776816e-05
-7.736900134677256e-06   2.2781292603238877e-06   -2.554594237776816e-05
-7.736900134677256e-06   2.2781292603238877e-06   -2.554594237776816e-05
-7.736900134677256e-06   2.2781292603238877e-06   -2.554594237776816e-05
-6.064117574880446e-06   -9.170787428279233e-07   -2.5604976002556695e-05
-6.064117574880446e-06   -9.170787428279233e-07   -2.5604976002556695e-05
-6.064117574880446e-06   -9.170787428279233e-07   -2.5604976002556695e-05
-6.064117574880446e-06   -9.170787428279233e-07   -2.5604976002556695e-05
-2.296575214921721e-06   1.8103900321659455e-07   -1.8666868088332148e-05
-2.296575214921721e-06   1.8103900321659455e-07   -1.8666868088332148e-05
-2.296575214921721e-06   1.8103900321659455e-07   -1.8666868088332148e-05
-2.296575214921721e-06   1.8103900321659455e-07   -1.8666868088332148e-05
-2.1031227221671487e-06   -8.3633985440432e-08   -2.47788030087902e-05
-2.1031227221671487e-06   -8.3633985440432e-08   -2.47788030087902e-05
-2.1031227221671487e-06   -8.3633985440432e-08   -2.47788030087902e-05
-2.1031227221671487e-06   -8.3633985440432e-08   -2.47788030087902e-05
-5.935328439093557e-06   9.648644245792252e-07   -1.9020892526591063e-05
-5.935328439093557e-06   9.648644245792252e-07   -1.9020892526591063e-05
-5.935328439093557e-06   9.648644245792252e-07   -1.9020892526591063e-05
-5.935328439093557e-06   9.648644245792252e-07   -1.9020892526591063e-05
-4.058375883442302e-06   1.1799817211115456e-07   -2.164102703452935e-05
-4.058375883442302e-06   1.1799817211115456e-07   -2.164102703452935e-05
-4.058375883442302e-06   1.1799817211115456e-07   -2.164102703452935e-05
-4.058375883442302e-06   1.1799817211115456e-07   -2.164102703452935e-05
-5.935328439093546e-06   -8.3633985440432e-08   -2.5407902054801863e-05
-5.935328439093546e-06   -8.3633985440432e-08   -2.5407902054801863e-05
-5.935328439093546e-06   -8.3633985440432e-08   -2.5407902054801863e-05
-5.935328439093546e-06   -8.3633985440432e-08   -2.5407902054801863e-05
-2.1031227221671487e-06   9.648644245792252e-07   -1.8391793480579453e-05
-2.1031227221671487e-06   9.648644245792252e-07   -1.8391793480579453e-05
-2.1031227221671487e-06   9.648644245792252e-07   -1.8391793480579453e-05
-2.1031227221671487e-06   9.648644245792252e-07   -1.8391793480579453e-05
-1.814238316001312e-06   7.175443684074613e-07   -2.5110555873246476e-05
-1.814238316001312e-06   7.175443684074613e-07   -2.5110555873246476e-05
-1.814238316001312e-06   7.175443684074613e-07   -2.5110555873246476e-05
-1.814238316001312e-06   7.175443684074613e-07   -2.5110555873246476e-05
-5.790004530044524e-06   1.702926805383434e-06   -1.907550831202667e-05
-5.790004530044524e-06   1.702926805383434e-06   -1.907550831202667e-05
-5.790004530044524e-06   1.702926805383434e-06   -1.907550831202667e-05
-5.790004530044524e-06   1.702926805383434e-06   -1.907550831202667e-05
-3.941906107596341e-06   7.511957040266673e-07   -2.158463368862626e-05
-3.941906107596341e-06   7.511957040266673e-07   -2.158463368862626e-05
-3.941906107596341e-06   7.511957040266673e-07   -2.158463368862626e-05
-3.941906107596341e-06   7.511957040266673e-07   -2.158463368862626e-05
-5.790004530044509e-06   7.175443684074613e-07   -2.5701785335431983e-05
-5.790004530044509e-06   7.175443684074613e-07   -2.5701785335431983e-05
-5.790004530044509e-06   7.175443684074613e-07   -2.5701785335431983e-05
-5.790004530044509e-06   7.175443684074613e-07   -2.5701785335431983e-05
-1.8142383160013256e-06   1.702926805383434e-06   -1.8484278849841148e-05
-1.8142383160013256e-06   1.702926805383434e-06   -1.8484278849841148e-05
-1.8142383160013256e-06   1.702926805383434e-06   -1.8484278849841148e-05
-1.8142383160013256e-06   1.702926805383434e-06   -1.8484278849841148e-05
-1.6128218848132154e-06   1.6351079212912007e-06   -2.5812681885176852e-05
-1.6128218848132154e-06   1.6351079212912007e-06   -2.5812681885176852e-05
-1.6128218848132154e-06   1.6351079212912007e-06   -2.5812681885176852e-05
-1.6128218848132154e-06   1.6351079212912007e-06   -2.5812681885176852e-05
-5.659565000891913e-06   2.5367459732925004e-06   -1.960909285624636e-05
-5.659565000891913e-06   2.5367459732925004e-06   -1.960909285624636e-05
-5.659565000891913e-06   2.5367459732925004e-06   -1.960909285624636e-05
-5.659565000891913e-06   2.5367459732925004e-06   -1.960909285624636e-05
-3.820286259041018e-06   1.4141152745398428e-06   -2.2000979006746323e-05
-3.820286259041018e-06   1.4141152745398428e-06   -2.2000979006746323e-05
-3.820286259041018e-06   1.4141152745398428e-06   -2.2000979006746323e-05
-3.820286259041018e-06   1.4141152745398428e-06   -2.2000979006746323e-05
-2.296575214921721e-06   -1.681331153216407e-06   -1.3886523854054653e-05
-2.296575214921721e-06   -1.681331153216407e-06   -1.3886523854054653e-05
-2.296575214921721e-06   -1.681331153216407e-06   -1.3886523854054653e-05
-2.296575214921721e-06   -1.681331153216407e-06   -1.3886523854054653e-05
4.6888883928052094e-07   2.5678570081508374e-07   -8.114546984631997e-06
4.6888883928052094e-07   2.5678570081508374e-07   -8.114546984631997e-06
4.6888883928052094e-07   2.5678570081508374e-07   -8.114546984631997e-06
4.6888883928052094e-07   2.5678570081508374e-07   -8.114546984631997e-06
1.5004253093729887e-06   -1.115948062245238e-06   -1.32487132026612e-05
1.5004253093729887e-06   -1.115948062245238e-06   -1.32487132026612e-05
1.5004253093729887e-06   -1.115948062245238e-06   -1.32487132026612e-05
1.5004253093729887e-06   -1.115948062245238e-06   -1.32487132026612e-05
-2.1031227221671487e-06   8.77035766816631e-07   -8.438590114197799e-06
-2.1031227221671487e-06   8.77035766816631e-07   -8.438590114197799e-06
-2.1031227221671487e-06   8.77035766816631e-07   -8.438590114197799e-06
-2.1031227221671487e-06   8.77035766816631e-07   -8.438590114197799e-06
-5.904152853478779e-07   -3.328520299769773e-07   -1.0233836497487497e-05
-5.904152853478779e-07   -3.328520299769773e-07   -1.0233836497487497e-05
-5.904152853478779e-07   -3.328520299769773e-07   -1.0233836497487497e-05
-5.904152853478779e-07   -3.328520299769773e-07   -1.0233836497487497e-05
-2.103122722167135e-06   -1.115948062245238e-06   -1.4444503500098127e-05
-2.103122722167135e-06   -1.115948062245238e-06   -1.4444503500098127e-05
-2.103122722167135e-06   -1.115948062245238e-06   -1.4444503500098127e-05
-2.103122722167135e-06   -1.115948062245238e-06   -1.4444503500098127e-05
1.5004253093729616e-06   8.77035766816631e-07   -7.242799816760859e-06
1.5004253093729616e-06   8.77035766816631e-07   -7.242799816760859e-06
1.5004253093729616e-06   8.77035766816631e-07   -7.242799816760859e-06
1.5004253093729616e-06   8.77035766816631e-07   -7.242799816760859e-06
2.315172489951407e-06   -7.264035584660967e-07   -1.3965501400561593e-05
2.315172489951407e-06   -7.264035584660967e-07   -1.3965501400561593e-05
2.315172489951407e-06   -7.264035584660967e-07   -1.3965501400561593e-05
2.315172489951407e-06   -7.264035584660967e-07   -1.3965501400561593e-05
-1.8142383160013256e-06   1.2254920316206227e-06   -8.25428741135896e-06
-1.8142383160013256e-06   1.2254920316206227e-06   -8.25428741135896e-06
-1.8142383160013256e-06   1.2254920316206227e-06   -8.25428741135896e-06
-1.8142383160013256e-06   1.2254920316206227e-06   -8.25428741135896e-06
-6.92125631745295e-08   -3.523670777892934e-08   -1.0406226422430523e-05
-6.92125631745295e-08   -3.523670777892934e-08   -1.0406226422430523e-05
-6.92125631745295e-08   -3.523670777892934e-08   -1.0406226422430523e-05
-6.92125631745295e-08   -3.523670777892934e-08   -1.0406226422430523e-05
-1.814238316001312e-06   -7.264035584660967e-07   -1.5136638754613505e-05
-1.814238316001312e-06   -7.264035584660967e-07   -1.5136638754613505e-05
-1.814238316001312e-06   -7.264035584660967e-07   -1.5136638754613505e-05
-1.814238316001312e-06   -7.264035584660967e-07   -1.5136638754613505e-05
2.315172489951407e-06   1.2254920316206227e-06   -7.0831500573069256e-06
2.315172489951407e-06   1.2254920316206227e-06   -7.0831500573069256e-06
2.315172489951407e-06   1.2254920316206227e-06   -7.0831500573069256e-06
2.315172489951407e-06   1.2254920316206227e-06   -7.0831500573069256e-06
3.344740499345531e-06   3.790867677969448e-08   -1.563858640230245e-05
3.344740499345531e-06   3.790867677969448e-08   -1.563858640230245e-05
3.344740499345531e-06   3.790867677969448e-08   -1.563858640230245e-05
3.344740499345531e-06   3.790867677969448e-08   -1.563858640230245e-05
-1.6128218848132154e-06   1.8417022728493956e-06   -8.458258586346122e-06
-1.6128218848132154e-06   1.8417022728493956e-06   -8.458258586346122e-06
-1.6128218848132154e-06   1.8417022728493956e-06   -8.458258586346122e-06
-1.6128218848132154e-06   1.8417022728493956e-06   -8.458258586346122e-06
3.817487020398952e-07   3.0274726839428327e-07   -1.0859169895095062e-05
3.817487020398952e-07   3.0274726839428327e-07   -1.0859169895095062e-05
3.817487020398952e-07   3.0274726839428327e-07   -1.0859169895095062e-05
3.817487020398952e-07   3.0274726839428327e-07   -1.0859169895095062e-05
-6.5214456037504325e-06   1.2344863468294765e-06   -1.1758874828574496e-05
-6.5214456037504325e-06   1.2344863468294765e-06   -1.1758874828574496e-05
-6.5214456037504325e-06   1.2344863468294765e-06   -1.1758874828574496e-05
-6.5214456037504325e-06   1.2344863468294765e-06   -1.1758874828574496e-05
-6.652958623567493e-06   -5.808263037814995e-07   -1.3067250785302778e-05
-6.652958623567493e-06   -5.808263037814995e-07   -1.3067250785302778e-05
-6.652958623567493e-06   -5.808263037814995e-07   -1.3067250785302778e-05
-6.652958623567493e-06   -5.808263037814995e-07   -1.3067250785302778e-05
-6.322275801936287e-06   1.925806377175163e-06   -1.1049397474253552e-05
-6.322275801936287e-06   1.925806377175163e-06   -1.1049397474253552e-05
-6.322275801936287e-06   1.925806377175163e-06   -1.1049397474253552e-05
-6.322275801936287e-06   1.925806377175163e-06   -1.1049397474253552e-05
-5.374451026956553e-06   -2.2437807332834417e-08   -1.1460158921848312e-05
-5.374451026956553e-06   -2.2437807332834417e-08   -1.1460158921848312e-05
-5.374451026956553e-06   -2.2437807332834417e-08   -1.1460158921848312e-05
-5.374451026956553e-06   -2.2437807332834417e-08   -1.1460158921848312e-05
-5.9462026318364e-06   8.501050711386864e-07   -1.1030765307465384e-05
-5.9462026318364e-06   8.501050711386864e-07   -1.1030765307465384e-05
-5.9462026318364e-06   8.501050711386864e-07   -1.1030765307465384e-05
-5.9462026318364e-06   8.501050711386864e-07   -1.1030765307465384e-05
-5.3744510269565255e-06   1.925806377175163e-06   -9.880450963548819e-06
-5.3744510269565255e-06   1.925806377175163e-06   -9.880450963548819e-06
-5.3744510269565255e-06   1.925806377175163e-06   -9.880450963548819e-06
-5.3744510269565255e-06   1.925806377175163e-06   -9.880450963548819e-06
-6.322275801936314e-06   -2.2437807332617576e-08   -1.2629105432553181e-05
-6.322275801936314e-06   -2.2437807332617576e-08   -1.2629105432553181e-05
-6.322275801936314e-06   -2.2437807332617576e-08   -1.2629105432553181e-05
-6.322275801936314e-06   -2.2437807332617576e-08   -1.2629105432553181e-05
-5.904608489474698e-06   2.275894133954093e-06   -1.0253520377807466e-05
-5.904608489474698e-06   2.275894133954093e-06   -1.0253520377807466e-05
-5.904608489474698e-06   2.275894133954093e-06   -1.0253520377807466e-05
-5.904608489474698e-06   2.275894133954093e-06   -1.0253520377807466e-05
-4.427431527125519e-06   2.943549807198076e-07   -1.1526558489782183e-05
-4.427431527125519e-06   2.943549807198076e-07   -1.1526558489782183e-05
-4.427431527125519e-06   2.943549807198076e-07   -1.1526558489782183e-05
-4.427431527125519e-06   2.943549807198076e-07   -1.1526558489782183e-05
-5.404571163181832e-06   1.1372963130327172e-06   -1.04037572290764e-05
-5.404571163181832e-06   1.1372963130327172e-06   -1.04037572290764e-05
-5.404571163181832e-06   1.1372963130327172e-06   -1.04037572290764e-05
-5.404571163181832e-06   1.1372963130327172e-06   -1.04037572290764e-05
-4.427431527125546e-06   2.275894133954093e-06   -9.064596885866884e-06
-4.427431527125546e-06   2.275894133954093e-06   -9.064596885866884e-06
-4.427431527125546e-06   2.275894133954093e-06   -9.064596885866884e-06
-4.427431527125546e-06   2.275894133954093e-06   -9.064596885866884e-06
-5.904608489474698e-06   2.943549807198076e-07   -1.2715481981722657e-05
-5.904608489474698e-06   2.943549807198076e-07   -1.2715481981722657e-05
-5.904608489474698e-06   2.943549807198076e-07   -1.2715481981722657e-05
-5.904608489474698e-06   2.943549807198076e-07   -1.2715481981722657e-05
-5.580073903022981e-06   2.8308415972051184e-06   -9.515274669516928e-06
-5.580073903022981e-06   2.8308415972051184e-06   -9.515274669516928e-06
-5.580073903022981e-06   2.8308415972051184e-06   -9.515274669516928e-06
-5.580073903022981e-06   2.8308415972051184e-06   -9.515274669516928e-06
-3.25816460247419e-06   9.258584090588232e-07   -1.2242133590877275e-05
-3.25816460247419e-06   9.258584090588232e-07   -1.2242133590877275e-05
-3.25816460247419e-06   9.258584090588232e-07   -1.2242133590877275e-05
-3.25816460247419e-06   9.258584090588232e-07   -1.2242133590877275e-05
-4.728668296565005e-06   1.4136796611234105e-06   -1.008398685196449e-05
-4.728668296565005e-06   1.4136796611234105e-06   -1.008398685196449e-05
-4.728668296565005e-06   1.4136796611234105e-06   -1.008398685196449e-05
-4.728668296565005e-06   1.4136796611234105e-06   -1.008398685196449e-05
-6.652958623567493e-06   7.130459468210597e-07   -2.142978976661479e-05
-6.652958623567493e-06   7.130459468210597e-07   -2.142978976661479e-05
-6.652958623567493e-06   7.130459468210597e-07   -2.142978976661479e-05
-6.652958623567493e-06   7.130459468210597e-07   -2.142978976661479e-05
-7.699532924762542e-06   -1.2281757894591974e-07   -2.367559838406687e-05
-7.699532924762542e-06   -1.2281757894591974e-07   -2.367559838406687e-05
-7.699532924762542e-06   -1.2281757894591974e-07   -2.367559838406687e-05
-7.699532924762542e-06   -1.2281757894591974e-07   -2.367559838406687e-05
-7.433333912391438e-06   1.5061879482740998e-06   -2.1444672428549494e-05
-7.433333912391438e-06   1.5061879482740998e-06   -2.1444672428549494e-05
-7.433333912391438e-06   1.5061879482740998e-06   -2.1444672428549494e-05
-7.433333912391438e-06   1.5061879482740998e-06   -2.1444672428549494e-05
-6.322275801936314e-06   5.823258452171843e-07   -2.2742118684140335e-05
-6.322275801936314e-06   5.823258452171843e-07   -2.2742118684140335e-05
-6.322275801936314e-06   5.823258452171843e-07   -2.2742118684140335e-05
-6.322275801936314e-06   5.823258452171843e-07   -2.2742118684140335e-05
-6.9452573004088255e-06   8.253009304609767e-07   -2.1849601237832958e-05
-6.9452573004088255e-06   8.253009304609767e-07   -2.1849601237832958e-05
-6.9452573004088255e-06   8.253009304609767e-07   -2.1849601237832958e-05
-6.9452573004088255e-06   8.253009304609767e-07   -2.1849601237832958e-05
-6.322275801936287e-06   1.5061879482740998e-06   -2.089035516671502e-05
-6.322275801936287e-06   1.5061879482740998e-06   -2.089035516671502e-05
-6.322275801936287e-06   1.5061879482740998e-06   -2.089035516671502e-05
-6.322275801936287e-06   1.5061879482740998e-06   -2.089035516671502e-05
-7.433333912391425e-06   5.823258452169675e-07   -2.3296435945974647e-05
-7.433333912391425e-06   5.823258452169675e-07   -2.3296435945974647e-05
-7.433333912391425e-06   5.823258452169675e-07   -2.3296435945974647e-05
-7.433333912391425e-06   5.823258452169675e-07   -2.3296435945974647e-05
-7.156387878533299e-06   2.244355679408656e-06   -2.1264750257871242e-05
-7.156387878533299e-06   2.244355679408656e-06   -2.1264750257871242e-05
-7.156387878533299e-06   2.244355679408656e-06   -2.1264750257871242e-05
-7.156387878533299e-06   2.244355679408656e-06   -2.1264750257871242e-05
-5.904608489474753e-06   1.261828125941316e-06   -2.2761532707555037e-05
-5.904608489474753e-06   1.261828125941316e-06   -2.2761532707555037e-05
-5.904608489474753e-06   1.261828125941316e-06   -2.2761532707555037e-05
-5.904608489474753e-06   1.261828125941316e-06   -2.2761532707555037e-05
-6.678599941857511e-06   1.3945761868297416e-06   -2.1551195790116864e-05
-6.678599941857511e-06   1.3945761868297416e-06   -2.1551195790116864e-05
-6.678599941857511e-06   1.3945761868297416e-06   -2.1551195790116864e-05
-6.678599941857511e-06   1.3945761868297416e-06   -2.1551195790116864e-05
-5.904608489474698e-06   2.2443556794085476e-06   -2.067523372579073e-05
-5.904608489474698e-06   2.2443556794085476e-06   -2.067523372579073e-05
-5.904608489474698e-06   2.2443556794085476e-06   -2.067523372579073e-05
-5.904608489474698e-06   2.2443556794085476e-06   -2.067523372579073e-05
-7.156387878533272e-06   1.261828125941316e-06   -2.3351049239635332e-05
-7.156387878533272e-06   1.261828125941316e-06   -2.3351049239635332e-05
-7.156387878533272e-06   1.261828125941316e-06   -2.3351049239635332e-05
-7.156387878533272e-06   1.261828125941316e-06   -2.3351049239635332e-05
-6.895899383873441e-06   3.065242980811807e-06   -2.161720690525208e-05
-6.895899383873441e-06   3.065242980811807e-06   -2.161720690525208e-05
-6.895899383873441e-06   3.065242980811807e-06   -2.161720690525208e-05
-6.895899383873441e-06   3.065242980811807e-06   -2.161720690525208e-05
-5.580073903023008e-06   2.0383698243668733e-06   -2.319412547946911e-05
-5.580073903023008e-06   2.0383698243668733e-06   -2.319412547946911e-05
-5.580073903023008e-06   2.0383698243668733e-06   -2.319412547946911e-05
-5.580073903023008e-06   2.0383698243668733e-06   -2.319412547946911e-05
-6.444398016330277e-06   1.9924441240485495e-06   -2.172602987043275e-05
-6.444398016330277e-06   1.9924441240485495e-06   -2.172602987043275e-05
-6.444398016330277e-06   1.9924441240485495e-06   -2.172602987043275e-05
-6.444398016330277e-06   1.9924441240485495e-06   -2.172602987043275e-05
-7.699532924762502e-06   4.1151657130815596e-07   -2.496590153919638e-05
-7.699532924762502e-06   4.1151657130815596e-07   -2.496590153919638e-05
-7.699532924762502e-06   4.1151657130815596e-07   -2.496590153919638e-05
-7.699532924762502e-06   4.1151657130815596e-07   -2.496590153919638e-05
-8.79695171310585e-06   5.889352011434566e-07   -2.6688481675200728e-05
-8.79695171310585e-06   5.889352011434566e-07   -2.6688481675200728e-05
-8.79695171310585e-06   5.889352011434566e-07   -2.6688481675200728e-05
-8.79695171310585e-06   5.889352011434566e-07   -2.6688481675200728e-05
-8.53557467822391e-06   1.2200984848098444e-06   -2.4579513360229593e-05
-8.53557467822391e-06   1.2200984848098444e-06   -2.4579513360229593e-05
-8.53557467822391e-06   1.2200984848098444e-06   -2.4579513360229593e-05
-8.53557467822391e-06   1.2200984848098444e-06   -2.4579513360229593e-05
-7.433333912391425e-06   1.3185419490675896e-06   -2.6475647381838275e-05
-7.433333912391425e-06   1.3185419490675896e-06   -2.6475647381838275e-05
-7.433333912391425e-06   1.3185419490675896e-06   -2.6475647381838275e-05
-7.433333912391425e-06   1.3185419490675896e-06   -2.6475647381838275e-05
-8.067458839856602e-06   9.986450059848136e-07   -2.5226834336880392e-05
-8.067458839856602e-06   9.986450059848136e-07   -2.5226834336880392e-05
-8.067458839856602e-06   9.986450059848136e-07   -2.5226834336880392e-05
-8.067458839856602e-06   9.986450059848136e-07   -2.5226834336880392e-05
-7.433333912391411e-06   1.2200984848098444e-06   -2.463857943878423e-05
-7.433333912391411e-06   1.2200984848098444e-06   -2.463857943878423e-05
-7.433333912391411e-06   1.2200984848098444e-06   -2.463857943878423e-05
-7.433333912391411e-06   1.2200984848098444e-06   -2.463857943878423e-05
-8.535574678223925e-06   1.3185419490675896e-06   -2.6416581303283855e-05
-8.535574678223925e-06   1.3185419490675896e-06   -2.6416581303283855e-05
-8.535574678223925e-06   1.3185419490675896e-06   -2.6416581303283855e-05
-8.535574678223925e-06   1.3185419490675896e-06   -2.6416581303283855e-05
-8.260311913967181e-06   2.0357295190118804e-06   -2.46501541959225e-05
-8.260311913967181e-06   2.0357295190118804e-06   -2.46501541959225e-05
-8.260311913967181e-06   2.0357295190118804e-06   -2.46501541959225e-05
-8.260311913967181e-06   2.0357295190118804e-06   -2.46501541959225e-05
-7.156387878533299e-06   2.0640636588596228e-06   -2.650702807222073e-05
-7.156387878533299e-06   2.0640636588596228e-06   -2.650702807222073e-05
-7.156387878533299e-06   2.0640636588596228e-06   -2.650702807222073e-05
-7.156387878533299e-06   2.0640636588596228e-06   -2.650702807222073e-05
-7.848640238319561e-06   1.623316496351555e-06   -2.5088825841739192e-05
-7.848640238319561e-06   1.623316496351555e-06   -2.5088825841739192e-05
-7.848640238319561e-06   1.623316496351555e-06   -2.5088825841739192e-05
-7.848640238319561e-06   1.623316496351555e-06   -2.5088825841739192e-05
-7.156387878533272e-06   2.0357295190119888e-06   -2.4667154679830928e-05
-7.156387878533272e-06   2.0357295190119888e-06   -2.4667154679830928e-05
-7.156387878533272e-06   2.0357295190119888e-06   -2.4667154679830928e-05
-7.156387878533272e-06   2.0357295190119888e-06   -2.4667154679830928e-05
-8.260311913967181e-06   2.0640636588596228e-06   -2.649002758831222e-05
-8.260311913967181e-06   2.0640636588596228e-06   -2.649002758831222e-05
-8.260311913967181e-06   2.0640636588596228e-06   -2.649002758831222e-05
-8.260311913967181e-06   2.0640636588596228e-06   -2.649002758831222e-05
-8.000793965213322e-06   2.8637096575766024e-06   -2.5128640801097427e-05
-8.000793965213322e-06   2.8637096575766024e-06   -2.5128640801097427e-05
-8.000793965213322e-06   2.8637096575766024e-06   -2.5128640801097427e-05
-8.000793965213322e-06   2.8637096575766024e-06   -2.5128640801097427e-05
-6.895899383873441e-06   2.819963230808525e-06   -2.694388391393616e-05
-6.895899383873441e-06   2.819963230808525e-06   -2.694388391393616e-05
-6.895899383873441e-06   2.819963230808525e-06   -2.694388391393616e-05
-6.895899383873441e-06   2.819963230808525e-06   -2.694388391393616e-05
-7.647569486876837e-06   2.256754945582245e-06   -2.535317543779481e-05
-7.647569486876837e-06   2.256754945582245e-06   -2.535317543779481e-05
-7.647569486876837e-06   2.256754945582245e-06   -2.535317543779481e-05
-7.647569486876837e-06   2.256754945582245e-06   -2.535317543779481e-05
-8.796951713105818e-06   1.8103900321659455e-07   -2.1534921877082512e-05
-8.796951713105818e-06   1.8103900321659455e-07   -2.1534921877082512e-05
-8.796951713105818e-06   1.8103900321659455e-07   -2.1534921877082512e-05
-8.796951713105818e-06   1.8103900321659455e-07   -2.1534921877082512e-05
-9.959039571124288e-06   1.3073071357743663e-06   -2.279597409424552e-05
-9.959039571124288e-06   1.3073071357743663e-06   -2.279597409424552e-05
-9.959039571124288e-06   1.3073071357743663e-06   -2.279597409424552e-05
-9.959039571124288e-06   1.3073071357743663e-06   -2.279597409424552e-05
-9.64208594261787e-06   9.648644245792252e-07   -2.058509236014188e-05
-9.64208594261787e-06   9.648644245792252e-07   -2.058509236014188e-05
-9.64208594261787e-06   9.648644245792252e-07   -2.058509236014188e-05
-9.64208594261787e-06   9.648644245792252e-07   -2.058509236014188e-05
-8.53557467822391e-06   2.039790940322689e-06   -2.3074233710244462e-05
-8.53557467822391e-06   2.039790940322689e-06   -2.3074233710244462e-05
-8.53557467822391e-06   2.039790940322689e-06   -2.3074233710244462e-05
-8.53557467822391e-06   2.039790940322689e-06   -2.3074233710244462e-05
-9.161942884296523e-06   1.204543134777805e-06   -2.152913801679678e-05
-9.161942884296523e-06   1.204543134777805e-06   -2.152913801679678e-05
-9.161942884296523e-06   1.204543134777805e-06   -2.152913801679678e-05
-9.161942884296523e-06   1.204543134777805e-06   -2.152913801679678e-05
-8.535574678223894e-06   9.648644245791168e-07   -2.1230048269587937e-05
-8.535574678223894e-06   9.648644245791168e-07   -2.1230048269587937e-05
-8.535574678223894e-06   9.648644245791168e-07   -2.1230048269587937e-05
-8.535574678223894e-06   9.648644245791168e-07   -2.1230048269587937e-05
-9.64208594261787e-06   2.039790940322689e-06   -2.2429277800798558e-05
-9.64208594261787e-06   2.039790940322689e-06   -2.2429277800798558e-05
-9.64208594261787e-06   2.039790940322689e-06   -2.2429277800798558e-05
-9.64208594261787e-06   2.039790940322689e-06   -2.2429277800798558e-05
-9.230891633754478e-06   1.702926805383434e-06   -2.0671851531693295e-05
-9.230891633754478e-06   1.702926805383434e-06   -2.0671851531693295e-05
-9.230891633754478e-06   1.702926805383434e-06   -2.0671851531693295e-05
-9.230891633754478e-06   1.702926805383434e-06   -2.0671851531693295e-05
-8.260311913967166e-06   2.7150180744194875e-06   -2.2896739159427058e-05
-8.260311913967166e-06   2.7150180744194875e-06   -2.2896739159427058e-05
-8.260311913967166e-06   2.7150180744194875e-06   -2.2896739159427058e-05
-8.260311913967166e-06   2.7150180744194875e-06   -2.2896739159427058e-05
-8.878575637479698e-06   1.7861220118111764e-06   -2.1308961982674773e-05
-8.878575637479698e-06   1.7861220118111764e-06   -2.1308961982674773e-05
-8.878575637479698e-06   1.7861220118111764e-06   -2.1308961982674773e-05
-8.878575637479698e-06   1.7861220118111764e-06   -2.1308961982674773e-05
-8.260311913967144e-06   1.702926805383434e-06   -2.1279106293114797e-05
-8.260311913967144e-06   1.702926805383434e-06   -2.1279106293114797e-05
-8.260311913967144e-06   1.702926805383434e-06   -2.1279106293114797e-05
-8.260311913967144e-06   1.702926805383434e-06   -2.1279106293114797e-05
-9.230891633754498e-06   2.7150180744197044e-06   -2.228948439800553e-05
-9.230891633754498e-06   2.7150180744197044e-06   -2.228948439800553e-05
-9.230891633754498e-06   2.7150180744197044e-06   -2.228948439800553e-05
-9.230891633754498e-06   2.7150180744197044e-06   -2.228948439800553e-05
-8.908263856782787e-06   2.5367459732925004e-06   -2.1245088778836527e-05
-8.908263856782787e-06   2.5367459732925004e-06   -2.1245088778836527e-05
-8.908263856782787e-06   2.5367459732925004e-06   -2.1245088778836527e-05
-8.908263856782787e-06   2.5367459732925004e-06   -2.1245088778836527e-05
-8.000793965213322e-06   3.470953036775141e-06   -2.3318062836208424e-05
-8.000793965213322e-06   3.470953036775141e-06   -2.3318062836208424e-05
-8.000793965213322e-06   3.470953036775141e-06   -2.3318062836208424e-05
-8.000793965213322e-06   3.470953036775141e-06   -2.3318062836208424e-05
-8.667672485969367e-06   2.3798082084433656e-06   -2.1551911737949052e-05
-8.667672485969367e-06   2.3798082084433656e-06   -2.1551911737949052e-05
-8.667672485969367e-06   2.3798082084433656e-06   -2.1551911737949052e-05
-8.667672485969367e-06   2.3798082084433656e-06   -2.1551911737949052e-05
-9.959039571124254e-06   2.5678570081508374e-07   -1.1469710006266896e-05
-9.959039571124254e-06   2.5678570081508374e-07   -1.1469710006266896e-05
-9.959039571124254e-06   2.5678570081508374e-07   -1.1469710006266896e-05
-9.959039571124254e-06   2.5678570081508374e-07   -1.1469710006266896e-05
-1.2091143568948305e-05   2.19992963145562e-06   -1.3857330310922643e-05
-1.2091143568948305e-05   2.19992963145562e-06   -1.3857330310922643e-05
-1.2091143568948305e-05   2.19992963145562e-06   -1.3857330310922643e-05
-1.2091143568948305e-05   2.19992963145562e-06   -1.3857330310922643e-05
-1.0955169946856005e-05   8.77035766816631e-07   -9.439297081362957e-06
-1.0955169946856005e-05   8.77035766816631e-07   -9.439297081362957e-06
-1.0955169946856005e-05   8.77035766816631e-07   -9.439297081362957e-06
-1.0955169946856005e-05   8.77035766816631e-07   -9.439297081362957e-06
-9.642085942617857e-06   2.864688954145678e-06   -1.2820362334157255e-05
-9.642085942617857e-06   2.864688954145678e-06   -1.2820362334157255e-05
-9.642085942617857e-06   2.864688954145678e-06   -1.2820362334157255e-05
-9.642085942617857e-06   2.864688954145678e-06   -1.2820362334157255e-05
-1.0230403102894717e-05   1.6291946820814985e-06   -1.1098537170457442e-05
-1.0230403102894717e-05   1.6291946820814985e-06   -1.1098537170457442e-05
-1.0230403102894717e-05   1.6291946820814985e-06   -1.1098537170457442e-05
-1.0230403102894717e-05   1.6291946820814985e-06   -1.1098537170457442e-05
-9.64208594261783e-06   8.770357668167394e-07   -1.0631888993760266e-05
-9.64208594261783e-06   8.770357668167394e-07   -1.0631888993760266e-05
-9.64208594261783e-06   8.770357668167394e-07   -1.0631888993760266e-05
-9.64208594261783e-06   8.770357668167394e-07   -1.0631888993760266e-05
-1.0955169946855978e-05   2.864688954145895e-06   -1.1627770421759865e-05
-1.0955169946855978e-05   2.864688954145895e-06   -1.1627770421759865e-05
-1.0955169946855978e-05   2.864688954145895e-06   -1.1627770421759865e-05
-1.0955169946855978e-05   2.864688954145895e-06   -1.1627770421759865e-05
-1.0031215441441487e-05   1.2254920316206227e-06   -9.275755450611567e-06
-1.0031215441441487e-05   1.2254920316206227e-06   -9.275755450611567e-06
-1.0031215441441487e-05   1.2254920316206227e-06   -9.275755450611567e-06
-1.0031215441441487e-05   1.2254920316206227e-06   -9.275755450611567e-06
-9.230891633754478e-06   3.16899976928668e-06   -1.1775733106022735e-05
-9.230891633754478e-06   3.16899976928668e-06   -1.1775733106022735e-05
-9.230891633754478e-06   3.16899976928668e-06   -1.1775733106022735e-05
-9.230891633754478e-06   3.16899976928668e-06   -1.1775733106022735e-05
-9.748956751890033e-06   1.9377809070097703e-06   -1.0173559925097511e-05
-9.748956751890033e-06   1.9377809070097703e-06   -1.0173559925097511e-05
-9.748956751890033e-06   1.9377809070097703e-06   -1.0173559925097511e-05
-9.748956751890033e-06   1.9377809070097703e-06   -1.0173559925097511e-05
-9.230891633754465e-06   1.2254920316206227e-06   -1.0441860093211147e-05
-9.230891633754465e-06   1.2254920316206227e-06   -1.0441860093211147e-05
-9.230891633754465e-06   1.2254920316206227e-06   -1.0441860093211147e-05
-9.230891633754465e-06   1.2254920316206227e-06   -1.0441860093211147e-05
-1.0031215441441487e-05   3.16899976928668e-06   -1.0609628463423195e-05
-1.0031215441441487e-05   3.16899976928668e-06   -1.0609628463423195e-05
-1.0031215441441487e-05   3.16899976928668e-06   -1.0609628463423195e-05
-1.0031215441441487e-05   3.16899976928668e-06   -1.0609628463423195e-05
-8.89944071309087e-06   1.841702272849504e-06   -9.557091277558527e-06
-8.89944071309087e-06   1.841702272849504e-06   -9.557091277558527e-06
-8.89944071309087e-06   1.841702272849504e-06   -9.557091277558527e-06
-8.89944071309087e-06   1.841702272849504e-06   -9.557091277558527e-06
-8.908263856782774e-06   3.6386123771470734e-06   -1.0620532100650369e-05
-8.908263856782774e-06   3.6386123771470734e-06   -1.0620532100650369e-05
-8.908263856782774e-06   3.6386123771470734e-06   -1.0620532100650369e-05
-8.908263856782774e-06   3.6386123771470734e-06   -1.0620532100650369e-05
-9.034592773951854e-06   2.1859783889712197e-06   -9.53840351246307e-06
-9.034592773951854e-06   2.1859783889712197e-06   -9.53840351246307e-06
-9.034592773951854e-06   2.1859783889712197e-06   -9.53840351246307e-06
-9.034592773951854e-06   2.1859783889712197e-06   -9.53840351246307e-06
5.880432800128274e-06   -5.808263037814995e-07   -5.912941900791148e-06
5.880432800128274e-06   -5.808263037814995e-07   -5.912941900791148e-06
5.880432800128274e-06   -5.808263037814995e-07   -5.912941900791148e-06
5.880432800128274e-06   -5.808263037814995e-07   -5.912941900791148e-06
6.114421031956033e-07   -2.424441411373818e-06   -1.580076212690098e-05
6.114421031956033e-07   -2.424441411373818e-06   -1.580076212690098e-05
6.114421031956033e-07   -2.424441411373818e-06   -1.580076212690098e-05
6.114421031956033e-07   -2.424441411373818e-06   -1.580076212690098e-05
1.0641910898534967e-06   -2.2437807332834417e-08   -6.542172303682287e-06
1.0641910898534967e-06   -2.2437807332834417e-08   -6.542172303682287e-06
1.0641910898534967e-06   -2.2437807332834417e-08   -6.542172303682287e-06
1.0641910898534967e-06   -2.2437807332834417e-08   -6.542172303682287e-06
7.1535807405062525e-06   -1.993449837575656e-06   -1.550854783662455e-05
7.1535807405062525e-06   -1.993449837575656e-06   -1.550854783662455e-05
7.1535807405062525e-06   -1.993449837575656e-06   -1.550854783662455e-05
7.1535807405062525e-06   -1.993449837575656e-06   -1.550854783662455e-05
3.5398141384164944e-06   -1.0134968174819146e-06   -1.0073575311864429e-05
3.5398141384164944e-06   -1.0134968174819146e-06   -1.0073575311864429e-05
3.5398141384164944e-06   -1.0134968174819146e-06   -1.0073575311864429e-05
3.5398141384164944e-06   -1.0134968174819146e-06   -1.0073575311864429e-05
7.15358074050628e-06   -2.2437807332834417e-08   -5.359565085536551e-06
7.15358074050628e-06   -2.2437807332834417e-08   -5.359565085536551e-06
7.15358074050628e-06   -2.2437807332834417e-08   -5.359565085536551e-06
7.15358074050628e-06   -2.2437807332834417e-08   -5.359565085536551e-06
1.0641910898534967e-06   -1.993449837575656e-06   -1.669115505477034e-05
1.0641910898534967e-06   -1.993449837575656e-06   -1.669115505477034e-05
1.0641910898534967e-06   -1.993449837575656e-06   -1.669115505477034e-05
1.0641910898534967e-06   -1.993449837575656e-06   -1.669115505477034e-05
1.5983778856765336e-06   2.943549807198076e-07   -6.595509917397451e-06
1.5983778856765336e-06   2.943549807198076e-07   -6.595509917397451e-06
1.5983778856765336e-06   2.943549807198076e-07   -6.595509917397451e-06
1.5983778856765336e-06   2.943549807198076e-07   -6.595509917397451e-06
8.22815008310579e-06   -1.7050524426342854e-06   -1.64454857924337e-05
8.22815008310579e-06   -1.7050524426342854e-06   -1.64454857924337e-05
8.22815008310579e-06   -1.7050524426342854e-06   -1.64454857924337e-05
8.22815008310579e-06   -1.7050524426342854e-06   -1.64454857924337e-05
4.3462618144404774e-06   -8.114468324938329e-07   -1.0511835377409494e-05
4.3462618144404774e-06   -8.114468324938329e-07   -1.0511835377409494e-05
4.3462618144404774e-06   -8.114468324938329e-07   -1.0511835377409494e-05
4.3462618144404774e-06   -8.114468324938329e-07   -1.0511835377409494e-05
8.22815008310579e-06   2.943549807198076e-07   -5.39586546338493e-06
8.22815008310579e-06   2.943549807198076e-07   -5.39586546338493e-06
8.22815008310579e-06   2.943549807198076e-07   -5.39586546338493e-06
8.22815008310579e-06   2.943549807198076e-07   -5.39586546338493e-06
1.5983778856765065e-06   -1.7050524426342854e-06   -1.7645130246446276e-05
1.5983778856765065e-06   -1.7050524426342854e-06   -1.7645130246446276e-05
1.5983778856765065e-06   -1.7050524426342854e-06   -1.7645130246446276e-05
1.5983778856765065e-06   -1.7050524426342854e-06   -1.7645130246446276e-05
2.036906359513584e-06   9.258584090588232e-07   -7.2355036456164985e-06
2.036906359513584e-06   9.258584090588232e-07   -7.2355036456164985e-06
2.036906359513584e-06   9.258584090588232e-07   -7.2355036456164985e-06
2.036906359513584e-06   9.258584090588232e-07   -7.2355036456164985e-06
9.519113830919234e-06   -9.794005059958998e-07   -1.8562694082259728e-05
9.519113830919234e-06   -9.794005059958998e-07   -1.8562694082259728e-05
9.519113830919234e-06   -9.794005059958998e-07   -1.8562694082259728e-05
9.519113830919234e-06   -9.794005059958998e-07   -1.8562694082259728e-05
4.985246470719153e-06   -5.138091497746897e-07   -1.128560329565929e-05
4.985246470719153e-06   -5.138091497746897e-07   -1.128560329565929e-05
4.985246470719153e-06   -5.138091497746897e-07   -1.128560329565929e-05
4.985246470719153e-06   -5.138091497746897e-07   -1.128560329565929e-05
6.114421031956033e-07   -1.2281757894591974e-07   -1.7125940448650375e-05
6.114421031956033e-07   -1.2281757894591974e-07   -1.7125940448650375e-05
6.114421031956033e-07   -1.2281757894591974e-07   -1.7125940448650375e-05
6.114421031956033e-07   -1.2281757894591974e-07   -1.7125940448650375e-05
-5.517788407990472e-06   -9.546163312395758e-07   -2.7840403885336692e-05
-5.517788407990472e-06   -9.546163312395758e-07   -2.7840403885336692e-05
-5.517788407990472e-06   -9.546163312395758e-07   -2.7840403885336692e-05
-5.517788407990472e-06   -9.546163312395758e-07   -2.7840403885336692e-05
-5.121561655225076e-06   5.823258452169675e-07   -1.7222114906210746e-05
-5.121561655225076e-06   5.823258452169675e-07   -1.7222114906210746e-05
-5.121561655225076e-06   5.823258452169675e-07   -1.7222114906210746e-05
-5.121561655225076e-06   5.823258452169675e-07   -1.7222114906210746e-05
1.0641910898534967e-06   -3.6255640635161034e-07   -2.6964773463733797e-05
1.0641910898534967e-06   -3.6255640635161034e-07   -2.6964773463733797e-05
1.0641910898534967e-06   -3.6255640635161034e-07   -2.6964773463733797e-05
1.0641910898534967e-06   -3.6255640635161034e-07   -2.6964773463733797e-05
-2.1894127130741336e-06   -3.2744200777678686e-08   -2.1739987782198812e-05
-2.1894127130741336e-06   -3.2744200777678686e-08   -2.1739987782198812e-05
-2.1894127130741336e-06   -3.2744200777678686e-08   -2.1739987782198812e-05
-2.1894127130741336e-06   -3.2744200777678686e-08   -2.1739987782198812e-05
1.0641910898534967e-06   5.823258452171843e-07   -1.665518555526947e-05
1.0641910898534967e-06   5.823258452171843e-07   -1.665518555526947e-05
1.0641910898534967e-06   5.823258452171843e-07   -1.665518555526947e-05
1.0641910898534967e-06   5.823258452171843e-07   -1.665518555526947e-05
-5.121561655225076e-06   -3.6255640635161034e-07   -2.7531702814675074e-05
-5.121561655225076e-06   -3.6255640635161034e-07   -2.7531702814675074e-05
-5.121561655225076e-06   -3.6255640635161034e-07   -2.7531702814675074e-05
-5.121561655225076e-06   -3.6255640635161034e-07   -2.7531702814675074e-05
-4.723036626748267e-06   1.261828125941316e-06   -1.7248645378641352e-05
-4.723036626748267e-06   1.261828125941316e-06   -1.7248645378641352e-05
-4.723036626748267e-06   1.261828125941316e-06   -1.7248645378641352e-05
-4.723036626748267e-06   1.261828125941316e-06   -1.7248645378641352e-05
1.5983778856765336e-06   2.500202335884924e-07   -2.7177251497271035e-05
1.5983778856765336e-06   2.500202335884924e-07   -2.7177251497271035e-05
1.5983778856765336e-06   2.500202335884924e-07   -2.7177251497271035e-05
1.5983778856765336e-06   2.500202335884924e-07   -2.7177251497271035e-05
-1.8390515093718145e-06   4.5427363533660434e-07   -2.1570754546572818e-05
-1.8390515093718145e-06   4.5427363533660434e-07   -2.1570754546572818e-05
-1.8390515093718145e-06   4.5427363533660434e-07   -2.1570754546572818e-05
-1.8390515093718145e-06   4.5427363533660434e-07   -2.1570754546572818e-05
1.5983778856765336e-06   1.261828125941316e-06   -1.6641560643229723e-05
1.5983778856765336e-06   1.261828125941316e-06   -1.6641560643229723e-05
1.5983778856765336e-06   1.261828125941316e-06   -1.6641560643229723e-05
1.5983778856765336e-06   1.261828125941316e-06   -1.6641560643229723e-05
-4.723036626748267e-06   2.500202335884924e-07   -2.7784336232682854e-05
-4.723036626748267e-06   2.500202335884924e-07   -2.7784336232682854e-05
-4.723036626748267e-06   2.500202335884924e-07   -2.7784336232682854e-05
-4.723036626748267e-06   2.500202335884924e-07   -2.7784336232682854e-05
-4.342577230031982e-06   2.0383698243668733e-06   -1.768190289514653e-05
-4.342577230031982e-06   2.0383698243668733e-06   -1.768190289514653e-05
-4.342577230031982e-06   2.0383698243668733e-06   -1.768190289514653e-05
-4.342577230031982e-06   2.0383698243668733e-06   -1.768190289514653e-05
2.036906359513611e-06   9.760410346571977e-07   -2.7676978270563376e-05
2.036906359513611e-06   9.760410346571977e-07   -2.7676978270563376e-05
2.036906359513611e-06   9.760410346571977e-07   -2.7676978270563376e-05
2.036906359513611e-06   9.760410346571977e-07   -2.7676978270563376e-05
-1.4482667977298679e-06   9.947224473122983e-07   -2.187956518941766e-05
-1.4482667977298679e-06   9.947224473122983e-07   -2.187956518941766e-05
-1.4482667977298679e-06   9.947224473122983e-07   -2.187956518941766e-05
-1.4482667977298679e-06   9.947224473122983e-07   -2.187956518941766e-05
-5.5177884079904855e-06   5.889352011434566e-07   -2.0744354169061757e-05
-5.5177884079904855e-06   5.889352011434566e-07   -2.0744354169061757e-05
-5.5177884079904855e-06   5.889352011434566e-07   -2.0744354169061757e-05
-5.5177884079904855e-06   5.889352011434566e-07   -2.0744354169061757e-05
-1.159211214093018e-05   7.421288554644665e-07   -3.077631086470197e-05
-1.159211214093018e-05   7.421288554644665e-07   -3.077631086470197e-05
-1.159211214093018e-05   7.421288554644665e-07   -3.077631086470197e-05
-1.159211214093018e-05   7.421288554644665e-07   -3.077631086470197e-05
-1.1193275889753908e-05   1.3185419490675896e-06   -2.0370878747614303e-05
-1.1193275889753908e-05   1.3185419490675896e-06   -2.0370878747614303e-05
-1.1193275889753908e-05   1.3185419490675896e-06   -2.0370878747614303e-05
-1.1193275889753908e-05   1.3185419490675896e-06   -2.0370878747614303e-05
-5.121561655225076e-06   1.369287939834065e-06   -3.052085006628917e-05
-5.121561655225076e-06   1.369287939834065e-06   -3.052085006628917e-05
-5.121561655225076e-06   1.369287939834065e-06   -3.052085006628917e-05
-5.121561655225076e-06   1.369287939834065e-06   -3.052085006628917e-05
-8.307848175980177e-06   1.1325126127224947e-06   -2.5068307335430486e-05
-8.307848175980177e-06   1.1325126127224947e-06   -2.5068307335430486e-05
-8.307848175980177e-06   1.1325126127224947e-06   -2.5068307335430486e-05
-8.307848175980177e-06   1.1325126127224947e-06   -2.5068307335430486e-05
-5.121561655225076e-06   1.3185419490673728e-06   -2.0401326342074427e-05
-5.121561655225076e-06   1.3185419490673728e-06   -2.0401326342074427e-05
-5.121561655225076e-06   1.3185419490673728e-06   -2.0401326342074427e-05
-5.121561655225076e-06   1.3185419490673728e-06   -2.0401326342074427e-05
-1.1193275889753908e-05   1.369287939834065e-06   -3.049040247182918e-05
-1.1193275889753908e-05   1.369287939834065e-06   -3.049040247182918e-05
-1.1193275889753908e-05   1.369287939834065e-06   -3.049040247182918e-05
-1.1193275889753908e-05   1.369287939834065e-06   -3.049040247182918e-05
-1.0787738303744735e-05   2.0640636588596228e-06   -2.042330095789076e-05
-1.0787738303744735e-05   2.0640636588596228e-06   -2.042330095789076e-05
-1.0787738303744735e-05   2.0640636588596228e-06   -2.042330095789076e-05
-1.0787738303744735e-05   2.0640636588596228e-06   -2.042330095789076e-05
-4.723036626748281e-06   2.032935747753057e-06   -3.0512460339554218e-05
-4.723036626748281e-06   2.032935747753057e-06   -3.0512460339554218e-05
-4.723036626748281e-06   2.032935747753057e-06   -3.0512460339554218e-05
-4.723036626748281e-06   2.032935747753057e-06   -3.0512460339554218e-05
-7.957308939425856e-06   1.6803766239520748e-06   -2.4910471010811412e-05
-7.957308939425856e-06   1.6803766239520748e-06   -2.4910471010811412e-05
-7.957308939425856e-06   1.6803766239520748e-06   -2.4910471010811412e-05
-7.957308939425856e-06   1.6803766239520748e-06   -2.4910471010811412e-05
-4.723036626748281e-06   2.0640636588596228e-06   -2.0404624211226778e-05
-4.723036626748281e-06   2.0640636588596228e-06   -2.0404624211226778e-05
-4.723036626748281e-06   2.0640636588596228e-06   -2.0404624211226778e-05
-4.723036626748281e-06   2.0640636588596228e-06   -2.0404624211226778e-05
-1.0787738303744715e-05   2.032935747753057e-06   -3.053113708621823e-05
-1.0787738303744715e-05   2.032935747753057e-06   -3.053113708621823e-05
-1.0787738303744715e-05   2.032935747753057e-06   -3.053113708621823e-05
-1.0787738303744715e-05   2.032935747753057e-06   -3.053113708621823e-05
-1.0401089922461561e-05   2.819963230808525e-06   -2.0882659809837905e-05
-1.0401089922461561e-05   2.819963230808525e-06   -2.0882659809837905e-05
-1.0401089922461561e-05   2.819963230808525e-06   -2.0882659809837905e-05
-1.0401089922461561e-05   2.819963230808525e-06   -2.0882659809837905e-05
-4.342577230031995e-06   2.7080926073227724e-06   -3.091305858979589e-05
-4.342577230031995e-06   2.7080926073227724e-06   -3.091305858979589e-05
-4.342577230031995e-06   2.7080926073227724e-06   -3.091305858979589e-05
-4.342577230031995e-06   2.7080926073227724e-06   -3.091305858979589e-05
-7.631527112561446e-06   2.2366055514257046e-06   -2.5148583218708906e-05
-7.631527112561446e-06   2.2366055514257046e-06   -2.5148583218708906e-05
-7.631527112561446e-06   2.2366055514257046e-06   -2.5148583218708906e-05
-7.631527112561446e-06   2.2366055514257046e-06   -2.5148583218708906e-05
-1.1592112140930199e-05   1.3073071357743663e-06   -1.7435691275048486e-05
-1.1592112140930199e-05   1.3073071357743663e-06   -1.7435691275048486e-05
-1.1592112140930199e-05   1.3073071357743663e-06   -1.7435691275048486e-05
-1.1592112140930199e-05   1.3073071357743663e-06   -1.7435691275048486e-05
-1.760069567687074e-05   2.390870499092198e-06   -2.679985915029191e-05
-1.760069567687074e-05   2.390870499092198e-06   -2.679985915029191e-05
-1.760069567687074e-05   2.390870499092198e-06   -2.679985915029191e-05
-1.760069567687074e-05   2.390870499092198e-06   -2.679985915029191e-05
-1.714446984180121e-05   2.039790940322689e-06   -1.641618874319902e-05
-1.714446984180121e-05   2.039790940322689e-06   -1.641618874319902e-05
-1.714446984180121e-05   2.039790940322689e-06   -1.641618874319902e-05
-1.714446984180121e-05   2.039790940322689e-06   -1.641618874319902e-05
-1.1193275889753908e-05   3.0603616259494964e-06   -2.6947187741320724e-05
-1.1193275889753908e-05   3.0603616259494964e-06   -2.6947187741320724e-05
-1.1193275889753908e-05   3.0603616259494964e-06   -2.6947187741320724e-05
-1.1193275889753908e-05   3.0603616259494964e-06   -2.6947187741320724e-05
-1.4282926750988111e-05   2.2860115913188317e-06   -2.1333159618485103e-05
-1.4282926750988111e-05   2.2860115913188317e-06   -2.1333159618485103e-05
-1.4282926750988111e-05   2.2860115913188317e-06   -2.1333159618485103e-05
-1.4282926750988111e-05   2.2860115913188317e-06   -2.1333159618485103e-05
-1.1193275889753926e-05   2.039790940322689e-06   -1.702853115457517e-05
-1.1193275889753926e-05   2.039790940322689e-06   -1.702853115457517e-05
-1.1193275889753926e-05   2.039790940322689e-06   -1.702853115457517e-05
-1.1193275889753926e-05   2.039790940322689e-06   -1.702853115457517e-05
-1.7144469841801245e-05   3.0603616259497132e-06   -2.6334845329944643e-05
-1.7144469841801245e-05   3.0603616259497132e-06   -2.6334845329944643e-05
-1.7144469841801245e-05   3.0603616259497132e-06   -2.6334845329944643e-05
-1.7144469841801245e-05   3.0603616259497132e-06   -2.6334845329944643e-05
-1.659678208476427e-05   2.7150180744197044e-06   -1.626121915546271e-05
-1.659678208476427e-05   2.7150180744197044e-06   -1.626121915546271e-05
-1.659678208476427e-05   2.7150180744197044e-06   -1.626121915546271e-05
-1.659678208476427e-05   2.7150180744197044e-06   -1.626121915546271e-05
-1.0787738303744735e-05   3.66300703032456e-06   -2.651175216403811e-05
-1.0787738303744735e-05   3.66300703032456e-06   -2.651175216403811e-05
-1.0787738303744735e-05   3.66300703032456e-06   -2.651175216403811e-05
-1.0787738303744735e-05   3.66300703032456e-06   -2.651175216403811e-05
-1.382240569644629e-05   2.815099809928964e-06   -2.0945228843965123e-05
-1.382240569644629e-05   2.815099809928964e-06   -2.0945228843965123e-05
-1.382240569644629e-05   2.815099809928964e-06   -2.0945228843965123e-05
-1.382240569644629e-05   2.815099809928964e-06   -2.0945228843965123e-05
-1.0787738303744723e-05   2.7150180744197044e-06   -1.6830012529005516e-05
-1.0787738303744723e-05   2.7150180744197044e-06   -1.6830012529005516e-05
-1.0787738303744723e-05   2.7150180744197044e-06   -1.6830012529005516e-05
-1.0787738303744723e-05   2.7150180744197044e-06   -1.6830012529005516e-05
-1.659678208476427e-05   3.663007030324343e-06   -2.5942958790495393e-05
-1.659678208476427e-05   3.663007030324343e-06   -2.5942958790495393e-05
-1.659678208476427e-05   3.663007030324343e-06   -2.5942958790495393e-05
-1.659678208476427e-05   3.663007030324343e-06   -2.5942958790495393e-05
-1.6140860916437902e-05   3.470953036775141e-06   -1.6711324149525347e-05
-1.6140860916437902e-05   3.470953036775141e-06   -1.6711324149525347e-05
-1.6140860916437902e-05   3.470953036775141e-06   -1.6711324149525347e-05
-1.6140860916437902e-05   3.470953036775141e-06   -1.6711324149525347e-05
-1.0401089922461561e-05   4.336397580981775e-06   -2.6796875866009805e-05
-1.0401089922461561e-05   4.336397580981775e-06   -2.6796875866009805e-05
-1.0401089922461561e-05   4.336397580981775e-06   -2.6796875866009805e-05
-1.0401089922461561e-05   4.336397580981775e-06   -2.6796875866009805e-05
-1.3516129296576786e-05   3.3358638898454366e-06   -2.1004823361136192e-05
-1.3516129296576786e-05   3.3358638898454366e-06   -2.1004823361136192e-05
-1.3516129296576786e-05   3.3358638898454366e-06   -2.1004823361136192e-05
-1.3516129296576786e-05   3.3358638898454366e-06   -2.1004823361136192e-05
-1.760069567687074e-05   2.19992963145562e-06   -9.012795832119254e-06
-1.760069567687074e-05   2.19992963145562e-06   -9.012795832119254e-06
-1.760069567687074e-05   2.19992963145562e-06   -9.012795832119254e-06
-1.760069567687074e-05   2.19992963145562e-06   -9.012795832119254e-06
-2.4455808457722326e-05   4.111740674523452e-06   -1.9290897174364572e-05
-2.4455808457722326e-05   4.111740674523452e-06   -1.9290897174364572e-05
-2.4455808457722326e-05   4.111740674523452e-06   -1.9290897174364572e-05
-2.4455808457722326e-05   4.111740674523452e-06   -1.9290897174364572e-05
-2.319300247995116e-05   2.864688954145895e-06   -5.641568195162926e-06
-2.319300247995116e-05   2.864688954145895e-06   -5.641568195162926e-06
-2.319300247995116e-05   2.864688954145895e-06   -5.641568195162926e-06
-2.319300247995116e-05   2.864688954145895e-06   -5.641568195162926e-06
-1.714446984180121e-05   4.807530756470793e-06   -1.6888161006807785e-05
-1.714446984180121e-05   4.807530756470793e-06   -1.6888161006807785e-05
-1.714446984180121e-05   4.807530756470793e-06   -1.6888161006807785e-05
-1.714446984180121e-05   4.807530756470793e-06   -1.6888161006807785e-05
-1.9760637425522586e-05   3.5744110655740527e-06   -1.1788009886067811e-05
-1.9760637425522586e-05   3.5744110655740527e-06   -1.1788009886067811e-05
-1.9760637425522586e-05   3.5744110655740527e-06   -1.1788009886067811e-05
-1.9760637425522586e-05   3.5744110655740527e-06   -1.1788009886067811e-05
-1.7144469841801225e-05   2.864688954145895e-06   -6.8072732765578e-06
-1.7144469841801225e-05   2.864688954145895e-06   -6.8072732765578e-06
-1.7144469841801225e-05   2.864688954145895e-06   -6.8072732765578e-06
-1.7144469841801225e-05   2.864688954145895e-06   -6.8072732765578e-06
-2.3193002479951106e-05   4.807530756470793e-06   -1.5722455925412898e-05
-2.3193002479951106e-05   4.807530756470793e-06   -1.5722455925412898e-05
-2.3193002479951106e-05   4.807530756470793e-06   -1.5722455925412898e-05
-2.3193002479951106e-05   4.807530756470793e-06   -1.5722455925412898e-05
-2.2149342203096285e-05   3.16899976928668e-06   -4.614622336869328e-06
-2.2149342203096285e-05   3.16899976928668e-06   -4.614622336869328e-06
-2.2149342203096285e-05   3.16899976928668e-06   -4.614622336869328e-06
-2.2149342203096285e-05   3.16899976928668e-06   -4.614622336869328e-06
-1.659678208476424e-05   5.057075646971044e-06   -1.5001734727366669e-05
-1.659678208476424e-05   5.057075646971044e-06   -1.5001734727366669e-05
-1.659678208476424e-05   5.057075646971044e-06   -1.5001734727366669e-05
-1.659678208476424e-05   5.057075646971044e-06   -1.5001734727366669e-05
-1.9302831984033526e-05   3.888292260302616e-06   -9.790381529916898e-06
-1.9302831984033526e-05   3.888292260302616e-06   -9.790381529916898e-06
-1.9302831984033526e-05   3.888292260302616e-06   -9.790381529916898e-06
-1.9302831984033526e-05   3.888292260302616e-06   -9.790381529916898e-06
-1.659678208476427e-05   3.168999769286463e-06   -5.7474678634800115e-06
-1.659678208476427e-05   3.168999769286463e-06   -5.7474678634800115e-06
-1.659678208476427e-05   3.168999769286463e-06   -5.7474678634800115e-06
-1.659678208476427e-05   3.168999769286463e-06   -5.7474678634800115e-06
-2.2149342203096244e-05   5.057075646971044e-06   -1.3868889200756209e-05
-2.2149342203096244e-05   5.057075646971044e-06   -1.3868889200756209e-05
-2.2149342203096244e-05   5.057075646971044e-06   -1.3868889200756209e-05
-2.2149342203096244e-05   5.057075646971044e-06   -1.3868889200756209e-05
-2.0913233383094298e-05   3.6386123771470734e-06   -3.5346055177702803e-06
-2.0913233383094298e-05   3.6386123771470734e-06   -3.5346055177702803e-06
-2.0913233383094298e-05   3.6386123771470734e-06   -3.5346055177702803e-06
-2.0913233383094298e-05   3.6386123771470734e-06   -3.5346055177702803e-06
-1.6140860916437902e-05   5.371465934291475e-06   -1.2528271763151004e-05
-1.6140860916437902e-05   5.371465934291475e-06   -1.2528271763151004e-05
-1.6140860916437902e-05   5.371465934291475e-06   -1.2528271763151004e-05
-1.6140860916437902e-05   5.371465934291475e-06   -1.2528271763151004e-05
-1.831986085876898e-05   4.039116708084989e-06   -8.097195656875346e-06
-1.831986085876898e-05   4.039116708084989e-06   -8.097195656875346e-06
-1.831986085876898e-05   4.039116708084989e-06   -8.097195656875346e-06
-1.831986085876898e-05   4.039116708084989e-06   -8.097195656875346e-06
1.8504499814949788e-05   -2.424441411373818e-06   -7.038590246809338e-08
1.8504499814949788e-05   -2.424441411373818e-06   -7.038590246809338e-08
1.8504499814949788e-05   -2.424441411373818e-06   -7.038590246809338e-08
1.8504499814949788e-05   -2.424441411373818e-06   -7.038590246809338e-08
7.874205314278382e-06   -4.364176740553807e-06   -1.8951384601095128e-05
7.874205314278382e-06   -4.364176740553807e-06   -1.8951384601095128e-05
7.874205314278382e-06   -4.364176740553807e-06   -1.8951384601095128e-05
7.874205314278382e-06   -4.364176740553807e-06   -1.8951384601095128e-05
8.425972171582008e-06   -1.993449837575656e-06   -2.016986306464753e-06
8.425972171582008e-06   -1.993449837575656e-06   -2.016986306464753e-06
8.425972171582008e-06   -1.993449837575656e-06   -2.016986306464753e-06
8.425972171582008e-06   -1.993449837575656e-06   -2.016986306464753e-06
1.9893652753366842e-05   -4.059759102602008e-06   -1.9890001717090284e-05
1.9893652753366842e-05   -4.059759102602008e-06   -1.9890001717090284e-05
1.9893652753366842e-05   -4.059759102602008e-06   -1.9890001717090284e-05
1.9893652753366842e-05   -4.059759102602008e-06   -1.9890001717090284e-05
1.312253870983145e-05   -2.8791757293762654e-06   -9.31316166846686e-06
1.312253870983145e-05   -2.8791757293762654e-06   -9.31316166846686e-06
1.312253870983145e-05   -2.8791757293762654e-06   -9.31316166846686e-06
1.312253870983145e-05   -2.8791757293762654e-06   -9.31316166846686e-06
1.989365275336687e-05   -1.993449837575656e-06   -7.772007474490285e-07
1.989365275336687e-05   -1.993449837575656e-06   -7.772007474490285e-07
1.989365275336687e-05   -1.993449837575656e-06   -7.772007474490285e-07
1.989365275336687e-05   -1.993449837575656e-06   -7.772007474490285e-07
8.425972171582008e-06   -4.059759102602008e-06   -2.1129787276106225e-05
8.425972171582008e-06   -4.059759102602008e-06   -2.1129787276106225e-05
8.425972171582008e-06   -4.059759102602008e-06   -2.1129787276106225e-05
8.425972171582008e-06   -4.059759102602008e-06   -2.1129787276106225e-05
9.03754457028672e-06   -1.7050524426342854e-06   -2.8722658533299195e-06
9.03754457028672e-06   -1.7050524426342854e-06   -2.8722658533299195e-06
9.03754457028672e-06   -1.7050524426342854e-06   -2.8722658533299195e-06
9.03754457028672e-06   -1.7050524426342854e-06   -2.8722658533299195e-06
2.105927238764074e-05   -3.7968380480434254e-06   -2.165340751900791e-05
2.105927238764074e-05   -3.7968380480434254e-06   -2.165340751900791e-05
2.105927238764074e-05   -3.7968380480434254e-06   -2.165340751900791e-05
2.105927238764074e-05   -3.7968380480434254e-06   -2.165340751900791e-05
1.4165689889787615e-05   -2.7620588060081434e-06   -1.0784970901140528e-05
1.4165689889787615e-05   -2.7620588060081434e-06   -1.0784970901140528e-05
1.4165689889787615e-05   -2.7620588060081434e-06   -1.0784970901140528e-05
1.4165689889787615e-05   -2.7620588060081434e-06   -1.0784970901140528e-05
2.1059272387640766e-05   -1.7050524426342854e-06   -1.617194490084609e-06
2.1059272387640766e-05   -1.7050524426342854e-06   -1.617194490084609e-06
2.1059272387640766e-05   -1.7050524426342854e-06   -1.617194490084609e-06
2.1059272387640766e-05   -1.7050524426342854e-06   -1.617194490084609e-06
9.03754457028672e-06   -3.7968380480434254e-06   -2.290847888225349e-05
9.03754457028672e-06   -3.7968380480434254e-06   -2.290847888225349e-05
9.03754457028672e-06   -3.7968380480434254e-06   -2.290847888225349e-05
9.03754457028672e-06   -3.7968380480434254e-06   -2.290847888225349e-05
9.542014150191812e-06   -9.794005059958998e-07   -4.841966538296234e-06
9.542014150191812e-06   -9.794005059958998e-07   -4.841966538296234e-06
9.542014150191812e-06   -9.794005059958998e-07   -4.841966538296234e-06
9.542014150191812e-06   -9.794005059958998e-07   -4.841966538296234e-06
2.241287859648295e-05   -2.9668362190372367e-06   -2.510094585428987e-05
2.241287859648295e-05   -2.9668362190372367e-06   -2.510094585428987e-05
2.241287859648295e-05   -2.9668362190372367e-06   -2.510094585428987e-05
2.241287859648295e-05   -2.9668362190372367e-06   -2.510094585428987e-05
1.4727143881337545e-05   -2.436482660106735e-06   -1.2609600131073106e-05
1.4727143881337545e-05   -2.436482660106735e-06   -1.2609600131073106e-05
1.4727143881337545e-05   -2.436482660106735e-06   -1.2609600131073106e-05
1.4727143881337545e-05   -2.436482660106735e-06   -1.2609600131073106e-05
7.874205314278382e-06   -9.546163312397927e-07   -1.2774789607035582e-05
7.874205314278382e-06   -9.546163312397927e-07   -1.2774789607035582e-05
7.874205314278382e-06   -9.546163312397927e-07   -1.2774789607035582e-05
7.874205314278382e-06   -9.546163312397927e-07   -1.2774789607035582e-05
-3.3655871537401034e-06   -2.037015910604737e-06   -3.215721680135204e-05
-3.3655871537401034e-06   -2.037015910604737e-06   -3.215721680135204e-05
-3.3655871537401034e-06   -2.037015910604737e-06   -3.215721680135204e-05
-3.3655871537401034e-06   -2.037015910604737e-06   -3.215721680135204e-05
-2.852966467440114e-06   -3.6255640635161034e-07   -1.304032603056753e-05
-2.852966467440114e-06   -3.6255640635161034e-07   -1.304032603056753e-05
-2.852966467440114e-06   -3.6255640635161034e-07   -1.304032603056753e-05
-2.852966467440114e-06   -3.6255640635161034e-07   -1.304032603056753e-05
8.425972171582008e-06   -1.6120919315836674e-06   -3.108883578046515e-05
8.425972171582008e-06   -1.6120919315836674e-06   -3.108883578046515e-05
8.425972171582008e-06   -1.6120919315836674e-06   -3.108883578046515e-05
8.425972171582008e-06   -1.6120919315836674e-06   -3.108883578046515e-05
2.5480053694134947e-06   -9.837165717231557e-07   -2.166924965943379e-05
2.5480053694134947e-06   -9.837165717231557e-07   -2.166924965943379e-05
2.5480053694134947e-06   -9.837165717231557e-07   -2.166924965943379e-05
2.5480053694134947e-06   -9.837165717231557e-07   -2.166924965943379e-05
8.425972171582008e-06   -3.6255640635161034e-07   -1.2290604715428318e-05
8.425972171582008e-06   -3.6255640635161034e-07   -1.2290604715428318e-05
8.425972171582008e-06   -3.6255640635161034e-07   -1.2290604715428318e-05
8.425972171582008e-06   -3.6255640635161034e-07   -1.2290604715428318e-05
-2.8529664674401006e-06   -1.6120919315836674e-06   -3.183855709560442e-05
-2.8529664674401006e-06   -1.6120919315836674e-06   -3.183855709560442e-05
-2.8529664674401006e-06   -1.6120919315836674e-06   -3.183855709560442e-05
-2.8529664674401006e-06   -1.6120919315836674e-06   -3.183855709560442e-05
-2.363546897087232e-06   2.500202335884924e-07   -1.3210125095141213e-05
-2.363546897087232e-06   2.500202335884924e-07   -1.3210125095141213e-05
-2.363546897087232e-06   2.500202335884924e-07   -1.3210125095141213e-05
-2.363546897087232e-06   2.500202335884924e-07   -1.3210125095141213e-05
9.03754457028672e-06   -1.0928764180553798e-06   -3.1406206216444844e-05
9.03754457028672e-06   -1.0928764180553798e-06   -3.1406206216444844e-05
9.03754457028672e-06   -1.0928764180553798e-06   -3.1406206216444844e-05
9.03754457028672e-06   -1.0928764180553798e-06   -3.1406206216444844e-05
2.953753012649858e-06   -6.073694455933833e-07   -2.1557857803860072e-05
2.953753012649858e-06   -6.073694455933833e-07   -2.1557857803860072e-05
2.953753012649858e-06   -6.073694455933833e-07   -2.1557857803860072e-05
2.953753012649858e-06   -6.073694455933833e-07   -2.1557857803860072e-05
9.03754457028672e-06   2.500202335884924e-07   -1.240438710415476e-05
9.03754457028672e-06   2.500202335884924e-07   -1.240438710415476e-05
9.03754457028672e-06   2.500202335884924e-07   -1.240438710415476e-05
9.03754457028672e-06   2.500202335884924e-07   -1.240438710415476e-05
-2.363546897087232e-06   -1.0928764180553798e-06   -3.221194420743119e-05
-2.363546897087232e-06   -1.0928764180553798e-06   -3.221194420743119e-05
-2.363546897087232e-06   -1.0928764180553798e-06   -3.221194420743119e-05
-2.363546897087232e-06   -1.0928764180553798e-06   -3.221194420743119e-05
-1.9041078339444655e-06   9.760410346569808e-07   -1.3662199528000356e-05
-1.9041078339444655e-06   9.760410346569808e-07   -1.3662199528000356e-05
-1.9041078339444655e-06   9.760410346569808e-07   -1.3662199528000356e-05
-1.9041078339444655e-06   9.760410346569808e-07   -1.3662199528000356e-05
9.542014150191785e-06   -4.391325493984053e-07   -3.188996535112752e-05
9.542014150191785e-06   -4.391325493984053e-07   -3.188996535112752e-05
9.542014150191785e-06   -4.391325493984053e-07   -3.188996535112752e-05
9.542014150191785e-06   -4.391325493984053e-07   -3.188996535112752e-05
3.461516704058588e-06   -1.4291954099224582e-07   -2.1933530745949707e-05
3.461516704058588e-06   -1.4291954099224582e-07   -2.1933530745949707e-05
3.461516704058588e-06   -1.4291954099224582e-07   -2.1933530745949707e-05
3.461516704058588e-06   -1.4291954099224582e-07   -2.1933530745949707e-05
-3.3655871537401034e-06   7.421288554646834e-07   -1.6452052526612533e-05
-3.3655871537401034e-06   7.421288554646834e-07   -1.6452052526612533e-05
-3.3655871537401034e-06   7.421288554646834e-07   -1.6452052526612533e-05
-3.3655871537401034e-06   7.421288554646834e-07   -1.6452052526612533e-05
-1.4407352043439179e-05   3.841172762982393e-07   -3.506980095694409e-05
-1.4407352043439179e-05   3.841172762982393e-07   -3.506980095694409e-05
-1.4407352043439179e-05   3.841172762982393e-07   -3.506980095694409e-05
-1.4407352043439179e-05   3.841172762982393e-07   -3.506980095694409e-05
-1.3855691496178448e-05   1.3692879398342819e-06   -1.6333913266184785e-05
-1.3855691496178448e-05   1.3692879398342819e-06   -1.6333913266184785e-05
-1.3855691496178448e-05   1.3692879398342819e-06   -1.6333913266184785e-05
-1.3855691496178448e-05   1.3692879398342819e-06   -1.6333913266184785e-05
-2.8529664674401006e-06   8.618879664956929e-07   -3.4367348330078965e-05
-2.8529664674401006e-06   8.618879664956929e-07   -3.4367348330078965e-05
-2.8529664674401006e-06   8.618879664956929e-07   -3.4367348330078965e-05
-2.8529664674401006e-06   8.618879664956929e-07   -3.4367348330078965e-05
-8.561650602861808e-06   1.0180779977352061e-06   -2.4946588789786324e-05
-8.561650602861808e-06   1.0180779977352061e-06   -2.4946588789786324e-05
-8.561650602861808e-06   1.0180779977352061e-06   -2.4946588789786324e-05
-8.561650602861808e-06   1.0180779977352061e-06   -2.4946588789786324e-05
-2.852966467440114e-06   1.369287939834065e-06   -1.6029473282181653e-05
-2.852966467440114e-06   1.369287939834065e-06   -1.6029473282181653e-05
-2.852966467440114e-06   1.369287939834065e-06   -1.6029473282181653e-05
-2.852966467440114e-06   1.369287939834065e-06   -1.6029473282181653e-05
-1.3855691496178448e-05   8.618879664956929e-07   -3.4671788314082097e-05
-1.3855691496178448e-05   8.618879664956929e-07   -3.4671788314082097e-05
-1.3855691496178448e-05   8.618879664956929e-07   -3.4671788314082097e-05
-1.3855691496178448e-05   8.618879664956929e-07   -3.4671788314082097e-05
-1.3323426515496811e-05   2.032935747753057e-06   -1.6309370164600953e-05
-1.3323426515496811e-05   2.032935747753057e-06   -1.6309370164600953e-05
-1.3323426515496811e-05   2.032935747753057e-06   -1.6309370164600953e-05
-1.3323426515496811e-05   2.032935747753057e-06   -1.6309370164600953e-05
-2.363546897087232e-06   1.4144008101059542e-06   -3.420471523269536e-05
-2.363546897087232e-06   1.4144008101059542e-06   -3.420471523269536e-05
-2.363546897087232e-06   1.4144008101059542e-06   -3.420471523269536e-05
-2.363546897087232e-06   1.4144008101059542e-06   -3.420471523269536e-05
-8.087349172643215e-06   1.4655107783742138e-06   -2.4695710754396236e-05
-8.087349172643215e-06   1.4655107783742138e-06   -2.4695710754396236e-05
-8.087349172643215e-06   1.4655107783742138e-06   -2.4695710754396236e-05
-8.087349172643215e-06   1.4655107783742138e-06   -2.4695710754396236e-05
-2.363546897087232e-06   2.032935747753057e-06   -1.5938249202012713e-05
-2.363546897087232e-06   2.032935747753057e-06   -1.5938249202012713e-05
-2.363546897087232e-06   2.032935747753057e-06   -1.5938249202012713e-05
-2.363546897087232e-06   2.032935747753057e-06   -1.5938249202012713e-05
-1.3323426515496811e-05   1.4144008101059542e-06   -3.45758361952836e-05
-1.3323426515496811e-05   1.4144008101059542e-06   -3.45758361952836e-05
-1.3323426515496811e-05   1.4144008101059542e-06   -3.45758361952836e-05
-1.3323426515496811e-05   1.4144008101059542e-06   -3.45758361952836e-05
-1.2831615615828869e-05   2.7080926073229893e-06   -1.669458122436718e-05
-1.2831615615828869e-05   2.7080926073229893e-06   -1.669458122436718e-05
-1.2831615615828869e-05   2.7080926073229893e-06   -1.669458122436718e-05
-1.2831615615828869e-05   2.7080926073229893e-06   -1.669458122436718e-05
-1.9041078339444655e-06   1.9852615223893855e-06   -3.447339554321437e-05
-1.9041078339444655e-06   1.9852615223893855e-06   -3.447339554321437e-05
-1.9041078339444655e-06   1.9852615223893855e-06   -3.447339554321437e-05
-1.9041078339444655e-06   1.9852615223893855e-06   -3.447339554321437e-05
-7.663950602131134e-06   1.9245967857782834e-06   -2.483725875427039e-05
-7.663950602131134e-06   1.9245967857782834e-06   -2.483725875427039e-05
-7.663950602131134e-06   1.9245967857782834e-06   -2.483725875427039e-05
-7.663950602131134e-06   1.9245967857782834e-06   -2.483725875427039e-05
-1.4407352043439203e-05   2.390870499092198e-06   -1.3340545777693036e-05
-1.4407352043439203e-05   2.390870499092198e-06   -1.3340545777693036e-05
-1.4407352043439203e-05   2.390870499092198e-06   -1.3340545777693036e-05
-1.4407352043439203e-05   2.390870499092198e-06   -1.3340545777693036e-05
-2.525232026325177e-05   2.89215011899319e-06   -3.111472503877343e-05
-2.525232026325177e-05   2.89215011899319e-06   -3.111472503877343e-05
-2.525232026325177e-05   2.89215011899319e-06   -3.111472503877343e-05
-2.525232026325177e-05   2.89215011899319e-06   -3.111472503877343e-05
-2.458690700828951e-05   3.0603616259494964e-06   -1.2528163808899753e-05
-2.458690700828951e-05   3.0603616259494964e-06   -1.2528163808899753e-05
-2.458690700828951e-05   3.0603616259494964e-06   -1.2528163808899753e-05
-2.458690700828951e-05   3.0603616259494964e-06   -1.2528163808899753e-05
-1.3855691496178472e-05   3.4979195039108214e-06   -3.0676057722528243e-05
-1.3855691496178472e-05   3.4979195039108214e-06   -3.0676057722528243e-05
-1.3855691496178472e-05   3.4979195039108214e-06   -3.0676057722528243e-05
-1.3855691496178472e-05   3.4979195039108214e-06   -3.0676057722528243e-05
-1.9383070493540185e-05   3.0857703911704552e-06   -2.1216469925947772e-05
-1.9383070493540185e-05   3.0857703911704552e-06   -2.1216469925947772e-05
-1.9383070493540185e-05   3.0857703911704552e-06   -2.1216469925947772e-05
-1.9383070493540185e-05   3.0857703911704552e-06   -2.1216469925947772e-05
-1.3855691496178472e-05   3.0603616259497132e-06   -1.2790698535676505e-05
-1.3855691496178472e-05   3.0603616259497132e-06   -1.2790698535676505e-05
-1.3855691496178472e-05   3.0603616259497132e-06   -1.2790698535676505e-05
-1.3855691496178472e-05   3.0603616259497132e-06   -1.2790698535676505e-05
-2.458690700828955e-05   3.4979195039108214e-06   -3.04135229957516e-05
-2.458690700828955e-05   3.4979195039108214e-06   -3.04135229957516e-05
-2.458690700828955e-05   3.4979195039108214e-06   -3.04135229957516e-05
-2.458690700828955e-05   3.4979195039108214e-06   -3.04135229957516e-05
-2.3849515998095456e-05   3.66300703032456e-06   -1.2076111170048181e-05
-2.3849515998095456e-05   3.66300703032456e-06   -1.2076111170048181e-05
-2.3849515998095456e-05   3.66300703032456e-06   -1.2076111170048181e-05
-2.3849515998095456e-05   3.66300703032456e-06   -1.2076111170048181e-05
-1.3323426515496835e-05   4.019463817612643e-06   -2.9833467713418787e-05
-1.3323426515496835e-05   4.019463817612643e-06   -2.9833467713418787e-05
-1.3323426515496835e-05   4.019463817612643e-06   -2.9833467713418787e-05
-1.3323426515496835e-05   4.019463817612643e-06   -2.9833467713418787e-05
-1.8708905370810262e-05   3.5580116430308003e-06   -2.0580798316480707e-05
-1.8708905370810262e-05   3.5580116430308003e-06   -2.0580798316480707e-05
-1.8708905370810262e-05   3.5580116430308003e-06   -2.0580798316480707e-05
-1.8708905370810262e-05   3.5580116430308003e-06   -2.0580798316480707e-05
-1.3323426515496825e-05   3.66300703032456e-06   -1.2289985242420923e-05
-1.3323426515496825e-05   3.66300703032456e-06   -1.2289985242420923e-05
-1.3323426515496825e-05   3.66300703032456e-06   -1.2289985242420923e-05
-1.3323426515496825e-05   3.66300703032456e-06   -1.2289985242420923e-05
-2.3849515998095456e-05   4.019463817612643e-06   -2.9619593641045977e-05
-2.3849515998095456e-05   4.019463817612643e-06   -2.9619593641045977e-05
-2.3849515998095456e-05   4.019463817612643e-06   -2.9619593641045977e-05
-2.3849515998095456e-05   4.019463817612643e-06   -2.9619593641045977e-05
-2.3226705909549277e-05   4.336397580981775e-06   -1.2355700476928658e-05
-2.3226705909549277e-05   4.336397580981775e-06   -1.2355700476928658e-05
-2.3226705909549277e-05   4.336397580981775e-06   -1.2355700476928658e-05
-2.3226705909549277e-05   4.336397580981775e-06   -1.2355700476928658e-05
-1.283161561582889e-05   4.595690330250462e-06   -2.9836426616023755e-05
-1.283161561582889e-05   4.595690330250462e-06   -2.9836426616023755e-05
-1.283161561582889e-05   4.595690330250462e-06   -2.9836426616023755e-05
-1.283161561582889e-05   4.595690330250462e-06   -2.9836426616023755e-05
-1.8292259505486917e-05   3.992698757351431e-06   -2.0373558522854285e-05
-1.8292259505486917e-05   3.992698757351431e-06   -2.0373558522854285e-05
-1.8292259505486917e-05   3.992698757351431e-06   -2.0373558522854285e-05
-1.8292259505486917e-05   3.992698757351431e-06   -2.0373558522854285e-05
-2.525232026325177e-05   4.111740674523452e-06   -6.677902655665997e-06
-2.525232026325177e-05   4.111740674523452e-06   -6.677902655665997e-06
-2.525232026325177e-05   4.111740674523452e-06   -6.677902655665997e-06
-2.525232026325177e-05   4.111740674523452e-06   -6.677902655665997e-06
-3.668611209823084e-05   5.6733705711554516e-06   -2.4797244442651897e-05
-3.668611209823084e-05   5.6733705711554516e-06   -2.4797244442651897e-05
-3.668611209823084e-05   5.6733705711554516e-06   -2.4797244442651897e-05
-3.668611209823084e-05   5.6733705711554516e-06   -2.4797244442651897e-05
-3.5150182942486125e-05   4.807530756470793e-06   -2.0789674167431523e-06
-3.5150182942486125e-05   4.807530756470793e-06   -2.0789674167431523e-06
-3.5150182942486125e-05   4.807530756470793e-06   -2.0789674167431523e-06
-3.5150182942486125e-05   4.807530756470793e-06   -2.0789674167431523e-06
-2.458690700828951e-05   6.478384204836865e-06   -2.068693937609076e-05
-2.458690700828951e-05   6.478384204836865e-06   -2.068693937609076e-05
-2.458690700828951e-05   6.478384204836865e-06   -2.068693937609076e-05
-2.458690700828951e-05   6.478384204836865e-06   -2.068693937609076e-05
-2.9161749878629685e-05   5.404576958379379e-06   -1.2417916910982389e-05
-2.9161749878629685e-05   5.404576958379379e-06   -1.2417916910982389e-05
-2.9161749878629685e-05   5.404576958379379e-06   -1.2417916910982389e-05
-2.9161749878629685e-05   5.404576958379379e-06   -1.2417916910982389e-05
-2.458690700828953e-05   4.807530756470576e-06   -3.0814794857629904e-06
-2.458690700828953e-05   4.807530756470576e-06   -3.0814794857629904e-06
-2.458690700828953e-05   4.807530756470576e-06   -3.0814794857629904e-06
-2.458690700828953e-05   4.807530756470576e-06   -3.0814794857629904e-06
-3.515018294248607e-05   6.478384204836865e-06   -1.9684427307070868e-05
-3.515018294248607e-05   6.478384204836865e-06   -1.9684427307070868e-05
-3.515018294248607e-05   6.478384204836865e-06   -1.9684427307070868e-05
-3.515018294248607e-05   6.478384204836865e-06   -1.9684427307070868e-05
-3.38864319468354e-05   5.057075646971044e-06   -1.5479727882253703e-07
-3.38864319468354e-05   5.057075646971044e-06   -1.5479727882253703e-07
-3.38864319468354e-05   5.057075646971044e-06   -1.5479727882253703e-07
-3.38864319468354e-05   5.057075646971044e-06   -1.5479727882253703e-07
-2.3849515998095456e-05   6.690558693799725e-06   -1.786308035481962e-05
-2.3849515998095456e-05   6.690558693799725e-06   -1.786308035481962e-05
-2.3849515998095456e-05   6.690558693799725e-06   -1.786308035481962e-05
-2.3849515998095456e-05   6.690558693799725e-06   -1.786308035481962e-05
-2.8644609179238295e-05   5.72659310104826e-06   -9.292879030597164e-06
-2.8644609179238295e-05   5.72659310104826e-06   -9.292879030597164e-06
-2.8644609179238295e-05   5.72659310104826e-06   -9.292879030597164e-06
-2.8644609179238295e-05   5.72659310104826e-06   -9.292879030597164e-06
-2.3849515998095456e-05   5.057075646971044e-06   -1.1348871069196808e-06
-2.3849515998095456e-05   5.057075646971044e-06   -1.1348871069196808e-06
-2.3849515998095456e-05   5.057075646971044e-06   -1.1348871069196808e-06
-2.3849515998095456e-05   5.057075646971044e-06   -1.1348871069196808e-06
-3.3886431946835295e-05   6.690558693799725e-06   -1.6882990526722458e-05
-3.3886431946835295e-05   6.690558693799725e-06   -1.6882990526722458e-05
-3.3886431946835295e-05   6.690558693799725e-06   -1.6882990526722458e-05
-3.3886431946835295e-05   6.690558693799725e-06   -1.6882990526722458e-05
-3.252114041030466e-05   5.371465934291475e-06   2.293369012051384e-06
-3.252114041030466e-05   5.371465934291475e-06   2.293369012051384e-06
-3.252114041030466e-05   5.371465934291475e-06   2.293369012051384e-06
-3.252114041030466e-05   5.371465934291475e-06   2.293369012051384e-06
-2.3226705909549277e-05   6.871019455366445e-06   -1.4097087268519187e-05
-2.3226705909549277e-05   6.871019455366445e-06   -1.4097087268519187e-05
-2.3226705909549277e-05   6.871019455366445e-06   -1.4097087268519187e-05
-2.3226705909549277e-05   6.871019455366445e-06   -1.4097087268519187e-05
-2.7360087503201956e-05   5.7788156092228576e-06   -6.552795638079022e-06
-2.7360087503201956e-05   5.7788156092228576e-06   -6.552795638079022e-06
-2.7360087503201956e-05   5.7788156092228576e-06   -6.552795638079022e-06
-2.7360087503201956e-05   5.7788156092228576e-06   -6.552795638079022e-06
3.132579160973351e-05   -4.3641767405540235e-06   6.278237783319696e-06
3.132579160973351e-05   -4.3641767405540235e-06   6.278237783319696e-06
3.132579160973351e-05   -4.3641767405540235e-06   6.278237783319696e-06
3.132579160973351e-05   -4.3641767405540235e-06   6.278237783319696e-06
1.508121581882127e-05   -6.451831504158696e-06   -2.2048648059696824e-05
1.508121581882127e-05   -6.451831504158696e-06   -2.2048648059696824e-05
1.508121581882127e-05   -6.451831504158696e-06   -2.2048648059696824e-05
1.508121581882127e-05   -6.451831504158696e-06   -2.2048648059696824e-05
1.5692295626061633e-05   -4.059759102602225e-06   3.063255934368514e-06
1.5692295626061633e-05   -4.059759102602225e-06   3.063255934368514e-06
1.5692295626061633e-05   -4.059759102602225e-06   3.063255934368514e-06
1.5692295626061633e-05   -4.059759102602225e-06   3.063255934368514e-06
3.275043886714516e-05   -6.302363697260373e-06   -2.4021420043975614e-05
3.275043886714516e-05   -6.302363697260373e-06   -2.4021420043975614e-05
3.275043886714516e-05   -6.302363697260373e-06   -2.4021420043975614e-05
3.275043886714516e-05   -6.302363697260373e-06   -2.4021420043975614e-05
2.2747653293906376e-05   -4.776146340173225e-06   -8.265841169496826e-06
2.2747653293906376e-05   -4.776146340173225e-06   -8.265841169496826e-06
2.2747653293906376e-05   -4.776146340173225e-06   -8.265841169496826e-06
2.2747653293906376e-05   -4.776146340173225e-06   -8.265841169496826e-06
3.275043886714522e-05   -4.059759102602225e-06   4.408818691163598e-06
3.275043886714522e-05   -4.059759102602225e-06   4.408818691163598e-06
3.275043886714522e-05   -4.059759102602225e-06   4.408818691163598e-06
3.275043886714522e-05   -4.059759102602225e-06   4.408818691163598e-06
1.5692295626061593e-05   -6.302363697260373e-06   -2.5366982800770752e-05
1.5692295626061593e-05   -6.302363697260373e-06   -2.5366982800770752e-05
1.5692295626061593e-05   -6.302363697260373e-06   -2.5366982800770752e-05
1.5692295626061593e-05   -6.302363697260373e-06   -2.5366982800770752e-05
1.630035032401538e-05   -3.7968380480434254e-06   1.4875366683613292e-06
1.630035032401538e-05   -3.7968380480434254e-06   1.4875366683613292e-06
1.630035032401538e-05   -3.7968380480434254e-06   1.4875366683613292e-06
1.630035032401538e-05   -3.7968380480434254e-06   1.4875366683613292e-06
3.384304831727155e-05   -6.083157708155823e-06   -2.6378501524331474e-05
3.384304831727155e-05   -6.083157708155823e-06   -2.6378501524331474e-05
3.384304831727155e-05   -6.083157708155823e-06   -2.6378501524331474e-05
3.384304831727155e-05   -6.083157708155823e-06   -2.6378501524331474e-05
2.394846220575654e-05   -4.760110289258983e-06   -1.0681353123144835e-05
2.394846220575654e-05   -4.760110289258983e-06   -1.0681353123144835e-05
2.394846220575654e-05   -4.760110289258983e-06   -1.0681353123144835e-05
2.394846220575654e-05   -4.760110289258983e-06   -1.0681353123144835e-05
3.384304831727155e-05   -3.7968380480434254e-06   2.8593284644286374e-06
3.384304831727155e-05   -3.7968380480434254e-06   2.8593284644286374e-06
3.384304831727155e-05   -3.7968380480434254e-06   2.8593284644286374e-06
3.384304831727155e-05   -3.7968380480434254e-06   2.8593284644286374e-06
1.630035032401538e-05   -6.083157708155823e-06   -2.7750293320399108e-05
1.630035032401538e-05   -6.083157708155823e-06   -2.7750293320399108e-05
1.630035032401538e-05   -6.083157708155823e-06   -2.7750293320399108e-05
1.630035032401538e-05   -6.083157708155823e-06   -2.7750293320399108e-05
1.6712314384180105e-05   -2.9668362190372367e-06   -1.6815338470409138e-06
1.6712314384180105e-05   -2.9668362190372367e-06   -1.6815338470409138e-06
1.6712314384180105e-05   -2.9668362190372367e-06   -1.6815338470409138e-06
1.6712314384180105e-05   -2.9668362190372367e-06   -1.6815338470409138e-06
3.499875020054641e-05   -5.229623403861126e-06   -3.080125456342362e-05
3.499875020054641e-05   -5.229623403861126e-06   -3.080125456342362e-05
3.499875020054641e-05   -5.229623403861126e-06   -3.080125456342362e-05
3.499875020054641e-05   -5.229623403861126e-06   -3.080125456342362e-05
2.4279613648678572e-05   -4.3934787763008284e-06   -1.3437713753513799e-05
2.4279613648678572e-05   -4.3934787763008284e-06   -1.3437713753513799e-05
2.4279613648678572e-05   -4.3934787763008284e-06   -1.3437713753513799e-05
2.4279613648678572e-05   -4.3934787763008284e-06   -1.3437713753513799e-05
1.5081215818821297e-05   -2.0370159106045203e-06   -7.530747527481163e-06
1.5081215818821297e-05   -2.0370159106045203e-06   -7.530747527481163e-06
1.5081215818821297e-05   -2.0370159106045203e-06   -7.530747527481163e-06
1.5081215818821297e-05   -2.0370159106045203e-06   -7.530747527481163e-06
-9.3966633376239e-07   -4.1649779375188024e-06   -3.550899499793589e-05
-9.3966633376239e-07   -4.1649779375188024e-06   -3.550899499793589e-05
-9.3966633376239e-07   -4.1649779375188024e-06   -3.550899499793589e-05
-9.3966633376239e-07   -4.1649779375188024e-06   -3.550899499793589e-05
-3.1298334053315253e-07   -1.6120919315834505e-06   -8.306544639612081e-06
-3.1298334053315253e-07   -1.6120919315834505e-06   -8.306544639612081e-06
-3.1298334053315253e-07   -1.6120919315834505e-06   -8.306544639612081e-06
-3.1298334053315253e-07   -1.6120919315834505e-06   -8.306544639612081e-06
1.5692295626061633e-05   -3.963345380953278e-06   -3.3571257514315055e-05
1.5692295626061633e-05   -3.963345380953278e-06   -3.3571257514315055e-05
1.5692295626061633e-05   -3.963345380953278e-06   -3.3571257514315055e-05
1.5692295626061633e-05   -3.963345380953278e-06   -3.3571257514315055e-05
7.401929099636615e-06   -2.52053168257123e-06   -2.0619668189302432e-05
7.401929099636615e-06   -2.52053168257123e-06   -2.0619668189302432e-05
7.401929099636615e-06   -2.52053168257123e-06   -2.0619668189302432e-05
7.401929099636615e-06   -2.52053168257123e-06   -2.0619668189302432e-05
1.569229562606162e-05   -1.6120919315834505e-06   -6.89579256999025e-06
1.569229562606162e-05   -1.6120919315834505e-06   -6.89579256999025e-06
1.569229562606162e-05   -1.6120919315834505e-06   -6.89579256999025e-06
1.569229562606162e-05   -1.6120919315834505e-06   -6.89579256999025e-06
-3.1298334053315253e-07   -3.963345380953278e-06   -3.498200958393686e-05
-3.1298334053315253e-07   -3.963345380953278e-06   -3.498200958393686e-05
-3.1298334053315253e-07   -3.963345380953278e-06   -3.498200958393686e-05
-3.1298334053315253e-07   -3.963345380953278e-06   -3.498200958393686e-05
2.390207604236491e-07   -1.0928764180553798e-06   -8.508220058641401e-06
2.390207604236491e-07   -1.0928764180553798e-06   -8.508220058641401e-06
2.390207604236491e-07   -1.0928764180553798e-06   -8.508220058641401e-06
2.390207604236491e-07   -1.0928764180553798e-06   -8.508220058641401e-06
1.630035032401538e-05   -3.589592072740901e-06   -3.377907327181627e-05
1.630035032401538e-05   -3.589592072740901e-06   -3.377907327181627e-05
1.630035032401538e-05   -3.589592072740901e-06   -3.377907327181627e-05
1.630035032401538e-05   -3.589592072740901e-06   -3.377907327181627e-05
7.827122154469169e-06   -2.311351418768934e-06   -2.0423970714955456e-05
7.827122154469169e-06   -2.311351418768934e-06   -2.0423970714955456e-05
7.827122154469169e-06   -2.311351418768934e-06   -2.0423970714955456e-05
7.827122154469169e-06   -2.311351418768934e-06   -2.0423970714955456e-05
1.630035032401538e-05   -1.0928764180553798e-06   -7.010190665830132e-06
1.630035032401538e-05   -1.0928764180553798e-06   -7.010190665830132e-06
1.630035032401538e-05   -1.0928764180553798e-06   -7.010190665830132e-06
1.630035032401538e-05   -1.0928764180553798e-06   -7.010190665830132e-06
2.3902076042363557e-07   -3.5895920727411178e-06   -3.5277102664627784e-05
2.3902076042363557e-07   -3.5895920727411178e-06   -3.5277102664627784e-05
2.3902076042363557e-07   -3.5895920727411178e-06   -3.5277102664627784e-05
2.3902076042363557e-07   -3.5895920727411178e-06   -3.5277102664627784e-05
6.315367072950632e-07   -4.3913254939818847e-07   -8.84923123542383e-06
6.315367072950632e-07   -4.3913254939818847e-07   -8.84923123542383e-06
6.315367072950632e-07   -4.3913254939818847e-07   -8.84923123542383e-06
6.315367072950632e-07   -4.3913254939818847e-07   -8.84923123542383e-06
1.671231438418016e-05   -3.057698081681973e-06   -3.40793880441955e-05
1.671231438418016e-05   -3.057698081681973e-06   -3.40793880441955e-05
1.671231438418016e-05   -3.057698081681973e-06   -3.40793880441955e-05
1.671231438418016e-05   -3.057698081681973e-06   -3.40793880441955e-05
8.338226593161532e-06   -1.9437690625730836e-06   -2.0790932470630193e-05
8.338226593161532e-06   -1.9437690625730836e-06   -2.0790932470630193e-05
8.338226593161532e-06   -1.9437690625730836e-06   -2.0790932470630193e-05
8.338226593161532e-06   -1.9437690625730836e-06   -2.0790932470630193e-05
-9.3966633376239e-07   3.8411727629802245e-07   -1.150530195172196e-05
-9.3966633376239e-07   3.8411727629802245e-07   -1.150530195172196e-05
-9.3966633376239e-07   3.8411727629802245e-07   -1.150530195172196e-05
-9.3966633376239e-07   3.8411727629802245e-07   -1.150530195172196e-05
-1.6723961077705493e-05   -2.1621270288570485e-06   -3.9340206441387e-05
-1.6723961077705493e-05   -2.1621270288570485e-06   -3.9340206441387e-05
-1.6723961077705493e-05   -2.1621270288570485e-06   -3.9340206441387e-05
-1.6723961077705493e-05   -2.1621270288570485e-06   -3.9340206441387e-05
-1.5971841762963383e-05   8.618879664956929e-07   -1.2506780335742656e-05
-1.5971841762963383e-05   8.618879664956929e-07   -1.2506780335742656e-05
-1.5971841762963383e-05   8.618879664956929e-07   -1.2506780335742656e-05
-1.5971841762963383e-05   8.618879664956929e-07   -1.2506780335742656e-05
-3.1298334053315253e-07   -1.9238528029309494e-06   -3.693343324480373e-05
-3.1298334053315253e-07   -1.9238528029309494e-06   -3.693343324480373e-05
-3.1298334053315253e-07   -1.9238528029309494e-06   -3.693343324480373e-05
-3.1298334053315253e-07   -1.9238528029309494e-06   -3.693343324480373e-05
-8.387245395785042e-06   -4.018645113367837e-07   -2.4389522794340465e-05
-8.387245395785042e-06   -4.018645113367837e-07   -2.4389522794340465e-05
-8.387245395785042e-06   -4.018645113367837e-07   -2.4389522794340465e-05
-8.387245395785042e-06   -4.018645113367837e-07   -2.4389522794340465e-05
-3.1298334053315253e-07   8.618879664956929e-07   -1.0835335874086627e-05
-3.1298334053315253e-07   8.618879664956929e-07   -1.0835335874086627e-05
-3.1298334053315253e-07   8.618879664956929e-07   -1.0835335874086627e-05
-3.1298334053315253e-07   8.618879664956929e-07   -1.0835335874086627e-05
-1.5971841762963383e-05   -1.9238528029309494e-06   -3.860487770645973e-05
-1.5971841762963383e-05   -1.9238528029309494e-06   -3.860487770645973e-05
-1.5971841762963383e-05   -1.9238528029309494e-06   -3.860487770645973e-05
-1.5971841762963383e-05   -1.9238528029309494e-06   -3.860487770645973e-05
-1.5281837068604554e-05   1.4144008101059542e-06   -1.2282800011801992e-05
-1.5281837068604554e-05   1.4144008101059542e-06   -1.2282800011801992e-05
-1.5281837068604554e-05   1.4144008101059542e-06   -1.2282800011801992e-05
-1.5281837068604554e-05   1.4144008101059542e-06   -1.2282800011801992e-05
2.3902076042363557e-07   -1.5552807363882187e-06   -3.636908746561921e-05
2.3902076042363557e-07   -1.5552807363882187e-06   -3.636908746561921e-05
2.3902076042363557e-07   -1.5552807363882187e-06   -3.636908746561921e-05
2.3902076042363557e-07   -1.5552807363882187e-06   -3.636908746561921e-05
-7.775140180579227e-06   -1.2993690421108511e-07   -2.386735886325417e-05
-7.775140180579227e-06   -1.2993690421108511e-07   -2.386735886325417e-05
-7.775140180579227e-06   -1.2993690421108511e-07   -2.386735886325417e-05
-7.775140180579227e-06   -1.2993690421108511e-07   -2.386735886325417e-05
2.3902076042363557e-07   1.4144008101059542e-06   -1.0500991083905683e-05
2.3902076042363557e-07   1.4144008101059542e-06   -1.0500991083905683e-05
2.3902076042363557e-07   1.4144008101059542e-06   -1.0500991083905683e-05
2.3902076042363557e-07   1.4144008101059542e-06   -1.0500991083905683e-05
-1.528183706860458e-05   -1.5552807363882187e-06   -3.815089639351587e-05
-1.528183706860458e-05   -1.5552807363882187e-06   -3.815089639351587e-05
-1.528183706860458e-05   -1.5552807363882187e-06   -3.815089639351587e-05
-1.528183706860458e-05   -1.5552807363882187e-06   -3.815089639351587e-05
-1.4816798208181032e-05   1.9852615223893855e-06   -1.2497974219855814e-05
-1.4816798208181032e-05   1.9852615223893855e-06   -1.2497974219855814e-05
-1.4816798208181032e-05   1.9852615223893855e-06   -1.2497974219855814e-05
-1.4816798208181032e-05   1.9852615223893855e-06   -1.2497974219855814e-05
6.315367072950632e-07   -1.2054333822415515e-06   -3.633078213620411e-05
6.315367072950632e-07   -1.2054333822415515e-06   -3.633078213620411e-05
6.315367072950632e-07   -1.2054333822415515e-06   -3.633078213620411e-05
6.315367072950632e-07   -1.2054333822415515e-06   -3.633078213620411e-05
-7.339072151289194e-06   1.7507696242887935e-07   -2.387474024536637e-05
-7.339072151289194e-06   1.7507696242887935e-07   -2.387474024536637e-05
-7.339072151289194e-06   1.7507696242887935e-07   -2.387474024536637e-05
-7.339072151289194e-06   1.7507696242887935e-07   -2.387474024536637e-05
-1.672396107770546e-05   2.89215011899319e-06   -9.378740388584958e-06
-1.672396107770546e-05   2.89215011899319e-06   -9.378740388584958e-06
-1.672396107770546e-05   2.89215011899319e-06   -9.378740388584958e-06
-1.672396107770546e-05   2.89215011899319e-06   -9.378740388584958e-06
-3.273163043997851e-05   6.021761277408017e-07   -3.7432173720457944e-05
-3.273163043997851e-05   6.021761277408017e-07   -3.7432173720457944e-05
-3.273163043997851e-05   6.021761277408017e-07   -3.7432173720457944e-05
-3.273163043997851e-05   6.021761277408017e-07   -3.7432173720457944e-05
-3.166063943306038e-05   3.4979195039106046e-06   -9.98612185254945e-06
-3.166063943306038e-05   3.4979195039106046e-06   -9.98612185254945e-06
-3.166063943306038e-05   3.4979195039106046e-06   -9.98612185254945e-06
-3.166063943306038e-05   3.4979195039106046e-06   -9.98612185254945e-06
-1.5971841762963356e-05   1.0394659899761946e-06   -3.465904586101711e-05
-1.5971841762963356e-05   1.0394659899761946e-06   -3.465904586101711e-05
-1.5971841762963356e-05   1.0394659899761946e-06   -3.465904586101711e-05
-1.5971841762963356e-05   1.0394659899761946e-06   -3.465904586101711e-05
-2.4021364869207983e-05   2.2140630743289116e-06   -2.1947932267887696e-05
-2.4021364869207983e-05   2.2140630743289116e-06   -2.1947932267887696e-05
-2.4021364869207983e-05   2.2140630743289116e-06   -2.1947932267887696e-05
-2.4021364869207983e-05   2.2140630743289116e-06   -2.1947932267887696e-05
-1.5971841762963356e-05   3.4979195039106046e-06   -8.511049744188695e-06
-1.5971841762963356e-05   3.4979195039106046e-06   -8.511049744188695e-06
-1.5971841762963356e-05   3.4979195039106046e-06   -8.511049744188695e-06
-1.5971841762963356e-05   3.4979195039106046e-06   -8.511049744188695e-06
-3.1660639433060434e-05   1.0394659899761946e-06   -3.613411796937803e-05
-3.1660639433060434e-05   1.0394659899761946e-06   -3.613411796937803e-05
-3.1660639433060434e-05   1.0394659899761946e-06   -3.613411796937803e-05
-3.1660639433060434e-05   1.0394659899761946e-06   -3.613411796937803e-05
-3.062420438080231e-05   4.0194638176124266e-06   -9.087105058890369e-06
-3.062420438080231e-05   4.0194638176124266e-06   -9.087105058890369e-06
-3.062420438080231e-05   4.0194638176124266e-06   -9.087105058890369e-06
-3.062420438080231e-05   4.0194638176124266e-06   -9.087105058890369e-06
-1.528183706860458e-05   1.4416746026905784e-06   -3.3111043716933585e-05
-1.528183706860458e-05   1.4416746026905784e-06   -3.3111043716933585e-05
-1.528183706860458e-05   1.4416746026905784e-06   -3.3111043716933585e-05
-1.528183706860458e-05   1.4416746026905784e-06   -3.3111043716933585e-05
-2.3051761680799907e-05   2.594586145502221e-06   -2.0852916288961558e-05
-2.3051761680799907e-05   2.594586145502221e-06   -2.0852916288961558e-05
-2.3051761680799907e-05   2.594586145502221e-06   -2.0852916288961558e-05
-2.3051761680799907e-05   2.594586145502221e-06   -2.0852916288961558e-05
-1.528183706860454e-05   4.0194638176124266e-06   -7.540431529937108e-06
-1.528183706860454e-05   4.0194638176124266e-06   -7.540431529937108e-06
-1.528183706860454e-05   4.0194638176124266e-06   -7.540431529937108e-06
-1.528183706860454e-05   4.0194638176124266e-06   -7.540431529937108e-06
-3.062420438080237e-05   1.4416746026905784e-06   -3.465771724588682e-05
-3.062420438080237e-05   1.4416746026905784e-06   -3.465771724588682e-05
-3.062420438080237e-05   1.4416746026905784e-06   -3.465771724588682e-05
-3.062420438080237e-05   1.4416746026905784e-06   -3.465771724588682e-05
-2.983961573274525e-05   4.595690330250245e-06   -9.116023047362615e-06
-2.983961573274525e-05   4.595690330250245e-06   -9.116023047362615e-06
-2.983961573274525e-05   4.595690330250245e-06   -9.116023047362615e-06
-2.983961573274525e-05   4.595690330250245e-06   -9.116023047362615e-06
-1.4816798208181059e-05   1.7811629874878339e-06   -3.246533584931218e-05
-1.4816798208181059e-05   1.7811629874878339e-06   -3.246533584931218e-05
-1.4816798208181059e-05   1.7811629874878339e-06   -3.246533584931218e-05
-1.4816798208181059e-05   1.7811629874878339e-06   -3.246533584931218e-05
-2.251242009919963e-05   2.8603999719782093e-06   -2.0286841554975447e-05
-2.251242009919963e-05   2.8603999719782093e-06   -2.0286841554975447e-05
-2.251242009919963e-05   2.8603999719782093e-06   -2.0286841554975447e-05
-2.251242009919963e-05   2.8603999719782093e-06   -2.0286841554975447e-05
-3.273163043997851e-05   5.673370571155668e-06   -5.3722221251940134e-06
-3.273163043997851e-05   5.673370571155668e-06   -5.3722221251940134e-06
-3.273163043997851e-05   5.673370571155668e-06   -5.3722221251940134e-06
-3.273163043997851e-05   5.673370571155668e-06   -5.3722221251940134e-06
-4.946585124671222e-05   5.366472773765153e-06   -3.344672881485126e-05
-4.946585124671222e-05   5.366472773765153e-06   -3.344672881485126e-05
-4.946585124671222e-05   5.366472773765153e-06   -3.344672881485126e-05
-4.946585124671222e-05   5.366472773765153e-06   -3.344672881485126e-05
-4.734414120686677e-05   6.4783842048370816e-06   -7.896188444333346e-08
-4.734414120686677e-05   6.4783842048370816e-06   -7.896188444333346e-08
-4.734414120686677e-05   6.4783842048370816e-06   -7.896188444333346e-08
-4.734414120686677e-05   6.4783842048370816e-06   -7.896188444333346e-08
-3.1660639433060326e-05   6.77934478557937e-06   -2.63987078558995e-05
-3.1660639433060326e-05   6.77934478557937e-06   -2.63987078558995e-05
-3.1660639433060326e-05   6.77934478557937e-06   -2.63987078558995e-05
-3.1660639433060326e-05   6.77934478557937e-06   -2.63987078558995e-05
-3.856312614879213e-05   6.3903729368704025e-06   -1.4661180220454622e-05
-3.856312614879213e-05   6.3903729368704025e-06   -1.4661180220454622e-05
-3.856312614879213e-05   6.3903729368704025e-06   -1.4661180220454622e-05
-3.856312614879213e-05   6.3903729368704025e-06   -1.4661180220454622e-05
-3.166063943306041e-05   6.4783842048370816e-06   -2.595382328885549e-07
-3.166063943306041e-05   6.4783842048370816e-06   -2.595382328885549e-07
-3.166063943306041e-05   6.4783842048370816e-06   -2.595382328885549e-07
-3.166063943306041e-05   6.4783842048370816e-06   -2.595382328885549e-07
-4.734414120686677e-05   6.77934478557937e-06   -2.6218131507454176e-05
-4.734414120686677e-05   6.77934478557937e-06   -2.6218131507454176e-05
-4.734414120686677e-05   6.77934478557937e-06   -2.6218131507454176e-05
-4.734414120686677e-05   6.77934478557937e-06   -2.6218131507454176e-05
-4.558575609077279e-05   6.690558693799725e-06   2.913583898728851e-06
-4.558575609077279e-05   6.690558693799725e-06   2.913583898728851e-06
-4.558575609077279e-05   6.690558693799725e-06   2.913583898728851e-06
-4.558575609077279e-05   6.690558693799725e-06   2.913583898728851e-06
-3.062420438080231e-05   7.0975181461214575e-06   -2.2266511289281702e-05
-3.062420438080231e-05   7.0975181461214575e-06   -2.2266511289281702e-05
-3.062420438080231e-05   7.0975181461214575e-06   -2.2266511289281702e-05
-3.062420438080231e-05   7.0975181461214575e-06   -2.2266511289281702e-05
-3.776795747086405e-05   6.853072417187071e-06   -1.0213588701817673e-05
-3.776795747086405e-05   6.853072417187071e-06   -1.0213588701817673e-05
-3.776795747086405e-05   6.853072417187071e-06   -1.0213588701817673e-05
-3.776795747086405e-05   6.853072417187071e-06   -1.0213588701817673e-05
-3.062420438080237e-05   6.690558693799725e-06   2.66940822733579e-06
-3.062420438080237e-05   6.690558693799725e-06   2.66940822733579e-06
-3.062420438080237e-05   6.690558693799725e-06   2.66940822733579e-06
-3.062420438080237e-05   6.690558693799725e-06   2.66940822733579e-06
-4.5585756090772705e-05   7.0975181461214575e-06   -2.2022335617888637e-05
-4.5585756090772705e-05   7.0975181461214575e-06   -2.2022335617888637e-05
-4.5585756090772705e-05   7.0975181461214575e-06   -2.2022335617888637e-05
-4.5585756090772705e-05   7.0975181461214575e-06   -2.2022335617888637e-05
-4.3745307234085675e-05   6.871019455366445e-06   6.928947479092808e-06
-4.3745307234085675e-05   6.871019455366445e-06   6.928947479092808e-06
-4.3745307234085675e-05   6.871019455366445e-06   6.928947479092808e-06
-4.3745307234085675e-05   6.871019455366445e-06   6.928947479092808e-06
-2.983961573274525e-05   7.639697502886652e-06   -1.6708411851653506e-05
-2.983961573274525e-05   7.639697502886652e-06   -1.6708411851653506e-05
-2.983961573274525e-05   7.639697502886652e-06   -1.6708411851653506e-05
-2.983961573274525e-05   7.639697502886652e-06   -1.6708411851653506e-05
-3.598827438245365e-05   7.006845603850986e-06   -6.080936296051862e-06
-3.598827438245365e-05   7.006845603850986e-06   -6.080936296051862e-06
-3.598827438245365e-05   7.006845603850986e-06   -6.080936296051862e-06
-3.598827438245365e-05   7.006845603850986e-06   -6.080936296051862e-06
4.3005539220893115e-05   -6.451831504158696e-06   1.4724737214615014e-05
4.3005539220893115e-05   -6.451831504158696e-06   1.4724737214615014e-05
4.3005539220893115e-05   -6.451831504158696e-06   1.4724737214615014e-05
4.3005539220893115e-05   -6.451831504158696e-06   1.4724737214615014e-05
2.1600998723971034e-05   -8.151396586967988e-06   -2.1969235996607177e-05
2.1600998723971034e-05   -8.151396586967988e-06   -2.1969235996607177e-05
2.1600998723971034e-05   -8.151396586967988e-06   -2.1969235996607177e-05
2.1600998723971034e-05   -8.151396586967988e-06   -2.1969235996607177e-05
2.212340401510462e-05   -6.302363697260373e-06   1.0575208877417613e-05
2.212340401510462e-05   -6.302363697260373e-06   1.0575208877417613e-05
2.212340401510462e-05   -6.302363697260373e-06   1.0575208877417613e-05
2.212340401510462e-05   -6.302363697260373e-06   1.0575208877417613e-05
4.407022219097813e-05   -8.355367429721669e-06   -2.477101917622816e-05
4.407022219097813e-05   -8.355367429721669e-06   -2.477101917622816e-05
4.407022219097813e-05   -8.355367429721669e-06   -2.477101917622816e-05
4.407022219097813e-05   -8.355367429721669e-06   -2.477101917622816e-05
3.139629756892202e-05   -6.590109967605012e-06   -4.706965950071224e-06
3.139629756892202e-05   -6.590109967605012e-06   -4.706965950071224e-06
3.139629756892202e-05   -6.590109967605012e-06   -4.706965950071224e-06
3.139629756892202e-05   -6.590109967605012e-06   -4.706965950071224e-06
4.407022219097813e-05   -6.302363697260373e-06   1.1807011116894478e-05
4.407022219097813e-05   -6.302363697260373e-06   1.1807011116894478e-05
4.407022219097813e-05   -6.302363697260373e-06   1.1807011116894478e-05
4.407022219097813e-05   -6.302363697260373e-06   1.1807011116894478e-05
2.212340401510462e-05   -8.355367429721669e-06   -2.600282141570489e-05
2.212340401510462e-05   -8.355367429721669e-06   -2.600282141570489e-05
2.212340401510462e-05   -8.355367429721669e-06   -2.600282141570489e-05
2.212340401510462e-05   -8.355367429721669e-06   -2.600282141570489e-05
2.256483923114104e-05   -6.083157708155823e-06   8.35125431847424e-06
2.256483923114104e-05   -6.083157708155823e-06   8.35125431847424e-06
2.256483923114104e-05   -6.083157708155823e-06   8.35125431847424e-06
2.256483923114104e-05   -6.083157708155823e-06   8.35125431847424e-06
4.473319665518368e-05   -8.278624617263312e-06   -2.7278727909465714e-05
4.473319665518368e-05   -8.278624617263312e-06   -2.7278727909465714e-05
4.473319665518368e-05   -8.278624617263312e-06   -2.7278727909465714e-05
4.473319665518368e-05   -8.278624617263312e-06   -2.7278727909465714e-05
3.249832094514953e-05   -6.796975351641352e-06   -7.776257952115154e-06
3.249832094514953e-05   -6.796975351641352e-06   -7.776257952115154e-06
3.249832094514953e-05   -6.796975351641352e-06   -7.776257952115154e-06
3.249832094514953e-05   -6.796975351641352e-06   -7.776257952115154e-06
4.473319665518368e-05   -6.083157708155823e-06   9.668534463938821e-06
4.473319665518368e-05   -6.083157708155823e-06   9.668534463938821e-06
4.473319665518368e-05   -6.083157708155823e-06   9.668534463938821e-06
4.473319665518368e-05   -6.083157708155823e-06   9.668534463938821e-06
2.256483923114104e-05   -8.278624617263312e-06   -2.8596008054930185e-05
2.256483923114104e-05   -8.278624617263312e-06   -2.8596008054930185e-05
2.256483923114104e-05   -8.278624617263312e-06   -2.8596008054930185e-05
2.256483923114104e-05   -8.278624617263312e-06   -2.8596008054930185e-05
2.3025248007022068e-05   -5.229623403860909e-06   4.042143166862588e-06
2.3025248007022068e-05   -5.229623403860909e-06   4.042143166862588e-06
2.3025248007022068e-05   -5.229623403860909e-06   4.042143166862588e-06
2.3025248007022068e-05   -5.229623403860909e-06   4.042143166862588e-06
4.53860627153028e-05   -7.815031575066772e-06   -3.167463644421502e-05
4.53860627153028e-05   -7.815031575066772e-06   -3.167463644421502e-05
4.53860627153028e-05   -7.815031575066772e-06   -3.167463644421502e-05
4.53860627153028e-05   -7.815031575066772e-06   -3.167463644421502e-05
3.25092857175005e-05   -6.5396704880095816e-06   -1.097855810011227e-05
3.25092857175005e-05   -6.5396704880095816e-06   -1.097855810011227e-05
3.25092857175005e-05   -6.5396704880095816e-06   -1.097855810011227e-05
3.25092857175005e-05   -6.5396704880095816e-06   -1.097855810011227e-05
2.1600998723971034e-05   -4.1649779375188024e-06   1.521428442839137e-06
2.1600998723971034e-05   -4.1649779375188024e-06   1.521428442839137e-06
2.1600998723971034e-05   -4.1649779375188024e-06   1.521428442839137e-06
2.1600998723971034e-05   -4.1649779375188024e-06   1.521428442839137e-06
2.519827797058718e-06   -8.139480179841308e-06   -3.266522444740822e-05
2.519827797058718e-06   -8.139480179841308e-06   -3.266522444740822e-05
2.519827797058718e-06   -8.139480179841308e-06   -3.266522444740822e-05
2.519827797058718e-06   -8.139480179841308e-06   -3.266522444740822e-05
3.1281773935229543e-06   -3.963345380953278e-06   -1.084010231330694e-07
3.1281773935229543e-06   -3.963345380953278e-06   -1.084010231330694e-07
3.1281773935229543e-06   -3.963345380953278e-06   -1.084010231330694e-07
3.1281773935229543e-06   -3.963345380953278e-06   -1.084010231330694e-07
2.2123404015104674e-05   -8.095570692630586e-06   -2.928777687209616e-05
2.2123404015104674e-05   -8.095570692630586e-06   -2.928777687209616e-05
2.2123404015104674e-05   -8.095570692630586e-06   -2.928777687209616e-05
2.2123404015104674e-05   -8.095570692630586e-06   -2.928777687209616e-05
1.2390202512233987e-05   -5.493504140565526e-06   -1.4627014298550646e-05
1.2390202512233987e-05   -5.493504140565526e-06   -1.4627014298550646e-05
1.2390202512233987e-05   -5.493504140565526e-06   -1.4627014298550646e-05
1.2390202512233987e-05   -5.493504140565526e-06   -1.4627014298550646e-05
2.212340401510462e-05   -3.963345380953278e-06   2.370934163873446e-06
2.212340401510462e-05   -3.963345380953278e-06   2.370934163873446e-06
2.212340401510462e-05   -3.963345380953278e-06   2.370934163873446e-06
2.212340401510462e-05   -3.963345380953278e-06   2.370934163873446e-06
3.1281773935229543e-06   -8.095570692630586e-06   -3.1767112059102594e-05
3.1281773935229543e-06   -8.095570692630586e-06   -3.1767112059102594e-05
3.1281773935229543e-06   -8.095570692630586e-06   -3.1767112059102594e-05
3.1281773935229543e-06   -8.095570692630586e-06   -3.1767112059102594e-05
3.67724885070263e-06   -3.589592072740901e-06   -3.1417105693007895e-07
3.67724885070263e-06   -3.589592072740901e-06   -3.1417105693007895e-07
3.67724885070263e-06   -3.589592072740901e-06   -3.1417105693007895e-07
3.67724885070263e-06   -3.589592072740901e-06   -3.1417105693007895e-07
2.256483923114104e-05   -7.984001112719234e-06   -2.9156842933673887e-05
2.256483923114104e-05   -7.984001112719234e-06   -2.9156842933673887e-05
2.256483923114104e-05   -7.984001112719234e-06   -2.9156842933673887e-05
2.256483923114104e-05   -7.984001112719234e-06   -2.9156842933673887e-05
1.2733765095631715e-05   -5.5513860295387536e-06   -1.4231288424399401e-05
1.2733765095631715e-05   -5.5513860295387536e-06   -1.4231288424399401e-05
1.2733765095631715e-05   -5.5513860295387536e-06   -1.4231288424399401e-05
1.2733765095631715e-05   -5.5513860295387536e-06   -1.4231288424399401e-05
2.256483923114104e-05   -3.5895920727411178e-06   2.3224743670568343e-06
2.256483923114104e-05   -3.5895920727411178e-06   2.3224743670568343e-06
2.256483923114104e-05   -3.5895920727411178e-06   2.3224743670568343e-06
2.256483923114104e-05   -3.5895920727411178e-06   2.3224743670568343e-06
3.6772488507026165e-06   -7.984001112719234e-06   -3.1793488357660855e-05
3.6772488507026165e-06   -7.984001112719234e-06   -3.1793488357660855e-05
3.6772488507026165e-06   -7.984001112719234e-06   -3.1793488357660855e-05
3.6772488507026165e-06   -7.984001112719234e-06   -3.1793488357660855e-05
4.497156380934672e-06   -3.057698081681973e-06   -7.014892901779056e-07
4.497156380934672e-06   -3.057698081681973e-06   -7.014892901779056e-07
4.497156380934672e-06   -3.057698081681973e-06   -7.014892901779056e-07
4.497156380934672e-06   -3.057698081681973e-06   -7.014892901779056e-07
2.3025248007022055e-05   -7.762983560287168e-06   -2.875847071316033e-05
2.3025248007022055e-05   -7.762983560287168e-06   -2.875847071316033e-05
2.3025248007022055e-05   -7.762983560287168e-06   -2.875847071316033e-05
2.3025248007022055e-05   -7.762983560287168e-06   -2.875847071316033e-05
1.339355682689751e-05   -5.461834293961614e-06   -1.4086341639414851e-05
1.339355682689751e-05   -5.461834293961614e-06   -1.4086341639414851e-05
1.339355682689751e-05   -5.461834293961614e-06   -1.4086341639414851e-05
1.339355682689751e-05   -5.461834293961614e-06   -1.4086341639414851e-05
2.519827797058718e-06   -2.1621270288572653e-06   -3.166737762912153e-06
2.519827797058718e-06   -2.1621270288572653e-06   -3.166737762912153e-06
2.519827797058718e-06   -2.1621270288572653e-06   -3.166737762912153e-06
2.519827797058718e-06   -2.1621270288572653e-06   -3.166737762912153e-06
-1.636224752736797e-05   -9.778651993720298e-06   -3.920677828254113e-05
-1.636224752736797e-05   -9.778651993720298e-06   -3.920677828254113e-05
-1.636224752736797e-05   -9.778651993720298e-06   -3.920677828254113e-05
-1.636224752736797e-05   -9.778651993720298e-06   -3.920677828254113e-05
-1.541415665207495e-05   -1.9238528029309494e-06   -6.900504595095964e-06
-1.541415665207495e-05   -1.9238528029309494e-06   -6.900504595095964e-06
-1.541415665207495e-05   -1.9238528029309494e-06   -6.900504595095964e-06
-1.541415665207495e-05   -1.9238528029309494e-06   -6.900504595095964e-06
3.1281773935229543e-06   -9.991652654757488e-06   -3.296371475999658e-05
3.1281773935229543e-06   -9.991652654757488e-06   -3.296371475999658e-05
3.1281773935229543e-06   -9.991652654757488e-06   -3.296371475999658e-05
3.1281773935229543e-06   -9.991652654757488e-06   -3.296371475999658e-05
-6.315937614173852e-06   -5.518981201975935e-06   -1.9907125952170945e-05
-6.315937614173852e-06   -5.518981201975935e-06   -1.9907125952170945e-05
-6.315937614173852e-06   -5.518981201975935e-06   -1.9907125952170945e-05
-6.315937614173852e-06   -5.518981201975935e-06   -1.9907125952170945e-05
3.1281773935229543e-06   -1.9238528029309494e-06   -2.0598246840001274e-06
3.1281773935229543e-06   -1.9238528029309494e-06   -2.0598246840001274e-06
3.1281773935229543e-06   -1.9238528029309494e-06   -2.0598246840001274e-06
3.1281773935229543e-06   -1.9238528029309494e-06   -2.0598246840001274e-06
-1.5414156652074977e-05   -9.991652654757488e-06   -3.780439467109247e-05
-1.5414156652074977e-05   -9.991652654757488e-06   -3.780439467109247e-05
-1.5414156652074977e-05   -9.991652654757488e-06   -3.780439467109247e-05
-1.5414156652074977e-05   -9.991652654757488e-06   -3.780439467109247e-05
-1.4596626401412586e-05   -1.5552807363882187e-06   -6.437575620071119e-06
-1.4596626401412586e-05   -1.5552807363882187e-06   -6.437575620071119e-06
-1.4596626401412586e-05   -1.5552807363882187e-06   -6.437575620071119e-06
-1.4596626401412586e-05   -1.5552807363882187e-06   -6.437575620071119e-06
3.6772488507026165e-06   -9.940980339970392e-06   -3.18626146114469e-05
3.6772488507026165e-06   -9.940980339970392e-06   -3.18626146114469e-05
3.6772488507026165e-06   -9.940980339970392e-06   -3.18626146114469e-05
3.6772488507026165e-06   -9.940980339970392e-06   -3.18626146114469e-05
-5.642954183254183e-06   -5.641221218303898e-06   -1.890879836118569e-05
-5.642954183254183e-06   -5.641221218303898e-06   -1.890879836118569e-05
-5.642954183254183e-06   -5.641221218303898e-06   -1.890879836118569e-05
-5.642954183254183e-06   -5.641221218303898e-06   -1.890879836118569e-05
3.6772488507026165e-06   -1.5552807363880018e-06   -1.406155857921641e-06
3.6772488507026165e-06   -1.5552807363880018e-06   -1.406155857921641e-06
3.6772488507026165e-06   -1.5552807363880018e-06   -1.406155857921641e-06
3.6772488507026165e-06   -1.5552807363880018e-06   -1.406155857921641e-06
-1.4596626401412627e-05   -9.94098033997061e-06   -3.6894034373596515e-05
-1.4596626401412627e-05   -9.94098033997061e-06   -3.6894034373596515e-05
-1.4596626401412627e-05   -9.94098033997061e-06   -3.6894034373596515e-05
-1.4596626401412627e-05   -9.94098033997061e-06   -3.6894034373596515e-05
-1.3185749133695246e-05   -1.2054333822415515e-06   -6.411160601649604e-06
-1.3185749133695246e-05   -1.2054333822415515e-06   -6.411160601649604e-06
-1.3185749133695246e-05   -1.2054333822415515e-06   -6.411160601649604e-06
-1.3185749133695246e-05   -1.2054333822415515e-06   -6.411160601649604e-06
4.497156380934685e-06   -9.587794280296836e-06   -3.0853253253866294e-05
4.497156380934685e-06   -9.587794280296836e-06   -3.0853253253866294e-05
4.497156380934685e-06   -9.587794280296836e-06   -3.0853253253866294e-05
4.497156380934685e-06   -9.587794280296836e-06   -3.0853253253866294e-05
-4.768172112130773e-06   -5.5125222051036465e-06   -1.7856202343873278e-05
-4.768172112130773e-06   -5.5125222051036465e-06   -1.7856202343873278e-05
-4.768172112130773e-06   -5.5125222051036465e-06   -1.7856202343873278e-05
-4.768172112130773e-06   -5.5125222051036465e-06   -1.7856202343873278e-05
-1.636224752736795e-05   6.021761277410186e-07   -4.4546356261496774e-06
-1.636224752736795e-05   6.021761277410186e-07   -4.4546356261496774e-06
-1.636224752736795e-05   6.021761277410186e-07   -4.4546356261496774e-06
-1.636224752736795e-05   6.021761277410186e-07   -4.4546356261496774e-06
-3.74122432377593e-05   -1.2153038346605829e-05   -4.719109049474324e-05
-3.74122432377593e-05   -1.2153038346605829e-05   -4.719109049474324e-05
-3.74122432377593e-05   -1.2153038346605829e-05   -4.719109049474324e-05
-3.74122432377593e-05   -1.2153038346605829e-05   -4.719109049474324e-05
-3.6276859494644066e-05   1.0394659899761946e-06   -1.1730069407669226e-05
-3.6276859494644066e-05   1.0394659899761946e-06   -1.1730069407669226e-05
-3.6276859494644066e-05   1.0394659899761946e-06   -1.1730069407669226e-05
-3.6276859494644066e-05   1.0394659899761946e-06   -1.1730069407669226e-05
-1.541415665207495e-05   -1.3586195106716917e-05   -3.7725844153935225e-05
-1.541415665207495e-05   -1.3586195106716917e-05   -3.7725844153935225e-05
-1.541415665207495e-05   -1.3586195106716917e-05   -3.7725844153935225e-05
-1.541415665207495e-05   -1.3586195106716917e-05   -3.7725844153935225e-05
-2.598918227874306e-05   -6.159738293138152e-06   -2.455667553096896e-05
-2.598918227874306e-05   -6.159738293138152e-06   -2.455667553096896e-05
-2.598918227874306e-05   -6.159738293138152e-06   -2.455667553096896e-05
-2.598918227874306e-05   -6.159738293138152e-06   -2.455667553096896e-05
-1.541415665207495e-05   1.0394659899761946e-06   -2.954672749653402e-06
-1.541415665207495e-05   1.0394659899761946e-06   -2.954672749653402e-06
-1.541415665207495e-05   1.0394659899761946e-06   -2.954672749653402e-06
-1.541415665207495e-05   1.0394659899761946e-06   -2.954672749653402e-06
-3.6276859494644066e-05   -1.35861951067167e-05   -4.650124081195101e-05
-3.6276859494644066e-05   -1.35861951067167e-05   -4.650124081195101e-05
-3.6276859494644066e-05   -1.35861951067167e-05   -4.650124081195101e-05
-3.6276859494644066e-05   -1.35861951067167e-05   -4.650124081195101e-05
-3.5188838719552945e-05   1.4416746026905784e-06   -1.0457541413353344e-05
-3.5188838719552945e-05   1.4416746026905784e-06   -1.0457541413353344e-05
-3.5188838719552945e-05   1.4416746026905784e-06   -1.0457541413353344e-05
-3.5188838719552945e-05   1.4416746026905784e-06   -1.0457541413353344e-05
-1.45966264014126e-05   -1.365802284708376e-05   -3.5718076807055994e-05
-1.45966264014126e-05   -1.365802284708376e-05   -3.5718076807055994e-05
-1.45966264014126e-05   -1.365802284708376e-05   -3.5718076807055994e-05
-1.45966264014126e-05   -1.365802284708376e-05   -3.5718076807055994e-05
-2.488202111578139e-05   -6.177032951284935e-06   -2.306434622058735e-05
-2.488202111578139e-05   -6.177032951284935e-06   -2.306434622058735e-05
-2.488202111578139e-05   -6.177032951284935e-06   -2.306434622058735e-05
-2.488202111578139e-05   -6.177032951284935e-06   -2.306434622058735e-05
-1.4596626401412593e-05   1.4416746026905784e-06   -1.3977229434888059e-06
-1.4596626401412593e-05   1.4416746026905784e-06   -1.3977229434888059e-06
-1.4596626401412593e-05   1.4416746026905784e-06   -1.3977229434888059e-06
-1.4596626401412593e-05   1.4416746026905784e-06   -1.3977229434888059e-06
-3.5188838719553e-05   -1.3658022847083543e-05   -4.47778952769206e-05
-3.5188838719553e-05   -1.3658022847083543e-05   -4.47778952769206e-05
-3.5188838719553e-05   -1.3658022847083543e-05   -4.47778952769206e-05
-3.5188838719553e-05   -1.3658022847083543e-05   -4.47778952769206e-05
-3.340304978921712e-05   1.7811629874878339e-06   -9.164453363676552e-06
-3.340304978921712e-05   1.7811629874878339e-06   -9.164453363676552e-06
-3.340304978921712e-05   1.7811629874878339e-06   -9.164453363676552e-06
-3.340304978921712e-05   1.7811629874878339e-06   -9.164453363676552e-06
-1.3185749133695286e-05   -1.244076366534153e-05   -3.4326798464515436e-05
-1.3185749133695286e-05   -1.244076366534153e-05   -3.4326798464515436e-05
-1.3185749133695286e-05   -1.244076366534153e-05   -3.4326798464515436e-05
-1.3185749133695286e-05   -1.244076366534153e-05   -3.4326798464515436e-05
-2.3791756900022798e-05   -5.438859875323259e-06   -2.085126112798014e-05
-2.3791756900022798e-05   -5.438859875323259e-06   -2.085126112798014e-05
-2.3791756900022798e-05   -5.438859875323259e-06   -2.085126112798014e-05
-2.3791756900022798e-05   -5.438859875323259e-06   -2.085126112798014e-05
-3.74122432377593e-05   5.366472773765153e-06   -7.938180726716989e-06
-3.74122432377593e-05   5.366472773765153e-06   -7.938180726716989e-06
-3.74122432377593e-05   5.366472773765153e-06   -7.938180726716989e-06
-3.74122432377593e-05   5.366472773765153e-06   -7.938180726716989e-06
-6.432439433996715e-05   0.0   -5.6011649561322715e-05
-6.432439433996715e-05   0.0   -5.6011649561322715e-05
-6.432439433996715e-05   0.0   -5.6011649561322715e-05
-6.432439433996715e-05   0.0   -5.6011649561322715e-05
-6.266602531426247e-05   6.7793447855791535e-06   -6.062266165538324e-06
-6.266602531426247e-05   6.7793447855791535e-06   -6.062266165538324e-06
-6.266602531426247e-05   6.7793447855791535e-06   -6.062266165538324e-06
-6.266602531426247e-05   6.7793447855791535e-06   -6.062266165538324e-06
-3.6276859494644005e-05   0.0   -4.597660232688822e-05
-3.6276859494644005e-05   0.0   -4.597660232688822e-05
-3.6276859494644005e-05   0.0   -4.597660232688822e-05
-3.6276859494644005e-05   0.0   -4.597660232688822e-05
-4.803901508491664e-05   2.0802842720594582e-06   -2.7621180239669515e-05
-4.803901508491664e-05   2.0802842720594582e-06   -2.7621180239669515e-05
-4.803901508491664e-05   2.0802842720594582e-06   -2.7621180239669515e-05
-4.803901508491664e-05   2.0802842720594582e-06   -2.7621180239669515e-05
-3.627685949464404e-05   6.7793447855791535e-06   -1.9946592941907015e-06
-3.627685949464404e-05   6.7793447855791535e-06   -1.9946592941907015e-06
-3.627685949464404e-05   6.7793447855791535e-06   -1.9946592941907015e-06
-3.627685949464404e-05   6.7793447855791535e-06   -1.9946592941907015e-06
-6.266602531426236e-05   0.0   -5.004420919823573e-05
-6.266602531426236e-05   0.0   -5.004420919823573e-05
-6.266602531426236e-05   0.0   -5.004420919823573e-05
-6.266602531426236e-05   0.0   -5.004420919823573e-05
-6.12612529233233e-05   7.0975181461214575e-06   -2.3248463444212495e-06
-6.12612529233233e-05   7.0975181461214575e-06   -2.3248463444212495e-06
-6.12612529233233e-05   7.0975181461214575e-06   -2.3248463444212495e-06
-6.12612529233233e-05   7.0975181461214575e-06   -2.3248463444212495e-06
-3.5188838719553e-05   0.0   -4.152035912969894e-05
-3.5188838719553e-05   0.0   -4.152035912969894e-05
-3.5188838719553e-05   0.0   -4.152035912969894e-05
-3.5188838719553e-05   0.0   -4.152035912969894e-05
-4.7552840886013084e-05   3.284899693518136e-06   -2.2884628668375692e-05
-4.7552840886013084e-05   3.284899693518136e-06   -2.2884628668375692e-05
-4.7552840886013084e-05   3.284899693518136e-06   -2.2884628668375692e-05
-4.7552840886013084e-05   3.284899693518136e-06   -2.2884628668375692e-05
-3.5188838719553e-05   7.0975181461214575e-06   1.9336645432516683e-06
-3.5188838719553e-05   7.0975181461214575e-06   1.9336645432516683e-06
-3.5188838719553e-05   7.0975181461214575e-06   1.9336645432516683e-06
-3.5188838719553e-05   7.0975181461214575e-06   1.9336645432516683e-06
-6.126125292332319e-05   0.0   -4.577887001737163e-05
-6.126125292332319e-05   0.0   -4.577887001737163e-05
-6.126125292332319e-05   0.0   -4.577887001737163e-05
-6.126125292332319e-05   0.0   -4.577887001737163e-05
-5.845653214308436e-05   7.639697502886652e-06   3.697368537907428e-06
-5.845653214308436e-05   7.639697502886652e-06   3.697368537907428e-06
-5.845653214308436e-05   7.639697502886652e-06   3.697368537907428e-06
-5.845653214308436e-05   7.639697502886652e-06   3.697368537907428e-06
-3.3403049789217174e-05   0.0   -3.34746168834727e-05
-3.3403049789217174e-05   0.0   -3.34746168834727e-05
-3.3403049789217174e-05   0.0   -3.34746168834727e-05
-3.3403049789217174e-05   0.0   -3.34746168834727e-05
-4.509827390201328e-05   4.048329127535541e-06   -1.641157417200023e-05
-4.509827390201328e-05   4.048329127535541e-06   -1.641157417200023e-05
-4.509827390201328e-05   4.048329127535541e-06   -1.641157417200023e-05
-4.509827390201328e-05   4.048329127535541e-06   -1.641157417200023e-05
4.7577348234787545e-05   -8.151396586967988e-06   2.8366334610967128e-05
4.7577348234787545e-05   -8.151396586967988e-06   2.8366334610967128e-05
4.7577348234787545e-05   -8.151396586967988e-06   2.8366334610967128e-05
4.7577348234787545e-05   -8.151396586967988e-06   2.8366334610967128e-05
2.466326388452734e-05   -6.297932362664014e-06   -8.711727438217415e-06
2.466326388452734e-05   -6.297932362664014e-06   -8.711727438217415e-06
2.466326388452734e-05   -6.297932362664014e-06   -8.711727438217415e-06
2.466326388452734e-05   -6.297932362664014e-06   -8.711727438217415e-06
2.4047179980598535e-05   -8.355367429721669e-06   2.5033326980656787e-05
2.4047179980598535e-05   -8.355367429721669e-06   2.5033326980656787e-05
2.4047179980598535e-05   -8.355367429721669e-06   2.5033326980656787e-05
2.4047179980598535e-05   -8.355367429721669e-06   2.5033326980656787e-05
4.707456678515138e-05   -6.921234496063636e-06   -1.4206130787126252e-05
4.707456678515138e-05   -6.921234496063636e-06   -1.4206130787126252e-05
4.707456678515138e-05   -6.921234496063636e-06   -1.4206130787126252e-05
4.707456678515138e-05   -6.921234496063636e-06   -1.4206130787126252e-05
3.437295121914048e-05   -7.03279700984649e-06   7.030165997828268e-06
3.437295121914048e-05   -7.03279700984649e-06   7.030165997828268e-06
3.437295121914048e-05   -7.03279700984649e-06   7.030165997828268e-06
3.437295121914048e-05   -7.03279700984649e-06   7.030165997828268e-06
4.707456678515138e-05   -8.355367429721669e-06   2.4172847220461794e-05
4.707456678515138e-05   -8.355367429721669e-06   2.4172847220461794e-05
4.707456678515138e-05   -8.355367429721669e-06   2.4172847220461794e-05
4.707456678515138e-05   -8.355367429721669e-06   2.4172847220461794e-05
2.4047179980598535e-05   -6.921234496063636e-06   -1.3345651026931368e-05
2.4047179980598535e-05   -6.921234496063636e-06   -1.3345651026931368e-05
2.4047179980598535e-05   -6.921234496063636e-06   -1.3345651026931368e-05
2.4047179980598535e-05   -6.921234496063636e-06   -1.3345651026931368e-05
2.3489443587235525e-05   -8.278624617263312e-06   2.2465891821932e-05
2.3489443587235525e-05   -8.278624617263312e-06   2.2465891821932e-05
2.3489443587235525e-05   -8.278624617263312e-06   2.2465891821932e-05
2.3489443587235525e-05   -8.278624617263312e-06   2.2465891821932e-05
4.649150190619168e-05   -6.977316765983694e-06   -1.6651656753762878e-05
4.649150190619168e-05   -6.977316765983694e-06   -1.6651656753762878e-05
4.649150190619168e-05   -6.977316765983694e-06   -1.6651656753762878e-05
4.649150190619168e-05   -6.977316765983694e-06   -1.6651656753762878e-05
3.4352025796198835e-05   -7.156182772282251e-06   3.6881230333378674e-06
3.4352025796198835e-05   -7.156182772282251e-06   3.6881230333378674e-06
3.4352025796198835e-05   -7.156182772282251e-06   3.6881230333378674e-06
3.4352025796198835e-05   -7.156182772282251e-06   3.6881230333378674e-06
4.6491501906191764e-05   -8.278624617263095e-06   2.168510711116425e-05
4.6491501906191764e-05   -8.278624617263095e-06   2.168510711116425e-05
4.6491501906191764e-05   -8.278624617263095e-06   2.168510711116425e-05
4.6491501906191764e-05   -8.278624617263095e-06   2.168510711116425e-05
2.3489443587235525e-05   -6.977316765983694e-06   -1.5870872042995075e-05
2.3489443587235525e-05   -6.977316765983694e-06   -1.5870872042995075e-05
2.3489443587235525e-05   -6.977316765983694e-06   -1.5870872042995075e-05
2.3489443587235525e-05   -6.977316765983694e-06   -1.5870872042995075e-05
2.280876761135042e-05   -7.815031575066772e-06   1.828885288935895e-05
2.280876761135042e-05   -7.815031575066772e-06   1.828885288935895e-05
2.280876761135042e-05   -7.815031575066772e-06   1.828885288935895e-05
2.280876761135042e-05   -7.815031575066772e-06   1.828885288935895e-05
4.557779670160965e-05   -6.8274033412486865e-06   -2.0252105868030605e-05
4.557779670160965e-05   -6.8274033412486865e-06   -2.0252105868030605e-05
4.557779670160965e-05   -6.8274033412486865e-06   -2.0252105868030605e-05
4.557779670160965e-05   -6.8274033412486865e-06   -2.0252105868030605e-05
3.318396950304965e-05   -6.804358681776566e-06   3.904460005528022e-07
3.318396950304965e-05   -6.804358681776566e-06   3.904460005528022e-07
3.318396950304965e-05   -6.804358681776566e-06   3.904460005528022e-07
3.318396950304965e-05   -6.804358681776566e-06   3.904460005528022e-07
2.466326388452734e-05   -8.139480179841308e-06   2.116712604014197e-05
2.466326388452734e-05   -8.139480179841308e-06   2.116712604014197e-05
2.466326388452734e-05   -8.139480179841308e-06   2.116712604014197e-05
2.466326388452734e-05   -8.139480179841308e-06   2.116712604014197e-05
5.192563537513028e-06   -3.875067280400407e-06   -8.725393465217122e-06
5.192563537513028e-06   -3.875067280400407e-06   -8.725393465217122e-06
5.192563537513028e-06   -3.875067280400407e-06   -8.725393465217122e-06
5.192563537513028e-06   -3.875067280400407e-06   -8.725393465217122e-06
4.2176247324181586e-06   -8.095570692630586e-06   2.4140481234096595e-05
4.2176247324181586e-06   -8.095570692630586e-06   2.4140481234096595e-05
4.2176247324181586e-06   -8.095570692630586e-06   2.4140481234096595e-05
4.2176247324181586e-06   -8.095570692630586e-06   2.4140481234096595e-05
2.4047179980598535e-05   -4.108721176245087e-06   -1.1300887222701831e-05
2.4047179980598535e-05   -4.108721176245087e-06   -1.1300887222701831e-05
2.4047179980598535e-05   -4.108721176245087e-06   -1.1300887222701831e-05
2.4047179980598535e-05   -4.108721176245087e-06   -1.1300887222701831e-05
1.4509030914625067e-05   -5.830247791696955e-06   5.62894385652509e-06
1.4509030914625067e-05   -5.830247791696955e-06   5.62894385652509e-06
1.4509030914625067e-05   -5.830247791696955e-06   5.62894385652509e-06
1.4509030914625067e-05   -5.830247791696955e-06   5.62894385652509e-06
2.404717998059855e-05   -8.095570692630586e-06   2.1748371524265273e-05
2.404717998059855e-05   -8.095570692630586e-06   2.1748371524265273e-05
2.404717998059855e-05   -8.095570692630586e-06   2.1748371524265273e-05
2.404717998059855e-05   -8.095570692630586e-06   2.1748371524265273e-05
4.2176247324181586e-06   -4.108721176245087e-06   -8.908777512870564e-06
4.2176247324181586e-06   -4.108721176245087e-06   -8.908777512870564e-06
4.2176247324181586e-06   -4.108721176245087e-06   -8.908777512870564e-06
4.2176247324181586e-06   -4.108721176245087e-06   -8.908777512870564e-06
3.5217136949992537e-06   -7.984001112719234e-06   2.4168909983939956e-05
3.5217136949992537e-06   -7.984001112719234e-06   2.4168909983939956e-05
3.5217136949992537e-06   -7.984001112719234e-06   2.4168909983939956e-05
3.5217136949992537e-06   -7.984001112719234e-06   2.4168909983939956e-05
2.3489443587235525e-05   -4.2109127114662356e-06   -1.137449287720551e-05
2.3489443587235525e-05   -4.2109127114662356e-06   -1.137449287720551e-05
2.3489443587235525e-05   -4.2109127114662356e-06   -1.137449287720551e-05
2.3489443587235525e-05   -4.2109127114662356e-06   -1.137449287720551e-05
1.3671703621098579e-05   -5.709494917667188e-06   5.887556390077125e-06
1.3671703621098579e-05   -5.709494917667188e-06   5.887556390077125e-06
1.3671703621098579e-05   -5.709494917667188e-06   5.887556390077125e-06
1.3671703621098579e-05   -5.709494917667188e-06   5.887556390077125e-06
2.3489443587235566e-05   -7.984001112719234e-06   2.1905056943188135e-05
2.3489443587235566e-05   -7.984001112719234e-06   2.1905056943188135e-05
2.3489443587235566e-05   -7.984001112719234e-06   2.1905056943188135e-05
2.3489443587235566e-05   -7.984001112719234e-06   2.1905056943188135e-05
3.5217136949992537e-06   -4.2109127114662356e-06   -9.110639836453784e-06
3.5217136949992537e-06   -4.2109127114662356e-06   -9.110639836453784e-06
3.5217136949992537e-06   -4.2109127114662356e-06   -9.110639836453784e-06
3.5217136949992537e-06   -4.2109127114662356e-06   -9.110639836453784e-06
2.7478564001094305e-06   -7.762983560287168e-06   2.4946299170602003e-05
2.7478564001094305e-06   -7.762983560287168e-06   2.4946299170602003e-05
2.7478564001094305e-06   -7.762983560287168e-06   2.4946299170602003e-05
2.7478564001094305e-06   -7.762983560287168e-06   2.4946299170602003e-05
2.2808767611350394e-05   -4.1129241478458315e-06   -1.067858849559787e-05
2.2808767611350394e-05   -4.1129241478458315e-06   -1.067858849559787e-05
2.2808767611350394e-05   -4.1129241478458315e-06   -1.067858849559787e-05
2.2808767611350394e-05   -4.1129241478458315e-06   -1.067858849559787e-05
1.3160958391707652e-05   -5.45664714153354e-06   6.207327333352958e-06
1.3160958391707652e-05   -5.45664714153354e-06   6.207327333352958e-06
1.3160958391707652e-05   -5.45664714153354e-06   6.207327333352958e-06
1.3160958391707652e-05   -5.45664714153354e-06   6.207327333352958e-06
5.192563537513041e-06   -9.778651993720298e-06   2.1754134923591636e-05
5.192563537513041e-06   -9.778651993720298e-06   2.1754134923591636e-05
5.192563537513041e-06   -9.778651993720298e-06   2.1754134923591636e-05
5.192563537513041e-06   -9.778651993720298e-06   2.1754134923591636e-05
-1.3515857356029997e-05   -1.600010878619008e-06   -4.519381896586107e-06
-1.3515857356029997e-05   -1.600010878619008e-06   -4.519381896586107e-06
-1.3515857356029997e-05   -1.600010878619008e-06   -4.519381896586107e-06
-1.3515857356029997e-05   -1.600010878619008e-06   -4.519381896586107e-06
-1.5031983984745937e-05   -9.991652654757488e-06   2.792571726837191e-05
-1.5031983984745937e-05   -9.991652654757488e-06   2.792571726837191e-05
-1.5031983984745937e-05   -9.991652654757488e-06   2.792571726837191e-05
-1.5031983984745937e-05   -9.991652654757488e-06   2.792571726837191e-05
4.217624732418172e-06   -1.6885880961424373e-06   -9.138802662070794e-06
4.217624732418172e-06   -1.6885880961424373e-06   -9.138802662070794e-06
4.217624732418172e-06   -1.6885880961424373e-06   -9.138802662070794e-06
4.217624732418172e-06   -1.6885880961424373e-06   -9.138802662070794e-06
-4.618612770867795e-06   -5.5785488501125e-06   7.922236295788054e-06
-4.618612770867795e-06   -5.5785488501125e-06   7.922236295788054e-06
-4.618612770867795e-06   -5.5785488501125e-06   7.922236295788054e-06
-4.618612770867795e-06   -5.5785488501125e-06   7.922236295788054e-06
4.2176247324181586e-06   -9.991652654757488e-06   2.2943878533202662e-05
4.2176247324181586e-06   -9.991652654757488e-06   2.2943878533202662e-05
4.2176247324181586e-06   -9.991652654757488e-06   2.2943878533202662e-05
4.2176247324181586e-06   -9.991652654757488e-06   2.2943878533202662e-05
-1.503198398474591e-05   -1.6885880961422205e-06   -4.156963926901683e-06
-1.503198398474591e-05   -1.6885880961422205e-06   -4.156963926901683e-06
-1.503198398474591e-05   -1.6885880961422205e-06   -4.156963926901683e-06
-1.503198398474591e-05   -1.6885880961422205e-06   -4.156963926901683e-06
-1.595976702888664e-05   -9.94098033997061e-06   2.8985848271759944e-05
-1.595976702888664e-05   -9.94098033997061e-06   2.8985848271759944e-05
-1.595976702888664e-05   -9.94098033997061e-06   2.8985848271759944e-05
-1.595976702888664e-05   -9.94098033997061e-06   2.8985848271759944e-05
3.5217136949992537e-06   -1.7975394372936587e-06   -8.369350809656105e-06
3.5217136949992537e-06   -1.7975394372936587e-06   -8.369350809656105e-06
3.5217136949992537e-06   -1.7975394372936587e-06   -8.369350809656105e-06
3.5217136949992537e-06   -1.7975394372936587e-06   -8.369350809656105e-06
-5.645571430802251e-06   -5.557729819210926e-06   9.165571962496677e-06
-5.645571430802251e-06   -5.557729819210926e-06   9.165571962496677e-06
-5.645571430802251e-06   -5.557729819210926e-06   9.165571962496677e-06
-5.645571430802251e-06   -5.557729819210926e-06   9.165571962496677e-06
3.5217136949992266e-06   -9.94098033997061e-06   2.4099783730153665e-05
3.5217136949992266e-06   -9.94098033997061e-06   2.4099783730153665e-05
3.5217136949992266e-06   -9.94098033997061e-06   2.4099783730153665e-05
3.5217136949992266e-06   -9.94098033997061e-06   2.4099783730153665e-05
-1.5959767028886614e-05   -1.7975394372936587e-06   -3.483286268049935e-06
-1.5959767028886614e-05   -1.7975394372936587e-06   -3.483286268049935e-06
-1.5959767028886614e-05   -1.7975394372936587e-06   -3.483286268049935e-06
-1.5959767028886614e-05   -1.7975394372936587e-06   -3.483286268049935e-06
-1.7049642227088586e-05   -9.587794280296836e-06   3.0356668428743608e-05
-1.7049642227088586e-05   -9.587794280296836e-06   3.0356668428743608e-05
-1.7049642227088586e-05   -9.587794280296836e-06   3.0356668428743608e-05
-1.7049642227088586e-05   -9.587794280296836e-06   3.0356668428743608e-05
2.7478564001094305e-06   -1.7844934274897396e-06   -7.321143128270866e-06
2.7478564001094305e-06   -1.7844934274897396e-06   -7.321143128270866e-06
2.7478564001094305e-06   -1.7844934274897396e-06   -7.321143128270866e-06
2.7478564001094305e-06   -1.7844934274897396e-06   -7.321143128270866e-06
-6.482401367936462e-06   -5.332435889386904e-06   1.0191385295610844e-05
-6.482401367936462e-06   -5.332435889386904e-06   1.0191385295610844e-05
-6.482401367936462e-06   -5.332435889386904e-06   1.0191385295610844e-05
-6.482401367936462e-06   -5.332435889386904e-06   1.0191385295610844e-05
-1.3515857356030024e-05   -1.2153038346605829e-05   2.6330136065058282e-05
-1.3515857356030024e-05   -1.2153038346605829e-05   2.6330136065058282e-05
-1.3515857356030024e-05   -1.2153038346605829e-05   2.6330136065058282e-05
-1.3515857356030024e-05   -1.2153038346605829e-05   2.6330136065058282e-05
-3.4786621633039235e-05   1.8048004548425981e-06   -7.464344490879611e-07
-3.4786621633039235e-05   1.8048004548425981e-06   -7.464344490879611e-07
-3.4786621633039235e-05   1.8048004548425981e-06   -7.464344490879611e-07
-3.4786621633039235e-05   1.8048004548425981e-06   -7.464344490879611e-07
-3.661269367223396e-05   -1.35861951067167e-05   3.717880094631439e-05
-3.661269367223396e-05   -1.35861951067167e-05   3.717880094631439e-05
-3.661269367223396e-05   -1.35861951067167e-05   3.717880094631439e-05
-3.661269367223396e-05   -1.35861951067167e-05   3.717880094631439e-05
-1.503198398474591e-05   1.7046934945917722e-06   -7.963581693617473e-06
-1.503198398474591e-05   1.7046934945917722e-06   -7.963581693617473e-06
-1.503198398474591e-05   1.7046934945917722e-06   -7.963581693617473e-06
-1.503198398474591e-05   1.7046934945917722e-06   -7.963581693617473e-06
-2.4640257847957952e-05   -5.0068895094314975e-06   1.2077157880816425e-05
-2.4640257847957952e-05   -5.0068895094314975e-06   1.2077157880816425e-05
-2.4640257847957952e-05   -5.0068895094314975e-06   1.2077157880816425e-05
-2.4640257847957952e-05   -5.0068895094314975e-06   1.2077157880816425e-05
-1.5031983984745937e-05   -1.35861951067167e-05   2.8004267785529196e-05
-1.5031983984745937e-05   -1.35861951067167e-05   2.8004267785529196e-05
-1.5031983984745937e-05   -1.35861951067167e-05   2.8004267785529196e-05
-1.5031983984745937e-05   -1.35861951067167e-05   2.8004267785529196e-05
-3.661269367223396e-05   1.704693494591989e-06   1.2109514671677186e-06
-3.661269367223396e-05   1.704693494591989e-06   1.2109514671677186e-06
-3.661269367223396e-05   1.704693494591989e-06   1.2109514671677186e-06
-3.661269367223396e-05   1.704693494591989e-06   1.2109514671677186e-06
-3.772487558760881e-05   -1.3658022847083543e-05   3.9265532088264424e-05
-3.772487558760881e-05   -1.3658022847083543e-05   3.9265532088264424e-05
-3.772487558760881e-05   -1.3658022847083543e-05   3.9265532088264424e-05
-3.772487558760881e-05   -1.3658022847083543e-05   3.9265532088264424e-05
-1.5959767028886614e-05   1.5148542361897999e-06   -6.1133750929032984e-06
-1.5959767028886614e-05   1.5148542361897999e-06   -6.1133750929032984e-06
-1.5959767028886614e-05   1.5148542361897999e-06   -6.1133750929032984e-06
-1.5959767028886614e-05   1.5148542361897999e-06   -6.1133750929032984e-06
-2.582370795393041e-05   -5.778616036417961e-06   1.4702608612400991e-05
-2.582370795393041e-05   -5.778616036417961e-06   1.4702608612400991e-05
-2.582370795393041e-05   -5.778616036417961e-06   1.4702608612400991e-05
-2.582370795393041e-05   -5.778616036417961e-06   1.4702608612400991e-05
-1.59597670288866e-05   -1.365802284708376e-05   3.016180583830029e-05
-1.59597670288866e-05   -1.365802284708376e-05   3.016180583830029e-05
-1.59597670288866e-05   -1.365802284708376e-05   3.016180583830029e-05
-1.59597670288866e-05   -1.365802284708376e-05   3.016180583830029e-05
-3.772487558760874e-05   1.5148542361897999e-06   2.99035115706081e-06
-3.772487558760874e-05   1.5148542361897999e-06   2.99035115706081e-06
-3.772487558760874e-05   1.5148542361897999e-06   2.99035115706081e-06
-3.772487558760874e-05   1.5148542361897999e-06   2.99035115706081e-06
-3.892415814520747e-05   -1.244076366534153e-05   4.015653287583543e-05
-3.892415814520747e-05   -1.244076366534153e-05   4.015653287583543e-05
-3.892415814520747e-05   -1.244076366534153e-05   4.015653287583543e-05
-3.892415814520747e-05   -1.244076366534153e-05   4.015653287583543e-05
-1.7049642227088532e-05   1.2992248661716516e-06   -4.544986773270614e-06
-1.7049642227088532e-05   1.2992248661716516e-06   -4.544986773270614e-06
-1.7049642227088532e-05   1.2992248661716516e-06   -4.544986773270614e-06
-1.7049642227088532e-05   1.2992248661716516e-06   -4.544986773270614e-06
-2.7046425560445683e-05   -5.819168021048036e-06   1.6387354514656974e-05
-2.7046425560445683e-05   -5.819168021048036e-06   1.6387354514656974e-05
-2.7046425560445683e-05   -5.819168021048036e-06   1.6387354514656974e-05
-2.7046425560445683e-05   -5.819168021048036e-06   1.6387354514656974e-05
-3.478662163303913e-05   0.0   2.910416394360691e-05
-3.478662163303913e-05   0.0   2.910416394360691e-05
-3.478662163303913e-05   0.0   2.910416394360691e-05
-3.478662163303913e-05   0.0   2.910416394360691e-05
-6.116832304068454e-05   8.03171646845415e-06   -1.0046308521396356e-05
-6.116832304068454e-05   8.03171646845415e-06   -1.0046308521396356e-05
-6.116832304068454e-05   8.03171646845415e-06   -1.0046308521396356e-05
-6.116832304068454e-05   8.03171646845415e-06   -1.0046308521396356e-05
-6.36788127821558e-05   0.0   4.236022203051048e-05
-6.36788127821558e-05   0.0   4.236022203051048e-05
-6.36788127821558e-05   0.0   4.236022203051048e-05
-6.36788127821558e-05   0.0   4.236022203051048e-05
-3.661269367223389e-05   7.76130433188956e-06   -7.406759085159479e-06
-3.661269367223389e-05   7.76130433188956e-06   -7.406759085159479e-06
-3.661269367223389e-05   7.76130433188956e-06   -7.406759085159479e-06
-3.661269367223389e-05   7.76130433188956e-06   -7.406759085159479e-06
-4.6971105375208554e-05   4.76445998245055e-06   1.1655367029461574e-05
-4.6971105375208554e-05   4.76445998245055e-06   1.1655367029461574e-05
-4.6971105375208554e-05   4.76445998245055e-06   1.1655367029461574e-05
-4.6971105375208554e-05   4.76445998245055e-06   1.1655367029461574e-05
-3.6612693672233865e-05   0.0   3.770343943137707e-05
-3.6612693672233865e-05   0.0   3.770343943137707e-05
-3.6612693672233865e-05   0.0   3.770343943137707e-05
-3.6612693672233865e-05   0.0   3.770343943137707e-05
-6.36788127821559e-05   7.76130433188956e-06   -2.7499764860259603e-06
-6.36788127821559e-05   7.76130433188956e-06   -2.7499764860259603e-06
-6.36788127821559e-05   7.76130433188956e-06   -2.7499764860259603e-06
-6.36788127821559e-05   7.76130433188956e-06   -2.7499764860259603e-06
-6.494221021532577e-05   0.0   4.706252529073241e-05
-6.494221021532577e-05   0.0   4.706252529073241e-05
-6.494221021532577e-05   0.0   4.706252529073241e-05
-6.494221021532577e-05   0.0   4.706252529073241e-05
-3.772487558760874e-05   7.56576175874415e-06   -2.8391561440423347e-06
-3.772487558760874e-05   7.56576175874415e-06   -2.8391561440423347e-06
-3.772487558760874e-05   7.56576175874415e-06   -2.8391561440423347e-06
-3.772487558760874e-05   7.56576175874415e-06   -2.8391561440423347e-06
-4.940286081288523e-05   3.980929519200108e-06   1.877505190847861e-05
-4.940286081288523e-05   3.980929519200108e-06   1.877505190847861e-05
-4.940286081288523e-05   3.980929519200108e-06   1.877505190847861e-05
-4.940286081288523e-05   3.980929519200108e-06   1.877505190847861e-05
-3.772487558760874e-05   0.0   4.2523068235486095e-05
-3.772487558760874e-05   0.0   4.2523068235486095e-05
-3.772487558760874e-05   0.0   4.2523068235486095e-05
-3.772487558760874e-05   0.0   4.2523068235486095e-05
-6.494221021532598e-05   7.56576175874415e-06   1.700300911204036e-06
-6.494221021532598e-05   7.56576175874415e-06   1.700300911204036e-06
-6.494221021532598e-05   7.56576175874415e-06   1.700300911204036e-06
-6.494221021532598e-05   7.56576175874415e-06   1.700300911204036e-06
-6.634538422977868e-05   0.0   5.3331030031333534e-05
-6.634538422977868e-05   0.0   5.3331030031333534e-05
-6.634538422977868e-05   0.0   5.3331030031333534e-05
-6.634538422977868e-05   0.0   5.3331030031333534e-05
-3.892415814520747e-05   6.315265971263036e-06   3.839826974290345e-06
-3.892415814520747e-05   6.315265971263036e-06   3.839826974290345e-06
-3.892415814520747e-05   6.315265971263036e-06   3.839826974290345e-06
-3.892415814520747e-05   6.315265971263036e-06   3.839826974290345e-06
-4.980125245443684e-05   2.8014196791592387e-06   2.4076625264934763e-05
-4.980125245443684e-05   2.8014196791592387e-06   2.4076625264934763e-05
-4.980125245443684e-05   2.8014196791592387e-06   2.4076625264934763e-05
-4.980125245443684e-05   2.8014196791592387e-06   2.4076625264934763e-05
4.191934674783569e-05   -6.2979323626637974e-06   2.9697356431967786e-05
4.191934674783569e-05   -6.2979323626637974e-06   2.9697356431967786e-05
4.191934674783569e-05   -6.2979323626637974e-06   2.9697356431967786e-05
4.191934674783569e-05   -6.2979323626637974e-06   2.9697356431967786e-05
2.1185959148958914e-05   -4.763576889858442e-06   -3.937676282476932e-06
2.1185959148958914e-05   -4.763576889858442e-06   -3.937676282476932e-06
2.1185959148958914e-05   -4.763576889858442e-06   -3.937676282476932e-06
2.1185959148958914e-05   -4.763576889858442e-06   -3.937676282476932e-06
2.063109867173366e-05   -6.921234496063636e-06   2.590791714350343e-05
2.063109867173366e-05   -6.921234496063636e-06   2.590791714350343e-05
2.063109867173366e-05   -6.921234496063636e-06   2.590791714350343e-05
2.063109867173366e-05   -6.921234496063636e-06   2.590791714350343e-05
4.093057375840683e-05   -5.3953076016902655e-06   -8.840097470909324e-06
4.093057375840683e-05   -5.3953076016902655e-06   -8.840097470909324e-06
4.093057375840683e-05   -5.3953076016902655e-06   -8.840097470909324e-06
4.093057375840683e-05   -5.3953076016902655e-06   -8.840097470909324e-06
2.977925859408581e-05   -5.61199362614272e-06   9.875439417630601e-06
2.977925859408581e-05   -5.61199362614272e-06   9.875439417630601e-06
2.977925859408581e-05   -5.61199362614272e-06   9.875439417630601e-06
2.977925859408581e-05   -5.61199362614272e-06   9.875439417630601e-06
4.093057375840677e-05   -6.921234496063636e-06   2.4992361006879278e-05
4.093057375840677e-05   -6.921234496063636e-06   2.4992361006879278e-05
4.093057375840677e-05   -6.921234496063636e-06   2.4992361006879278e-05
4.093057375840677e-05   -6.921234496063636e-06   2.4992361006879278e-05
2.0631098671733693e-05   -5.3953076016902655e-06   -7.924541334285206e-06
2.0631098671733693e-05   -5.3953076016902655e-06   -7.924541334285206e-06
2.0631098671733693e-05   -5.3953076016902655e-06   -7.924541334285206e-06
2.0631098671733693e-05   -5.3953076016902655e-06   -7.924541334285206e-06
1.991620990212681e-05   -6.977316765983694e-06   2.3246346242051727e-05
1.991620990212681e-05   -6.977316765983694e-06   2.3246346242051727e-05
1.991620990212681e-05   -6.977316765983694e-06   2.3246346242051727e-05
1.991620990212681e-05   -6.977316765983694e-06   2.3246346242051727e-05
3.992969504092376e-05   -5.4883327898856e-06   -1.1002852708268776e-05
3.992969504092376e-05   -5.4883327898856e-06   -1.1002852708268776e-05
3.992969504092376e-05   -5.4883327898856e-06   -1.1002852708268776e-05
3.992969504092376e-05   -5.4883327898856e-06   -1.1002852708268776e-05
2.9506076683070502e-05   -5.856190303946043e-06   6.590559063256141e-06
2.9506076683070502e-05   -5.856190303946043e-06   6.590559063256141e-06
2.9506076683070502e-05   -5.856190303946043e-06   6.590559063256141e-06
2.9506076683070502e-05   -5.856190303946043e-06   6.590559063256141e-06
3.992969504092376e-05   -6.977316765983694e-06   2.235295585639274e-05
3.992969504092376e-05   -6.977316765983694e-06   2.235295585639274e-05
3.992969504092376e-05   -6.977316765983694e-06   2.235295585639274e-05
3.992969504092376e-05   -6.977316765983694e-06   2.235295585639274e-05
1.991620990212681e-05   -5.4883327898856e-06   -1.010946232260989e-05
1.991620990212681e-05   -5.4883327898856e-06   -1.010946232260989e-05
1.991620990212681e-05   -5.4883327898856e-06   -1.010946232260989e-05
1.991620990212681e-05   -5.4883327898856e-06   -1.010946232260989e-05
1.916584396717804e-05   -6.827403341248903e-06   1.929504477269587e-05
1.916584396717804e-05   -6.827403341248903e-06   1.929504477269587e-05
1.916584396717804e-05   -6.827403341248903e-06   1.929504477269587e-05
1.916584396717804e-05   -6.827403341248903e-06   1.929504477269587e-05
3.8676542574914705e-05   -5.449728460632346e-06   -1.4049391168568572e-05
3.8676542574914705e-05   -5.449728460632346e-06   -1.4049391168568572e-05
3.8676542574914705e-05   -5.449728460632346e-06   -1.4049391168568572e-05
3.8676542574914705e-05   -5.449728460632346e-06   -1.4049391168568572e-05
2.8198118862678018e-05   -5.701589730660456e-06   3.5657651138435624e-06
2.8198118862678018e-05   -5.701589730660456e-06   3.5657651138435624e-06
2.8198118862678018e-05   -5.701589730660456e-06   3.5657651138435624e-06
2.8198118862678018e-05   -5.701589730660456e-06   3.5657651138435624e-06
2.118595914895894e-05   -3.875067280400407e-06   2.804565594898684e-05
2.118595914895894e-05   -3.875067280400407e-06   2.804565594898684e-05
2.118595914895894e-05   -3.875067280400407e-06   2.804565594898684e-05
2.118595914895894e-05   -3.875067280400407e-06   2.804565594898684e-05
2.286123506234277e-06   -1.6760267722874464e-06   -2.134645817353253e-06
2.286123506234277e-06   -1.6760267722874464e-06   -2.134645817353253e-06
2.286123506234277e-06   -1.6760267722874464e-06   -2.134645817353253e-06
2.286123506234277e-06   -1.6760267722874464e-06   -2.134645817353253e-06
1.7345033594052037e-06   -4.10872117624487e-06   2.9209128676209754e-05
1.7345033594052037e-06   -4.10872117624487e-06   2.9209128676209754e-05
1.7345033594052037e-06   -4.10872117624487e-06   2.9209128676209754e-05
1.7345033594052037e-06   -4.10872117624487e-06   2.9209128676209754e-05
2.0631098671733693e-05   -2.0146416287837934e-06   -3.5416445728145963e-06
2.0631098671733693e-05   -2.0146416287837934e-06   -3.5416445728145963e-06
2.0631098671733693e-05   -2.0146416287837934e-06   -3.5416445728145963e-06
2.0631098671733693e-05   -2.0146416287837934e-06   -3.5416445728145963e-06
1.1349390409751324e-05   -2.714442387773998e-06   1.2347749652550115e-05
1.1349390409751324e-05   -2.714442387773998e-06   1.2347749652550115e-05
1.1349390409751324e-05   -2.714442387773998e-06   1.2347749652550115e-05
1.1349390409751324e-05   -2.714442387773998e-06   1.2347749652550115e-05
2.063109867173368e-05   -4.10872117624487e-06   2.795268094773302e-05
2.063109867173368e-05   -4.10872117624487e-06   2.795268094773302e-05
2.063109867173368e-05   -4.10872117624487e-06   2.795268094773302e-05
2.063109867173368e-05   -4.10872117624487e-06   2.795268094773302e-05
1.7345033594052037e-06   -2.0146416287837934e-06   -2.2851968443377956e-06
1.7345033594052037e-06   -2.0146416287837934e-06   -2.2851968443377956e-06
1.7345033594052037e-06   -2.0146416287837934e-06   -2.2851968443377956e-06
1.7345033594052037e-06   -2.0146416287837934e-06   -2.2851968443377956e-06
1.0308053755479855e-06   -4.2109127114662356e-06   2.892797287908479e-05
1.0308053755479855e-06   -4.2109127114662356e-06   2.892797287908479e-05
1.0308053755479855e-06   -4.2109127114662356e-06   2.892797287908479e-05
1.0308053755479855e-06   -4.2109127114662356e-06   2.892797287908479e-05
1.991620990212681e-05   -2.2355002593937596e-06   -3.7329488031236172e-06
1.991620990212681e-05   -2.2355002593937596e-06   -3.7329488031236172e-06
1.991620990212681e-05   -2.2355002593937596e-06   -3.7329488031236172e-06
1.991620990212681e-05   -2.2355002593937596e-06   -3.7329488031236172e-06
1.0649121484912583e-05   -2.8419888379285947e-06   1.207609170602149e-05
1.0649121484912583e-05   -2.8419888379285947e-06   1.207609170602149e-05
1.0649121484912583e-05   -2.8419888379285947e-06   1.207609170602149e-05
1.0649121484912583e-05   -2.8419888379285947e-06   1.207609170602149e-05
1.9916209902126784e-05   -4.2109127114662356e-06   2.774272540784109e-05
1.9916209902126784e-05   -4.2109127114662356e-06   2.774272540784109e-05
1.9916209902126784e-05   -4.2109127114662356e-06   2.774272540784109e-05
1.9916209902126784e-05   -4.2109127114662356e-06   2.774272540784109e-05
1.0308053755479855e-06   -2.2355002593937596e-06   -2.5477013318800368e-06
1.0308053755479855e-06   -2.2355002593937596e-06   -2.5477013318800368e-06
1.0308053755479855e-06   -2.2355002593937596e-06   -2.5477013318800368e-06
1.0308053755479855e-06   -2.2355002593937596e-06   -2.5477013318800368e-06
2.534919669133735e-07   -4.1129241478458315e-06   2.934670425454181e-05
2.534919669133735e-07   -4.1129241478458315e-06   2.934670425454181e-05
2.534919669133735e-07   -4.1129241478458315e-06   2.934670425454181e-05
2.534919669133735e-07   -4.1129241478458315e-06   2.934670425454181e-05
1.916584396717802e-05   -2.328392398339091e-06   -3.244601462269988e-06
1.916584396717802e-05   -2.328392398339091e-06   -3.244601462269988e-06
1.916584396717802e-05   -2.328392398339091e-06   -3.244601462269988e-06
1.916584396717802e-05   -2.328392398339091e-06   -3.244601462269988e-06
1.0080568673052917e-05   -2.8133742199960843e-06   1.2188513120933112e-05
1.0080568673052917e-05   -2.8133742199960843e-06   1.2188513120933112e-05
1.0080568673052917e-05   -2.8133742199960843e-06   1.2188513120933112e-05
1.0080568673052917e-05   -2.8133742199960843e-06   1.2188513120933112e-05
2.286123506234277e-06   -1.600010878619008e-06   2.866390715342514e-05
2.286123506234277e-06   -1.600010878619008e-06   2.866390715342514e-05
2.286123506234277e-06   -1.600010878619008e-06   2.866390715342514e-05
2.286123506234277e-06   -1.600010878619008e-06   2.866390715342514e-05
-1.6027218439339317e-05   1.4999386376633294e-06   1.6402872383925945e-09
-1.6027218439339317e-05   1.4999386376633294e-06   1.6402872383925945e-09
-1.6027218439339317e-05   1.4999386376633294e-06   1.6402872383925945e-09
-1.6027218439339317e-05   1.4999386376633294e-06   1.6402872383925945e-09
-1.6648914095553015e-05   -1.6885880961422205e-06   3.073767350541255e-05
-1.6648914095553015e-05   -1.6885880961422205e-06   3.073767350541255e-05
-1.6648914095553015e-05   -1.6885880961422205e-06   3.073767350541255e-05
-1.6648914095553015e-05   -1.6885880961422205e-06   3.073767350541255e-05
1.7345033594052037e-06   1.242361867862538e-06   -1.65992556458753e-06
1.7345033594052037e-06   1.242361867862538e-06   -1.65992556458753e-06
1.7345033594052037e-06   1.242361867862538e-06   -1.65992556458753e-06
1.7345033594052037e-06   1.242361867862538e-06   -1.65992556458753e-06
-7.150891753721231e-06   -8.929188859661819e-10   1.389501916267236e-05
-7.150891753721231e-06   -8.929188859661819e-10   1.389501916267236e-05
-7.150891753721231e-06   -8.929188859661819e-10   1.389501916267236e-05
-7.150891753721231e-06   -8.929188859661819e-10   1.389501916267236e-05
1.7345033594052037e-06   -1.6885880961422205e-06   2.8979103527009605e-05
1.7345033594052037e-06   -1.6885880961422205e-06   2.8979103527009605e-05
1.7345033594052037e-06   -1.6885880961422205e-06   2.8979103527009605e-05
1.7345033594052037e-06   -1.6885880961422205e-06   2.8979103527009605e-05
-1.6648914095553015e-05   1.242361867862538e-06   9.864441381541179e-08
-1.6648914095553015e-05   1.242361867862538e-06   9.864441381541179e-08
-1.6648914095553015e-05   1.242361867862538e-06   9.864441381541179e-08
-1.6648914095553015e-05   1.242361867862538e-06   9.864441381541179e-08
-1.7481337260480845e-05   -1.7975394372936587e-06   3.134934578553992e-05
-1.7481337260480845e-05   -1.7975394372936587e-06   3.134934578553992e-05
-1.7481337260480845e-05   -1.7975394372936587e-06   3.134934578553992e-05
-1.7481337260480845e-05   -1.7975394372936587e-06   3.134934578553992e-05
1.0308053755479855e-06   1.0026003621351701e-06   -1.1843091541656405e-06
1.0308053755479855e-06   1.0026003621351701e-06   -1.1843091541656405e-06
1.0308053755479855e-06   1.0026003621351701e-06   -1.1843091541656405e-06
1.0308053755479855e-06   1.0026003621351701e-06   -1.1843091541656405e-06
-7.76385323646673e-06   -7.220553480688854e-08   1.4118338737357584e-05
-7.76385323646673e-06   -7.220553480688854e-08   1.4118338737357584e-05
-7.76385323646673e-06   -7.220553480688854e-08   1.4118338737357584e-05
-7.76385323646673e-06   -7.220553480688854e-08   1.4118338737357584e-05
1.0308053755479855e-06   -1.7975394372936587e-06   2.966926190588247e-05
1.0308053755479855e-06   -1.7975394372936587e-06   2.966926190588247e-05
1.0308053755479855e-06   -1.7975394372936587e-06   2.966926190588247e-05
1.0308053755479855e-06   -1.7975394372936587e-06   2.966926190588247e-05
-1.7481337260480818e-05   1.0026003621351701e-06   4.957747254917544e-07
-1.7481337260480818e-05   1.0026003621351701e-06   4.957747254917544e-07
-1.7481337260480818e-05   1.0026003621351701e-06   4.957747254917544e-07
-1.7481337260480818e-05   1.0026003621351701e-06   4.957747254917544e-07
-1.836819737794237e-05   -1.7844934274895228e-06   3.208298841557455e-05
-1.836819737794237e-05   -1.7844934274895228e-06   3.208298841557455e-05
-1.836819737794237e-05   -1.7844934274895228e-06   3.208298841557455e-05
-1.836819737794237e-05   -1.7844934274895228e-06   3.208298841557455e-05
2.5349196691338703e-07   8.302973077941103e-07   -5.220349336887875e-07
2.5349196691338703e-07   8.302973077941103e-07   -5.220349336887875e-07
2.5349196691338703e-07   8.302973077941103e-07   -5.220349336887875e-07
2.5349196691338703e-07   8.302973077941103e-07   -5.220349336887875e-07
-8.545142054745043e-06   -1.2278308112573764e-07   1.4714203335761025e-05
-8.545142054745043e-06   -1.2278308112573764e-07   1.4714203335761025e-05
-8.545142054745043e-06   -1.2278308112573764e-07   1.4714203335761025e-05
-8.545142054745043e-06   -1.2278308112573764e-07   1.4714203335761025e-05
-1.6027218439339263e-05   1.8048004548425981e-06   2.592212102982348e-05
-1.6027218439339263e-05   1.8048004548425981e-06   2.592212102982348e-05
-1.6027218439339263e-05   1.8048004548425981e-06   2.592212102982348e-05
-1.6027218439339263e-05   1.8048004548425981e-06   2.592212102982348e-05
-3.398044713669378e-05   4.87276975122972e-06   -2.1591452212686626e-06
-3.398044713669378e-05   4.87276975122972e-06   -2.1591452212686626e-06
-3.398044713669378e-05   4.87276975122972e-06   -2.1591452212686626e-06
-3.398044713669378e-05   4.87276975122972e-06   -2.1591452212686626e-06
-3.4883657271317963e-05   1.7046934945917722e-06   2.867749838431164e-05
-3.4883657271317963e-05   1.7046934945917722e-06   2.867749838431164e-05
-3.4883657271317963e-05   1.7046934945917722e-06   2.867749838431164e-05
-3.4883657271317963e-05   1.7046934945917722e-06   2.867749838431164e-05
-1.664891409555296e-05   4.615431237283644e-06   -3.4601828875782073e-06
-1.664891409555296e-05   4.615431237283644e-06   -3.4601828875782073e-06
-1.664891409555296e-05   4.615431237283644e-06   -3.4601828875782073e-06
-1.664891409555296e-05   4.615431237283644e-06   -3.4601828875782073e-06
-2.5186392894393966e-05   3.303547656416817e-06   1.1556078592343485e-05
-2.5186392894393966e-05   3.303547656416817e-06   1.1556078592343485e-05
-2.5186392894393966e-05   3.303547656416817e-06   1.1556078592343485e-05
-2.5186392894393966e-05   3.303547656416817e-06   1.1556078592343485e-05
-1.6648914095552988e-05   1.704693494591989e-06   2.693105573869643e-05
-1.6648914095552988e-05   1.704693494591989e-06   2.693105573869643e-05
-1.6648914095552988e-05   1.704693494591989e-06   2.693105573869643e-05
-1.6648914095552988e-05   1.704693494591989e-06   2.693105573869643e-05
-3.488365727131791e-05   4.615431237283861e-06   -1.7137402419632958e-06
-3.488365727131791e-05   4.615431237283861e-06   -1.7137402419632958e-06
-3.488365727131791e-05   4.615431237283861e-06   -1.7137402419632958e-06
-3.488365727131791e-05   4.615431237283861e-06   -1.7137402419632958e-06
-3.599131721200612e-05   1.5148542361897999e-06   3.0436315344123648e-05
-3.599131721200612e-05   1.5148542361897999e-06   3.0436315344123648e-05
-3.599131721200612e-05   1.5148542361897999e-06   3.0436315344123648e-05
-3.599131721200612e-05   1.5148542361897999e-06   3.0436315344123648e-05
-1.7481337260480818e-05   4.376618208585181e-06   -2.1307096251891038e-06
-1.7481337260480818e-05   4.376618208585181e-06   -2.1307096251891038e-06
-1.7481337260480818e-05   4.376618208585181e-06   -2.1307096251891038e-06
-1.7481337260480818e-05   4.376618208585181e-06   -2.1307096251891038e-06
-2.5857593257149725e-05   3.2460391014973652e-06   1.2508064500178523e-05
-2.5857593257149725e-05   3.2460391014973652e-06   1.2508064500178523e-05
-2.5857593257149725e-05   3.2460391014973652e-06   1.2508064500178523e-05
-2.5857593257149725e-05   3.2460391014973652e-06   1.2508064500178523e-05
-1.748133726048079e-05   1.5148542361897999e-06   2.8719256960686203e-05
-1.748133726048079e-05   1.5148542361897999e-06   2.8719256960686203e-05
-1.748133726048079e-05   1.5148542361897999e-06   2.8719256960686203e-05
-1.748133726048079e-05   1.5148542361897999e-06   2.8719256960686203e-05
-3.599131721200612e-05   4.376618208585181e-06   -4.1365124175182094e-07
-3.599131721200612e-05   4.376618208585181e-06   -4.1365124175182094e-07
-3.599131721200612e-05   4.376618208585181e-06   -4.1365124175182094e-07
-3.599131721200612e-05   4.376618208585181e-06   -4.1365124175182094e-07
-3.7162446141067795e-05   1.2992248661716516e-06   3.183042008428317e-05
-3.7162446141067795e-05   1.2992248661716516e-06   3.183042008428317e-05
-3.7162446141067795e-05   1.2992248661716516e-06   3.183042008428317e-05
-3.7162446141067795e-05   1.2992248661716516e-06   3.183042008428317e-05
-1.836819737794229e-05   4.054651241826822e-06   -1.1465836796519663e-06
-1.836819737794229e-05   4.054651241826822e-06   -1.1465836796519663e-06
-1.836819737794229e-05   4.054651241826822e-06   -1.1465836796519663e-06
-1.836819737794229e-05   4.054651241826822e-06   -1.1465836796519663e-06
-2.698105835387134e-05   3.0529161905595327e-06   1.3809225644324178e-05
-2.698105835387134e-05   3.0529161905595327e-06   1.3809225644324178e-05
-2.698105835387134e-05   3.0529161905595327e-06   1.3809225644324178e-05
-2.698105835387134e-05   3.0529161905595327e-06   1.3809225644324178e-05
-3.398044713669378e-05   8.03171646845415e-06   1.3643998654274759e-05
-3.398044713669378e-05   8.03171646845415e-06   1.3643998654274759e-05
-3.398044713669378e-05   8.03171646845415e-06   1.3643998654274759e-05
-3.398044713669378e-05   8.03171646845415e-06   1.3643998654274759e-05
-5.118945319810066e-05   7.924741303709255e-06   -1.5101863213583732e-05
-5.118945319810066e-05   7.924741303709255e-06   -1.5101863213583732e-05
-5.118945319810066e-05   7.924741303709255e-06   -1.5101863213583732e-05
-5.118945319810066e-05   7.924741303709255e-06   -1.5101863213583732e-05
-5.281211023601321e-05   7.76130433188956e-06   2.025153061138642e-05
-5.281211023601321e-05   7.76130433188956e-06   2.025153061138642e-05
-5.281211023601321e-05   7.76130433188956e-06   2.025153061138642e-05
-5.281211023601321e-05   7.76130433188956e-06   2.025153061138642e-05
-3.488365727131791e-05   8.080875630893034e-06   -9.820967109174737e-06
-3.488365727131791e-05   8.080875630893034e-06   -9.820967109174737e-06
-3.488365727131791e-05   8.080875630893034e-06   -9.820967109174737e-06
-3.488365727131791e-05   8.080875630893034e-06   -9.820967109174737e-06
-4.1476875705102854e-05   8.071112083179663e-06   1.1735884090949777e-06
-4.1476875705102854e-05   8.071112083179663e-06   1.1735884090949777e-06
-4.1476875705102854e-05   8.071112083179663e-06   1.1735884090949777e-06
-4.1476875705102854e-05   8.071112083179663e-06   1.1735884090949777e-06
-3.488365727131788e-05   7.76130433188956e-06   2.0059787831984118e-05
-3.488365727131788e-05   7.76130433188956e-06   2.0059787831984118e-05
-3.488365727131788e-05   7.76130433188956e-06   2.0059787831984118e-05
-3.488365727131788e-05   7.76130433188956e-06   2.0059787831984118e-05
-5.281211023601321e-05   8.08087563089325e-06   -9.629224329772354e-06
-5.281211023601321e-05   8.08087563089325e-06   -9.629224329772354e-06
-5.281211023601321e-05   8.08087563089325e-06   -9.629224329772354e-06
-5.281211023601321e-05   8.08087563089325e-06   -9.629224329772354e-06
-5.440327731627727e-05   7.56576175874415e-06   2.4881756088701882e-05
-5.440327731627727e-05   7.56576175874415e-06   2.4881756088701882e-05
-5.440327731627727e-05   7.56576175874415e-06   2.4881756088701882e-05
-5.440327731627727e-05   7.56576175874415e-06   2.4881756088701882e-05
-3.599131721200607e-05   8.024008501547261e-06   -6.079792130765313e-06
-3.599131721200607e-05   8.024008501547261e-06   -6.079792130765313e-06
-3.599131721200607e-05   8.024008501547261e-06   -6.079792130765313e-06
-3.599131721200607e-05   8.024008501547261e-06   -6.079792130765313e-06
-4.334448392180052e-05   8.073552781478945e-06   6.145759150933728e-06
-4.334448392180052e-05   8.073552781478945e-06   6.145759150933728e-06
-4.334448392180052e-05   8.073552781478945e-06   6.145759150933728e-06
-4.334448392180052e-05   8.073552781478945e-06   6.145759150933728e-06
-3.599131721200607e-05   7.56576175874415e-06   2.4606808043020232e-05
-3.599131721200607e-05   7.56576175874415e-06   2.4606808043020232e-05
-3.599131721200607e-05   7.56576175874415e-06   2.4606808043020232e-05
-3.599131721200607e-05   7.56576175874415e-06   2.4606808043020232e-05
-5.440327731627727e-05   8.024008501547044e-06   -5.8048440850835e-06
-5.440327731627727e-05   8.024008501547044e-06   -5.8048440850835e-06
-5.440327731627727e-05   8.024008501547044e-06   -5.8048440850835e-06
-5.440327731627727e-05   8.024008501547044e-06   -5.8048440850835e-06
-5.628051594186479e-05   6.315265971262819e-06   3.261653425072619e-05
-5.628051594186479e-05   6.315265971262819e-06   3.261653425072619e-05
-5.628051594186479e-05   6.315265971262819e-06   3.261653425072619e-05
-5.628051594186479e-05   6.315265971262819e-06   3.261653425072619e-05
-3.716244614106766e-05   7.390755200912787e-06   1.0779104494087251e-07
-3.716244614106766e-05   7.390755200912787e-06   1.0779104494087251e-07
-3.716244614106766e-05   7.390755200912787e-06   1.0779104494087251e-07
-3.716244614106766e-05   7.390755200912787e-06   1.0779104494087251e-07
-4.400398485110568e-05   7.693253133009802e-06   1.1328856802413209e-05
-4.400398485110568e-05   7.693253133009802e-06   1.1328856802413209e-05
-4.400398485110568e-05   7.693253133009802e-06   1.1328856802413209e-05
-4.400398485110568e-05   7.693253133009802e-06   1.1328856802413209e-05
3.407721947406111e-05   -4.763576889858442e-06   2.6230385688729894e-05
3.407721947406111e-05   -4.763576889858442e-06   2.6230385688729894e-05
3.407721947406111e-05   -4.763576889858442e-06   2.6230385688729894e-05
3.407721947406111e-05   -4.763576889858442e-06   2.6230385688729894e-05
1.68591145147608e-05   -3.5030811019614878e-06   -1.710158437366019e-06
1.68591145147608e-05   -3.5030811019614878e-06   -1.710158437366019e-06
1.68591145147608e-05   -3.5030811019614878e-06   -1.710158437366019e-06
1.68591145147608e-05   -3.5030811019614878e-06   -1.710158437366019e-06
1.6219732310454276e-05   -5.395307601690482e-06   2.2800078475547795e-05
1.6219732310454276e-05   -5.395307601690482e-06   2.2800078475547795e-05
1.6219732310454276e-05   -5.395307601690482e-06   2.2800078475547795e-05
1.6219732310454276e-05   -5.395307601690482e-06   2.2800078475547795e-05
3.290191044542789e-05   -4.061277867084675e-06   -5.803969590171552e-06
3.290191044542789e-05   -4.061277867084675e-06   -5.803969590171552e-06
3.290191044542789e-05   -4.061277867084675e-06   -5.803969590171552e-06
3.290191044542789e-05   -4.061277867084675e-06   -5.803969590171552e-06
2.3869468032660613e-05   -4.38523198010069e-06   9.444473565583611e-06
2.3869468032660613e-05   -4.38523198010069e-06   9.444473565583611e-06
2.3869468032660613e-05   -4.38523198010069e-06   9.444473565583611e-06
2.3869468032660613e-05   -4.38523198010069e-06   9.444473565583611e-06
3.290191044542783e-05   -5.3953076016902655e-06   2.1999660634784376e-05
3.290191044542783e-05   -5.3953076016902655e-06   2.1999660634784376e-05
3.290191044542783e-05   -5.3953076016902655e-06   2.1999660634784376e-05
3.290191044542783e-05   -5.3953076016902655e-06   2.1999660634784376e-05
1.621973231045433e-05   -4.061277867084675e-06   -5.00355174940805e-06
1.621973231045433e-05   -4.061277867084675e-06   -5.00355174940805e-06
1.621973231045433e-05   -4.061277867084675e-06   -5.00355174940805e-06
1.621973231045433e-05   -4.061277867084675e-06   -5.00355174940805e-06
1.5508902677197917e-05   -5.4883327898856e-06   2.042658278147882e-05
1.5508902677197917e-05   -5.4883327898856e-06   2.042658278147882e-05
1.5508902677197917e-05   -5.4883327898856e-06   2.042658278147882e-05
1.5508902677197917e-05   -5.4883327898856e-06   2.042658278147882e-05
3.1836892219527045e-05   -4.1728274529316805e-06   -7.576036324575455e-06
3.1836892219527045e-05   -4.1728274529316805e-06   -7.576036324575455e-06
3.1836892219527045e-05   -4.1728274529316805e-06   -7.576036324575455e-06
3.1836892219527045e-05   -4.1728274529316805e-06   -7.576036324575455e-06
2.3431086388054696e-05   -4.601829036714406e-06   6.6910410114813415e-06
2.3431086388054696e-05   -4.601829036714406e-06   6.6910410114813415e-06
2.3431086388054696e-05   -4.601829036714406e-06   6.6910410114813415e-06
2.3431086388054696e-05   -4.601829036714406e-06   6.6910410114813415e-06
3.1836892219526937e-05   -5.488332789885817e-06   1.9637279579306404e-05
3.1836892219526937e-05   -5.488332789885817e-06   1.9637279579306404e-05
3.1836892219526937e-05   -5.488332789885817e-06   1.9637279579306404e-05
3.1836892219526937e-05   -5.488332789885817e-06   1.9637279579306404e-05
1.5508902677197944e-05   -4.1728274529316805e-06   -6.7867331224030075e-06
1.5508902677197944e-05   -4.1728274529316805e-06   -6.7867331224030075e-06
1.5508902677197944e-05   -4.1728274529316805e-06   -6.7867331224030075e-06
1.5508902677197944e-05   -4.1728274529316805e-06   -6.7867331224030075e-06
1.4824896086434918e-05   -5.449728460632346e-06   1.711185780601328e-05
1.4824896086434918e-05   -5.449728460632346e-06   1.711185780601328e-05
1.4824896086434918e-05   -5.449728460632346e-06   1.711185780601328e-05
1.4824896086434918e-05   -5.449728460632346e-06   1.711185780601328e-05
3.062997385443033e-05   -4.214912567493357e-06   -9.970828009862234e-06
3.062997385443033e-05   -4.214912567493357e-06   -9.970828009862234e-06
3.062997385443033e-05   -4.214912567493357e-06   -9.970828009862234e-06
3.062997385443033e-05   -4.214912567493357e-06   -9.970828009862234e-06
2.22326367771382e-05   -4.522833836772275e-06   4.209486547192536e-06
2.22326367771382e-05   -4.522833836772275e-06   4.209486547192536e-06
2.22326367771382e-05   -4.522833836772275e-06   4.209486547192536e-06
2.22326367771382e-05   -4.522833836772275e-06   4.209486547192536e-06
1.68591145147608e-05   -1.6760267722874464e-06   2.747028932172384e-05
1.68591145147608e-05   -1.6760267722874464e-06   2.747028932172384e-05
1.68591145147608e-05   -1.6760267722874464e-06   2.747028932172384e-05
1.68591145147608e-05   -1.6760267722874464e-06   2.747028932172384e-05
6.967102972964658e-07   -6.712170489192506e-07   1.1358347933042344e-06
6.967102972964658e-07   -6.712170489192506e-07   1.1358347933042344e-06
6.967102972964658e-07   -6.712170489192506e-07   1.1358347933042344e-06
6.967102972964658e-07   -6.712170489192506e-07   1.1358347933042344e-06
8.254798075630178e-08   -2.0146416287835766e-06   2.7751995944405193e-05
8.254798075630178e-08   -2.0146416287835766e-06   2.7751995944405193e-05
8.254798075630178e-08   -2.0146416287835766e-06   2.7751995944405193e-05
8.254798075630178e-08   -2.0146416287835766e-06   2.7751995944405193e-05
1.621973231045433e-05   -1.0662737831392596e-06   2.8766802085523164e-07
1.621973231045433e-05   -1.0662737831392596e-06   2.8766802085523164e-07
1.621973231045433e-05   -1.0662737831392596e-06   2.8766802085523164e-07
1.621973231045433e-05   -1.0662737831392596e-06   2.8766802085523164e-07
8.361610568525897e-06   -1.307187905988166e-06   1.3529086064445147e-05
8.361610568525897e-06   -1.307187905988166e-06   1.3529086064445147e-05
8.361610568525897e-06   -1.307187905988166e-06   1.3529086064445147e-05
8.361610568525897e-06   -1.307187905988166e-06   1.3529086064445147e-05
1.6219732310454317e-05   -2.0146416287837934e-06   2.7182975237018472e-05
1.6219732310454317e-05   -2.0146416287837934e-06   2.7182975237018472e-05
1.6219732310454317e-05   -2.0146416287837934e-06   2.7182975237018472e-05
1.6219732310454317e-05   -2.0146416287837934e-06   2.7182975237018472e-05
8.254798075630178e-08   -1.0662737831392596e-06   8.566887282417893e-07
8.254798075630178e-08   -1.0662737831392596e-06   8.566887282417893e-07
8.254798075630178e-08   -1.0662737831392596e-06   8.566887282417893e-07
8.254798075630178e-08   -1.0662737831392596e-06   8.566887282417893e-07
-5.558623810847396e-07   -2.2355002593937596e-06   2.7329124318428363e-05
-5.558623810847396e-07   -2.2355002593937596e-06   2.7329124318428363e-05
-5.558623810847396e-07   -2.2355002593937596e-06   2.7329124318428363e-05
-5.558623810847396e-07   -2.2355002593937596e-06   2.7329124318428363e-05
1.5508902677197944e-05   -1.3587868969548462e-06   2.8487870493943096e-08
1.5508902677197944e-05   -1.3587868969548462e-06   2.8487870493943096e-08
1.5508902677197944e-05   -1.3587868969548462e-06   2.8487870493943096e-08
1.5508902677197944e-05   -1.3587868969548462e-06   2.8487870493943096e-08
7.655699818831354e-06   -1.513737971098588e-06   1.321012994559155e-05
7.655699818831354e-06   -1.513737971098588e-06   1.321012994559155e-05
7.655699818831354e-06   -1.513737971098588e-06   1.321012994559155e-05
7.655699818831354e-06   -1.513737971098588e-06   1.321012994559155e-05
1.5508902677197917e-05   -2.2355002593935427e-06   2.680309630096519e-05
1.5508902677197917e-05   -2.2355002593935427e-06   2.680309630096519e-05
1.5508902677197917e-05   -2.2355002593935427e-06   2.680309630096519e-05
1.5508902677197917e-05   -2.2355002593935427e-06   2.680309630096519e-05
-5.558623810847396e-07   -1.3587868969548462e-06   5.545158879572938e-07
-5.558623810847396e-07   -1.3587868969548462e-06   5.545158879572938e-07
-5.558623810847396e-07   -1.3587868969548462e-06   5.545158879572938e-07
-5.558623810847396e-07   -1.3587868969548462e-06   5.545158879572938e-07
-1.2205028140840348e-06   -2.328392398339091e-06   2.7534044501308086e-05
-1.2205028140840348e-06   -2.328392398339091e-06   2.7534044501308086e-05
-1.2205028140840348e-06   -2.328392398339091e-06   2.7534044501308086e-05
-1.2205028140840348e-06   -2.328392398339091e-06   2.7534044501308086e-05
1.4824896086434959e-05   -1.5883892027287062e-06   3.477110830768087e-07
1.4824896086434959e-05   -1.5883892027287062e-06   3.477110830768087e-07
1.4824896086434959e-05   -1.5883892027287062e-06   3.477110830768087e-07
1.4824896086434959e-05   -1.5883892027287062e-06   3.477110830768087e-07
7.1264439332468145e-06   -1.6235006110518202e-06   1.3199531516718097e-05
7.1264439332468145e-06   -1.6235006110518202e-06   1.3199531516718097e-05
7.1264439332468145e-06   -1.6235006110518202e-06   1.3199531516718097e-05
7.1264439332468145e-06   -1.6235006110518202e-06   1.3199531516718097e-05
6.967102972964658e-07   1.4999386376633294e-06   2.8349491550566847e-05
6.967102972964658e-07   1.4999386376633294e-06   2.8349491550566847e-05
6.967102972964658e-07   1.4999386376633294e-06   2.8349491550566847e-05
6.967102972964658e-07   1.4999386376633294e-06   2.8349491550566847e-05
-1.4996213809331788e-05   2.16950686836412e-06   2.596358977940039e-06
-1.4996213809331788e-05   2.16950686836412e-06   2.596358977940039e-06
-1.4996213809331788e-05   2.16950686836412e-06   2.596358977940039e-06
-1.4996213809331788e-05   2.16950686836412e-06   2.596358977940039e-06
-1.56381377186791e-05   1.242361867862321e-06   2.8736973453684107e-05
-1.56381377186791e-05   1.242361867862321e-06   2.8736973453684107e-05
-1.56381377186791e-05   1.242361867862321e-06   2.8736973453684107e-05
-1.56381377186791e-05   1.242361867862321e-06   2.8736973453684107e-05
8.254798075630178e-08   1.8418722504101766e-06   2.176124391763167e-06
8.254798075630178e-08   1.8418722504101766e-06   2.176124391763167e-06
8.254798075630178e-08   1.8418722504101766e-06   2.176124391763167e-06
8.254798075630178e-08   1.8418722504101766e-06   2.176124391763167e-06
-7.475247924445505e-06   1.706646876900109e-06   1.4853586124538934e-05
-7.475247924445505e-06   1.706646876900109e-06   1.4853586124538934e-05
-7.475247924445505e-06   1.706646876900109e-06   1.4853586124538934e-05
-7.475247924445505e-06   1.706646876900109e-06   1.4853586124538934e-05
8.254798075630178e-08   1.242361867862321e-06   2.837726722415546e-05
8.254798075630178e-08   1.242361867862321e-06   2.837726722415546e-05
8.254798075630178e-08   1.242361867862321e-06   2.837726722415546e-05
8.254798075630178e-08   1.242361867862321e-06   2.837726722415546e-05
-1.56381377186791e-05   1.8418722504103934e-06   2.535830621291815e-06
-1.56381377186791e-05   1.8418722504103934e-06   2.535830621291815e-06
-1.56381377186791e-05   1.8418722504103934e-06   2.535830621291815e-06
-1.56381377186791e-05   1.8418722504103934e-06   2.535830621291815e-06
-1.6315699426018427e-05   1.0026003621351701e-06   2.900522976734374e-05
-1.6315699426018427e-05   1.0026003621351701e-06   2.900522976734374e-05
-1.6315699426018427e-05   1.0026003621351701e-06   2.900522976734374e-05
-1.6315699426018427e-05   1.0026003621351701e-06   2.900522976734374e-05
-5.558623810847396e-07   1.523789147469829e-06   2.426121421253457e-06
-5.558623810847396e-07   1.523789147469829e-06   2.426121421253457e-06
-5.558623810847396e-07   1.523789147469829e-06   2.426121421253457e-06
-5.558623810847396e-07   1.523789147469829e-06   2.426121421253457e-06
-8.071374599095291e-06   1.5202245578339966e-06   1.4954113871719148e-05
-8.071374599095291e-06   1.5202245578339966e-06   1.4954113871719148e-05
-8.071374599095291e-06   1.5202245578339966e-06   1.4954113871719148e-05
-8.071374599095291e-06   1.5202245578339966e-06   1.4954113871719148e-05
-5.558623810847396e-07   1.0026003621351701e-06   2.8692516496142814e-05
-5.558623810847396e-07   1.0026003621351701e-06   2.8692516496142814e-05
-5.558623810847396e-07   1.0026003621351701e-06   2.8692516496142814e-05
-5.558623810847396e-07   1.0026003621351701e-06   2.8692516496142814e-05
-1.6315699426018454e-05   1.523789147469829e-06   2.7388346924541113e-06
-1.6315699426018454e-05   1.523789147469829e-06   2.7388346924541113e-06
-1.6315699426018454e-05   1.523789147469829e-06   2.7388346924541113e-06
-1.6315699426018454e-05   1.523789147469829e-06   2.7388346924541113e-06
-1.7014718972058318e-05   8.302973077943272e-07   2.9432149475668848e-05
-1.7014718972058318e-05   8.302973077943272e-07   2.9432149475668848e-05
-1.7014718972058318e-05   8.302973077943272e-07   2.9432149475668848e-05
-1.7014718972058318e-05   8.302973077943272e-07   2.9432149475668848e-05
-1.2205028140840348e-06   1.2407264669337097e-06   2.862198383561356e-06
-1.2205028140840348e-06   1.2407264669337097e-06   2.862198383561356e-06
-1.2205028140840348e-06   1.2407264669337097e-06   2.862198383561356e-06
-1.2205028140840348e-06   1.2407264669337097e-06   2.862198383561356e-06
-8.716510084532863e-06   1.3417524511295884e-06   1.529492824379233e-05
-8.716510084532863e-06   1.3417524511295884e-06   1.529492824379233e-05
-8.716510084532863e-06   1.3417524511295884e-06   1.529492824379233e-05
-8.716510084532863e-06   1.3417524511295884e-06   1.529492824379233e-05
-1.4996213809331842e-05   4.87276975122972e-06   2.4749665402648037e-05
-1.4996213809331842e-05   4.87276975122972e-06   2.4749665402648037e-05
-1.4996213809331842e-05   4.87276975122972e-06   2.4749665402648037e-05
-1.4996213809331842e-05   4.87276975122972e-06   2.4749665402648037e-05
-3.0206128134187277e-05   4.934706635019654e-06   -5.630296751703897e-07
-3.0206128134187277e-05   4.934706635019654e-06   -5.630296751703897e-07
-3.0206128134187277e-05   4.934706635019654e-06   -5.630296751703897e-07
-3.0206128134187277e-05   4.934706635019654e-06   -5.630296751703897e-07
-3.095121481127902e-05   4.615431237283861e-06   2.5182577575112415e-05
-3.095121481127902e-05   4.615431237283861e-06   2.5182577575112415e-05
-3.095121481127902e-05   4.615431237283861e-06   2.5182577575112415e-05
-3.095121481127902e-05   4.615431237283861e-06   2.5182577575112415e-05
-1.5638137718679127e-05   4.622816941987282e-06   -3.4364900204273373e-07
-1.5638137718679127e-05   4.622816941987282e-06   -3.4364900204273373e-07
-1.5638137718679127e-05   4.622816941987282e-06   -3.4364900204273373e-07
-1.5638137718679127e-05   4.622816941987282e-06   -3.4364900204273373e-07
-2.2845426588575942e-05   4.748505855395281e-06   1.1593085766407115e-05
-2.2845426588575942e-05   4.748505855395281e-06   1.1593085766407115e-05
-2.2845426588575942e-05   4.748505855395281e-06   1.1593085766407115e-05
-2.2845426588575942e-05   4.748505855395281e-06   1.1593085766407115e-05
-1.5638137718679127e-05   4.615431237283861e-06   2.5178146152290406e-05
-1.5638137718679127e-05   4.615431237283861e-06   2.5178146152290406e-05
-1.5638137718679127e-05   4.615431237283861e-06   2.5178146152290406e-05
-1.5638137718679127e-05   4.615431237283861e-06   2.5178146152290406e-05
-3.095121481127896e-05   4.622816941987065e-06   -3.392175792208329e-07
-3.095121481127896e-05   4.622816941987065e-06   -3.392175792208329e-07
-3.095121481127896e-05   4.622816941987065e-06   -3.392175792208329e-07
-3.095121481127896e-05   4.622816941987065e-06   -3.392175792208329e-07
-3.177646136726285e-05   4.376618208585181e-06   2.635344429065072e-05
-3.177646136726285e-05   4.376618208585181e-06   2.635344429065072e-05
-3.177646136726285e-05   4.376618208585181e-06   2.635344429065072e-05
-3.177646136726285e-05   4.376618208585181e-06   2.635344429065072e-05
-1.6315699426018454e-05   4.3344496652314175e-06   6.108088479221891e-07
-1.6315699426018454e-05   4.3344496652314175e-06   6.108088479221891e-07
-1.6315699426018454e-05   4.3344496652314175e-06   6.108088479221891e-07
-1.6315699426018454e-05   4.3344496652314175e-06   6.108088479221891e-07
-2.338239553422131e-05   4.572928702819071e-06   1.224554827237447e-05
-2.338239553422131e-05   4.572928702819071e-06   1.224554827237447e-05
-2.338239553422131e-05   4.572928702819071e-06   1.224554827237447e-05
-2.338239553422131e-05   4.572928702819071e-06   1.224554827237447e-05
-1.631569942601844e-05   4.376618208585181e-06   2.6378745416662827e-05
-1.631569942601844e-05   4.376618208585181e-06   2.6378745416662827e-05
-1.631569942601844e-05   4.376618208585181e-06   2.6378745416662827e-05
-1.631569942601844e-05   4.376618208585181e-06   2.6378745416662827e-05
-3.1776461367262796e-05   4.3344496652314175e-06   5.855077219099744e-07
-3.1776461367262796e-05   4.3344496652314175e-06   5.855077219099744e-07
-3.1776461367262796e-05   4.3344496652314175e-06   5.855077219099744e-07
-3.1776461367262796e-05   4.3344496652314175e-06   5.855077219099744e-07
-3.256263167943462e-05   4.054651241826822e-06   2.7194849862476316e-05
-3.256263167943462e-05   4.054651241826822e-06   2.7194849862476316e-05
-3.256263167943462e-05   4.054651241826822e-06   2.7194849862476316e-05
-3.256263167943462e-05   4.054651241826822e-06   2.7194849862476316e-05
-1.7014718972058372e-05   3.981523865061263e-06   1.3255384429084968e-06
-1.7014718972058372e-05   3.981523865061263e-06   1.3255384429084968e-06
-1.7014718972058372e-05   3.981523865061263e-06   1.3255384429084968e-06
-1.7014718972058372e-05   3.981523865061263e-06   1.3255384429084968e-06
-2.424046661162362e-05   4.343780260321166e-06   1.3151097338362397e-05
-2.424046661162362e-05   4.343780260321166e-06   1.3151097338362397e-05
-2.424046661162362e-05   4.343780260321166e-06   1.3151097338362397e-05
-2.424046661162362e-05   4.343780260321166e-06   1.3151097338362397e-05
-3.0206128134187222e-05   7.924741303709255e-06   1.1908294639453713e-05
-3.0206128134187222e-05   7.924741303709255e-06   1.1908294639453713e-05
-3.0206128134187222e-05   7.924741303709255e-06   1.1908294639453713e-05
-3.0206128134187222e-05   7.924741303709255e-06   1.1908294639453713e-05
-4.46784801348128e-05   7.114300406182257e-06   -1.2698556566771734e-05
-4.46784801348128e-05   7.114300406182257e-06   -1.2698556566771734e-05
-4.46784801348128e-05   7.114300406182257e-06   -1.2698556566771734e-05
-4.46784801348128e-05   7.114300406182257e-06   -1.2698556566771734e-05
-4.5852057011227805e-05   8.08087563089325e-06   1.6542511295856814e-05
-4.5852057011227805e-05   8.08087563089325e-06   1.6542511295856814e-05
-4.5852057011227805e-05   8.08087563089325e-06   1.6542511295856814e-05
-4.5852057011227805e-05   8.08087563089325e-06   1.6542511295856814e-05
-3.095121481127902e-05   7.192809944153245e-06   -7.759386292013979e-06
-3.095121481127902e-05   7.192809944153245e-06   -7.759386292013979e-06
-3.095121481127902e-05   7.192809944153245e-06   -7.759386292013979e-06
-3.095121481127902e-05   7.192809944153245e-06   -7.759386292013979e-06
-3.646941304310107e-05   7.532212543174665e-06   1.2339692016099255e-06
-3.646941304310107e-05   7.532212543174665e-06   1.2339692016099255e-06
-3.646941304310107e-05   7.532212543174665e-06   1.2339692016099255e-06
-3.646941304310107e-05   7.532212543174665e-06   1.2339692016099255e-06
-3.0951214811278935e-05   8.080875630893034e-06   1.707535070790084e-05
-3.0951214811278935e-05   8.080875630893034e-06   1.707535070790084e-05
-3.0951214811278935e-05   8.080875630893034e-06   1.707535070790084e-05
-3.0951214811278935e-05   8.080875630893034e-06   1.707535070790084e-05
-4.585205701122797e-05   7.192809944153245e-06   -8.292225704057896e-06
-4.585205701122797e-05   7.192809944153245e-06   -8.292225704057896e-06
-4.585205701122797e-05   7.192809944153245e-06   -8.292225704057896e-06
-4.585205701122797e-05   7.192809944153245e-06   -8.292225704057896e-06
-4.6997183090244176e-05   8.024008501547044e-06   2.0141598136976142e-05
-4.6997183090244176e-05   8.024008501547044e-06   2.0141598136976142e-05
-4.6997183090244176e-05   8.024008501547044e-06   2.0141598136976142e-05
-4.6997183090244176e-05   8.024008501547044e-06   2.0141598136976142e-05
-3.177646136726285e-05   7.1144997271122435e-06   -4.680566136665125e-06
-3.177646136726285e-05   7.1144997271122435e-06   -4.680566136665125e-06
-3.177646136726285e-05   7.1144997271122435e-06   -4.680566136665125e-06
-3.177646136726285e-05   7.1144997271122435e-06   -4.680566136665125e-06
-3.791696914855242e-05   7.670898806535695e-06   5.219774051164086e-06
-3.791696914855242e-05   7.670898806535695e-06   5.219774051164086e-06
-3.791696914855242e-05   7.670898806535695e-06   5.219774051164086e-06
-3.791696914855242e-05   7.670898806535695e-06   5.219774051164086e-06
-3.177646136726285e-05   8.024008501547044e-06   2.0687303401637283e-05
-3.177646136726285e-05   8.024008501547044e-06   2.0687303401637283e-05
-3.177646136726285e-05   8.024008501547044e-06   2.0687303401637283e-05
-3.177646136726285e-05   8.024008501547044e-06   2.0687303401637283e-05
-4.699718309024434e-05   7.1144997271122435e-06   -5.226271401326211e-06
-4.699718309024434e-05   7.1144997271122435e-06   -5.226271401326211e-06
-4.699718309024434e-05   7.1144997271122435e-06   -5.226271401326211e-06
-4.699718309024434e-05   7.1144997271122435e-06   -5.226271401326211e-06
-4.833373597533825e-05   7.390755200912787e-06   2.630236878656527e-05
-4.833373597533825e-05   7.390755200912787e-06   2.630236878656527e-05
-4.833373597533825e-05   7.390755200912787e-06   2.630236878656527e-05
-4.833373597533825e-05   7.390755200912787e-06   2.630236878656527e-05
-3.256263167943462e-05   6.568088575728114e-06   5.107949351699972e-07
-3.256263167943462e-05   6.568088575728114e-06   5.107949351699972e-07
-3.256263167943462e-05   6.568088575728114e-06   5.107949351699972e-07
-3.256263167943462e-05   6.568088575728114e-06   5.107949351699972e-07
-3.827622179373363e-05   7.445278345429192e-06   9.507131263848223e-06
-3.827622179373363e-05   7.445278345429192e-06   9.507131263848223e-06
-3.827622179373363e-05   7.445278345429192e-06   9.507131263848223e-06
-3.827622179373363e-05   7.445278345429192e-06   9.507131263848223e-06
2.594366048975521e-05   -3.5030811019614878e-06   2.195363704738263e-05
2.594366048975521e-05   -3.5030811019614878e-06   2.195363704738263e-05
2.594366048975521e-05   -3.5030811019614878e-06   2.195363704738263e-05
2.594366048975521e-05   -3.5030811019614878e-06   2.195363704738263e-05
1.2207002695400323e-05   -2.3242496775320674e-06   -2.3349375521790078e-07
1.2207002695400323e-05   -2.3242496775320674e-06   -2.3349375521790078e-07
1.2207002695400323e-05   -2.3242496775320674e-06   -2.3349375521790078e-07
1.2207002695400323e-05   -2.3242496775320674e-06   -2.3349375521790078e-07
1.1635324704420235e-05   -4.061277867084675e-06   1.928194652319479e-05
1.1635324704420235e-05   -4.061277867084675e-06   1.928194652319479e-05
1.1635324704420235e-05   -4.061277867084675e-06   1.928194652319479e-05
1.1635324704420235e-05   -4.061277867084675e-06   1.928194652319479e-05
2.4837077002743753e-05   -2.8176882880088464e-06   -3.4671277214565045e-06
2.4837077002743753e-05   -2.8176882880088464e-06   -3.4671277214565045e-06
2.4837077002743753e-05   -2.8176882880088464e-06   -3.4671277214565045e-06
2.4837077002743753e-05   -2.8176882880088464e-06   -3.4671277214565045e-06
1.7778448149654042e-05   -3.200131456252645e-06   8.526719601306026e-06
1.7778448149654042e-05   -3.200131456252645e-06   8.526719601306026e-06
1.7778448149654042e-05   -3.200131456252645e-06   8.526719601306026e-06
1.7778448149654042e-05   -3.200131456252645e-06   8.526719601306026e-06
2.4837077002743753e-05   -4.061277867084675e-06   1.8535792775749424e-05
2.4837077002743753e-05   -4.061277867084675e-06   1.8535792775749424e-05
2.4837077002743753e-05   -4.061277867084675e-06   1.8535792775749424e-05
2.4837077002743753e-05   -4.061277867084675e-06   1.8535792775749424e-05
1.1635324704420252e-05   -2.8176882880088464e-06   -2.7209739740110357e-06
1.1635324704420252e-05   -2.8176882880088464e-06   -2.7209739740110357e-06
1.1635324704420252e-05   -2.8176882880088464e-06   -2.7209739740110357e-06
1.1635324704420252e-05   -2.8176882880088464e-06   -2.7209739740110357e-06
1.1003846122688427e-05   -4.1728274529316805e-06   1.7404774325899242e-05
1.1003846122688427e-05   -4.1728274529316805e-06   1.7404774325899242e-05
1.1003846122688427e-05   -4.1728274529316805e-06   1.7404774325899242e-05
1.1003846122688427e-05   -4.1728274529316805e-06   1.7404774325899242e-05
2.3866657332117663e-05   -2.949016084880093e-06   -4.767531177313787e-06
2.3866657332117663e-05   -2.949016084880093e-06   -4.767531177313787e-06
2.3866657332117663e-05   -2.949016084880093e-06   -4.767531177313787e-06
2.3866657332117663e-05   -2.949016084880093e-06   -4.767531177313787e-06
1.732323568578012e-05   -3.400607265616022e-06   6.409126275024046e-06
1.732323568578012e-05   -3.400607265616022e-06   6.409126275024046e-06
1.732323568578012e-05   -3.400607265616022e-06   6.409126275024046e-06
1.732323568578012e-05   -3.400607265616022e-06   6.409126275024046e-06
2.386665733211762e-05   -4.1728274529316805e-06   1.6670487505068203e-05
2.386665733211762e-05   -4.1728274529316805e-06   1.6670487505068203e-05
2.386665733211762e-05   -4.1728274529316805e-06   1.6670487505068203e-05
2.386665733211762e-05   -4.1728274529316805e-06   1.6670487505068203e-05
1.1003846122688444e-05   -2.949016084880093e-06   -4.0332443564828225e-06
1.1003846122688444e-05   -2.949016084880093e-06   -4.0332443564828225e-06
1.1003846122688444e-05   -2.949016084880093e-06   -4.0332443564828225e-06
1.1003846122688444e-05   -2.949016084880093e-06   -4.0332443564828225e-06
1.0420486904204074e-05   -4.214912567493357e-06   1.4857811782880673e-05
1.0420486904204074e-05   -4.214912567493357e-06   1.4857811782880673e-05
1.0420486904204074e-05   -4.214912567493357e-06   1.4857811782880673e-05
1.0420486904204074e-05   -4.214912567493357e-06   1.4857811782880673e-05
2.278151156850608e-05   -3.0694586017393412e-06   -6.431168370408314e-06
2.278151156850608e-05   -3.0694586017393412e-06   -6.431168370408314e-06
2.278151156850608e-05   -3.0694586017393412e-06   -6.431168370408314e-06
2.278151156850608e-05   -3.0694586017393412e-06   -6.431168370408314e-06
1.6306770629484948e-05   -3.379984532379419e-06   4.54638208634468e-06
1.6306770629484948e-05   -3.379984532379419e-06   4.54638208634468e-06
1.6306770629484948e-05   -3.379984532379419e-06   4.54638208634468e-06
1.6306770629484948e-05   -3.379984532379419e-06   4.54638208634468e-06
1.2207002695400276e-05   -6.712170489192506e-07   2.490404329868925e-05
1.2207002695400276e-05   -6.712170489192506e-07   2.490404329868925e-05
1.2207002695400276e-05   -6.712170489192506e-07   2.490404329868925e-05
1.2207002695400276e-05   -6.712170489192506e-07   2.490404329868925e-05
-7.912379610841732e-07   -1.6712183117852802e-08   3.6330117906959803e-06
-7.912379610841732e-07   -1.6712183117852802e-08   3.6330117906959803e-06
-7.912379610841732e-07   -1.6712183117852802e-08   3.6330117906959803e-06
-7.912379610841732e-07   -1.6712183117852802e-08   3.6330117906959803e-06
-1.3289663871282912e-06   -1.0662737831392596e-06   2.494589769755785e-05
-1.3289663871282912e-06   -1.0662737831392596e-06   2.494589769755785e-05
-1.3289663871282912e-06   -1.0662737831392596e-06   2.494589769755785e-05
-1.3289663871282912e-06   -1.0662737831392596e-06   2.494589769755785e-05
1.1635324704420252e-05   -4.450547763060631e-07   2.966014474210362e-06
1.1635324704420252e-05   -4.450547763060631e-07   2.966014474210362e-06
1.1635324704420252e-05   -4.450547763060631e-07   2.966014474210362e-06
1.1635324704420252e-05   -4.450547763060631e-07   2.966014474210362e-06
5.34240741878652e-06   -5.655035965569308e-07   1.3526479242417051e-05
5.34240741878652e-06   -5.655035965569308e-07   1.3526479242417051e-05
5.34240741878652e-06   -5.655035965569308e-07   1.3526479242417051e-05
5.34240741878652e-06   -5.655035965569308e-07   1.3526479242417051e-05
1.1635324704420222e-05   -1.0662737831390427e-06   2.457316629345791e-05
1.1635324704420222e-05   -1.0662737831390427e-06   2.457316629345791e-05
1.1635324704420222e-05   -1.0662737831390427e-06   2.457316629345791e-05
1.1635324704420222e-05   -1.0662737831390427e-06   2.457316629345791e-05
-1.3289663871282912e-06   -4.450547763060631e-07   3.338745878310261e-06
-1.3289663871282912e-06   -4.450547763060631e-07   3.338745878310261e-06
-1.3289663871282912e-06   -4.450547763060631e-07   3.338745878310261e-06
-1.3289663871282912e-06   -4.450547763060631e-07   3.338745878310261e-06
-1.8782465272846276e-06   -1.3587868969548462e-06   2.4566140219439638e-05
-1.8782465272846276e-06   -1.3587868969548462e-06   2.4566140219439638e-05
-1.8782465272846276e-06   -1.3587868969548462e-06   2.4566140219439638e-05
-1.8782465272846276e-06   -1.3587868969548462e-06   2.4566140219439638e-05
1.1003846122688444e-05   -7.818787292159565e-07   2.7498409021745225e-06
1.1003846122688444e-05   -7.818787292159565e-07   2.7498409021745225e-06
1.1003846122688444e-05   -7.818787292159565e-07   2.7498409021745225e-06
1.1003846122688444e-05   -7.818787292159565e-07   2.7498409021745225e-06
4.738513578422048e-06   -8.294256513231499e-07   1.3220589962550477e-05
4.738513578422048e-06   -8.294256513231499e-07   1.3220589962550477e-05
4.738513578422048e-06   -8.294256513231499e-07   1.3220589962550477e-05
4.738513578422048e-06   -8.294256513231499e-07   1.3220589962550477e-05
1.1003846122688427e-05   -1.3587868969548462e-06   2.421999531879637e-05
1.1003846122688427e-05   -1.3587868969548462e-06   2.421999531879637e-05
1.1003846122688427e-05   -1.3587868969548462e-06   2.421999531879637e-05
1.1003846122688427e-05   -1.3587868969548462e-06   2.421999531879637e-05
-1.8782465272846276e-06   -7.818787292159565e-07   3.0959858028178997e-06
-1.8782465272846276e-06   -7.818787292159565e-07   3.0959858028178997e-06
-1.8782465272846276e-06   -7.818787292159565e-07   3.0959858028178997e-06
-1.8782465272846276e-06   -7.818787292159565e-07   3.0959858028178997e-06
-2.430574518719425e-06   -1.5883892027287062e-06   2.4732805947473005e-05
-2.430574518719425e-06   -1.5883892027287062e-06   2.4732805947473005e-05
-2.430574518719425e-06   -1.5883892027287062e-06   2.4732805947473005e-05
-2.430574518719425e-06   -1.5883892027287062e-06   2.4732805947473005e-05
1.0420486904204081e-05   -1.092814856834632e-06   3.0170256350640196e-06
1.0420486904204081e-05   -1.092814856834632e-06   3.0170256350640196e-06
1.0420486904204081e-05   -1.092814856834632e-06   3.0170256350640196e-06
1.0420486904204081e-05   -1.092814856834632e-06   3.0170256350640196e-06
4.278562882556214e-06   -1.0238210830873246e-06   1.3212169406895977e-05
4.278562882556214e-06   -1.0238210830873246e-06   1.3212169406895977e-05
4.278562882556214e-06   -1.0238210830873246e-06   1.3212169406895977e-05
4.278562882556214e-06   -1.0238210830873246e-06   1.3212169406895977e-05
-7.912379610841732e-07   2.16950686836412e-06   2.635552946438568e-05
-7.912379610841732e-07   2.16950686836412e-06   2.635552946438568e-05
-7.912379610841732e-07   2.16950686836412e-06   2.635552946438568e-05
-7.912379610841732e-07   2.16950686836412e-06   2.635552946438568e-05
-1.3516660691342142e-05   2.2349034937128344e-06   5.1857295558316524e-06
-1.3516660691342142e-05   2.2349034937128344e-06   5.1857295558316524e-06
-1.3516660691342142e-05   2.2349034937128344e-06   5.1857295558316524e-06
-1.3516660691342142e-05   2.2349034937128344e-06   5.1857295558316524e-06
-1.4057558035690293e-05   1.8418722504103934e-06   2.6275873652688905e-05
-1.4057558035690293e-05   1.8418722504103934e-06   2.6275873652688905e-05
-1.4057558035690293e-05   1.8418722504103934e-06   2.6275873652688905e-05
-1.4057558035690293e-05   1.8418722504103934e-06   2.6275873652688905e-05
-1.3289663871282912e-06   1.8594394030930095e-06   5.051013946809341e-06
-1.3289663871282912e-06   1.8594394030930095e-06   5.051013946809341e-06
-1.3289663871282912e-06   1.8594394030930095e-06   5.051013946809341e-06
-1.3289663871282912e-06   1.8594394030930095e-06   5.051013946809341e-06
-7.442813008544982e-06   1.9904625223002986e-06   1.5162144444312727e-05
-7.442813008544982e-06   1.9904625223002986e-06   1.5162144444312727e-05
-7.442813008544982e-06   1.9904625223002986e-06   1.5162144444312727e-05
-7.442813008544982e-06   1.9904625223002986e-06   1.5162144444312727e-05
-1.3289663871282912e-06   1.8418722504101766e-06   2.6265333361079335e-05
-1.3289663871282912e-06   1.8418722504101766e-06   2.6265333361079335e-05
-1.3289663871282912e-06   1.8418722504101766e-06   2.6265333361079335e-05
-1.3289663871282912e-06   1.8418722504101766e-06   2.6265333361079335e-05
-1.4057558035690293e-05   1.8594394030930095e-06   5.061554238418938e-06
-1.4057558035690293e-05   1.8594394030930095e-06   5.061554238418938e-06
-1.4057558035690293e-05   1.8594394030930095e-06   5.061554238418938e-06
-1.4057558035690293e-05   1.8594394030930095e-06   5.061554238418938e-06
-1.4611813493269288e-05   1.523789147469829e-06   2.641745848896808e-05
-1.4611813493269288e-05   1.523789147469829e-06   2.641745848896808e-05
-1.4611813493269288e-05   1.523789147469829e-06   2.641745848896808e-05
-1.4611813493269288e-05   1.523789147469829e-06   2.641745848896808e-05
-1.8782465272846412e-06   1.4899770411907088e-06   5.215134142761362e-06
-1.8782465272846412e-06   1.4899770411907088e-06   5.215134142761362e-06
-1.8782465272846412e-06   1.4899770411907088e-06   5.215134142761362e-06
-1.8782465272846412e-06   1.4899770411907088e-06   5.215134142761362e-06
-7.944764489412161e-06   1.738419831107639e-06   1.5176931739024197e-05
-7.944764489412161e-06   1.738419831107639e-06   1.5176931739024197e-05
-7.944764489412161e-06   1.738419831107639e-06   1.5176931739024197e-05
-7.944764489412161e-06   1.738419831107639e-06   1.5176931739024197e-05
-1.8782465272846412e-06   1.523789147469829e-06   2.6437745752735855e-05
-1.8782465272846412e-06   1.523789147469829e-06   2.6437745752735855e-05
-1.8782465272846412e-06   1.523789147469829e-06   2.6437745752735855e-05
-1.8782465272846412e-06   1.523789147469829e-06   2.6437745752735855e-05
-1.4611813493269288e-05   1.4899770411907088e-06   5.194846878993722e-06
-1.4611813493269288e-05   1.4899770411907088e-06   5.194846878993722e-06
-1.4611813493269288e-05   1.4899770411907088e-06   5.194846878993722e-06
-1.4611813493269288e-05   1.4899770411907088e-06   5.194846878993722e-06
-1.5165712026549586e-05   1.2407264669337097e-06   2.674253063654616e-05
-1.5165712026549586e-05   1.2407264669337097e-06   2.674253063654616e-05
-1.5165712026549586e-05   1.2407264669337097e-06   2.674253063654616e-05
-1.5165712026549586e-05   1.2407264669337097e-06   2.674253063654616e-05
-2.430574518719425e-06   1.1394586435253297e-06   5.578062150874216e-06
-2.430574518719425e-06   1.1394586435253297e-06   5.578062150874216e-06
-2.430574518719425e-06   1.1394586435253297e-06   5.578062150874216e-06
-2.430574518719425e-06   1.1394586435253297e-06   5.578062150874216e-06
-8.470388241398752e-06   1.4929367783823692e-06   1.5432331474426043e-05
-8.470388241398752e-06   1.4929367783823692e-06   1.5432331474426043e-05
-8.470388241398752e-06   1.4929367783823692e-06   1.5432331474426043e-05
-8.470388241398752e-06   1.4929367783823692e-06   1.5432331474426043e-05
-1.3516660691342128e-05   4.934706635019654e-06   2.3198216656210324e-05
-1.3516660691342128e-05   4.934706635019654e-06   2.3198216656210324e-05
-1.3516660691342128e-05   4.934706635019654e-06   2.3198216656210324e-05
-1.3516660691342128e-05   4.934706635019654e-06   2.3198216656210324e-05
-2.5968771802482973e-05   4.4030013065629765e-06   2.125674940568344e-06
-2.5968771802482973e-05   4.4030013065629765e-06   2.125674940568344e-06
-2.5968771802482973e-05   4.4030013065629765e-06   2.125674940568344e-06
-2.5968771802482973e-05   4.4030013065629765e-06   2.125674940568344e-06
-2.6551020591054615e-05   4.622816941987282e-06   2.304922753534563e-05
-2.6551020591054615e-05   4.622816941987282e-06   2.304922753534563e-05
-2.6551020591054615e-05   4.622816941987282e-06   2.304922753534563e-05
-2.6551020591054615e-05   4.622816941987282e-06   2.304922753534563e-05
-1.4057558035690307e-05   4.044206118639223e-06   2.5739564370804314e-06
-1.4057558035690307e-05   4.044206118639223e-06   2.5739564370804314e-06
-1.4057558035690307e-05   4.044206118639223e-06   2.5739564370804314e-06
-1.4057558035690307e-05   4.044206118639223e-06   2.5739564370804314e-06
-1.9957134303341125e-05   4.441531027068015e-06   1.2168188604774603e-05
-1.9957134303341125e-05   4.441531027068015e-06   1.2168188604774603e-05
-1.9957134303341125e-05   4.441531027068015e-06   1.2168188604774603e-05
-1.9957134303341125e-05   4.441531027068015e-06   1.2168188604774603e-05
-1.4057558035690293e-05   4.622816941987065e-06   2.3396394029354247e-05
-1.4057558035690293e-05   4.622816941987065e-06   2.3396394029354247e-05
-1.4057558035690293e-05   4.622816941987065e-06   2.3396394029354247e-05
-1.4057558035690293e-05   4.622816941987065e-06   2.3396394029354247e-05
-2.6551020591054615e-05   4.044206118639223e-06   2.226789943071813e-06
-2.6551020591054615e-05   4.044206118639223e-06   2.226789943071813e-06
-2.6551020591054615e-05   4.044206118639223e-06   2.226789943071813e-06
-2.6551020591054615e-05   4.044206118639223e-06   2.226789943071813e-06
-2.7191617351866545e-05   4.3344496652314175e-06   2.391426254335304e-05
-2.7191617351866545e-05   4.3344496652314175e-06   2.391426254335304e-05
-2.7191617351866545e-05   4.3344496652314175e-06   2.391426254335304e-05
-2.7191617351866545e-05   4.3344496652314175e-06   2.391426254335304e-05
-1.4611813493269329e-05   3.709166163426295e-06   3.3230928801076935e-06
-1.4611813493269329e-05   3.709166163426295e-06   3.3230928801076935e-06
-1.4611813493269329e-05   3.709166163426295e-06   3.3230928801076935e-06
-1.4611813493269329e-05   3.709166163426295e-06   3.3230928801076935e-06
-2.0373526109350966e-05   4.212797108532791e-06   1.2623768673180355e-05
-2.0373526109350966e-05   4.212797108532791e-06   1.2623768673180355e-05
-2.0373526109350966e-05   4.212797108532791e-06   1.2623768673180355e-05
-2.0373526109350966e-05   4.212797108532791e-06   1.2623768673180355e-05
-1.4611813493269329e-05   4.3344496652314175e-06   2.4289432644436265e-05
-1.4611813493269329e-05   4.3344496652314175e-06   2.4289432644436265e-05
-1.4611813493269329e-05   4.3344496652314175e-06   2.4289432644436265e-05
-1.4611813493269329e-05   4.3344496652314175e-06   2.4289432644436265e-05
-2.7191617351866545e-05   3.709166163426295e-06   2.947922779024414e-06
-2.7191617351866545e-05   3.709166163426295e-06   2.947922779024414e-06
-2.7191617351866545e-05   3.709166163426295e-06   2.947922779024414e-06
-2.7191617351866545e-05   3.709166163426295e-06   2.947922779024414e-06
-2.777691428391198e-05   3.981523865061263e-06   2.456170121560358e-05
-2.777691428391198e-05   3.981523865061263e-06   2.456170121560358e-05
-2.777691428391198e-05   3.981523865061263e-06   2.456170121560358e-05
-2.777691428391198e-05   3.981523865061263e-06   2.456170121560358e-05
-1.51657120265496e-05   3.3183372237185517e-06   3.940942771472265e-06
-1.51657120265496e-05   3.3183372237185517e-06   3.940942771472265e-06
-1.51657120265496e-05   3.3183372237185517e-06   3.940942771472265e-06
-1.51657120265496e-05   3.3183372237185517e-06   3.940942771472265e-06
-2.10392403305536e-05   3.953978468795036e-06   1.3348771864433854e-05
-2.10392403305536e-05   3.953978468795036e-06   1.3348771864433854e-05
-2.10392403305536e-05   3.953978468795036e-06   1.3348771864433854e-05
-2.10392403305536e-05   3.953978468795036e-06   1.3348771864433854e-05
-2.5968771802482973e-05   7.114300406182257e-06   1.1229931106051172e-05
-2.5968771802482973e-05   7.114300406182257e-06   1.1229931106051172e-05
-2.5968771802482973e-05   7.114300406182257e-06   1.1229931106051172e-05
-2.5968771802482973e-05   7.114300406182257e-06   1.1229931106051172e-05
-3.781109467362363e-05   6.077602889655032e-06   -9.129292189099495e-06
-3.781109467362363e-05   6.077602889655032e-06   -9.129292189099495e-06
-3.781109467362363e-05   6.077602889655032e-06   -9.129292189099495e-06
-3.781109467362363e-05   6.077602889655032e-06   -9.129292189099495e-06
-3.8858369481235415e-05   7.192809944153245e-06   1.49433839226722e-05
-3.8858369481235415e-05   7.192809944153245e-06   1.49433839226722e-05
-3.8858369481235415e-05   7.192809944153245e-06   1.49433839226722e-05
-3.8858369481235415e-05   7.192809944153245e-06   1.49433839226722e-05
-2.6551020591054615e-05   6.0500184443530985e-06   -4.883189327749239e-06
-2.6551020591054615e-05   6.0500184443530985e-06   -4.883189327749239e-06
-2.6551020591054615e-05   6.0500184443530985e-06   -4.883189327749239e-06
-2.6551020591054615e-05   6.0500184443530985e-06   -4.883189327749239e-06
-3.106813621191442e-05   6.51078132806078e-06   2.368878976792598e-06
-3.106813621191442e-05   6.51078132806078e-06   2.368878976792598e-06
-3.106813621191442e-05   6.51078132806078e-06   2.368878976792598e-06
-3.106813621191442e-05   6.51078132806078e-06   2.368878976792598e-06
-2.6551020591054588e-05   7.192809944153245e-06   1.5629058822552375e-05
-2.6551020591054588e-05   7.192809944153245e-06   1.5629058822552375e-05
-2.6551020591054588e-05   7.192809944153245e-06   1.5629058822552375e-05
-2.6551020591054588e-05   7.192809944153245e-06   1.5629058822552375e-05
-3.8858369481235497e-05   6.0500184443530985e-06   -5.568864227629305e-06
-3.8858369481235497e-05   6.0500184443530985e-06   -5.568864227629305e-06
-3.8858369481235497e-05   6.0500184443530985e-06   -5.568864227629305e-06
-3.8858369481235497e-05   6.0500184443530985e-06   -5.568864227629305e-06
-3.9795242932333695e-05   7.1144997271122435e-06   1.7936086623989963e-05
-3.9795242932333695e-05   7.1144997271122435e-06   1.7936086623989963e-05
-3.9795242932333695e-05   7.1144997271122435e-06   1.7936086623989963e-05
-3.9795242932333695e-05   7.1144997271122435e-06   1.7936086623989963e-05
-2.7191617351866545e-05   5.927662959132442e-06   -2.3578539493342913e-06
-2.7191617351866545e-05   5.927662959132442e-06   -2.3578539493342913e-06
-2.7191617351866545e-05   5.927662959132442e-06   -2.3578539493342913e-06
-2.7191617351866545e-05   5.927662959132442e-06   -2.3578539493342913e-06
-3.2275841721001234e-05   6.583705668240314e-06   5.722227707093412e-06
-3.2275841721001234e-05   6.583705668240314e-06   5.722227707093412e-06
-3.2275841721001234e-05   6.583705668240314e-06   5.722227707093412e-06
-3.2275841721001234e-05   6.583705668240314e-06   5.722227707093412e-06
-2.7191617351866545e-05   7.1144997271122435e-06   1.8648188684778104e-05
-2.7191617351866545e-05   7.1144997271122435e-06   1.8648188684778104e-05
-2.7191617351866545e-05   7.1144997271122435e-06   1.8648188684778104e-05
-2.7191617351866545e-05   7.1144997271122435e-06   1.8648188684778104e-05
-3.9795242932333776e-05   5.927662959132442e-06   -3.069956010122107e-06
-3.9795242932333776e-05   5.927662959132442e-06   -3.069956010122107e-06
-3.9795242932333776e-05   5.927662959132442e-06   -3.069956010122107e-06
-3.9795242932333776e-05   5.927662959132442e-06   -3.069956010122107e-06
-4.0870984688576696e-05   6.568088575728114e-06   2.3081395718775556e-05
-4.0870984688576696e-05   6.568088575728114e-06   2.3081395718775556e-05
-4.0870984688576696e-05   6.568088575728114e-06   2.3081395718775556e-05
-4.0870984688576696e-05   6.568088575728114e-06   2.3081395718775556e-05
-2.777691428391198e-05   5.385691217146566e-06   1.9673834594829335e-06
-2.777691428391198e-05   5.385691217146566e-06   1.9673834594829335e-06
-2.777691428391198e-05   5.385691217146566e-06   1.9673834594829335e-06
-2.777691428391198e-05   5.385691217146566e-06   1.9673834594829335e-06
-3.252761542911591e-05   6.358728926680662e-06   9.301396075769755e-06
-3.252761542911591e-05   6.358728926680662e-06   9.301396075769755e-06
-3.252761542911591e-05   6.358728926680662e-06   9.301396075769755e-06
-3.252761542911591e-05   6.358728926680662e-06   9.301396075769755e-06
1.7944603241234254e-05   -2.324249677532284e-06   1.791980494858774e-05
1.7944603241234254e-05   -2.324249677532284e-06   1.791980494858774e-05
1.7944603241234254e-05   -2.324249677532284e-06   1.791980494858774e-05
1.7944603241234254e-05   -2.324249677532284e-06   1.791980494858774e-05
7.450321109244444e-06   -1.1525962473972994e-06   1.132326786685645e-06
7.450321109244444e-06   -1.1525962473972994e-06   1.132326786685645e-06
7.450321109244444e-06   -1.1525962473972994e-06   1.132326786685645e-06
7.450321109244444e-06   -1.1525962473972994e-06   1.132326786685645e-06
6.9896446703101636e-06   -2.8176882880088464e-06   1.6103372657358048e-05
6.9896446703101636e-06   -2.8176882880088464e-06   1.6103372657358048e-05
6.9896446703101636e-06   -2.8176882880088464e-06   1.6103372657358048e-05
6.9896446703101636e-06   -2.8176882880088464e-06   1.6103372657358048e-05
1.6962868712030836e-05   -1.595034648507439e-06   -1.2522595958771237e-06
1.6962868712030836e-05   -1.595034648507439e-06   -1.2522595958771237e-06
1.6962868712030836e-05   -1.595034648507439e-06   -1.2522595958771237e-06
1.6962868712030836e-05   -1.595034648507439e-06   -1.2522595958771237e-06
1.1723532256354218e-05   -2.019130060411465e-06   7.734425077393116e-06
1.1723532256354218e-05   -2.019130060411465e-06   7.734425077393116e-06
1.1723532256354218e-05   -2.019130060411465e-06   7.734425077393116e-06
1.1723532256354218e-05   -2.019130060411465e-06   7.734425077393116e-06
1.6962868712030863e-05   -2.8176882880088464e-06   1.536978047365727e-05
1.6962868712030863e-05   -2.8176882880088464e-06   1.536978047365727e-05
1.6962868712030863e-05   -2.8176882880088464e-06   1.536978047365727e-05
1.6962868712030863e-05   -2.8176882880088464e-06   1.536978047365727e-05
6.98964467031014e-06   -1.595034648507439e-06   -5.186674121763308e-07
6.98964467031014e-06   -1.595034648507439e-06   -5.186674121763308e-07
6.98964467031014e-06   -1.595034648507439e-06   -5.186674121763308e-07
6.98964467031014e-06   -1.595034648507439e-06   -5.186674121763308e-07
6.471687892448251e-06   -2.949016084880093e-06   1.4755553692716436e-05
6.471687892448251e-06   -2.949016084880093e-06   1.4755553692716436e-05
6.471687892448251e-06   -2.949016084880093e-06   1.4755553692716436e-05
6.471687892448251e-06   -2.949016084880093e-06   1.4755553692716436e-05
1.6119552635221973e-05   -1.7467747987973386e-06   -2.0455656502226774e-06
1.6119552635221973e-05   -1.7467747987973386e-06   -2.0455656502226774e-06
1.6119552635221973e-05   -1.7467747987973386e-06   -2.0455656502226774e-06
1.6119552635221973e-05   -1.7467747987973386e-06   -2.0455656502226774e-06
1.128952296975075e-05   -2.206998580314397e-06   6.280618061140029e-06
1.128952296975075e-05   -2.206998580314397e-06   6.280618061140029e-06
1.128952296975075e-05   -2.206998580314397e-06   6.280618061140029e-06
1.128952296975075e-05   -2.206998580314397e-06   6.280618061140029e-06
1.6119552635222e-05   -2.949016084880093e-06   1.403420892106687e-05
1.6119552635222e-05   -2.949016084880093e-06   1.403420892106687e-05
1.6119552635222e-05   -2.949016084880093e-06   1.403420892106687e-05
1.6119552635222e-05   -2.949016084880093e-06   1.403420892106687e-05
6.4716878924482404e-06   -1.7467747987973386e-06   -1.3242208785730573e-06
6.4716878924482404e-06   -1.7467747987973386e-06   -1.3242208785730573e-06
6.4716878924482404e-06   -1.7467747987973386e-06   -1.3242208785730573e-06
6.4716878924482404e-06   -1.7467747987973386e-06   -1.3242208785730573e-06
6.007160647005811e-06   -3.0694586017393412e-06   1.3001190572153225e-05
6.007160647005811e-06   -3.0694586017393412e-06   1.3001190572153225e-05
6.007160647005811e-06   -3.0694586017393412e-06   1.3001190572153225e-05
6.007160647005811e-06   -3.0694586017393412e-06   1.3001190572153225e-05
1.5162095275486483e-05   -1.9455354598237745e-06   -2.931387693797262e-06
1.5162095275486483e-05   -1.9455354598237745e-06   -2.931387693797262e-06
1.5162095275486483e-05   -1.9455354598237745e-06   -2.931387693797262e-06
1.5162095275486483e-05   -1.9455354598237745e-06   -2.931387693797262e-06
1.0477448425001614e-05   -2.2425631448703184e-06   5.054573668038633e-06
1.0477448425001614e-05   -2.2425631448703184e-06   5.054573668038633e-06
1.0477448425001614e-05   -2.2425631448703184e-06   5.054573668038633e-06
1.0477448425001614e-05   -2.2425631448703184e-06   5.054573668038633e-06
7.450321109244471e-06   -1.6712183118069643e-08   2.2096599633101947e-05
7.450321109244471e-06   -1.6712183118069643e-08   2.2096599633101947e-05
7.450321109244471e-06   -1.6712183118069643e-08   2.2096599633101947e-05
7.450321109244471e-06   -1.6712183118069643e-08   2.2096599633101947e-05
-2.392282792011447e-06   5.796738894365584e-07   6.050091441208187e-06
-2.392282792011447e-06   5.796738894365584e-07   6.050091441208187e-06
-2.392282792011447e-06   5.796738894365584e-07   6.050091441208187e-06
-2.392282792011447e-06   5.796738894365584e-07   6.050091441208187e-06
-2.8158205051566625e-06   -4.450547763060631e-07   2.213705835854454e-05
-2.8158205051566625e-06   -4.450547763060631e-07   2.213705835854454e-05
-2.8158205051566625e-06   -4.450547763060631e-07   2.213705835854454e-05
-2.8158205051566625e-06   -4.450547763060631e-07   2.213705835854454e-05
6.98964467031014e-06   1.3277397863564917e-07   5.447919146468156e-06
6.98964467031014e-06   1.3277397863564917e-07   5.447919146468156e-06
6.98964467031014e-06   1.3277397863564917e-07   5.447919146468156e-06
6.98964467031014e-06   1.3277397863564917e-07   5.447919146468156e-06
2.237614349162387e-06   2.4043105050722963e-08   1.3433208205865937e-05
2.237614349162387e-06   2.4043105050722963e-08   1.3433208205865937e-05
2.237614349162387e-06   2.4043105050722963e-08   1.3433208205865937e-05
2.237614349162387e-06   2.4043105050722963e-08   1.3433208205865937e-05
6.98964467031016e-06   -4.450547763060631e-07   2.1790361105579405e-05
6.98964467031016e-06   -4.450547763060631e-07   2.1790361105579405e-05
6.98964467031016e-06   -4.450547763060631e-07   2.1790361105579405e-05
6.98964467031016e-06   -4.450547763060631e-07   2.1790361105579405e-05
-2.815820505156676e-06   1.3277397863586601e-07   5.794616399433278e-06
-2.815820505156676e-06   1.3277397863586601e-07   5.794616399433278e-06
-2.815820505156676e-06   1.3277397863586601e-07   5.794616399433278e-06
-2.815820505156676e-06   1.3277397863586601e-07   5.794616399433278e-06
-3.248980127636746e-06   -7.818787292159565e-07   2.186847726399913e-05
-3.248980127636746e-06   -7.818787292159565e-07   2.186847726399913e-05
-3.248980127636746e-06   -7.818787292159565e-07   2.186847726399913e-05
-3.248980127636746e-06   -7.818787292159565e-07   2.186847726399913e-05
6.4716878924482404e-06   -2.3214820817356492e-07   5.337525584565487e-06
6.4716878924482404e-06   -2.3214820817356492e-07   5.337525584565487e-06
6.4716878924482404e-06   -2.3214820817356492e-07   5.337525584565487e-06
6.4716878924482404e-06   -2.3214820817356492e-07   5.337525584565487e-06
1.7714059819786823e-06   -2.73574705860662e-07   1.3196184667294355e-05
1.7714059819786823e-06   -2.73574705860662e-07   1.3196184667294355e-05
1.7714059819786823e-06   -2.73574705860662e-07   1.3196184667294355e-05
1.7714059819786823e-06   -2.73574705860662e-07   1.3196184667294355e-05
6.471687892448261e-06   -7.818787292159565e-07   2.1538638951373672e-05
6.471687892448261e-06   -7.818787292159565e-07   2.1538638951373672e-05
6.471687892448261e-06   -7.818787292159565e-07   2.1538638951373672e-05
6.471687892448261e-06   -7.818787292159565e-07   2.1538638951373672e-05
-3.248980127636746e-06   -2.3214820817356492e-07   5.667363897190916e-06
-3.248980127636746e-06   -2.3214820817356492e-07   5.667363897190916e-06
-3.248980127636746e-06   -2.3214820817356492e-07   5.667363897190916e-06
-3.248980127636746e-06   -2.3214820817356492e-07   5.667363897190916e-06
-3.678594118231067e-06   -1.092814856834632e-06   2.2063323244887138e-05
-3.678594118231067e-06   -1.092814856834632e-06   2.2063323244887138e-05
-3.678594118231067e-06   -1.092814856834632e-06   2.2063323244887138e-05
-3.678594118231067e-06   -1.092814856834632e-06   2.2063323244887138e-05
6.007160647005788e-06   -5.907964456442101e-07   5.619187589444895e-06
6.007160647005788e-06   -5.907964456442101e-07   5.619187589444895e-06
6.007160647005788e-06   -5.907964456442101e-07   5.619187589444895e-06
6.007160647005788e-06   -5.907964456442101e-07   5.619187589444895e-06
1.4039895812050724e-06   -5.207840320319533e-07   1.324913191761215e-05
1.4039895812050724e-06   -5.207840320319533e-07   1.324913191761215e-05
1.4039895812050724e-06   -5.207840320319533e-07   1.324913191761215e-05
1.4039895812050724e-06   -5.207840320319533e-07   1.324913191761215e-05
-2.392282792011447e-06   2.2349034937126176e-06   2.3967911066561124e-05
-2.392282792011447e-06   2.2349034937126176e-06   2.3967911066561124e-05
-2.392282792011447e-06   2.2349034937126176e-06   2.3967911066561124e-05
-2.392282792011447e-06   2.2349034937126176e-06   2.3967911066561124e-05
-1.2070826816010092e-05   2.201932369892733e-06   7.817221685604793e-06
-1.2070826816010092e-05   2.201932369892733e-06   7.817221685604793e-06
-1.2070826816010092e-05   2.201932369892733e-06   7.817221685604793e-06
-1.2070826816010092e-05   2.201932369892733e-06   7.817221685604793e-06
-1.248894940646453e-05   1.8594394030930095e-06   2.3811673515462687e-05
-1.248894940646453e-05   1.8594394030930095e-06   2.3811673515462687e-05
-1.248894940646453e-05   1.8594394030930095e-06   2.3811673515462687e-05
-1.248894940646453e-05   1.8594394030930095e-06   2.3811673515462687e-05
-2.8158205051566625e-06   1.7966845504582916e-06   7.727444924863732e-06
-2.8158205051566625e-06   1.7966845504582916e-06   7.727444924863732e-06
-2.8158205051566625e-06   1.7966845504582916e-06   7.727444924863732e-06
-2.8158205051566625e-06   1.7966845504582916e-06   7.727444924863732e-06
-7.460615568547747e-06   1.9725275705710383e-06   1.5363264218448453e-05
-7.460615568547747e-06   1.9725275705710383e-06   1.5363264218448453e-05
-7.460615568547747e-06   1.9725275705710383e-06   1.5363264218448453e-05
-7.460615568547747e-06   1.9725275705710383e-06   1.5363264218448453e-05
-2.8158205051566625e-06   1.8594394030930095e-06   2.384932642704343e-05
-2.8158205051566625e-06   1.8594394030930095e-06   2.384932642704343e-05
-2.8158205051566625e-06   1.8594394030930095e-06   2.384932642704343e-05
-2.8158205051566625e-06   1.8594394030930095e-06   2.384932642704343e-05
-1.248894940646453e-05   1.7966845504582916e-06   7.689792013283042e-06
-1.248894940646453e-05   1.7966845504582916e-06   7.689792013283042e-06
-1.248894940646453e-05   1.7966845504582916e-06   7.689792013283042e-06
-1.248894940646453e-05   1.7966845504582916e-06   7.689792013283042e-06
-1.2917020825046018e-05   1.4899770411907088e-06   2.3931306654805212e-05
-1.2917020825046018e-05   1.4899770411907088e-06   2.3931306654805212e-05
-1.2917020825046018e-05   1.4899770411907088e-06   2.3931306654805212e-05
-1.2917020825046018e-05   1.4899770411907088e-06   2.3931306654805212e-05
-3.248980127636746e-06   1.3961121259618067e-06   7.874224441593836e-06
-3.248980127636746e-06   1.3961121259618067e-06   7.874224441593836e-06
-3.248980127636746e-06   1.3961121259618067e-06   7.874224441593836e-06
-3.248980127636746e-06   1.3961121259618067e-06   7.874224441593836e-06
-7.843282873026028e-06   1.6787534339568998e-06   1.5361810899112646e-05
-7.843282873026028e-06   1.6787534339568998e-06   1.5361810899112646e-05
-7.843282873026028e-06   1.6787534339568998e-06   1.5361810899112646e-05
-7.843282873026028e-06   1.6787534339568998e-06   1.5361810899112646e-05
-3.248980127636746e-06   1.4899770411907088e-06   2.398762560394262e-05
-3.248980127636746e-06   1.4899770411907088e-06   2.398762560394262e-05
-3.248980127636746e-06   1.4899770411907088e-06   2.398762560394262e-05
-3.248980127636746e-06   1.4899770411907088e-06   2.398762560394262e-05
-1.2917020825046018e-05   1.3961121259618067e-06   7.817905492456538e-06
-1.2917020825046018e-05   1.3961121259618067e-06   7.817905492456538e-06
-1.2917020825046018e-05   1.3961121259618067e-06   7.817905492456538e-06
-1.2917020825046018e-05   1.3961121259618067e-06   7.817905492456538e-06
-1.3340001741312177e-05   1.1394586435253297e-06   2.424969423173791e-05
-1.3340001741312177e-05   1.1394586435253297e-06   2.424969423173791e-05
-1.3340001741312177e-05   1.1394586435253297e-06   2.424969423173791e-05
-1.3340001741312177e-05   1.1394586435253297e-06   2.424969423173791e-05
-3.6785941182310535e-06   1.0105904411532914e-06   8.224669114692724e-06
-3.6785941182310535e-06   1.0105904411532914e-06   8.224669114692724e-06
-3.6785941182310535e-06   1.0105904411532914e-06   8.224669114692724e-06
-3.6785941182310535e-06   1.0105904411532914e-06   8.224669114692724e-06
-8.24368516987883e-06   1.39198124164382e-06   1.5604319720477695e-05
-8.24368516987883e-06   1.39198124164382e-06   1.5604319720477695e-05
-8.24368516987883e-06   1.39198124164382e-06   1.5604319720477695e-05
-8.24368516987883e-06   1.39198124164382e-06   1.5604319720477695e-05
-1.2070826816010092e-05   4.4030013065629765e-06   2.1207096974079783e-05
-1.2070826816010092e-05   4.4030013065629765e-06   2.1207096974079783e-05
-1.2070826816010092e-05   4.4030013065629765e-06   2.1207096974079783e-05
-1.2070826816010092e-05   4.4030013065629765e-06   2.1207096974079783e-05
-2.1592274861443223e-05   3.7807753780611224e-06   4.96468134125684e-06
-2.1592274861443223e-05   3.7807753780611224e-06   4.96468134125684e-06
-2.1592274861443223e-05   3.7807753780611224e-06   4.96468134125684e-06
-2.1592274861443223e-05   3.7807753780611224e-06   4.96468134125684e-06
-2.2041100414009614e-05   4.044206118639223e-06   2.0928838469354847e-05
-2.2041100414009614e-05   4.044206118639223e-06   2.0928838469354847e-05
-2.2041100414009614e-05   4.044206118639223e-06   2.0928838469354847e-05
-2.2041100414009614e-05   4.044206118639223e-06   2.0928838469354847e-05
-1.2488949406464503e-05   3.385477377356892e-06   5.40382403488269e-06
-1.2488949406464503e-05   3.385477377356892e-06   5.40382403488269e-06
-1.2488949406464503e-05   3.385477377356892e-06   5.40382403488269e-06
-1.2488949406464503e-05   3.385477377356892e-06   5.40382403488269e-06
-1.6999932999264318e-05   3.836081026037993e-06   1.2651767833674109e-05
-1.6999932999264318e-05   3.836081026037993e-06   1.2651767833674109e-05
-1.6999932999264318e-05   3.836081026037993e-06   1.2651767833674109e-05
-1.6999932999264318e-05   3.836081026037993e-06   1.2651767833674109e-05
-1.248894940646453e-05   4.04420611863944e-06   2.1324075714124506e-05
-1.248894940646453e-05   4.04420611863944e-06   2.1324075714124506e-05
-1.248894940646453e-05   4.04420611863944e-06   2.1324075714124506e-05
-1.248894940646453e-05   4.04420611863944e-06   2.1324075714124506e-05
-2.204110041400956e-05   3.385477377356892e-06   5.0085867901131665e-06
-2.204110041400956e-05   3.385477377356892e-06   5.0085867901131665e-06
-2.204110041400956e-05   3.385477377356892e-06   5.0085867901131665e-06
-2.204110041400956e-05   3.385477377356892e-06   5.0085867901131665e-06
-2.254593226560126e-05   3.709166163426295e-06   2.1645508021897594e-05
-2.254593226560126e-05   3.709166163426295e-06   2.1645508021897594e-05
-2.254593226560126e-05   3.709166163426295e-06   2.1645508021897594e-05
-2.254593226560126e-05   3.709166163426295e-06   2.1645508021897594e-05
-1.2917020825045964e-05   3.0190917733904747e-06   6.011366921660502e-06
-1.2917020825045964e-05   3.0190917733904747e-06   6.011366921660502e-06
-1.2917020825045964e-05   3.0190917733904747e-06   6.011366921660502e-06
-1.2917020825045964e-05   3.0190917733904747e-06   6.011366921660502e-06
-1.730954990322191e-05   3.56707158414714e-06   1.3003460832166627e-05
-1.730954990322191e-05   3.56707158414714e-06   1.3003460832166627e-05
-1.730954990322191e-05   3.56707158414714e-06   1.3003460832166627e-05
-1.730954990322191e-05   3.56707158414714e-06   1.3003460832166627e-05
-1.2917020825045991e-05   3.709166163426295e-06   2.205955265591913e-05
-1.2917020825045991e-05   3.709166163426295e-06   2.205955265591913e-05
-1.2917020825045991e-05   3.709166163426295e-06   2.205955265591913e-05
-1.2917020825045991e-05   3.709166163426295e-06   2.205955265591913e-05
-2.2545932265601232e-05   3.0190917733904747e-06   5.597322287639048e-06
-2.2545932265601232e-05   3.0190917733904747e-06   5.597322287639048e-06
-2.2545932265601232e-05   3.0190917733904747e-06   5.597322287639048e-06
-2.2545932265601232e-05   3.0190917733904747e-06   5.597322287639048e-06
-2.299431287318895e-05   3.3183372237185517e-06   2.224767987711704e-05
-2.299431287318895e-05   3.3183372237185517e-06   2.224767987711704e-05
-2.299431287318895e-05   3.3183372237185517e-06   2.224767987711704e-05
-2.299431287318895e-05   3.3183372237185517e-06   2.224767987711704e-05
-1.3340001741312123e-05   2.6089111082787473e-06   6.582816993252875e-06
-1.3340001741312123e-05   2.6089111082787473e-06   6.582816993252875e-06
-1.3340001741312123e-05   2.6089111082787473e-06   6.582816993252875e-06
-1.3340001741312123e-05   2.6089111082787473e-06   6.582816993252875e-06
-1.7816242490463006e-05   3.2832344927528814e-06   1.3638624211153693e-05
-1.7816242490463006e-05   3.2832344927528814e-06   1.3638624211153693e-05
-1.7816242490463006e-05   3.2832344927528814e-06   1.3638624211153693e-05
-1.7816242490463006e-05   3.2832344927528814e-06   1.3638624211153693e-05
-2.1592274861443223e-05   6.077602889655032e-06   1.0200812797227124e-05
-2.1592274861443223e-05   6.077602889655032e-06   1.0200812797227124e-05
-2.1592274861443223e-05   6.077602889655032e-06   1.0200812797227124e-05
-2.1592274861443223e-05   6.077602889655032e-06   1.0200812797227124e-05
-3.053638816940483e-05   4.968239349889027e-06   -5.371660839901789e-06
-3.053638816940483e-05   4.968239349889027e-06   -5.371660839901789e-06
-3.053638816940483e-05   4.968239349889027e-06   -5.371660839901789e-06
-3.053638816940483e-05   4.968239349889027e-06   -5.371660839901789e-06
-3.147599545036346e-05   6.0500184443530985e-06   1.3094640263005544e-05
-3.147599545036346e-05   6.0500184443530985e-06   1.3094640263005544e-05
-3.147599545036346e-05   6.0500184443530985e-06   1.3094640263005544e-05
-3.147599545036346e-05   6.0500184443530985e-06   1.3094640263005544e-05
-2.2041100414009533e-05   4.842986885138841e-06   -1.905965862055933e-06
-2.2041100414009533e-05   4.842986885138841e-06   -1.905965862055933e-06
-2.2041100414009533e-05   4.842986885138841e-06   -1.905965862055933e-06
-2.2041100414009533e-05   4.842986885138841e-06   -1.905965862055933e-06
-2.5421213735478697e-05   5.3838851650845395e-06   3.403017372425568e-06
-2.5421213735478697e-05   5.3838851650845395e-06   3.403017372425568e-06
-2.5421213735478697e-05   5.3838851650845395e-06   3.403017372425568e-06
-2.5421213735478697e-05   5.3838851650845395e-06   3.403017372425568e-06
-2.2041100414009587e-05   6.050018444352882e-06   1.3818859198533686e-05
-2.2041100414009587e-05   6.050018444352882e-06   1.3818859198533686e-05
-2.2041100414009587e-05   6.050018444352882e-06   1.3818859198533686e-05
-2.2041100414009587e-05   6.050018444352882e-06   1.3818859198533686e-05
-3.1475995450363516e-05   4.842986885138841e-06   -2.6301847975844007e-06
-3.1475995450363516e-05   4.842986885138841e-06   -2.6301847975844007e-06
-3.1475995450363516e-05   4.842986885138841e-06   -2.6301847975844007e-06
-3.1475995450363516e-05   4.842986885138841e-06   -2.6301847975844007e-06
-3.2295004349142684e-05   5.927662959132442e-06   1.559564960807694e-05
-3.2295004349142684e-05   5.927662959132442e-06   1.559564960807694e-05
-3.2295004349142684e-05   5.927662959132442e-06   1.559564960807694e-05
-3.2295004349142684e-05   5.927662959132442e-06   1.559564960807694e-05
-2.2545932265601205e-05   4.6875268166957e-06   9.127782096992037e-08
-2.2545932265601205e-05   4.6875268166957e-06   9.127782096992037e-08
-2.2545932265601205e-05   4.6875268166957e-06   9.127782096992037e-08
-2.2545932265601205e-05   4.6875268166957e-06   9.127782096992037e-08
-2.641890068602639e-05   5.388522444280163e-06   6.125627811795443e-06
-2.641890068602639e-05   5.388522444280163e-06   6.125627811795443e-06
-2.641890068602639e-05   5.388522444280163e-06   6.125627811795443e-06
-2.641890068602639e-05   5.388522444280163e-06   6.125627811795443e-06
-2.254593226560126e-05   5.927662959132442e-06   1.6339731293538943e-05
-2.254593226560126e-05   5.927662959132442e-06   1.6339731293538943e-05
-2.254593226560126e-05   5.927662959132442e-06   1.6339731293538943e-05
-2.254593226560126e-05   5.927662959132442e-06   1.6339731293538943e-05
-3.2295004349142684e-05   4.6875268166957e-06   -6.528038644920816e-07
-3.2295004349142684e-05   4.6875268166957e-06   -6.528038644920816e-07
-3.2295004349142684e-05   4.6875268166957e-06   -6.528038644920816e-07
-3.2295004349142684e-05   4.6875268166957e-06   -6.528038644920816e-07
-3.324437088811133e-05   5.385691217146566e-06   1.993901838213269e-05
-3.324437088811133e-05   5.385691217146566e-06   1.993901838213269e-05
-3.324437088811133e-05   5.385691217146566e-06   1.993901838213269e-05
-3.324437088811133e-05   5.385691217146566e-06   1.993901838213269e-05
-2.2994312873188868e-05   4.164000937478037e-06   3.5886025250627816e-06
-2.2994312873188868e-05   4.164000937478037e-06   3.5886025250627816e-06
-2.2994312873188868e-05   4.164000937478037e-06   3.5886025250627816e-06
-2.2994312873188868e-05   4.164000937478037e-06   3.5886025250627816e-06
-2.663668839784938e-05   5.160351942503716e-06   9.061417796481534e-06
-2.663668839784938e-05   5.160351942503716e-06   9.061417796481534e-06
-2.663668839784938e-05   5.160351942503716e-06   9.061417796481534e-06
-2.663668839784938e-05   5.160351942503716e-06   9.061417796481534e-06
1.0039454104131322e-05   -1.1525962473972994e-06   1.414163300648356e-05
1.0039454104131322e-05   -1.1525962473972994e-06   1.414163300648356e-05
1.0039454104131322e-05   -1.1525962473972994e-06   1.414163300648356e-05
1.0039454104131322e-05   -1.1525962473972994e-06   1.414163300648356e-05
2.6538616583262938e-06   1.0232772398952733e-08   2.530009675353012e-06
2.6538616583262938e-06   1.0232772398952733e-08   2.530009675353012e-06
2.6538616583262938e-06   1.0232772398952733e-08   2.530009675353012e-06
2.6538616583262938e-06   1.0232772398952733e-08   2.530009675353012e-06
2.308100611488066e-06   -1.595034648507656e-06   1.3175256833841665e-05
2.308100611488066e-06   -1.595034648507656e-06   1.3175256833841665e-05
2.308100611488066e-06   -1.595034648507656e-06   1.3175256833841665e-05
2.308100611488066e-06   -1.595034648507656e-06   1.3175256833841665e-05
9.18395314761432e-06   -3.869371454966273e-07   9.906441051581958e-07
9.18395314761432e-06   -3.869371454966273e-07   9.906441051581958e-07
9.18395314761432e-06   -3.869371454966273e-07   9.906441051581958e-07
9.18395314761432e-06   -3.869371454966273e-07   9.906441051581958e-07
5.690714703526262e-06   -8.372882188102063e-07   7.082918822626867e-06
5.690714703526262e-06   -8.372882188102063e-07   7.082918822626867e-06
5.690714703526262e-06   -8.372882188102063e-07   7.082918822626867e-06
5.690714703526262e-06   -8.372882188102063e-07   7.082918822626867e-06
9.183953147614333e-06   -1.595034648507439e-06   1.2450398332035221e-05
9.183953147614333e-06   -1.595034648507439e-06   1.2450398332035221e-05
9.183953147614333e-06   -1.595034648507439e-06   1.2450398332035221e-05
9.183953147614333e-06   -1.595034648507439e-06   1.2450398332035221e-05
2.3081006114880593e-06   -3.869371454966273e-07   1.7155026069647344e-06
2.3081006114880593e-06   -3.869371454966273e-07   1.7155026069647344e-06
2.3081006114880593e-06   -3.869371454966273e-07   1.7155026069647344e-06
2.3081006114880593e-06   -3.869371454966273e-07   1.7155026069647344e-06
1.9046468880840852e-06   -1.7467747987973386e-06   1.2359018330259817e-05
1.9046468880840852e-06   -1.7467747987973386e-06   1.2359018330259817e-05
1.9046468880840852e-06   -1.7467747987973386e-06   1.2359018330259817e-05
1.9046468880840852e-06   -1.7467747987973386e-06   1.2359018330259817e-05
8.45903871942723e-06   -5.573792291798394e-07   7.213946029174757e-07
8.45903871942723e-06   -5.573792291798394e-07   7.213946029174757e-07
8.45903871942723e-06   -5.573792291798394e-07   7.213946029174757e-07
8.45903871942723e-06   -5.573792291798394e-07   7.213946029174757e-07
5.27922433483388e-06   -1.0107333834228575e-06   6.2930977364521125e-06
5.27922433483388e-06   -1.0107333834228575e-06   6.2930977364521125e-06
5.27922433483388e-06   -1.0107333834228575e-06   6.2930977364521125e-06
5.27922433483388e-06   -1.0107333834228575e-06   6.2930977364521125e-06
8.45903871942725e-06   -1.7467747987973386e-06   1.1645380988489361e-05
8.45903871942725e-06   -1.7467747987973386e-06   1.1645380988489361e-05
8.45903871942725e-06   -1.7467747987973386e-06   1.1645380988489361e-05
8.45903871942725e-06   -1.7467747987973386e-06   1.1645380988489361e-05
1.9046468880840784e-06   -5.573792291798394e-07   1.4350319446878234e-06
1.9046468880840784e-06   -5.573792291798394e-07   1.4350319446878234e-06
1.9046468880840784e-06   -5.573792291798394e-07   1.4350319446878234e-06
1.9046468880840784e-06   -5.573792291798394e-07   1.4350319446878234e-06
1.554829836964392e-06   -1.9455354598237745e-06   1.1410795282012446e-05
1.554829836964392e-06   -1.9455354598237745e-06   1.1410795282012446e-05
1.554829836964392e-06   -1.9455354598237745e-06   1.1410795282012446e-05
1.554829836964392e-06   -1.9455354598237745e-06   1.1410795282012446e-05
7.609344703165698e-06   -8.397716026864585e-07   6.564788573946702e-07
7.609344703165698e-06   -8.397716026864585e-07   6.564788573946702e-07
7.609344703165698e-06   -8.397716026864585e-07   6.564788573946702e-07
7.609344703165698e-06   -8.397716026864585e-07   6.564788573946702e-07
4.667491119230058e-06   -1.0987455542471863e-06   5.71495253489057e-06
4.667491119230058e-06   -1.0987455542471863e-06   5.71495253489057e-06
4.667491119230058e-06   -1.0987455542471863e-06   5.71495253489057e-06
4.667491119230058e-06   -1.0987455542471863e-06   5.71495253489057e-06
2.653861658326297e-06   5.796738894367753e-07   1.9399263429351055e-05
2.653861658326297e-06   5.796738894367753e-07   1.9399263429351055e-05
2.653861658326297e-06   5.796738894367753e-07   1.9399263429351055e-05
2.653861658326297e-06   5.796738894367753e-07   1.9399263429351055e-05
-4.069898420175838e-06   1.1078445681089993e-06   8.509899039050965e-06
-4.069898420175838e-06   1.1078445681089993e-06   8.509899039050965e-06
-4.069898420175838e-06   1.1078445681089993e-06   8.509899039050965e-06
-4.069898420175838e-06   1.1078445681089993e-06   8.509899039050965e-06
-4.373910675769434e-06   1.3277397863564917e-07   1.945824327810315e-05
-4.373910675769434e-06   1.3277397863564917e-07   1.945824327810315e-05
-4.373910675769434e-06   1.3277397863564917e-07   1.945824327810315e-05
-4.373910675769434e-06   1.3277397863564917e-07   1.945824327810315e-05
2.3081006114880593e-06   6.601071213303443e-07   8.005157913723919e-06
2.3081006114880593e-06   6.601071213303443e-07   8.005157913723919e-06
2.3081006114880593e-06   6.601071213303443e-07   8.005157913723919e-06
2.3081006114880593e-06   6.601071213303443e-07   8.005157913723919e-06
-9.21091098708533e-07   5.750032246276508e-07   1.3438206435407128e-05
-9.21091098708533e-07   5.750032246276508e-07   1.3438206435407128e-05
-9.21091098708533e-07   5.750032246276508e-07   1.3438206435407128e-05
-9.21091098708533e-07   5.750032246276508e-07   1.3438206435407128e-05
2.3081006114880627e-06   1.3277397863564917e-07   1.9141843392486246e-05
2.3081006114880627e-06   1.3277397863564917e-07   1.9141843392486246e-05
2.3081006114880627e-06   1.3277397863564917e-07   1.9141843392486246e-05
2.3081006114880627e-06   1.3277397863564917e-07   1.9141843392486246e-05
-4.373910675769434e-06   6.601071213303443e-07   8.321557799340832e-06
-4.373910675769434e-06   6.601071213303443e-07   8.321557799340832e-06
-4.373910675769434e-06   6.601071213303443e-07   8.321557799340832e-06
-4.373910675769434e-06   6.601071213303443e-07   8.321557799340832e-06
-4.686913643297345e-06   -2.3214820817356492e-07   1.9328919433573102e-05
-4.686913643297345e-06   -2.3214820817356492e-07   1.9328919433573102e-05
-4.686913643297345e-06   -2.3214820817356492e-07   1.9328919433573102e-05
-4.686913643297345e-06   -2.3214820817356492e-07   1.9328919433573102e-05
1.9046468880840784e-06   2.814428587846708e-07   8.034830574429303e-06
1.9046468880840784e-06   2.814428587846708e-07   8.034830574429303e-06
1.9046468880840784e-06   2.814428587846708e-07   8.034830574429303e-06
1.9046468880840784e-06   2.814428587846708e-07   8.034830574429303e-06
-1.2459342275717514e-06   2.632310074344481e-07   1.3296726211332757e-05
-1.2459342275717514e-06   2.632310074344481e-07   1.3296726211332757e-05
-1.2459342275717514e-06   2.632310074344481e-07   1.3296726211332757e-05
-1.2459342275717514e-06   2.632310074344481e-07   1.3296726211332757e-05
1.9046468880840852e-06   -2.3214820817334808e-07   1.9020764793398334e-05
1.9046468880840852e-06   -2.3214820817334808e-07   1.9020764793398334e-05
1.9046468880840852e-06   -2.3214820817334808e-07   1.9020764793398334e-05
1.9046468880840852e-06   -2.3214820817334808e-07   1.9020764793398334e-05
-4.686913643297359e-06   2.814428587846708e-07   8.342985214604285e-06
-4.686913643297359e-06   2.814428587846708e-07   8.342985214604285e-06
-4.686913643297359e-06   2.814428587846708e-07   8.342985214604285e-06
-4.686913643297359e-06   2.814428587846708e-07   8.342985214604285e-06
-4.995376135011472e-06   -5.907964456444269e-07   1.9578762761365918e-05
-4.995376135011472e-06   -5.907964456444269e-07   1.9578762761365918e-05
-4.995376135011472e-06   -5.907964456444269e-07   1.9578762761365918e-05
-4.995376135011472e-06   -5.907964456444269e-07   1.9578762761365918e-05
1.5548298369643887e-06   -1.0455297687664809e-07   8.370006726812459e-06
1.5548298369643887e-06   -1.0455297687664809e-07   8.370006726812459e-06
1.5548298369643887e-06   -1.0455297687664809e-07   8.370006726812459e-06
1.5548298369643887e-06   -1.0455297687664809e-07   8.370006726812459e-06
-1.5204653019431605e-06   -1.563880227010636e-08   1.3442150120228054e-05
-1.5204653019431605e-06   -1.563880227010636e-08   1.3442150120228054e-05
-1.5204653019431605e-06   -1.563880227010636e-08   1.3442150120228054e-05
-1.5204653019431605e-06   -1.563880227010636e-08   1.3442150120228054e-05
-4.069898420175838e-06   2.201932369892733e-06   2.150307875524297e-05
-4.069898420175838e-06   2.201932369892733e-06   2.150307875524297e-05
-4.069898420175838e-06   2.201932369892733e-06   2.150307875524297e-05
-4.069898420175838e-06   2.201932369892733e-06   2.150307875524297e-05
-1.0676627518003533e-05   2.078223144104407e-06   1.04176380567237e-05
-1.0676627518003533e-05   2.078223144104407e-06   1.04176380567237e-05
-1.0676627518003533e-05   2.078223144104407e-06   1.04176380567237e-05
-1.0676627518003533e-05   2.078223144104407e-06   1.04176380567237e-05
-1.0968563819363573e-05   1.7966845504585084e-06   2.1312811088228267e-05
-1.0968563819363573e-05   1.7966845504585084e-06   2.1312811088228267e-05
-1.0968563819363573e-05   1.7966845504585084e-06   2.1312811088228267e-05
-1.0968563819363573e-05   1.7966845504585084e-06   2.1312811088228267e-05
-4.373910675769421e-06   1.6662500249495227e-06   1.039998323087689e-05
-4.373910675769421e-06   1.6662500249495227e-06   1.039998323087689e-05
-4.373910675769421e-06   1.6662500249495227e-06   1.039998323087689e-05
-4.373910675769421e-06   1.6662500249495227e-06   1.039998323087689e-05
-7.536523027734062e-06   1.8887851486765628e-06   1.5537482743249113e-05
-7.536523027734062e-06   1.8887851486765628e-06   1.5537482743249113e-05
-7.536523027734062e-06   1.8887851486765628e-06   1.5537482743249113e-05
-7.536523027734062e-06   1.8887851486765628e-06   1.5537482743249113e-05
-4.373910675769434e-06   1.7966845504585084e-06   2.1391071803533658e-05
-4.373910675769434e-06   1.7966845504585084e-06   2.1391071803533658e-05
-4.373910675769434e-06   1.7966845504585084e-06   2.1391071803533658e-05
-4.373910675769434e-06   1.7966845504585084e-06   2.1391071803533658e-05
-1.0968563819363546e-05   1.6662500249495227e-06   1.0321722515571662e-05
-1.0968563819363546e-05   1.6662500249495227e-06   1.0321722515571662e-05
-1.0968563819363546e-05   1.6662500249495227e-06   1.0321722515571662e-05
-1.0968563819363546e-05   1.6662500249495227e-06   1.0321722515571662e-05
-1.1269979342641193e-05   1.3961121259618067e-06   2.145195881153323e-05
-1.1269979342641193e-05   1.3961121259618067e-06   2.145195881153323e-05
-1.1269979342641193e-05   1.3961121259618067e-06   2.145195881153323e-05
-1.1269979342641193e-05   1.3961121259618067e-06   2.145195881153323e-05
-4.686913643297332e-06   1.2564101818901248e-06   1.0564003812403154e-05
-4.686913643297332e-06   1.2564101818901248e-06   1.0564003812403154e-05
-4.686913643297332e-06   1.2564101818901248e-06   1.0564003812403154e-05
-4.686913643297332e-06   1.2564101818901248e-06   1.0564003812403154e-05
-7.796263115180717e-06   1.5757989170301582e-06   1.555461969112462e-05
-7.796263115180717e-06   1.5757989170301582e-06   1.555461969112462e-05
-7.796263115180717e-06   1.5757989170301582e-06   1.555461969112462e-05
-7.796263115180717e-06   1.5757989170301582e-06   1.555461969112462e-05
-4.686913643297359e-06   1.3961121259618067e-06   2.153577997797613e-05
-4.686913643297359e-06   1.3961121259618067e-06   2.153577997797613e-05
-4.686913643297359e-06   1.3961121259618067e-06   2.153577997797613e-05
-4.686913643297359e-06   1.3961121259618067e-06   2.153577997797613e-05
-1.1269979342641193e-05   1.2564101818901248e-06   1.04801826459602e-05
-1.1269979342641193e-05   1.2564101818901248e-06   1.04801826459602e-05
-1.1269979342641193e-05   1.2564101818901248e-06   1.04801826459602e-05
-1.1269979342641193e-05   1.2564101818901248e-06   1.04801826459602e-05
-1.1566624185179391e-05   1.0105904411532914e-06   2.1795191221911803e-05
-1.1566624185179391e-05   1.0105904411532914e-06   2.1795191221911803e-05
-1.1566624185179391e-05   1.0105904411532914e-06   2.1795191221911803e-05
-1.1566624185179391e-05   1.0105904411532914e-06   2.1795191221911803e-05
-4.995376135011486e-06   8.641870778403581e-07   1.0930953156286543e-05
-4.995376135011486e-06   8.641870778403581e-07   1.0930953156286543e-05
-4.995376135011486e-06   8.641870778403581e-07   1.0930953156286543e-05
-4.995376135011486e-06   8.641870778403581e-07   1.0930953156286543e-05
-8.072646612478655e-06   1.269187593060583e-06   1.581673697626651e-05
-8.072646612478655e-06   1.269187593060583e-06   1.581673697626651e-05
-8.072646612478655e-06   1.269187593060583e-06   1.581673697626651e-05
-8.072646612478655e-06   1.269187593060583e-06   1.581673697626651e-05
-1.0676627518003533e-05   3.7807753780611224e-06   1.8949648432523155e-05
-1.0676627518003533e-05   3.7807753780611224e-06   1.8949648432523155e-05
-1.0676627518003533e-05   3.7807753780611224e-06   1.8949648432523155e-05
-1.0676627518003533e-05   3.7807753780611224e-06   1.8949648432523155e-05
-1.716751027485241e-05   3.092584723919786e-06   7.718596111956871e-06
-1.716751027485241e-05   3.092584723919786e-06   7.718596111956871e-06
-1.716751027485241e-05   3.092584723919786e-06   7.718596111956871e-06
-1.716751027485241e-05   3.092584723919786e-06   7.718596111956871e-06
-1.7485976648140778e-05   3.385477377356675e-06   1.8602045133090566e-05
-1.7485976648140778e-05   3.385477377356675e-06   1.8602045133090566e-05
-1.7485976648140778e-05   3.385477377356675e-06   1.8602045133090566e-05
-1.7485976648140778e-05   3.385477377356675e-06   1.8602045133090566e-05
-1.0968563819363519e-05   2.6774807494611566e-06   8.164488395199457e-06
-1.0968563819363519e-05   2.6774807494611566e-06   8.164488395199457e-06
-1.0968563819363519e-05   2.6774807494611566e-06   8.164488395199457e-06
-1.0968563819363519e-05   2.6774807494611566e-06   8.164488395199457e-06
-1.4040622948382597e-05   3.180459365156353e-06   1.29827997741482e-05
-1.4040622948382597e-05   3.180459365156353e-06   1.29827997741482e-05
-1.4040622948382597e-05   3.180459365156353e-06   1.29827997741482e-05
-1.4040622948382597e-05   3.180459365156353e-06   1.29827997741482e-05
-1.0968563819363573e-05   3.385477377356892e-06   1.902684310982805e-05
-1.0968563819363573e-05   3.385477377356892e-06   1.902684310982805e-05
-1.0968563819363573e-05   3.385477377356892e-06   1.902684310982805e-05
-1.0968563819363573e-05   3.385477377356892e-06   1.902684310982805e-05
-1.748597664814075e-05   2.6774807494611566e-06   7.739690418461973e-06
-1.748597664814075e-05   2.6774807494611566e-06   7.739690418461973e-06
-1.748597664814075e-05   2.6774807494611566e-06   7.739690418461973e-06
-1.748597664814075e-05   2.6774807494611566e-06   7.739690418461973e-06
-1.7862817300665377e-05   3.019091773390258e-06   1.9213709020774405e-05
-1.7862817300665377e-05   3.019091773390258e-06   1.9213709020774405e-05
-1.7862817300665377e-05   3.019091773390258e-06   1.9213709020774405e-05
-1.7862817300665377e-05   3.019091773390258e-06   1.9213709020774405e-05
-1.1269979342641166e-05   2.299573073452719e-06   8.657356977363599e-06
-1.1269979342641166e-05   2.299573073452719e-06   8.657356977363599e-06
-1.1269979342641166e-05   2.299573073452719e-06   8.657356977363599e-06
-1.1269979342641166e-05   2.299573073452719e-06   8.657356977363599e-06
-1.4246179843708582e-05   2.8871430669795157e-06   1.3265149149693128e-05
-1.4246179843708582e-05   2.8871430669795157e-06   1.3265149149693128e-05
-1.4246179843708582e-05   2.8871430669795157e-06   1.3265149149693128e-05
-1.4246179843708582e-05   2.8871430669795157e-06   1.3265149149693128e-05
-1.1269979342641193e-05   3.019091773390258e-06   1.9645420240737058e-05
-1.1269979342641193e-05   3.019091773390258e-06   1.9645420240737058e-05
-1.1269979342641193e-05   3.019091773390258e-06   1.9645420240737058e-05
-1.1269979342641193e-05   3.019091773390258e-06   1.9645420240737058e-05
-1.7862817300665296e-05   2.299573073452719e-06   8.225645757400945e-06
-1.7862817300665296e-05   2.299573073452719e-06   8.225645757400945e-06
-1.7862817300665296e-05   2.299573073452719e-06   8.225645757400945e-06
-1.7862817300665296e-05   2.299573073452719e-06   8.225645757400945e-06
-1.818579806449748e-05   2.6089111082787473e-06   1.9802421472694064e-05
-1.818579806449748e-05   2.6089111082787473e-06   1.9802421472694064e-05
-1.818579806449748e-05   2.6089111082787473e-06   1.9802421472694064e-05
-1.818579806449748e-05   2.6089111082787473e-06   1.9802421472694064e-05
-1.1566624185179337e-05   1.8951801929437042e-06   9.19870355636516e-06
-1.1566624185179337e-05   1.8951801929437042e-06   9.19870355636516e-06
-1.1566624185179337e-05   1.8951801929437042e-06   9.19870355636516e-06
-1.1566624185179337e-05   1.8951801929437042e-06   9.19870355636516e-06
-1.4601164190575623e-05   2.5928232647058017e-06   1.3837684388968942e-05
-1.4601164190575623e-05   2.5928232647058017e-06   1.3837684388968942e-05
-1.4601164190575623e-05   2.5928232647058017e-06   1.3837684388968942e-05
-1.4601164190575623e-05   2.5928232647058017e-06   1.3837684388968942e-05
-1.716751027485249e-05   4.968239349889027e-06   8.866009982739414e-06
-1.716751027485249e-05   4.968239349889027e-06   8.866009982739414e-06
-1.716751027485249e-05   4.968239349889027e-06   8.866009982739414e-06
-1.716751027485249e-05   4.968239349889027e-06   8.866009982739414e-06
-2.3037515526940313e-05   3.813164364486945e-06   -1.6103770953149145e-06
-2.3037515526940313e-05   3.813164364486945e-06   -1.6103770953149145e-06
-2.3037515526940313e-05   3.813164364486945e-06   -1.6103770953149145e-06
-2.3037515526940313e-05   3.813164364486945e-06   -1.6103770953149145e-06
-2.385463433046708e-05   4.842986885138841e-06   1.094242372564171e-05
-2.385463433046708e-05   4.842986885138841e-06   1.094242372564171e-05
-2.385463433046708e-05   4.842986885138841e-06   1.094242372564171e-05
-2.385463433046708e-05   4.842986885138841e-06   1.094242372564171e-05
-1.7485976648140723e-05   3.601205626339518e-06   1.0730630103774957e-06
-1.7485976648140723e-05   3.601205626339518e-06   1.0730630103774957e-06
-1.7485976648140723e-05   3.601205626339518e-06   1.0730630103774957e-06
-1.7485976648140723e-05   3.601205626339518e-06   1.0730630103774957e-06
-1.96435417464313e-05   4.226150802632287e-06   4.294037735087092e-06
-1.96435417464313e-05   4.226150802632287e-06   4.294037735087092e-06
-1.96435417464313e-05   4.226150802632287e-06   4.294037735087092e-06
-1.96435417464313e-05   4.226150802632287e-06   4.294037735087092e-06
-1.748597664814075e-05   4.842986885139058e-06   1.1687492480921303e-05
-1.748597664814075e-05   4.842986885139058e-06   1.1687492480921303e-05
-1.748597664814075e-05   4.842986885139058e-06   1.1687492480921303e-05
-1.748597664814075e-05   4.842986885139058e-06   1.1687492480921303e-05
-2.3854634330467133e-05   3.601205626339518e-06   3.2799425509795607e-07
-2.3854634330467133e-05   3.601205626339518e-06   3.2799425509795607e-07
-2.3854634330467133e-05   3.601205626339518e-06   3.2799425509795607e-07
-2.3854634330467133e-05   3.601205626339518e-06   3.2799425509795607e-07
-2.455744021193475e-05   4.6875268166957e-06   1.2948993968753698e-05
-2.455744021193475e-05   4.6875268166957e-06   1.2948993968753698e-05
-2.455744021193475e-05   4.6875268166957e-06   1.2948993968753698e-05
-2.455744021193475e-05   4.6875268166957e-06   1.2948993968753698e-05
-1.7862817300665296e-05   3.423075841109662e-06   2.5499597019897177e-06
-1.7862817300665296e-05   3.423075841109662e-06   2.5499597019897177e-06
-1.7862817300665296e-05   3.423075841109662e-06   2.5499597019897177e-06
-1.7862817300665296e-05   3.423075841109662e-06   2.5499597019897177e-06
-2.042964525808174e-05   4.171888168678006e-06   6.378718901143177e-06
-2.042964525808174e-05   4.171888168678006e-06   6.378718901143177e-06
-2.042964525808174e-05   4.171888168678006e-06   6.378718901143177e-06
-2.042964525808174e-05   4.171888168678006e-06   6.378718901143177e-06
-1.786281730066535e-05   4.6875268166957e-06   1.3707664554105277e-05
-1.786281730066535e-05   4.6875268166957e-06   1.3707664554105277e-05
-1.786281730066535e-05   4.6875268166957e-06   1.3707664554105277e-05
-1.786281730066535e-05   4.6875268166957e-06   1.3707664554105277e-05
-2.4557440211934805e-05   3.4230758411097706e-06   1.7912891166381114e-06
-2.4557440211934805e-05   3.4230758411097706e-06   1.7912891166381114e-06
-2.4557440211934805e-05   3.4230758411097706e-06   1.7912891166381114e-06
-2.4557440211934805e-05   3.4230758411097706e-06   1.7912891166381114e-06
-2.5397784620596225e-05   4.164000937478037e-06   1.649760109153427e-05
-2.5397784620596225e-05   4.164000937478037e-06   1.649760109153427e-05
-2.5397784620596225e-05   4.164000937478037e-06   1.649760109153427e-05
-2.5397784620596225e-05   4.164000937478037e-06   1.649760109153427e-05
-1.8185798064497425e-05   2.9368983004223696e-06   5.213885080269877e-06
-1.8185798064497425e-05   2.9368983004223696e-06   5.213885080269877e-06
-1.8185798064497425e-05   2.9368983004223696e-06   5.213885080269877e-06
-1.8185798064497425e-05   2.9368983004223696e-06   5.213885080269877e-06
-2.0622330747314363e-05   3.950793732399212e-06   8.66643562577894e-06
-2.0622330747314363e-05   3.950793732399212e-06   8.66643562577894e-06
-2.0622330747314363e-05   3.950793732399212e-06   8.66643562577894e-06
-2.0622330747314363e-05   3.950793732399212e-06   8.66643562577894e-06
2.1155138051748144e-06   1.0232772398952733e-08   1.059043163060549e-05
2.1155138051748144e-06   1.0232772398952733e-08   1.059043163060549e-05
2.1155138051748144e-06   1.0232772398952733e-08   1.059043163060549e-05
2.1155138051748144e-06   1.0232772398952733e-08   1.059043163060549e-05
-2.1417129169291062e-06   1.1292473995717445e-06   4.166462536735909e-06
-2.1417129169291062e-06   1.1292473995717445e-06   4.166462536735909e-06
-2.1417129169291062e-06   1.1292473995717445e-06   4.166462536735909e-06
-2.1417129169291062e-06   1.1292473995717445e-06   4.166462536735909e-06
-2.3881752113615817e-06   -3.869371454967357e-07   1.0432564287005087e-05
-2.3881752113615817e-06   -3.869371454967357e-07   1.0432564287005087e-05
-2.3881752113615817e-06   -3.869371454967357e-07   1.0432564287005087e-05
-2.3881752113615817e-06   -3.869371454967357e-07   1.0432564287005087e-05
1.3667314104023298e-06   7.586301200290801e-07   3.4870462247497654e-06
1.3667314104023298e-06   7.586301200290801e-07   3.4870462247497654e-06
1.3667314104023298e-06   7.586301200290801e-07   3.4870462247497654e-06
1.3667314104023298e-06   7.586301200290801e-07   3.4870462247497654e-06
-3.6452340253743694e-07   3.139603033509939e-07   6.639272802989551e-06
-3.6452340253743694e-07   3.139603033509939e-07   6.639272802989551e-06
-3.6452340253743694e-07   3.139603033509939e-07   6.639272802989551e-06
-3.6452340253743694e-07   3.139603033509939e-07   6.639272802989551e-06
1.3667314104023298e-06   -3.869371454967357e-07   9.745223927689565e-06
1.3667314104023298e-06   -3.869371454967357e-07   9.745223927689565e-06
1.3667314104023298e-06   -3.869371454967357e-07   9.745223927689565e-06
1.3667314104023298e-06   -3.869371454967357e-07   9.745223927689565e-06
-2.3881752113615817e-06   7.586301200290801e-07   4.174386584065233e-06
-2.3881752113615817e-06   7.586301200290801e-07   4.174386584065233e-06
-2.3881752113615817e-06   7.586301200290801e-07   4.174386584065233e-06
-2.3881752113615817e-06   7.586301200290801e-07   4.174386584065233e-06
-2.692900602774818e-06   -5.573792291798394e-07   1.0151346387671603e-05
-2.692900602774818e-06   -5.573792291798394e-07   1.0151346387671603e-05
-2.692900602774818e-06   -5.573792291798394e-07   1.0151346387671603e-05
-2.692900602774818e-06   -5.573792291798394e-07   1.0151346387671603e-05
7.162850463688917e-07   5.557510484485413e-07   3.8014921391883152e-06
7.162850463688917e-07   5.557510484485413e-07   3.8014921391883152e-06
7.162850463688917e-07   5.557510484485413e-07   3.8014921391883152e-06
7.162850463688917e-07   5.557510484485413e-07   3.8014921391883152e-06
-7.674299268100184e-07   1.561253366015201e-07   6.514125854927959e-06
-7.674299268100184e-07   1.561253366015201e-07   6.514125854927959e-06
-7.674299268100184e-07   1.561253366015201e-07   6.514125854927959e-06
-7.674299268100184e-07   1.561253366015201e-07   6.514125854927959e-06
7.162850463688985e-07   -5.573792291798394e-07   9.483468221094509e-06
7.162850463688985e-07   -5.573792291798394e-07   9.483468221094509e-06
7.162850463688985e-07   -5.573792291798394e-07   9.483468221094509e-06
7.162850463688985e-07   -5.573792291798394e-07   9.483468221094509e-06
-2.692900602774811e-06   5.557510484485413e-07   4.469370305765436e-06
-2.692900602774811e-06   5.557510484485413e-07   4.469370305765436e-06
-2.692900602774811e-06   5.557510484485413e-07   4.469370305765436e-06
-2.692900602774811e-06   5.557510484485413e-07   4.469370305765436e-06
-2.9480273848128956e-06   -8.3977160268635e-07   1.0039136453065579e-05
-2.9480273848128956e-06   -8.3977160268635e-07   1.0039136453065579e-05
-2.9480273848128956e-06   -8.3977160268635e-07   1.0039136453065579e-05
-2.9480273848128956e-06   -8.3977160268635e-07   1.0039136453065579e-05
-1.0029026606435393e-07   1.2654916519111003e-07   4.713115461091501e-06
-1.0029026606435393e-07   1.2654916519111003e-07   4.713115461091501e-06
-1.0029026606435393e-07   1.2654916519111003e-07   4.713115461091501e-06
-1.0029026606435393e-07   1.2654916519111003e-07   4.713115461091501e-06
-1.205375845616844e-06   1.31055451395648e-08   6.622990932376646e-06
-1.205375845616844e-06   1.31055451395648e-08   6.622990932376646e-06
-1.205375845616844e-06   1.31055451395648e-08   6.622990932376646e-06
-1.205375845616844e-06   1.31055451395648e-08   6.622990932376646e-06
-2.1417129169291062e-06   1.1078445681089993e-06   1.6924827363403675e-05
-2.1417129169291062e-06   1.1078445681089993e-06   1.6924827363403675e-05
-2.1417129169291062e-06   1.1078445681089993e-06   1.6924827363403675e-05
-2.1417129169291062e-06   1.1078445681089993e-06   1.6924827363403675e-05
-5.702825143472369e-06   1.3307827333022349e-06   1.112340321828074e-05
-5.702825143472369e-06   1.3307827333022349e-06   1.112340321828074e-05
-5.702825143472369e-06   1.3307827333022349e-06   1.112340321828074e-05
-5.702825143472369e-06   1.3307827333022349e-06   1.112340321828074e-05
-5.8892532357518506e-06   6.601071213302358e-07   1.6876660829524327e-05
-5.8892532357518506e-06   6.601071213302358e-07   1.6876660829524327e-05
-5.8892532357518506e-06   6.601071213302358e-07   1.6876660829524327e-05
-5.8892532357518506e-06   6.601071213302358e-07   1.6876660829524327e-05
-2.3881752113615817e-06   9.175091809305105e-07   1.0887089553113934e-05
-2.3881752113615817e-06   9.175091809305105e-07   1.0887089553113934e-05
-2.3881752113615817e-06   9.175091809305105e-07   1.0887089553113934e-05
-2.3881752113615817e-06   9.175091809305105e-07   1.0887089553113934e-05
-4.055675270705119e-06   9.554820508332444e-07   1.3643472596744783e-05
-4.055675270705119e-06   9.554820508332444e-07   1.3643472596744783e-05
-4.055675270705119e-06   9.554820508332444e-07   1.3643472596744783e-05
-4.055675270705119e-06   9.554820508332444e-07   1.3643472596744783e-05
-2.3881752113615817e-06   6.601071213302358e-07   1.6722219593764227e-05
-2.3881752113615817e-06   6.601071213302358e-07   1.6722219593764227e-05
-2.3881752113615817e-06   6.601071213302358e-07   1.6722219593764227e-05
-2.3881752113615817e-06   6.601071213302358e-07   1.6722219593764227e-05
-5.889253235751837e-06   9.175091809305105e-07   1.1041530788873945e-05
-5.889253235751837e-06   9.175091809305105e-07   1.1041530788873945e-05
-5.889253235751837e-06   9.175091809305105e-07   1.1041530788873945e-05
-5.889253235751837e-06   9.175091809305105e-07   1.1041530788873945e-05
-6.08162318755638e-06   2.814428587846708e-07   1.6904497405528427e-05
-6.08162318755638e-06   2.814428587846708e-07   1.6904497405528427e-05
-6.08162318755638e-06   2.814428587846708e-07   1.6904497405528427e-05
-6.08162318755638e-06   2.814428587846708e-07   1.6904497405528427e-05
-2.692900602774811e-06   5.370301723103951e-07   1.1103274042777124e-05
-2.692900602774811e-06   5.370301723103951e-07   1.1103274042777124e-05
-2.692900602774811e-06   5.370301723103951e-07   1.1103274042777124e-05
-2.692900602774811e-06   5.370301723103951e-07   1.1103274042777124e-05
-4.246201533188048e-06   6.54068537997432e-07   1.3621885907387146e-05
-4.246201533188048e-06   6.54068537997432e-07   1.3621885907387146e-05
-4.246201533188048e-06   6.54068537997432e-07   1.3621885907387146e-05
-4.246201533188048e-06   6.54068537997432e-07   1.3621885907387146e-05
-2.692900602774818e-06   2.8144285878456236e-07   1.675114501741297e-05
-2.692900602774818e-06   2.8144285878456236e-07   1.675114501741297e-05
-2.692900602774818e-06   2.8144285878456236e-07   1.675114501741297e-05
-2.692900602774818e-06   2.8144285878456236e-07   1.675114501741297e-05
-6.08162318755638e-06   5.370301723103951e-07   1.1256626430892526e-05
-6.08162318755638e-06   5.370301723103951e-07   1.1256626430892526e-05
-6.08162318755638e-06   5.370301723103951e-07   1.1256626430892526e-05
-6.08162318755638e-06   5.370301723103951e-07   1.1256626430892526e-05
-6.270538421607137e-06   -1.0455297687664809e-07   1.722747729609054e-05
-6.270538421607137e-06   -1.0455297687664809e-07   1.722747729609054e-05
-6.270538421607137e-06   -1.0455297687664809e-07   1.722747729609054e-05
-6.270538421607137e-06   -1.0455297687664809e-07   1.722747729609054e-05
-2.9480273848128956e-06   1.258991696061933e-07   1.1551687613543861e-05
-2.9480273848128956e-06   1.258991696061933e-07   1.1551687613543861e-05
-2.9480273848128956e-06   1.258991696061933e-07   1.1551687613543861e-05
-2.9480273848128956e-06   1.258991696061933e-07   1.1551687613543861e-05
-4.436142910967666e-06   3.58786836453847e-07   1.3892147557026515e-05
-4.436142910967666e-06   3.58786836453847e-07   1.3892147557026515e-05
-4.436142910967666e-06   3.58786836453847e-07   1.3892147557026515e-05
-4.436142910967666e-06   3.58786836453847e-07   1.3892147557026515e-05
-5.702825143472356e-06   2.078223144104407e-06   1.9040554815665423e-05
-5.702825143472356e-06   2.078223144104407e-06   1.9040554815665423e-05
-5.702825143472356e-06   2.078223144104407e-06   1.9040554815665423e-05
-5.702825143472356e-06   2.078223144104407e-06   1.9040554815665423e-05
-9.246086603956346e-06   1.6025540907451449e-06   1.2849717616176604e-05
-9.246086603956346e-06   1.6025540907451449e-06   1.2849717616176604e-05
-9.246086603956346e-06   1.6025540907451449e-06   1.2849717616176604e-05
-9.246086603956346e-06   1.6025540907451449e-06   1.2849717616176604e-05
-9.404237318198859e-06   1.6662500249495227e-06   1.8687561672373412e-05
-9.404237318198859e-06   1.6662500249495227e-06   1.8687561672373412e-05
-9.404237318198859e-06   1.6662500249495227e-06   1.8687561672373412e-05
-9.404237318198859e-06   1.6662500249495227e-06   1.8687561672373412e-05
-5.889253235751837e-06   1.220375710470783e-06   1.3096779456982206e-05
-5.889253235751837e-06   1.220375710470783e-06   1.3096779456982206e-05
-5.889253235751837e-06   1.220375710470783e-06   1.3096779456982206e-05
-5.889253235751837e-06   1.220375710470783e-06   1.3096779456982206e-05
-7.564785161683192e-06   1.6093365508046582e-06   1.5655956162667514e-05
-7.564785161683192e-06   1.6093365508046582e-06   1.5655956162667514e-05
-7.564785161683192e-06   1.6093365508046582e-06   1.5655956162667514e-05
-7.564785161683192e-06   1.6093365508046582e-06   1.5655956162667514e-05
-5.889253235751837e-06   1.6662500249495227e-06   1.8955086261060656e-05
-5.889253235751837e-06   1.6662500249495227e-06   1.8955086261060656e-05
-5.889253235751837e-06   1.6662500249495227e-06   1.8955086261060656e-05
-5.889253235751837e-06   1.6662500249495227e-06   1.8955086261060656e-05
-9.404237318198859e-06   1.220375710470783e-06   1.2829254868294989e-05
-9.404237318198859e-06   1.220375710470783e-06   1.2829254868294989e-05
-9.404237318198859e-06   1.220375710470783e-06   1.2829254868294989e-05
-9.404237318198859e-06   1.220375710470783e-06   1.2829254868294989e-05
-9.573563809541343e-06   1.2564101818901248e-06   1.8870889860289554e-05
-9.573563809541343e-06   1.2564101818901248e-06   1.8870889860289554e-05
-9.573563809541343e-06   1.2564101818901248e-06   1.8870889860289554e-05
-9.573563809541343e-06   1.2564101818901248e-06   1.8870889860289554e-05
-6.08162318755638e-06   8.320332768269132e-07   1.3305614966685806e-05
-6.08162318755638e-06   8.320332768269132e-07   1.3305614966685806e-05
-6.08162318755638e-06   8.320332768269132e-07   1.3305614966685806e-05
-6.08162318755638e-06   8.320332768269132e-07   1.3305614966685806e-05
-7.69993290649686e-06   1.303734169028005e-06   1.5719777296265957e-05
-7.69993290649686e-06   1.303734169028005e-06   1.5719777296265957e-05
-7.69993290649686e-06   1.303734169028005e-06   1.5719777296265957e-05
-7.69993290649686e-06   1.303734169028005e-06   1.5719777296265957e-05
-6.08162318755638e-06   1.2564101818901248e-06   1.9125516003327243e-05
-6.08162318755638e-06   1.2564101818901248e-06   1.9125516003327243e-05
-6.08162318755638e-06   1.2564101818901248e-06   1.9125516003327243e-05
-6.08162318755638e-06   1.2564101818901248e-06   1.9125516003327243e-05
-9.573563809541343e-06   8.320332768269132e-07   1.3050988823647873e-05
-9.573563809541343e-06   8.320332768269132e-07   1.3050988823647873e-05
-9.573563809541343e-06   8.320332768269132e-07   1.3050988823647873e-05
-9.573563809541343e-06   8.320332768269132e-07   1.3050988823647873e-05
-9.739402894260525e-06   8.641870778403581e-07   1.925673608846833e-05
-9.739402894260525e-06   8.641870778403581e-07   1.925673608846833e-05
-9.739402894260525e-06   8.641870778403581e-07   1.925673608846833e-05
-9.739402894260525e-06   8.641870778403581e-07   1.925673608846833e-05
-6.270538421607137e-06   4.6428448478060946e-07   1.371523685654848e-05
-6.270538421607137e-06   4.6428448478060946e-07   1.371523685654848e-05
-6.270538421607137e-06   4.6428448478060946e-07   1.371523685654848e-05
-6.270538421607137e-06   4.6428448478060946e-07   1.371523685654848e-05
-7.850481914560755e-06   1.0028955720723948e-06   1.6025309359096117e-05
-7.850481914560755e-06   1.0028955720723948e-06   1.6025309359096117e-05
-7.850481914560755e-06   1.0028955720723948e-06   1.6025309359096117e-05
-7.850481914560755e-06   1.0028955720723948e-06   1.6025309359096117e-05
-9.246086603956373e-06   3.092584723919786e-06   1.6469025831367828e-05
-9.246086603956373e-06   3.092584723919786e-06   1.6469025831367828e-05
-9.246086603956373e-06   3.092584723919786e-06   1.6469025831367828e-05
-9.246086603956373e-06   3.092584723919786e-06   1.6469025831367828e-05
-1.2733686706507184e-05   2.170830442835606e-06   1.0103306425132604e-05
-1.2733686706507184e-05   2.170830442835606e-06   1.0103306425132604e-05
-1.2733686706507184e-05   2.170830442835606e-06   1.0103306425132604e-05
-1.2733686706507184e-05   2.170830442835606e-06   1.0103306425132604e-05
-1.2907584821322652e-05   2.677480749461265e-06   1.59851455288928e-05
-1.2907584821322652e-05   2.677480749461265e-06   1.59851455288928e-05
-1.2907584821322652e-05   2.677480749461265e-06   1.59851455288928e-05
-1.2907584821322652e-05   2.677480749461265e-06   1.59851455288928e-05
-9.404237318198859e-06   1.7688440442808389e-06   1.0691415046794903e-05
-9.404237318198859e-06   1.7688440442808389e-06   1.0691415046794903e-05
-9.404237318198859e-06   1.7688440442808389e-06   1.0691415046794903e-05
-9.404237318198859e-06   1.7688440442808389e-06   1.0691415046794903e-05
-1.1049421613914105e-05   2.405648877057474e-06   1.3051305973320825e-05
-1.1049421613914105e-05   2.405648877057474e-06   1.3051305973320825e-05
-1.1049421613914105e-05   2.405648877057474e-06   1.3051305973320825e-05
-1.1049421613914105e-05   2.405648877057474e-06   1.3051305973320825e-05
-9.404237318198859e-06   2.677480749461265e-06   1.65303275520011e-05
-9.404237318198859e-06   2.677480749461265e-06   1.65303275520011e-05
-9.404237318198859e-06   2.677480749461265e-06   1.65303275520011e-05
-9.404237318198859e-06   2.677480749461265e-06   1.65303275520011e-05
-1.2907584821322625e-05   1.7688440442808389e-06   1.0146233023686577e-05
-1.2907584821322625e-05   1.7688440442808389e-06   1.0146233023686577e-05
-1.2907584821322625e-05   1.7688440442808389e-06   1.0146233023686577e-05
-1.2907584821322625e-05   1.7688440442808389e-06   1.0146233023686577e-05
-1.3147144052729138e-05   2.299573073452719e-06   1.6514818088757027e-05
-1.3147144052729138e-05   2.299573073452719e-06   1.6514818088757027e-05
-1.3147144052729138e-05   2.299573073452719e-06   1.6514818088757027e-05
-1.3147144052729138e-05   2.299573073452719e-06   1.6514818088757027e-05
-9.573563809541343e-06   1.4108295685595455e-06   1.1092097119713294e-05
-9.573563809541343e-06   1.4108295685595455e-06   1.1092097119713294e-05
-9.573563809541343e-06   1.4108295685595455e-06   1.1092097119713294e-05
-9.573563809541343e-06   1.4108295685595455e-06   1.1092097119713294e-05
-1.1143892533781608e-05   2.1094963818579565e-06   1.3290111572134672e-05
-1.1143892533781608e-05   2.1094963818579565e-06   1.3290111572134672e-05
-1.1143892533781608e-05   2.1094963818579565e-06   1.3290111572134672e-05
-1.1143892533781608e-05   2.1094963818579565e-06   1.3290111572134672e-05
-9.573563809541343e-06   2.299573073452719e-06   1.7048064191692628e-05
-9.573563809541343e-06   2.299573073452719e-06   1.7048064191692628e-05
-9.573563809541343e-06   2.299573073452719e-06   1.7048064191692628e-05
-9.573563809541343e-06   2.299573073452719e-06   1.7048064191692628e-05
-1.3147144052729084e-05   1.4108295685595455e-06   1.0558851016777342e-05
-1.3147144052729084e-05   1.4108295685595455e-06   1.0558851016777342e-05
-1.3147144052729084e-05   1.4108295685595455e-06   1.0558851016777342e-05
-1.3147144052729084e-05   1.4108295685595455e-06   1.0558851016777342e-05
-1.3339015250447568e-05   1.8951801929437042e-06   1.710263902122023e-05
-1.3339015250447568e-05   1.8951801929437042e-06   1.710263902122023e-05
-1.3339015250447568e-05   1.8951801929437042e-06   1.710263902122023e-05
-1.3339015250447568e-05   1.8951801929437042e-06   1.710263902122023e-05
-9.739402894260498e-06   1.045697717419621e-06   1.161297457955647e-05
-9.739402894260498e-06   1.045697717419621e-06   1.161297457955647e-05
-9.739402894260498e-06   1.045697717419621e-06   1.161297457955647e-05
-9.739402894260498e-06   1.045697717419621e-06   1.161297457955647e-05
-1.1342732977647748e-05   1.8274207901749833e-06   1.3816157541548916e-05
-1.1342732977647748e-05   1.8274207901749833e-06   1.3816157541548916e-05
-1.1342732977647748e-05   1.8274207901749833e-06   1.3816157541548916e-05
-1.1342732977647748e-05   1.8274207901749833e-06   1.3816157541548916e-05
-1.2733686706507184e-05   3.813164364486945e-06   7.2800450466867835e-06
-1.2733686706507184e-05   3.813164364486945e-06   7.2800450466867835e-06
-1.2733686706507184e-05   3.813164364486945e-06   7.2800450466867835e-06
-1.2733686706507184e-05   3.813164364486945e-06   7.2800450466867835e-06
-1.5491220038673335e-05   2.5722930870473093e-06   1.939633393279423e-06
-1.5491220038673335e-05   2.5722930870473093e-06   1.939633393279423e-06
-1.5491220038673335e-05   2.5722930870473093e-06   1.939633393279423e-06
-1.5491220038673335e-05   2.5722930870473093e-06   1.939633393279423e-06
-1.6148570002631312e-05   3.601205626339518e-06   8.54074265807124e-06
-1.6148570002631312e-05   3.601205626339518e-06   8.54074265807124e-06
-1.6148570002631312e-05   3.601205626339518e-06   8.54074265807124e-06
-1.6148570002631312e-05   3.601205626339518e-06   8.54074265807124e-06
-1.2907584821322652e-05   2.3049131884439814e-06   3.916876151960629e-06
-1.2907584821322652e-05   2.3049131884439814e-06   3.916876151960629e-06
-1.2907584821322652e-05   2.3049131884439814e-06   3.916876151960629e-06
-1.2907584821322652e-05   2.3049131884439814e-06   3.916876151960629e-06
-1.3822924013460043e-05   3.040532057374556e-06   5.001070150831299e-06
-1.3822924013460043e-05   3.040532057374556e-06   5.001070150831299e-06
-1.3822924013460043e-05   3.040532057374556e-06   5.001070150831299e-06
-1.3822924013460043e-05   3.040532057374556e-06   5.001070150831299e-06
-1.2907584821322625e-05   3.601205626339518e-06   9.318518120808323e-06
-1.2907584821322625e-05   3.601205626339518e-06   9.318518120808323e-06
-1.2907584821322625e-05   3.601205626339518e-06   9.318518120808323e-06
-1.2907584821322625e-05   3.601205626339518e-06   9.318518120808323e-06
-1.6148570002631367e-05   2.3049131884440898e-06   3.139100689223413e-06
-1.6148570002631367e-05   2.3049131884440898e-06   3.139100689223413e-06
-1.6148570002631367e-05   2.3049131884440898e-06   3.139100689223413e-06
-1.6148570002631367e-05   2.3049131884440898e-06   3.139100689223413e-06
-1.6712359070133814e-05   3.4230758411097706e-06   1.0057851206028787e-05
-1.6712359070133814e-05   3.4230758411097706e-06   1.0057851206028787e-05
-1.6712359070133814e-05   3.4230758411097706e-06   1.0057851206028787e-05
-1.6712359070133814e-05   3.4230758411097706e-06   1.0057851206028787e-05
-1.314714405272911e-05   2.120941128914912e-06   4.8971070043377e-06
-1.314714405272911e-05   2.120941128914912e-06   4.8971070043377e-06
-1.314714405272911e-05   2.120941128914912e-06   4.8971070043377e-06
-1.314714405272911e-05   2.120941128914912e-06   4.8971070043377e-06
-1.4380891388243757e-05   2.9363612006182843e-06   6.464100520507199e-06
-1.4380891388243757e-05   2.9363612006182843e-06   6.464100520507199e-06
-1.4380891388243757e-05   2.9363612006182843e-06   6.464100520507199e-06
-1.4380891388243757e-05   2.9363612006182843e-06   6.464100520507199e-06
-1.314714405272911e-05   3.4230758411097706e-06   1.0839132033345529e-05
-1.314714405272911e-05   3.4230758411097706e-06   1.0839132033345529e-05
-1.314714405272911e-05   3.4230758411097706e-06   1.0839132033345529e-05
-1.314714405272911e-05   3.4230758411097706e-06   1.0839132033345529e-05
-1.6712359070133868e-05   2.1209411289150205e-06   4.115826177020931e-06
-1.6712359070133868e-05   2.1209411289150205e-06   4.115826177020931e-06
-1.6712359070133868e-05   2.1209411289150205e-06   4.115826177020931e-06
-1.6712359070133868e-05   2.1209411289150205e-06   4.115826177020931e-06
-1.742898379771679e-05   2.9368983004223696e-06   1.2801998416205724e-05
-1.742898379771679e-05   2.9368983004223696e-06   1.2801998416205724e-05
-1.742898379771679e-05   2.9368983004223696e-06   1.2801998416205724e-05
-1.742898379771679e-05   2.9368983004223696e-06   1.2801998416205724e-05
-1.3339015250447568e-05   1.6967971702219016e-06   6.729444848877376e-06
-1.3339015250447568e-05   1.6967971702219016e-06   6.729444848877376e-06
-1.3339015250447568e-05   1.6967971702219016e-06   6.729444848877376e-06
-1.3339015250447568e-05   1.6967971702219016e-06   6.729444848877376e-06
-1.4538775534321226e-05   2.7343524150891946e-06   8.10651217507982e-06
-1.4538775534321226e-05   2.7343524150891946e-06   8.10651217507982e-06
-1.4538775534321226e-05   2.7343524150891946e-06   8.10651217507982e-06
-1.4538775534321226e-05   2.7343524150891946e-06   8.10651217507982e-06
-6.170437160598442e-06   1.1292473995717445e-06   7.59070113602611e-06
-6.170437160598442e-06   1.1292473995717445e-06   7.59070113602611e-06
-6.170437160598442e-06   1.1292473995717445e-06   7.59070113602611e-06
-6.170437160598442e-06   1.1292473995717445e-06   7.59070113602611e-06
-6.822706884962982e-06   2.1465100429035448e-06   7.1139425147509765e-06
-6.822706884962982e-06   2.1465100429035448e-06   7.1139425147509765e-06
-6.822706884962982e-06   2.1465100429035448e-06   7.1139425147509765e-06
-6.822706884962982e-06   2.1465100429035448e-06   7.1139425147509765e-06
-7.001935097214307e-06   7.586301200290801e-07   8.133611572773392e-06
-7.001935097214307e-06   7.586301200290801e-07   8.133611572773392e-06
-7.001935097214307e-06   7.586301200290801e-07   8.133611572773392e-06
-7.001935097214307e-06   7.586301200290801e-07   8.133611572773392e-06
-6.917304031907521e-06   1.6742838627837133e-06   7.443167551609336e-06
-6.917304031907521e-06   1.6742838627837133e-06   7.443167551609336e-06
-6.917304031907521e-06   1.6742838627837133e-06   7.443167551609336e-06
-6.917304031907521e-06   1.6742838627837133e-06   7.443167551609336e-06
-6.563218778180423e-06   1.3325659272954166e-06   7.058056223357078e-06
-6.563218778180423e-06   1.3325659272954166e-06   7.058056223357078e-06
-6.563218778180423e-06   1.3325659272954166e-06   7.058056223357078e-06
-6.563218778180423e-06   1.3325659272954166e-06   7.058056223357078e-06
-6.9173040319075345e-06   7.586301200290801e-07   7.58421932712058e-06
-6.9173040319075345e-06   7.586301200290801e-07   7.58421932712058e-06
-6.9173040319075345e-06   7.586301200290801e-07   7.58421932712058e-06
-6.9173040319075345e-06   7.586301200290801e-07   7.58421932712058e-06
-7.001935097214307e-06   1.6742838627837133e-06   7.992559797262053e-06
-7.001935097214307e-06   1.6742838627837133e-06   7.992559797262053e-06
-7.001935097214307e-06   1.6742838627837133e-06   7.992559797262053e-06
-7.001935097214307e-06   1.6742838627837133e-06   7.992559797262053e-06
-7.234410997244971e-06   5.557510484485413e-07   8.379019769556254e-06
-7.234410997244971e-06   5.557510484485413e-07   8.379019769556254e-06
-7.234410997244971e-06   5.557510484485413e-07   8.379019769556254e-06
-7.234410997244971e-06   5.557510484485413e-07   8.379019769556254e-06
-7.644569753091552e-06   1.3489077380317424e-06   8.58672368221714e-06
-7.644569753091552e-06   1.3489077380317424e-06   8.58672368221714e-06
-7.644569753091552e-06   1.3489077380317424e-06   8.58672368221714e-06
-7.644569753091552e-06   1.3489077380317424e-06   8.58672368221714e-06
-7.007342358889933e-06   1.129204409361503e-06   7.656500022416358e-06
-7.007342358889933e-06   1.129204409361503e-06   7.656500022416358e-06
-7.007342358889933e-06   1.129204409361503e-06   7.656500022416358e-06
-7.007342358889933e-06   1.129204409361503e-06   7.656500022416358e-06
-7.644569753091565e-06   5.557510484485413e-07   7.903125755806073e-06
-7.644569753091565e-06   5.557510484485413e-07   7.903125755806073e-06
-7.644569753091565e-06   5.557510484485413e-07   7.903125755806073e-06
-7.644569753091565e-06   5.557510484485413e-07   7.903125755806073e-06
-7.234410997244971e-06   1.3489077380317424e-06   9.062617695967078e-06
-7.234410997244971e-06   1.3489077380317424e-06   9.062617695967078e-06
-7.234410997244971e-06   1.3489077380317424e-06   9.062617695967078e-06
-7.234410997244971e-06   1.3489077380317424e-06   9.062617695967078e-06
-7.3837381358844295e-06   1.2654916519121845e-07   9.188311135334816e-06
-7.3837381358844295e-06   1.2654916519121845e-07   9.188311135334816e-06
-7.3837381358844295e-06   1.2654916519121845e-07   9.188311135334816e-06
-7.3837381358844295e-06   1.2654916519121845e-07   9.188311135334816e-06
-8.419456616191372e-06   5.492089736816455e-07   1.0660912717418567e-05
-8.419456616191372e-06   5.492089736816455e-07   1.0660912717418567e-05
-8.419456616191372e-06   5.492089736816455e-07   1.0660912717418567e-05
-8.419456616191372e-06   5.492089736816455e-07   1.0660912717418567e-05
-7.3229343556852505e-06   8.809723986409699e-07   8.634317561599154e-06
-7.3229343556852505e-06   8.809723986409699e-07   8.634317561599154e-06
-7.3229343556852505e-06   8.809723986409699e-07   8.634317561599154e-06
-7.3229343556852505e-06   8.809723986409699e-07   8.634317561599154e-06
-6.822706884962972e-06   1.3307827333022349e-06   1.5024236504454134e-05
-6.822706884962972e-06   1.3307827333022349e-06   1.5024236504454134e-05
-6.822706884962972e-06   1.3307827333022349e-06   1.5024236504454134e-05
-6.822706884962972e-06   1.3307827333022349e-06   1.5024236504454134e-05
-6.961502098684939e-06   5.562958352577389e-07   1.4328219009424178e-05
-6.961502098684939e-06   5.562958352577389e-07   1.4328219009424178e-05
-6.961502098684939e-06   5.562958352577389e-07   1.4328219009424178e-05
-6.961502098684939e-06   5.562958352577389e-07   1.4328219009424178e-05
-7.018925056387224e-06   9.175091809304021e-07   1.445453557038796e-05
-7.018925056387224e-06   9.175091809304021e-07   1.445453557038796e-05
-7.018925056387224e-06   9.175091809304021e-07   1.445453557038796e-05
-7.018925056387224e-06   9.175091809304021e-07   1.445453557038796e-05
-7.001935097214307e-06   2.6454422854030844e-07   1.4817997943200533e-05
-7.001935097214307e-06   2.6454422854030844e-07   1.4817997943200533e-05
-7.001935097214307e-06   2.6454422854030844e-07   1.4817997943200533e-05
-7.001935097214307e-06   2.6454422854030844e-07   1.4817997943200533e-05
-6.930991063963258e-06   6.776593267504571e-07   1.4451888828856044e-05
-6.930991063963258e-06   6.776593267504571e-07   1.4451888828856044e-05
-6.930991063963258e-06   6.776593267504571e-07   1.4451888828856044e-05
-6.930991063963258e-06   6.776593267504571e-07   1.4451888828856044e-05
-7.001935097214301e-06   9.175091809304021e-07   1.4846314541821842e-05
-7.001935097214301e-06   9.175091809304021e-07   1.4846314541821842e-05
-7.001935097214301e-06   9.175091809304021e-07   1.4846314541821842e-05
-7.001935097214301e-06   9.175091809304021e-07   1.4846314541821842e-05
-7.01892505638721e-06   2.6454422854030844e-07   1.4426218971766447e-05
-7.01892505638721e-06   2.6454422854030844e-07   1.4426218971766447e-05
-7.01892505638721e-06   2.6454422854030844e-07   1.4426218971766447e-05
-7.01892505638721e-06   2.6454422854030844e-07   1.4426218971766447e-05
-7.089680576291476e-06   5.370301723103951e-07   1.4647637423169217e-05
-7.089680576291476e-06   5.370301723103951e-07   1.4647637423169217e-05
-7.089680576291476e-06   5.370301723103951e-07   1.4647637423169217e-05
-7.089680576291476e-06   5.370301723103951e-07   1.4647637423169217e-05
-7.234410997244971e-06   -7.177996668751574e-08   1.5254140874823668e-05
-7.234410997244971e-06   -7.177996668751574e-08   1.5254140874823668e-05
-7.234410997244971e-06   -7.177996668751574e-08   1.5254140874823668e-05
-7.234410997244971e-06   -7.177996668751574e-08   1.5254140874823668e-05
-7.000932450677595e-06   4.3705156086684595e-07   1.4559711047345238e-05
-7.000932450677595e-06   4.3705156086684595e-07   1.4559711047345238e-05
-7.000932450677595e-06   4.3705156086684595e-07   1.4559711047345238e-05
-7.000932450677595e-06   4.3705156086684595e-07   1.4559711047345238e-05
-7.234410997244971e-06   5.370301723103951e-07   1.501292350656767e-05
-7.234410997244971e-06   5.370301723103951e-07   1.501292350656767e-05
-7.234410997244971e-06   5.370301723103951e-07   1.501292350656767e-05
-7.234410997244971e-06   5.370301723103951e-07   1.501292350656767e-05
-7.089680576291435e-06   -7.177996668751574e-08   1.4888854791424936e-05
-7.089680576291435e-06   -7.177996668751574e-08   1.4888854791424936e-05
-7.089680576291435e-06   -7.177996668751574e-08   1.4888854791424936e-05
-7.089680576291435e-06   -7.177996668751574e-08   1.4888854791424936e-05
-7.142300245824141e-06   1.258991696061933e-07   1.5064040292222158e-05
-7.142300245824141e-06   1.258991696061933e-07   1.5064040292222158e-05
-7.142300245824141e-06   1.258991696061933e-07   1.5064040292222158e-05
-7.142300245824141e-06   1.258991696061933e-07   1.5064040292222158e-05
-7.383738135884423e-06   -5.125183884579576e-07   1.584948731049426e-05
-7.383738135884423e-06   -5.125183884579576e-07   1.584948731049426e-05
-7.383738135884423e-06   -5.125183884579576e-07   1.584948731049426e-05
-7.383738135884423e-06   -5.125183884579576e-07   1.584948731049426e-05
-7.109673246317591e-06   1.5549983895587084e-07   1.499190155810094e-05
-7.109673246317591e-06   1.5549983895587084e-07   1.499190155810094e-05
-7.109673246317591e-06   1.5549983895587084e-07   1.499190155810094e-05
-7.109673246317591e-06   1.5549983895587084e-07   1.499190155810094e-05
-6.961502098684966e-06   1.6025540907451449e-06   1.657126019553889e-05
-6.961502098684966e-06   1.6025540907451449e-06   1.657126019553889e-05
-6.961502098684966e-06   1.6025540907451449e-06   1.657126019553889e-05
-6.961502098684966e-06   1.6025540907451449e-06   1.657126019553889e-05
-7.533874490249227e-06   1.5576274245150245e-07   1.4749231400622206e-05
-7.533874490249227e-06   1.5576274245150245e-07   1.4749231400622206e-05
-7.533874490249227e-06   1.5576274245150245e-07   1.4749231400622206e-05
-7.533874490249227e-06   1.5576274245150245e-07   1.4749231400622206e-05
-7.555135634256611e-06   1.220375710470783e-06   1.572388638951944e-05
-7.555135634256611e-06   1.220375710470783e-06   1.572388638951944e-05
-7.555135634256611e-06   1.220375710470783e-06   1.572388638951944e-05
-7.555135634256611e-06   1.220375710470783e-06   1.572388638951944e-05
-7.01892505638721e-06   -8.945403782366053e-08   1.5616099942047213e-05
-7.01892505638721e-06   -8.945403782366053e-08   1.5616099942047213e-05
-7.01892505638721e-06   -8.945403782366053e-08   1.5616099942047213e-05
-7.01892505638721e-06   -8.945403782366053e-08   1.5616099942047213e-05
-7.255434108299869e-06   6.973068451171559e-07   1.553822516547047e-05
-7.255434108299869e-06   6.973068451171559e-07   1.553822516547047e-05
-7.255434108299869e-06   6.973068451171559e-07   1.553822516547047e-05
-7.255434108299869e-06   6.973068451171559e-07   1.553822516547047e-05
-7.01892505638721e-06   1.2203757104708914e-06   1.650978423849603e-05
-7.01892505638721e-06   1.2203757104708914e-06   1.650978423849603e-05
-7.01892505638721e-06   1.2203757104708914e-06   1.650978423849603e-05
-7.01892505638721e-06   1.2203757104708914e-06   1.650978423849603e-05
-7.555135634256584e-06   -8.945403782360632e-08   1.483020209307042e-05
-7.555135634256584e-06   -8.945403782360632e-08   1.483020209307042e-05
-7.555135634256584e-06   -8.945403782360632e-08   1.483020209307042e-05
-7.555135634256584e-06   -8.945403782360632e-08   1.483020209307042e-05
-7.5915153905314024e-06   8.320332768269132e-07   1.5967605532535875e-05
-7.5915153905314024e-06   8.320332768269132e-07   1.5967605532535875e-05
-7.5915153905314024e-06   8.320332768269132e-07   1.5967605532535875e-05
-7.5915153905314024e-06   8.320332768269132e-07   1.5967605532535875e-05
-7.089680576291449e-06   -3.8300076721730324e-07   1.5860234601895826e-05
-7.089680576291449e-06   -3.8300076721730324e-07   1.5860234601895826e-05
-7.089680576291449e-06   -3.8300076721730324e-07   1.5860234601895826e-05
-7.089680576291449e-06   -3.8300076721730324e-07   1.5860234601895826e-05
-7.2622228770785475e-06   4.549518320683425e-07   1.564503354363578e-05
-7.2622228770785475e-06   4.549518320683425e-07   1.564503354363578e-05
-7.2622228770785475e-06   4.549518320683425e-07   1.564503354363578e-05
-7.2622228770785475e-06   4.549518320683425e-07   1.564503354363578e-05
-7.089680576291476e-06   8.320332768269132e-07   1.6696625958962253e-05
-7.089680576291476e-06   8.320332768269132e-07   1.6696625958962253e-05
-7.089680576291476e-06   8.320332768269132e-07   1.6696625958962253e-05
-7.089680576291476e-06   8.320332768269132e-07   1.6696625958962253e-05
-7.591515390531375e-06   -3.8300076721735745e-07   1.5131214175469177e-05
-7.591515390531375e-06   -3.8300076721735745e-07   1.5131214175469177e-05
-7.591515390531375e-06   -3.8300076721735745e-07   1.5131214175469177e-05
-7.591515390531375e-06   -3.8300076721735745e-07   1.5131214175469177e-05
-7.615928646639852e-06   4.6428448478060946e-07   1.6404549195307423e-05
-7.615928646639852e-06   4.6428448478060946e-07   1.6404549195307423e-05
-7.615928646639852e-06   4.6428448478060946e-07   1.6404549195307423e-05
-7.615928646639852e-06   4.6428448478060946e-07   1.6404549195307423e-05
-7.142300245824128e-06   -6.769972686022441e-07   1.6299937579310712e-05
-7.142300245824128e-06   -6.769972686022441e-07   1.6299937579310712e-05
-7.142300245824128e-06   -6.769972686022441e-07   1.6299937579310712e-05
-7.142300245824128e-06   -6.769972686022441e-07   1.6299937579310712e-05
-7.281235410452166e-06   2.059582416088666e-07   1.600172288089704e-05
-7.281235410452166e-06   2.059582416088666e-07   1.600172288089704e-05
-7.281235410452166e-06   2.059582416088666e-07   1.600172288089704e-05
-7.281235410452166e-06   2.059582416088666e-07   1.600172288089704e-05
-7.533874490249227e-06   2.170830442835606e-06   1.3509826764169207e-05
-7.533874490249227e-06   2.170830442835606e-06   1.3509826764169207e-05
-7.533874490249227e-06   2.170830442835606e-06   1.3509826764169207e-05
-7.533874490249227e-06   2.170830442835606e-06   1.3509826764169207e-05
-8.34468067252022e-06   7.149603360216629e-07   1.1284961062962535e-05
-8.34468067252022e-06   7.149603360216629e-07   1.1284961062962535e-05
-8.34468067252022e-06   7.149603360216629e-07   1.1284961062962535e-05
-8.34468067252022e-06   7.149603360216629e-07   1.1284961062962535e-05
-8.361341713018148e-06   1.7688440442807304e-06   1.2759624632402216e-05
-8.361341713018148e-06   1.7688440442807304e-06   1.2759624632402216e-05
-8.361341713018148e-06   1.7688440442807304e-06   1.2759624632402216e-05
-8.361341713018148e-06   1.7688440442807304e-06   1.2759624632402216e-05
-7.555135634256611e-06   3.9147415158559233e-07   1.2242369770083458e-05
-7.555135634256611e-06   3.9147415158559233e-07   1.2242369770083458e-05
-7.555135634256611e-06   3.9147415158559233e-07   1.2242369770083458e-05
-7.555135634256611e-06   3.9147415158559233e-07   1.2242369770083458e-05
-7.928067703194758e-06   1.2903899158665582e-06   1.23245737597452e-05
-7.928067703194758e-06   1.2903899158665582e-06   1.23245737597452e-05
-7.928067703194758e-06   1.2903899158665582e-06   1.23245737597452e-05
-7.928067703194758e-06   1.2903899158665582e-06   1.23245737597452e-05
-7.555135634256611e-06   1.7688440442808389e-06   1.3586046568019245e-05
-7.555135634256611e-06   1.7688440442808389e-06   1.3586046568019245e-05
-7.555135634256611e-06   1.7688440442808389e-06   1.3586046568019245e-05
-7.555135634256611e-06   1.7688440442808389e-06   1.3586046568019245e-05
-8.361341713018148e-06   3.9147415158559233e-07   1.1415947834466316e-05
-8.361341713018148e-06   3.9147415158559233e-07   1.1415947834466316e-05
-8.361341713018148e-06   3.9147415158559233e-07   1.1415947834466316e-05
-8.361341713018148e-06   3.9147415158559233e-07   1.1415947834466316e-05
-8.454405445175504e-06   1.4108295685595455e-06   1.3230764957669725e-05
-8.454405445175504e-06   1.4108295685595455e-06   1.3230764957669725e-05
-8.454405445175504e-06   1.4108295685595455e-06   1.3230764957669725e-05
-8.454405445175504e-06   1.4108295685595455e-06   1.3230764957669725e-05
-7.5915153905314024e-06   1.1424811700681825e-07   1.257056373752763e-05
-7.5915153905314024e-06   1.1424811700681825e-07   1.257056373752763e-05
-7.5915153905314024e-06   1.1424811700681825e-07   1.257056373752763e-05
-7.5915153905314024e-06   1.1424811700681825e-07   1.257056373752763e-05
-7.908088758065669e-06   1.0252082932104634e-06   1.2551609911028605e-05
-7.908088758065669e-06   1.0252082932104634e-06   1.2551609911028605e-05
-7.908088758065669e-06   1.0252082932104634e-06   1.2551609911028605e-05
-7.908088758065669e-06   1.0252082932104634e-06   1.2551609911028605e-05
-7.591515390531375e-06   1.4108295685595455e-06   1.4008713828600917e-05
-7.591515390531375e-06   1.4108295685595455e-06   1.4008713828600917e-05
-7.591515390531375e-06   1.4108295685595455e-06   1.4008713828600917e-05
-7.591515390531375e-06   1.4108295685595455e-06   1.4008713828600917e-05
-8.454405445175504e-06   1.1424811700681825e-07   1.1792614866596052e-05
-8.454405445175504e-06   1.1424811700681825e-07   1.1792614866596052e-05
-8.454405445175504e-06   1.1424811700681825e-07   1.1792614866596052e-05
-8.454405445175504e-06   1.1424811700681825e-07   1.1792614866596052e-05
-8.510694754349359e-06   1.045697717419621e-06   1.3815590937601182e-05
-8.510694754349359e-06   1.045697717419621e-06   1.3815590937601182e-05
-8.510694754349359e-06   1.045697717419621e-06   1.3815590937601182e-05
-8.510694754349359e-06   1.045697717419621e-06   1.3815590937601182e-05
-7.615928646639852e-06   -1.6536484349677274e-07   1.3050951627968503e-05
-7.615928646639852e-06   -1.6536484349677274e-07   1.3050951627968503e-05
-7.615928646639852e-06   -1.6536484349677274e-07   1.3050951627968503e-05
-7.615928646639852e-06   -1.6536484349677274e-07   1.3050951627968503e-05
-7.950564576593284e-06   7.880487453585999e-07   1.3036630024577391e-05
-7.950564576593284e-06   7.880487453585999e-07   1.3036630024577391e-05
-7.950564576593284e-06   7.880487453585999e-07   1.3036630024577391e-05
-7.950564576593284e-06   7.880487453585999e-07   1.3036630024577391e-05
-8.344680672520193e-06   2.572293087047201e-06   5.217154434691449e-06
-8.344680672520193e-06   2.572293087047201e-06   5.217154434691449e-06
-8.344680672520193e-06   2.572293087047201e-06   5.217154434691449e-06
-8.344680672520193e-06   2.572293087047201e-06   5.217154434691449e-06
-8.283363801969929e-06   1.1833721928038447e-06   4.485996682395912e-06
-8.283363801969929e-06   1.1833721928038447e-06   4.485996682395912e-06
-8.283363801969929e-06   1.1833721928038447e-06   4.485996682395912e-06
-8.283363801969929e-06   1.1833721928038447e-06   4.485996682395912e-06
-8.709519411859363e-06   2.3049131884439814e-06   5.719605834200248e-06
-8.709519411859363e-06   2.3049131884439814e-06   5.719605834200248e-06
-8.709519411859363e-06   2.3049131884439814e-06   5.719605834200248e-06
-8.709519411859363e-06   2.3049131884439814e-06   5.719605834200248e-06
-8.361341713018121e-06   9.538099776507493e-07   5.949971595940848e-06
-8.361341713018121e-06   9.538099776507493e-07   5.949971595940848e-06
-8.361341713018121e-06   9.538099776507493e-07   5.949971595940848e-06
-8.361341713018121e-06   9.538099776507493e-07   5.949971595940848e-06
-8.150621625651827e-06   1.8115392580643095e-06   5.084133882082267e-06
-8.150621625651827e-06   1.8115392580643095e-06   5.084133882082267e-06
-8.150621625651827e-06   1.8115392580643095e-06   5.084133882082267e-06
-8.150621625651827e-06   1.8115392580643095e-06   5.084133882082267e-06
-8.361341713018094e-06   2.3049131884440898e-06   6.5302677606760245e-06
-8.361341713018094e-06   2.3049131884440898e-06   6.5302677606760245e-06
-8.361341713018094e-06   2.3049131884440898e-06   6.5302677606760245e-06
-8.361341713018094e-06   2.3049131884440898e-06   6.5302677606760245e-06
-8.709519411859363e-06   9.538099776507493e-07   5.139309669464936e-06
-8.709519411859363e-06   9.538099776507493e-07   5.139309669464936e-06
-8.709519411859363e-06   9.538099776507493e-07   5.139309669464936e-06
-8.709519411859363e-06   9.538099776507493e-07   5.139309669464936e-06
-9.083402283279504e-06   2.120941128914912e-06   6.778774512000252e-06
-9.083402283279504e-06   2.120941128914912e-06   6.778774512000252e-06
-9.083402283279504e-06   2.120941128914912e-06   6.778774512000252e-06
-9.083402283279504e-06   2.120941128914912e-06   6.778774512000252e-06
-8.454405445175532e-06   8.038637401986803e-07   6.520692881723227e-06
-8.454405445175532e-06   8.038637401986803e-07   6.520692881723227e-06
-8.454405445175532e-06   8.038637401986803e-07   6.520692881723227e-06
-8.454405445175532e-06   8.038637401986803e-07   6.520692881723227e-06
-8.455406358712385e-06   1.6784448974592253e-06   5.997612376594627e-06
-8.455406358712385e-06   1.6784448974592253e-06   5.997612376594627e-06
-8.455406358712385e-06   1.6784448974592253e-06   5.997612376594627e-06
-8.455406358712385e-06   1.6784448974592253e-06   5.997612376594627e-06
-8.454405445175532e-06   2.1209411289150205e-06   7.569020945229839e-06
-8.454405445175532e-06   2.1209411289150205e-06   7.569020945229839e-06
-8.454405445175532e-06   2.1209411289150205e-06   7.569020945229839e-06
-8.454405445175532e-06   2.1209411289150205e-06   7.569020945229839e-06
-9.083402283279558e-06   8.038637401986803e-07   5.730446448493477e-06
-9.083402283279558e-06   8.038637401986803e-07   5.730446448493477e-06
-9.083402283279558e-06   8.038637401986803e-07   5.730446448493477e-06
-9.083402283279558e-06   8.038637401986803e-07   5.730446448493477e-06
-9.636811765892557e-06   1.6967971702219016e-06   8.723934484779357e-06
-9.636811765892557e-06   1.6967971702219016e-06   8.723934484779357e-06
-9.636811765892557e-06   1.6967971702219016e-06   8.723934484779357e-06
-9.636811765892557e-06   1.6967971702219016e-06   8.723934484779357e-06
-8.510694754349332e-06   5.004368244597001e-07   7.5648890063312216e-06
-8.510694754349332e-06   5.004368244597001e-07   7.5648890063312216e-06
-8.510694754349332e-06   5.004368244597001e-07   7.5648890063312216e-06
-8.510694754349332e-06   5.004368244597001e-07   7.5648890063312216e-06
-8.55869697956458e-06   1.5187648048326863e-06   7.033895926798772e-06
-8.55869697956458e-06   1.5187648048326863e-06   7.033895926798772e-06
-8.55869697956458e-06   1.5187648048326863e-06   7.033895926798772e-06
-8.55869697956458e-06   1.5187648048326863e-06   7.033895926798772e-06
-1.6203594507172407e-05   2.1465100429035448e-06   6.376397938594994e-06
-1.6203594507172407e-05   2.1465100429035448e-06   6.376397938594994e-06
-1.6203594507172407e-05   2.1465100429035448e-06   6.376397938594994e-06
-1.6203594507172407e-05   2.1465100429035448e-06   6.376397938594994e-06
-1.097209694007836e-05   2.9682129497284916e-06   1.5588582294513416e-05
-1.097209694007836e-05   2.9682129497284916e-06   1.5588582294513416e-05
-1.097209694007836e-05   2.9682129497284916e-06   1.5588582294513416e-05
-1.097209694007836e-05   2.9682129497284916e-06   1.5588582294513416e-05
-1.0969113468004286e-05   1.6742838627837133e-06   7.212794630503716e-06
-1.0969113468004286e-05   1.6742838627837133e-06   7.212794630503716e-06
-1.0969113468004286e-05   1.6742838627837133e-06   7.212794630503716e-06
-1.0969113468004286e-05   1.6742838627837133e-06   7.212794630503716e-06
-1.7866521003508512e-05   1.1864726665812206e-06   1.900116057406569e-05
-1.7866521003508512e-05   1.1864726665812206e-06   1.900116057406569e-05
-1.7866521003508512e-05   1.1864726665812206e-06   1.900116057406569e-05
-1.7866521003508512e-05   1.1864726665812206e-06   1.900116057406569e-05
-1.3279567307333544e-05   1.7552089731709473e-06   1.1014995963153543e-05
-1.3279567307333544e-05   1.7552089731709473e-06   1.1014995963153543e-05
-1.3279567307333544e-05   1.7552089731709473e-06   1.1014995963153543e-05
-1.3279567307333544e-05   1.7552089731709473e-06   1.1014995963153543e-05
-1.7866521003508546e-05   1.6742838627837133e-06   7.505481348225212e-06
-1.7866521003508546e-05   1.6742838627837133e-06   7.505481348225212e-06
-1.7866521003508546e-05   1.6742838627837133e-06   7.505481348225212e-06
-1.7866521003508546e-05   1.6742838627837133e-06   7.505481348225212e-06
-1.0969113468004286e-05   1.1864726665812206e-06   1.870847385634423e-05
-1.0969113468004286e-05   1.1864726665812206e-06   1.870847385634423e-05
-1.0969113468004286e-05   1.1864726665812206e-06   1.870847385634423e-05
-1.0969113468004286e-05   1.1864726665812206e-06   1.870847385634423e-05
-1.1124484367705759e-05   1.3489077380317424e-06   8.053415371639644e-06
-1.1124484367705759e-05   1.3489077380317424e-06   8.053415371639644e-06
-1.1124484367705759e-05   1.3489077380317424e-06   8.053415371639644e-06
-1.1124484367705759e-05   1.3489077380317424e-06   8.053415371639644e-06
-1.7934604617166542e-05   8.45719364952612e-07   1.970552881125502e-05
-1.7934604617166542e-05   8.45719364952612e-07   1.970552881125502e-05
-1.7934604617166542e-05   8.45719364952612e-07   1.970552881125502e-05
-1.7934604617166542e-05   8.45719364952612e-07   1.970552881125502e-05
-1.4179592619344142e-05   1.090679524744394e-06   1.3300199385675842e-05
-1.4179592619344142e-05   1.090679524744394e-06   1.3300199385675842e-05
-1.4179592619344142e-05   1.090679524744394e-06   1.3300199385675842e-05
-1.4179592619344142e-05   1.090679524744394e-06   1.3300199385675842e-05
-1.7934604617166576e-05   1.3489077380317424e-06   8.355328395487111e-06
-1.7934604617166576e-05   1.3489077380317424e-06   8.355328395487111e-06
-1.7934604617166576e-05   1.3489077380317424e-06   8.355328395487111e-06
-1.7934604617166576e-05   1.3489077380317424e-06   8.355328395487111e-06
-1.1124484367705745e-05   8.45719364952612e-07   1.9403615787407533e-05
-1.1124484367705745e-05   8.45719364952612e-07   1.9403615787407533e-05
-1.1124484367705745e-05   8.45719364952612e-07   1.9403615787407533e-05
-1.1124484367705745e-05   8.45719364952612e-07   1.9403615787407533e-05
-1.1011386329906254e-05   5.492089736816455e-07   9.522627749911631e-06
-1.1011386329906254e-05   5.492089736816455e-07   9.522627749911631e-06
-1.1011386329906254e-05   5.492089736816455e-07   9.522627749911631e-06
-1.1011386329906254e-05   5.492089736816455e-07   9.522627749911631e-06
-1.8137679201570335e-05   -6.067266463916315e-07   2.2093343908062333e-05
-1.8137679201570335e-05   -6.067266463916315e-07   2.2093343908062333e-05
-1.8137679201570335e-05   -6.067266463916315e-07   2.2093343908062333e-05
-1.8137679201570335e-05   -6.067266463916315e-07   2.2093343908062333e-05
-1.3968996022503494e-05   5.21809342785679e-07   1.4468417016111216e-05
-1.3968996022503494e-05   5.21809342785679e-07   1.4468417016111216e-05
-1.3968996022503494e-05   5.21809342785679e-07   1.4468417016111216e-05
-1.3968996022503494e-05   5.21809342785679e-07   1.4468417016111216e-05
-1.097209694007838e-05   5.562958352577389e-07   1.4548388316189937e-05
-1.097209694007838e-05   5.562958352577389e-07   1.4548388316189937e-05
-1.097209694007838e-05   5.562958352577389e-07   1.4548388316189937e-05
-1.097209694007838e-05   5.562958352577389e-07   1.4548388316189937e-05
-6.748139268646241e-06   -3.4031165816562697e-06   1.92126703184284e-05
-6.748139268646241e-06   -3.4031165816562697e-06   1.92126703184284e-05
-6.748139268646241e-06   -3.4031165816562697e-06   1.92126703184284e-05
-6.748139268646241e-06   -3.4031165816562697e-06   1.92126703184284e-05
-6.765519094879474e-06   2.6454422854030844e-07   1.2204186159901981e-05
-6.765519094879474e-06   2.6454422854030844e-07   1.2204186159901981e-05
-6.765519094879474e-06   2.6454422854030844e-07   1.2204186159901981e-05
-6.765519094879474e-06   2.6454422854030844e-07   1.2204186159901981e-05
-1.0969113468004286e-05   -2.7922001323601162e-06   2.104422339831704e-05
-1.0969113468004286e-05   -2.7922001323601162e-06   2.104422339831704e-05
-1.0969113468004286e-05   -2.7922001323601162e-06   2.104422339831704e-05
-1.0969113468004286e-05   -2.7922001323601162e-06   2.104422339831704e-05
-8.818080483492537e-06   -1.6839915816362896e-06   1.6794243293696565e-05
-8.818080483492537e-06   -1.6839915816362896e-06   1.6794243293696565e-05
-8.818080483492537e-06   -1.6839915816362896e-06   1.6794243293696565e-05
-8.818080483492537e-06   -1.6839915816362896e-06   1.6794243293696565e-05
-1.0969113468004296e-05   2.6454422854030844e-07   1.4038232776442073e-05
-1.0969113468004296e-05   2.6454422854030844e-07   1.4038232776442073e-05
-1.0969113468004296e-05   2.6454422854030844e-07   1.4038232776442073e-05
-1.0969113468004296e-05   2.6454422854030844e-07   1.4038232776442073e-05
-6.765519094879461e-06   -2.7922001323601162e-06   1.921017678177676e-05
-6.765519094879461e-06   -2.7922001323601162e-06   1.921017678177676e-05
-6.765519094879461e-06   -2.7922001323601162e-06   1.921017678177676e-05
-6.765519094879461e-06   -2.7922001323601162e-06   1.921017678177676e-05
-6.797390827469681e-06   -7.177996668751574e-08   1.2575829650409646e-05
-6.797390827469681e-06   -7.177996668751574e-08   1.2575829650409646e-05
-6.797390827469681e-06   -7.177996668751574e-08   1.2575829650409646e-05
-6.797390827469681e-06   -7.177996668751574e-08   1.2575829650409646e-05
-1.1124484367705745e-05   -2.8536281334984835e-06   2.1456761117556207e-05
-1.1124484367705745e-05   -2.8536281334984835e-06   2.1456761117556207e-05
-1.1124484367705745e-05   -2.8536281334984835e-06   2.1456761117556207e-05
-1.1124484367705745e-05   -2.8536281334984835e-06   2.1456761117556207e-05
-8.757516571598506e-06   -1.4715526300412428e-06   1.668256948863637e-05
-8.757516571598506e-06   -1.4715526300412428e-06   1.668256948863637e-05
-8.757516571598506e-06   -1.4715526300412428e-06   1.668256948863637e-05
-8.757516571598506e-06   -1.4715526300412428e-06   1.668256948863637e-05
-1.1124484367705759e-05   -7.177996668751574e-08   1.4244938550496172e-05
-1.1124484367705759e-05   -7.177996668751574e-08   1.4244938550496172e-05
-1.1124484367705759e-05   -7.177996668751574e-08   1.4244938550496172e-05
-1.1124484367705759e-05   -7.177996668751574e-08   1.4244938550496172e-05
-6.797390827469681e-06   -2.8536281334984835e-06   1.978765221746964e-05
-6.797390827469681e-06   -2.8536281334984835e-06   1.978765221746964e-05
-6.797390827469681e-06   -2.8536281334984835e-06   1.978765221746964e-05
-6.797390827469681e-06   -2.8536281334984835e-06   1.978765221746964e-05
-6.737394667282213e-06   -5.125183884579576e-07   1.3040572463347366e-05
-6.737394667282213e-06   -5.125183884579576e-07   1.3040572463347366e-05
-6.737394667282213e-06   -5.125183884579576e-07   1.3040572463347366e-05
-6.737394667282213e-06   -5.125183884579576e-07   1.3040572463347366e-05
-1.1011386329906224e-05   -2.874241712700758e-06   2.1580925895599604e-05
-1.1011386329906224e-05   -2.874241712700758e-06   2.1580925895599604e-05
-1.1011386329906224e-05   -2.874241712700758e-06   2.1580925895599604e-05
-1.1011386329906224e-05   -2.874241712700758e-06   2.1580925895599604e-05
-8.803903407723624e-06   -1.648665666225573e-06   1.7166442064076864e-05
-8.803903407723624e-06   -1.648665666225573e-06   1.7166442064076864e-05
-8.803903407723624e-06   -1.648665666225573e-06   1.7166442064076864e-05
-8.803903407723624e-06   -1.648665666225573e-06   1.7166442064076864e-05
-6.748139268646241e-06   1.5576274245150245e-07   1.3461828066215734e-05
-6.748139268646241e-06   1.5576274245150245e-07   1.3461828066215734e-05
-6.748139268646241e-06   1.5576274245150245e-07   1.3461828066215734e-05
-6.748139268646241e-06   1.5576274245150245e-07   1.3461828066215734e-05
-4.98501682893982e-06   -2.659118599811791e-06   1.4711436660368476e-05
-4.98501682893982e-06   -2.659118599811791e-06   1.4711436660368476e-05
-4.98501682893982e-06   -2.659118599811791e-06   1.4711436660368476e-05
-4.98501682893982e-06   -2.659118599811791e-06   1.4711436660368476e-05
-4.944850421241672e-06   -8.945403782366053e-08   1.1880784956115706e-05
-4.944850421241672e-06   -8.945403782366053e-08   1.1880784956115706e-05
-4.944850421241672e-06   -8.945403782366053e-08   1.1880784956115706e-05
-4.944850421241672e-06   -8.945403782366053e-08   1.1880784956115706e-05
-6.765519094879461e-06   -2.611590994601882e-06   1.6428514919579116e-05
-6.765519094879461e-06   -2.611590994601882e-06   1.6428514919579116e-05
-6.765519094879461e-06   -2.611590994601882e-06   1.6428514919579116e-05
-6.765519094879461e-06   -2.611590994601882e-06   1.6428514919579116e-05
-5.825529179925607e-06   -1.3426195311534717e-06   1.4100482183253792e-05
-5.825529179925607e-06   -1.3426195311534717e-06   1.4100482183253792e-05
-5.825529179925607e-06   -1.3426195311534717e-06   1.4100482183253792e-05
-5.825529179925607e-06   -1.3426195311534717e-06   1.4100482183253792e-05
-6.765519094879461e-06   -8.945403782366053e-08   1.3394067130182666e-05
-6.765519094879461e-06   -8.945403782366053e-08   1.3394067130182666e-05
-6.765519094879461e-06   -8.945403782366053e-08   1.3394067130182666e-05
-6.765519094879461e-06   -8.945403782366053e-08   1.3394067130182666e-05
-4.944850421241672e-06   -2.611590994601882e-06   1.4915232745512169e-05
-4.944850421241672e-06   -2.611590994601882e-06   1.4915232745512169e-05
-4.944850421241672e-06   -2.611590994601882e-06   1.4915232745512169e-05
-4.944850421241672e-06   -2.611590994601882e-06   1.4915232745512169e-05
-4.911870440034498e-06   -3.8300076721730324e-07   1.216286627895365e-05
-4.911870440034498e-06   -3.8300076721730324e-07   1.216286627895365e-05
-4.911870440034498e-06   -3.8300076721730324e-07   1.216286627895365e-05
-4.911870440034498e-06   -3.8300076721730324e-07   1.216286627895365e-05
-6.797390827469681e-06   -2.6902394037620493e-06   1.6689743439938967e-05
-6.797390827469681e-06   -2.6902394037620493e-06   1.6689743439938967e-05
-6.797390827469681e-06   -2.6902394037620493e-06   1.6689743439938967e-05
-6.797390827469681e-06   -2.6902394037620493e-06   1.6689743439938967e-05
-5.7785095392615034e-06   -1.4294093013102953e-06   1.4235109898120635e-05
-5.7785095392615034e-06   -1.4294093013102953e-06   1.4235109898120635e-05
-5.7785095392615034e-06   -1.4294093013102953e-06   1.4235109898120635e-05
-5.7785095392615034e-06   -1.4294093013102953e-06   1.4235109898120635e-05
-6.797390827469681e-06   -3.8300076721735745e-07   1.3547209460880428e-05
-6.797390827469681e-06   -3.8300076721735745e-07   1.3547209460880428e-05
-6.797390827469681e-06   -3.8300076721735745e-07   1.3547209460880428e-05
-6.797390827469681e-06   -3.8300076721735745e-07   1.3547209460880428e-05
-4.911870440034498e-06   -2.6902394037621035e-06   1.53054002580122e-05
-4.911870440034498e-06   -2.6902394037621035e-06   1.53054002580122e-05
-4.911870440034498e-06   -2.6902394037621035e-06   1.53054002580122e-05
-4.911870440034498e-06   -2.6902394037621035e-06   1.53054002580122e-05
-4.821700770648148e-06   -6.769972686021899e-07   1.2600351551315708e-05
-4.821700770648148e-06   -6.769972686021899e-07   1.2600351551315708e-05
-4.821700770648148e-06   -6.769972686021899e-07   1.2600351551315708e-05
-4.821700770648148e-06   -6.769972686021899e-07   1.2600351551315708e-05
-6.737394667282213e-06   -2.7998667947465457e-06   1.7066896428058942e-05
-6.737394667282213e-06   -2.7998667947465457e-06   1.7066896428058942e-05
-6.737394667282213e-06   -2.7998667947465457e-06   1.7066896428058942e-05
-6.737394667282213e-06   -2.7998667947465457e-06   1.7066896428058942e-05
-5.723873391333329e-06   -1.557026186229304e-06   1.4631989936367176e-05
-5.723873391333329e-06   -1.557026186229304e-06   1.4631989936367176e-05
-5.723873391333329e-06   -1.557026186229304e-06   1.4631989936367176e-05
-5.723873391333329e-06   -1.557026186229304e-06   1.4631989936367176e-05
-4.98501682893982e-06   7.149603360216629e-07   9.182150987286307e-06
-4.98501682893982e-06   7.149603360216629e-07   9.182150987286307e-06
-4.98501682893982e-06   7.149603360216629e-07   9.182150987286307e-06
-4.98501682893982e-06   7.149603360216629e-07   9.182150987286307e-06
-4.180270544024904e-06   -1.0931891249167072e-06   9.43850511891489e-06
-4.180270544024904e-06   -1.0931891249167072e-06   9.43850511891489e-06
-4.180270544024904e-06   -1.0931891249167072e-06   9.43850511891489e-06
-4.180270544024904e-06   -1.0931891249167072e-06   9.43850511891489e-06
-4.095517695312963e-06   3.9147415158559233e-07   8.291417436995458e-06
-4.095517695312963e-06   3.9147415158559233e-07   8.291417436995458e-06
-4.095517695312963e-06   3.9147415158559233e-07   8.291417436995458e-06
-4.095517695312963e-06   3.9147415158559233e-07   8.291417436995458e-06
-4.944850421241672e-06   -1.2777511753029984e-06   1.070850717634341e-05
-4.944850421241672e-06   -1.2777511753029984e-06   1.070850717634341e-05
-4.944850421241672e-06   -1.2777511753029984e-06   1.070850717634341e-05
-4.944850421241672e-06   -1.2777511753029984e-06   1.070850717634341e-05
-4.518426811932747e-06   -2.4972863197649485e-07   9.380987634832717e-06
-4.518426811932747e-06   -2.4972863197649485e-07   9.380987634832717e-06
-4.518426811932747e-06   -2.4972863197649485e-07   9.380987634832717e-06
-4.518426811932747e-06   -2.4972863197649485e-07   9.380987634832717e-06
-4.944850421241672e-06   3.9147415158559233e-07   9.292952633128731e-06
-4.944850421241672e-06   3.9147415158559233e-07   9.292952633128731e-06
-4.944850421241672e-06   3.9147415158559233e-07   9.292952633128731e-06
-4.944850421241672e-06   3.9147415158559233e-07   9.292952633128731e-06
-4.095517695312963e-06   -1.2777511753029984e-06   9.70697198021019e-06
-4.095517695312963e-06   -1.2777511753029984e-06   9.70697198021019e-06
-4.095517695312963e-06   -1.2777511753029984e-06   9.70697198021019e-06
-4.095517695312963e-06   -1.2777511753029984e-06   9.70697198021019e-06
-4.0602666344320476e-06   1.1424811700681825e-07   8.682034451766726e-06
-4.0602666344320476e-06   1.1424811700681825e-07   8.682034451766726e-06
-4.0602666344320476e-06   1.1424811700681825e-07   8.682034451766726e-06
-4.0602666344320476e-06   1.1424811700681825e-07   8.682034451766726e-06
-4.911870440034498e-06   -1.4193875317355237e-06   1.1021555517015961e-05
-4.911870440034498e-06   -1.4193875317355237e-06   1.1021555517015961e-05
-4.911870440034498e-06   -1.4193875317355237e-06   1.1021555517015961e-05
-4.911870440034498e-06   -1.4193875317355237e-06   1.1021555517015961e-05
-4.434218734127794e-06   -4.4607011047566834e-07   9.64147888774837e-06
-4.434218734127794e-06   -4.4607011047566834e-07   9.64147888774837e-06
-4.434218734127794e-06   -4.4607011047566834e-07   9.64147888774837e-06
-4.434218734127794e-06   -4.4607011047566834e-07   9.64147888774837e-06
-4.911870440034498e-06   1.1424811700681825e-07   9.602215841011887e-06
-4.911870440034498e-06   1.1424811700681825e-07   9.602215841011887e-06
-4.911870440034498e-06   1.1424811700681825e-07   9.602215841011887e-06
-4.911870440034498e-06   1.1424811700681825e-07   9.602215841011887e-06
-4.060266634432102e-06   -1.4193875317355237e-06   1.010137412777053e-05
-4.060266634432102e-06   -1.4193875317355237e-06   1.010137412777053e-05
-4.060266634432102e-06   -1.4193875317355237e-06   1.010137412777053e-05
-4.060266634432102e-06   -1.4193875317355237e-06   1.010137412777053e-05
-3.9988422886631445e-06   -1.6536484349682695e-07   9.172556884312101e-06
-3.9988422886631445e-06   -1.6536484349682695e-07   9.172556884312101e-06
-3.9988422886631445e-06   -1.6536484349682695e-07   9.172556884312101e-06
-3.9988422886631445e-06   -1.6536484349682695e-07   9.172556884312101e-06
-4.821700770648148e-06   -1.6046611229817928e-06   1.140756545531138e-05
-4.821700770648148e-06   -1.6046611229817928e-06   1.140756545531138e-05
-4.821700770648148e-06   -1.6046611229817928e-06   1.140756545531138e-05
-4.821700770648148e-06   -1.6046611229817928e-06   1.140756545531138e-05
-4.3707538950343996e-06   -6.186143530346176e-07   1.0064359267320487e-05
-4.3707538950343996e-06   -6.186143530346176e-07   1.0064359267320487e-05
-4.3707538950343996e-06   -6.186143530346176e-07   1.0064359267320487e-05
-4.3707538950343996e-06   -6.186143530346176e-07   1.0064359267320487e-05
-4.180270544024904e-06   1.1833721928037905e-06   2.1316494667027457e-06
-4.180270544024904e-06   1.1833721928037905e-06   2.1316494667027457e-06
-4.180270544024904e-06   1.1833721928037905e-06   2.1316494667027457e-06
-4.180270544024904e-06   1.1833721928037905e-06   2.1316494667027457e-06
-2.4548117905912243e-06   -1.1900547455923169e-07   4.225987455341081e-06
-2.4548117905912243e-06   -1.1900547455923169e-07   4.225987455341081e-06
-2.4548117905912243e-06   -1.1900547455923169e-07   4.225987455341081e-06
-2.4548117905912243e-06   -1.1900547455923169e-07   4.225987455341081e-06
-2.5981961765667223e-06   9.538099776507493e-07   2.152766186135969e-06
-2.5981961765667223e-06   9.538099776507493e-07   2.152766186135969e-06
-2.5981961765667223e-06   9.538099776507493e-07   2.152766186135969e-06
-2.5981961765667223e-06   9.538099776507493e-07   2.152766186135969e-06
-4.095517695312963e-06   -1.6731504290615098e-07   5.320977063047287e-06
-4.095517695312963e-06   -1.6731504290615098e-07   5.320977063047287e-06
-4.095517695312963e-06   -1.6731504290615098e-07   5.320977063047287e-06
-4.095517695312963e-06   -1.6731504290615098e-07   5.320977063047287e-06
-3.217502228453615e-06   6.091574296379501e-07   3.3917344680887735e-06
-3.217502228453615e-06   6.091574296379501e-07   3.3917344680887735e-06
-3.217502228453615e-06   6.091574296379501e-07   3.3917344680887735e-06
-3.217502228453615e-06   6.091574296379501e-07   3.3917344680887735e-06
-4.095517695312963e-06   9.538099776507493e-07   2.8254411984699303e-06
-4.095517695312963e-06   9.538099776507493e-07   2.8254411984699303e-06
-4.095517695312963e-06   9.538099776507493e-07   2.8254411984699303e-06
-4.095517695312963e-06   9.538099776507493e-07   2.8254411984699303e-06
-2.5981961765667223e-06   -1.673150429061781e-07   4.648302050713272e-06
-2.5981961765667223e-06   -1.673150429061781e-07   4.648302050713272e-06
-2.5981961765667223e-06   -1.673150429061781e-07   4.648302050713272e-06
-2.5981961765667223e-06   -1.673150429061781e-07   4.648302050713272e-06
-2.7165343850621805e-06   8.038637401986803e-07   2.7884435290606883e-06
-2.7165343850621805e-06   8.038637401986803e-07   2.7884435290606883e-06
-2.7165343850621805e-06   8.038637401986803e-07   2.7884435290606883e-06
-2.7165343850621805e-06   8.038637401986803e-07   2.7884435290606883e-06
-4.0602666344320476e-06   -2.3225115618991468e-07   5.6496662158436e-06
-4.0602666344320476e-06   -2.3225115618991468e-07   5.6496662158436e-06
-4.0602666344320476e-06   -2.3225115618991468e-07   5.6496662158436e-06
-4.0602666344320476e-06   -2.3225115618991468e-07   5.6496662158436e-06
-3.2794699703825097e-06   4.964608294028526e-07   3.91111125107172e-06
-3.2794699703825097e-06   4.964608294028526e-07   3.91111125107172e-06
-3.2794699703825097e-06   4.964608294028526e-07   3.91111125107172e-06
-3.2794699703825097e-06   4.964608294028526e-07   3.91111125107172e-06
-4.0602666344320476e-06   8.038637401987345e-07   3.410112466893894e-06
-4.0602666344320476e-06   8.038637401987345e-07   3.410112466893894e-06
-4.0602666344320476e-06   8.038637401987345e-07   3.410112466893894e-06
-4.0602666344320476e-06   8.038637401987345e-07   3.410112466893894e-06
-2.7165343850622348e-06   -2.3225115618991468e-07   5.027997278010394e-06
-2.7165343850622348e-06   -2.3225115618991468e-07   5.027997278010394e-06
-2.7165343850622348e-06   -2.3225115618991468e-07   5.027997278010394e-06
-2.7165343850622348e-06   -2.3225115618991468e-07   5.027997278010394e-06
-2.9991053776992453e-06   5.004368244597001e-07   3.9252983781597455e-06
-2.9991053776992453e-06   5.004368244597001e-07   3.9252983781597455e-06
-2.9991053776992453e-06   5.004368244597001e-07   3.9252983781597455e-06
-2.9991053776992453e-06   5.004368244597001e-07   3.9252983781597455e-06
-3.9988422886631445e-06   -3.1261887731512416e-07   6.079359984164311e-06
-3.9988422886631445e-06   -3.1261887731512416e-07   6.079359984164311e-06
-3.9988422886631445e-06   -3.1261887731512416e-07   6.079359984164311e-06
-3.9988422886631445e-06   -3.1261887731512416e-07   6.079359984164311e-06
-3.2913344668158084e-06   4.193842660233358e-07   4.460978395082421e-06
-3.2913344668158084e-06   4.193842660233358e-07   4.460978395082421e-06
-3.2913344668158084e-06   4.193842660233358e-07   4.460978395082421e-06
-3.2913344668158084e-06   4.193842660233358e-07   4.460978395082421e-06
-3.8137881403283554e-05   2.9682129497284916e-06   1.6551113347035653e-05
-3.8137881403283554e-05   2.9682129497284916e-06   1.6551113347035653e-05
-3.8137881403283554e-05   2.9682129497284916e-06   1.6551113347035653e-05
-3.8137881403283554e-05   2.9682129497284916e-06   1.6551113347035653e-05
-8.941850809048724e-06   -1.889109776211428e-05   5.209557791032141e-05
-8.941850809048724e-06   -1.889109776211428e-05   5.209557791032141e-05
-8.941850809048724e-06   -1.889109776211428e-05   5.209557791032141e-05
-8.941850809048724e-06   -1.889109776211428e-05   5.209557791032141e-05
-1.0511840312632867e-05   1.1864726665812477e-06   9.064523782802999e-06
-1.0511840312632867e-05   1.1864726665812477e-06   9.064523782802999e-06
-1.0511840312632867e-05   1.1864726665812477e-06   9.064523782802999e-06
-1.0511840312632867e-05   1.1864726665812477e-06   9.064523782802999e-06
-3.4783018954573454e-05   -1.4721594212869287e-05   5.906132831370753e-05
-3.4783018954573454e-05   -1.4721594212869287e-05   5.906132831370753e-05
-3.4783018954573454e-05   -1.4721594212869287e-05   5.906132831370753e-05
-3.4783018954573454e-05   -1.4721594212869287e-05   5.906132831370753e-05
-2.318511919349826e-05   -7.3274308966499646e-06   3.529499738885061e-05
-2.318511919349826e-05   -7.3274308966499646e-06   3.529499738885061e-05
-2.318511919349826e-05   -7.3274308966499646e-06   3.529499738885061e-05
-2.318511919349826e-05   -7.3274308966499646e-06   3.529499738885061e-05
-3.4783018954573393e-05   1.1864726665812477e-06   1.8609363910473286e-05
-3.4783018954573393e-05   1.1864726665812477e-06   1.8609363910473286e-05
-3.4783018954573393e-05   1.1864726665812477e-06   1.8609363910473286e-05
-3.4783018954573393e-05   1.1864726665812477e-06   1.8609363910473286e-05
-1.0511840312632887e-05   -1.4721594212869287e-05   4.951648818603723e-05
-1.0511840312632887e-05   -1.4721594212869287e-05   4.951648818603723e-05
-1.0511840312632887e-05   -1.4721594212869287e-05   4.951648818603723e-05
-1.0511840312632887e-05   -1.4721594212869287e-05   4.951648818603723e-05
-1.0757726692142285e-05   8.457193649526391e-07   9.962318636767996e-06
-1.0757726692142285e-05   8.457193649526391e-07   9.962318636767996e-06
-1.0757726692142285e-05   8.457193649526391e-07   9.962318636767996e-06
-1.0757726692142285e-05   8.457193649526391e-07   9.962318636767996e-06
-3.2820547599065574e-05   -1.2717632644101594e-05   5.487169802040592e-05
-3.2820547599065574e-05   -1.2717632644101594e-05   5.487169802040592e-05
-3.2820547599065574e-05   -1.2717632644101594e-05   5.487169802040592e-05
-3.2820547599065574e-05   -1.2717632644101594e-05   5.487169802040592e-05
-2.249810640011654e-05   -6.946070665768848e-06   3.420469216849128e-05
-2.249810640011654e-05   -6.946070665768848e-06   3.420469216849128e-05
-2.249810640011654e-05   -6.946070665768848e-06   3.420469216849128e-05
-2.249810640011654e-05   -6.946070665768848e-06   3.420469216849128e-05
-3.282054759906551e-05   8.457193649526391e-07   1.8100329842200515e-05
-3.282054759906551e-05   8.457193649526391e-07   1.8100329842200515e-05
-3.282054759906551e-05   8.457193649526391e-07   1.8100329842200515e-05
-3.282054759906551e-05   8.457193649526391e-07   1.8100329842200515e-05
-1.0757726692142298e-05   -1.2717632644101594e-05   4.67336868149734e-05
-1.0757726692142298e-05   -1.2717632644101594e-05   4.67336868149734e-05
-1.0757726692142298e-05   -1.2717632644101594e-05   4.67336868149734e-05
-1.0757726692142298e-05   -1.2717632644101594e-05   4.67336868149734e-05
-1.1800611395168314e-05   -6.067266463916587e-07   1.2467488162199697e-05
-1.1800611395168314e-05   -6.067266463916587e-07   1.2467488162199697e-05
-1.1800611395168314e-05   -6.067266463916587e-07   1.2467488162199697e-05
-1.1800611395168314e-05   -6.067266463916587e-07   1.2467488162199697e-05
-3.030223331788975e-05   -1.0053091077884768e-05   4.897134335896454e-05
-3.030223331788975e-05   -1.0053091077884768e-05   4.897134335896454e-05
-3.030223331788975e-05   -1.0053091077884768e-05   4.897134335896454e-05
-3.030223331788975e-05   -1.0053091077884768e-05   4.897134335896454e-05
-2.1648493734982342e-05   -6.413665491094002e-06   3.236478870204445e-05
-2.1648493734982342e-05   -6.413665491094002e-06   3.236478870204445e-05
-2.1648493734982342e-05   -6.413665491094002e-06   3.236478870204445e-05
-2.1648493734982342e-05   -6.413665491094002e-06   3.236478870204445e-05
-8.94185080904871e-06   -3.4031165816562697e-06   9.435262393993381e-06
-8.94185080904871e-06   -3.4031165816562697e-06   9.435262393993381e-06
-8.94185080904871e-06   -3.4031165816562697e-06   9.435262393993381e-06
-8.94185080904871e-06   -3.4031165816562697e-06   9.435262393993381e-06
-3.107807463451919e-06   -5.926619521513507e-06   1.764456620607372e-05
-3.107807463451919e-06   -5.926619521513507e-06   1.764456620607372e-05
-3.107807463451919e-06   -5.926619521513507e-06   1.764456620607372e-05
-3.107807463451919e-06   -5.926619521513507e-06   1.764456620607372e-05
-3.481376132288987e-06   -2.7922001323601162e-06   8.378642362789662e-06
-3.481376132288987e-06   -2.7922001323601162e-06   8.378642362789662e-06
-3.481376132288987e-06   -2.7922001323601162e-06   8.378642362789662e-06
-3.481376132288987e-06   -2.7922001323601162e-06   8.378642362789662e-06
-1.0511840312632887e-05   -7.828251735670309e-06   2.3117713625348853e-05
-1.0511840312632887e-05   -7.828251735670309e-06   2.3117713625348853e-05
-1.0511840312632887e-05   -7.828251735670309e-06   2.3117713625348853e-05
-1.0511840312632887e-05   -7.828251735670309e-06   2.3117713625348853e-05
-6.17106758583611e-06   -4.09080250754674e-06   1.3640622877146737e-05
-6.17106758583611e-06   -4.09080250754674e-06   1.3640622877146737e-05
-6.17106758583611e-06   -4.09080250754674e-06   1.3640622877146737e-05
-6.17106758583611e-06   -4.09080250754674e-06   1.3640622877146737e-05
-1.051184031263286e-05   -2.7922001323601162e-06   1.140027332477566e-05
-1.051184031263286e-05   -2.7922001323601162e-06   1.140027332477566e-05
-1.051184031263286e-05   -2.7922001323601162e-06   1.140027332477566e-05
-1.051184031263286e-05   -2.7922001323601162e-06   1.140027332477566e-05
-3.481376132288987e-06   -7.828251735670309e-06   2.009608266336276e-05
-3.481376132288987e-06   -7.828251735670309e-06   2.009608266336276e-05
-3.481376132288987e-06   -7.828251735670309e-06   2.009608266336276e-05
-3.481376132288987e-06   -7.828251735670309e-06   2.009608266336276e-05
-3.802171435037568e-06   -2.8536281334984835e-06   9.42215059575202e-06
-3.802171435037568e-06   -2.8536281334984835e-06   9.42215059575202e-06
-3.802171435037568e-06   -2.8536281334984835e-06   9.42215059575202e-06
-3.802171435037568e-06   -2.8536281334984835e-06   9.42215059575202e-06
-1.0757726692142298e-05   -7.175817085439595e-06   2.360805606209119e-05
-1.0757726692142298e-05   -7.175817085439595e-06   2.360805606209119e-05
-1.0757726692142298e-05   -7.175817085439595e-06   2.360805606209119e-05
-1.0757726692142298e-05   -7.175817085439595e-06   2.360805606209119e-05
-6.969520714141101e-06   -4.992141850710413e-06   1.5984174291251775e-05
-6.969520714141101e-06   -4.992141850710413e-06   1.5984174291251775e-05
-6.969520714141101e-06   -4.992141850710413e-06   1.5984174291251775e-05
-6.969520714141101e-06   -4.992141850710413e-06   1.5984174291251775e-05
-1.0757726692142285e-05   -2.8536281334984835e-06   1.2015463966916684e-05
-1.0757726692142285e-05   -2.8536281334984835e-06   1.2015463966916684e-05
-1.0757726692142285e-05   -2.8536281334984835e-06   1.2015463966916684e-05
-1.0757726692142285e-05   -2.8536281334984835e-06   1.2015463966916684e-05
-3.802171435037568e-06   -7.175817085439595e-06   2.101474269092652e-05
-3.802171435037568e-06   -7.175817085439595e-06   2.101474269092652e-05
-3.802171435037568e-06   -7.175817085439595e-06   2.101474269092652e-05
-3.802171435037568e-06   -7.175817085439595e-06   2.101474269092652e-05
-4.3256118925705445e-06   -2.874241712700731e-06   1.0315632236744483e-05
-4.3256118925705445e-06   -2.874241712700731e-06   1.0315632236744483e-05
-4.3256118925705445e-06   -2.874241712700731e-06   1.0315632236744483e-05
-4.3256118925705445e-06   -2.874241712700731e-06   1.0315632236744483e-05
-1.1800611395168328e-05   -6.762573854428249e-06   2.5106964026110526e-05
-1.1800611395168328e-05   -6.762573854428249e-06   2.5106964026110526e-05
-1.1800611395168328e-05   -6.762573854428249e-06   2.5106964026110526e-05
-1.1800611395168328e-05   -6.762573854428249e-06   2.5106964026110526e-05
-7.441184121392055e-06   -4.559586839810749e-06   1.6519459694379617e-05
-7.441184121392055e-06   -4.559586839810749e-06   1.6519459694379617e-05
-7.441184121392055e-06   -4.559586839810749e-06   1.6519459694379617e-05
-7.441184121392055e-06   -4.559586839810749e-06   1.6519459694379617e-05
-3.107807463451919e-06   -2.6591185998118183e-06   5.108855777377028e-06
-3.107807463451919e-06   -2.6591185998118183e-06   5.108855777377028e-06
-3.107807463451919e-06   -2.6591185998118183e-06   5.108855777377028e-06
-3.107807463451919e-06   -2.6591185998118183e-06   5.108855777377028e-06
-1.7382600404038584e-06   -1.6956108879558925e-06   7.969539442904088e-06
-1.7382600404038584e-06   -1.6956108879558925e-06   7.969539442904088e-06
-1.7382600404038584e-06   -1.6956108879558925e-06   7.969539442904088e-06
-1.7382600404038584e-06   -1.6956108879558925e-06   7.969539442904088e-06
-1.6758433271507882e-06   -2.611590994601909e-06   5.840090835175168e-06
-1.6758433271507882e-06   -2.611590994601909e-06   5.840090835175168e-06
-1.6758433271507882e-06   -2.611590994601909e-06   5.840090835175168e-06
-1.6758433271507882e-06   -2.611590994601909e-06   5.840090835175168e-06
-3.481376132288987e-06   -2.2064071036299636e-06   8.606201842488909e-06
-3.481376132288987e-06   -2.2064071036299636e-06   8.606201842488909e-06
-3.481376132288987e-06   -2.2064071036299636e-06   8.606201842488909e-06
-3.481376132288987e-06   -2.2064071036299636e-06   8.606201842488909e-06
-2.3420866133173134e-06   -2.164155532330831e-06   6.682035034756578e-06
-2.3420866133173134e-06   -2.164155532330831e-06   6.682035034756578e-06
-2.3420866133173134e-06   -2.164155532330831e-06   6.682035034756578e-06
-2.3420866133173134e-06   -2.164155532330831e-06   6.682035034756578e-06
-3.481376132288987e-06   -2.611590994601882e-06   5.59698050059206e-06
-3.481376132288987e-06   -2.611590994601882e-06   5.59698050059206e-06
-3.481376132288987e-06   -2.611590994601882e-06   5.59698050059206e-06
-3.481376132288987e-06   -2.611590994601882e-06   5.59698050059206e-06
-1.6758433271508153e-06   -2.2064071036299636e-06   8.849312177072098e-06
-1.6758433271508153e-06   -2.2064071036299636e-06   8.849312177072098e-06
-1.6758433271508153e-06   -2.2064071036299636e-06   8.849312177072098e-06
-1.6758433271508153e-06   -2.2064071036299636e-06   8.849312177072098e-06
-1.6840679848689072e-06   -2.6902394037620764e-06   6.247712324201763e-06
-1.6840679848689072e-06   -2.6902394037620764e-06   6.247712324201763e-06
-1.6840679848689072e-06   -2.6902394037620764e-06   6.247712324201763e-06
-1.6840679848689072e-06   -2.6902394037620764e-06   6.247712324201763e-06
-3.802171435037568e-06   -2.8177885604614936e-06   9.854414235169038e-06
-3.802171435037568e-06   -2.8177885604614936e-06   9.854414235169038e-06
-3.802171435037568e-06   -2.8177885604614936e-06   9.854414235169038e-06
-3.802171435037568e-06   -2.8177885604614936e-06   9.854414235169038e-06
-2.490110973484774e-06   -2.365891693657709e-06   7.396508679165476e-06
-2.490110973484774e-06   -2.365891693657709e-06   7.396508679165476e-06
-2.490110973484774e-06   -2.365891693657709e-06   7.396508679165476e-06
-2.490110973484774e-06   -2.365891693657709e-06   7.396508679165476e-06
-3.8021714350375545e-06   -2.6902394037620493e-06   6.3242418182213875e-06
-3.8021714350375545e-06   -2.6902394037620493e-06   6.3242418182213875e-06
-3.8021714350375545e-06   -2.6902394037620493e-06   6.3242418182213875e-06
-3.8021714350375545e-06   -2.6902394037620493e-06   6.3242418182213875e-06
-1.6840679848689072e-06   -2.8177885604614936e-06   9.777884741149387e-06
-1.6840679848689072e-06   -2.8177885604614936e-06   9.777884741149387e-06
-1.6840679848689072e-06   -2.8177885604614936e-06   9.777884741149387e-06
-1.6840679848689072e-06   -2.8177885604614936e-06   9.777884741149387e-06
-1.7194185549115025e-06   -2.799866794746573e-06   6.859749400128768e-06
-1.7194185549115025e-06   -2.799866794746573e-06   6.859749400128768e-06
-1.7194185549115025e-06   -2.799866794746573e-06   6.859749400128768e-06
-1.7194185549115025e-06   -2.799866794746573e-06   6.859749400128768e-06
-4.325611892570558e-06   -3.3980124007810724e-06   1.1562292326514485e-05
-4.325611892570558e-06   -3.3980124007810724e-06   1.1562292326514485e-05
-4.325611892570558e-06   -3.3980124007810724e-06   1.1562292326514485e-05
-4.325611892570558e-06   -3.3980124007810724e-06   1.1562292326514485e-05
-2.660035832649495e-06   -2.578683343012182e-06   8.294734791984744e-06
-2.660035832649495e-06   -2.578683343012182e-06   8.294734791984744e-06
-2.660035832649495e-06   -2.578683343012182e-06   8.294734791984744e-06
-2.660035832649495e-06   -2.578683343012182e-06   8.294734791984744e-06
-1.7382600404038584e-06   -1.0931891249167072e-06   1.4989185396000989e-06
-1.7382600404038584e-06   -1.0931891249167072e-06   1.4989185396000989e-06
-1.7382600404038584e-06   -1.0931891249167072e-06   1.4989185396000989e-06
-1.7382600404038584e-06   -1.0931891249167072e-06   1.4989185396000989e-06
-1.3010430355273918e-06   2.4630249304066025e-07   3.031308518501889e-06
-1.3010430355273918e-06   2.4630249304066025e-07   3.031308518501889e-06
-1.3010430355273918e-06   2.4630249304066025e-07   3.031308518501889e-06
-1.3010430355273918e-06   2.4630249304066025e-07   3.031308518501889e-06
-1.057351070715847e-06   -1.2777511753029984e-06   2.435807548145717e-06
-1.057351070715847e-06   -1.2777511753029984e-06   2.435807548145717e-06
-1.057351070715847e-06   -1.2777511753029984e-06   2.435807548145717e-06
-1.057351070715847e-06   -1.2777511753029984e-06   2.435807548145717e-06
-1.6758433271508153e-06   5.965262826261339e-08   2.664185693397711e-06
-1.6758433271508153e-06   5.965262826261339e-08   2.664185693397711e-06
-1.6758433271508153e-06   5.965262826261339e-08   2.664185693397711e-06
-1.6758433271508153e-06   5.965262826261339e-08   2.664185693397711e-06
-1.3536718848592983e-06   -5.273228393789858e-07   2.4794185701635025e-06
-1.3536718848592983e-06   -5.273228393789858e-07   2.4794185701635025e-06
-1.3536718848592983e-06   -5.273228393789858e-07   2.4794185701635025e-06
-1.3536718848592983e-06   -5.273228393789858e-07   2.4794185701635025e-06
-1.6758433271508153e-06   -1.2777511753029984e-06   1.6333652660063412e-06
-1.6758433271508153e-06   -1.2777511753029984e-06   1.6333652660063412e-06
-1.6758433271508153e-06   -1.2777511753029984e-06   1.6333652660063412e-06
-1.6758433271508153e-06   -1.2777511753029984e-06   1.6333652660063412e-06
-1.057351070715847e-06   5.965262826261339e-08   3.466627975537114e-06
-1.057351070715847e-06   5.965262826261339e-08   3.466627975537114e-06
-1.057351070715847e-06   5.965262826261339e-08   3.466627975537114e-06
-1.057351070715847e-06   5.965262826261339e-08   3.466627975537114e-06
-9.256230079060426e-07   -1.4193875317355237e-06   2.6763391550006462e-06
-9.256230079060426e-07   -1.4193875317355237e-06   2.6763391550006462e-06
-9.256230079060426e-07   -1.4193875317355237e-06   2.6763391550006462e-06
-9.256230079060426e-07   -1.4193875317355237e-06   2.6763391550006462e-06
-1.6840679848689072e-06   -2.319349120769257e-07   3.227942544810228e-06
-1.6840679848689072e-06   -2.319349120769257e-07   3.227942544810228e-06
-1.6840679848689072e-06   -2.319349120769257e-07   3.227942544810228e-06
-1.6840679848689072e-06   -2.319349120769257e-07   3.227942544810228e-06
-1.2312578339824788e-06   -6.724114836516326e-07   2.73754490294427e-06
-1.2312578339824788e-06   -6.724114836516326e-07   2.73754490294427e-06
-1.2312578339824788e-06   -6.724114836516326e-07   2.73754490294427e-06
-1.2312578339824788e-06   -6.724114836516326e-07   2.73754490294427e-06
-1.6840679848689072e-06   -1.4193875317355237e-06   1.9638675832053993e-06
-1.6840679848689072e-06   -1.4193875317355237e-06   1.9638675832053993e-06
-1.6840679848689072e-06   -1.4193875317355237e-06   1.9638675832053993e-06
-1.6840679848689072e-06   -1.4193875317355237e-06   1.9638675832053993e-06
-9.256230079060426e-07   -2.319349120769257e-07   3.940414116605339e-06
-9.256230079060426e-07   -2.319349120769257e-07   3.940414116605339e-06
-9.256230079060426e-07   -2.319349120769257e-07   3.940414116605339e-06
-9.256230079060426e-07   -2.319349120769257e-07   3.940414116605339e-06
-7.238552763952789e-07   -1.6046611229817928e-06   2.941676318700978e-06
-7.238552763952789e-07   -1.6046611229817928e-06   2.941676318700978e-06
-7.238552763952789e-07   -1.6046611229817928e-06   2.941676318700978e-06
-7.238552763952789e-07   -1.6046611229817928e-06   2.941676318700978e-06
-1.7194185549115025e-06   -8.254341635931688e-07   4.133412273928073e-06
-1.7194185549115025e-06   -8.254341635931688e-07   4.133412273928073e-06
-1.7194185549115025e-06   -8.254341635931688e-07   4.133412273928073e-06
-1.7194185549115025e-06   -8.254341635931688e-07   4.133412273928073e-06
-1.1337318231263542e-06   -8.922665130724932e-07   3.1973671306406975e-06
-1.1337318231263542e-06   -8.922665130724932e-07   3.1973671306406975e-06
-1.1337318231263542e-06   -8.922665130724932e-07   3.1973671306406975e-06
-1.1337318231263542e-06   -8.922665130724932e-07   3.1973671306406975e-06
-1.3010430355273918e-06   -1.1900547455923169e-07   -2.1284775527815572e-06
-1.3010430355273918e-06   -1.1900547455923169e-07   -2.1284775527815572e-06
-1.3010430355273918e-06   -1.1900547455923169e-07   -2.1284775527815572e-06
-1.3010430355273918e-06   -1.1900547455923169e-07   -2.1284775527815572e-06
-2.528030170063076e-07   1.8195241854221977e-07   -2.0083611938542974e-07
-2.528030170063076e-07   1.8195241854221977e-07   -2.0083611938542974e-07
-2.528030170063076e-07   1.8195241854221977e-07   -2.0083611938542974e-07
-2.528030170063076e-07   1.8195241854221977e-07   -2.0083611938542974e-07
-1.3901009141307694e-08   -1.673150429061781e-07   -1.661957226829075e-06
-1.3901009141307694e-08   -1.673150429061781e-07   -1.661957226829075e-06
-1.3901009141307694e-08   -1.673150429061781e-07   -1.661957226829075e-06
-1.3901009141307694e-08   -1.673150429061781e-07   -1.661957226829075e-06
-1.057351070715847e-06   3.130685274071326e-07   -2.1110393305954827e-07
-1.057351070715847e-06   3.130685274071326e-07   -2.1110393305954827e-07
-1.057351070715847e-06   3.130685274071326e-07   -2.1110393305954827e-07
-1.057351070715847e-06   3.130685274071326e-07   -2.1110393305954827e-07
-5.998095078358712e-07   8.543302817612527e-08   -8.370919049879117e-07
-5.998095078358712e-07   8.543302817612527e-08   -8.370919049879117e-07
-5.998095078358712e-07   8.543302817612527e-08   -8.370919049879117e-07
-5.998095078358712e-07   8.543302817612527e-08   -8.370919049879117e-07
-1.057351070715847e-06   -1.6731504290615098e-07   -1.9501873690172945e-06
-1.057351070715847e-06   -1.6731504290615098e-07   -1.9501873690172945e-06
-1.057351070715847e-06   -1.6731504290615098e-07   -1.9501873690172945e-06
-1.057351070715847e-06   -1.6731504290615098e-07   -1.9501873690172945e-06
-1.3901009141307694e-08   3.130685274071326e-07   7.7126209128346e-08
-1.3901009141307694e-08   3.130685274071326e-07   7.7126209128346e-08
-1.3901009141307694e-08   3.130685274071326e-07   7.7126209128346e-08
-1.3901009141307694e-08   3.130685274071326e-07   7.7126209128346e-08
1.0915210231575e-07   -2.3225115618991468e-07   -1.4780956696006748e-06
1.0915210231575e-07   -2.3225115618991468e-07   -1.4780956696006748e-06
1.0915210231575e-07   -2.3225115618991468e-07   -1.4780956696006748e-06
1.0915210231575e-07   -2.3225115618991468e-07   -1.4780956696006748e-06
-9.256230079060426e-07   2.63203989352903e-07   -5.074357322342165e-08
-9.256230079060426e-07   2.63203989352903e-07   -5.074357322342165e-08
-9.256230079060426e-07   2.63203989352903e-07   -5.074357322342165e-08
-9.256230079060426e-07   2.63203989352903e-07   -5.074357322342165e-08
-4.243380490831462e-07   5.5400441308203676e-08   -7.61536375767642e-07
-4.243380490831462e-07   5.5400441308203676e-08   -7.61536375767642e-07
-4.243380490831462e-07   5.5400441308203676e-08   -7.61536375767642e-07
-4.243380490831462e-07   5.5400441308203676e-08   -7.61536375767642e-07
-9.256230079060426e-07   -2.3225115618991468e-07   -1.7753687569262286e-06
-9.256230079060426e-07   -2.3225115618991468e-07   -1.7753687569262286e-06
-9.256230079060426e-07   -2.3225115618991468e-07   -1.7753687569262286e-06
-9.256230079060426e-07   -2.3225115618991468e-07   -1.7753687569262286e-06
1.0915210231575e-07   2.63203989352903e-07   2.465295141022405e-07
1.0915210231575e-07   2.63203989352903e-07   2.465295141022405e-07
1.0915210231575e-07   2.63203989352903e-07   2.465295141022405e-07
1.0915210231575e-07   2.63203989352903e-07   2.465295141022405e-07
2.608992376456915e-07   -3.1261887731512416e-07   -1.2055224499321658e-06
2.608992376456915e-07   -3.1261887731512416e-07   -1.2055224499321658e-06
2.608992376456915e-07   -3.1261887731512416e-07   -1.2055224499321658e-06
2.608992376456915e-07   -3.1261887731512416e-07   -1.2055224499321658e-06
-7.238552763952789e-07   2.1642934738948184e-07   1.1830613864645748e-07
-7.238552763952789e-07   2.1642934738948184e-07   1.1830613864645748e-07
-7.238552763952789e-07   2.1642934738948184e-07   1.1830613864645748e-07
-7.238552763952789e-07   2.1642934738948184e-07   1.1830613864645748e-07
-2.660080150832943e-07   1.8120600056673345e-08   -5.257873818070792e-07
-2.660080150832943e-07   1.8120600056673345e-08   -5.257873818070792e-07
-2.660080150832943e-07   1.8120600056673345e-08   -5.257873818070792e-07
-2.660080150832943e-07   1.8120600056673345e-08   -5.257873818070792e-07
              </DataArray>   
             <DataArray type="Float64" NumberOfComponents="3" Name="Stress" format="ascii">   
-1.9835258730791088   -0.4958814682697772   -0.4958814682697772
-1.9835258730791088   -0.4958814682697772   -0.4958814682697772
-1.9835258730791088   -0.4958814682697772   -0.4958814682697772
-1.9835258730791088   -0.4958814682697772   -0.4958814682697772
-1.1476733721818666   -0.03672996063996009   -0.023154986774507114
-1.1476733721818666   -0.03672996063996009   -0.023154986774507114
-1.1476733721818666   -0.03672996063996009   -0.023154986774507114
-1.1476733721818666   -0.03672996063996009   -0.023154986774507114
-1.2367449521462783   -0.3091862380365696   -0.3091862380365696
-1.2367449521462783   -0.3091862380365696   -0.3091862380365696
-1.2367449521462783   -0.3091862380365696   -0.3091862380365696
-1.2367449521462783   -0.3091862380365696   -0.3091862380365696
-1.9115652180100096   -0.1572713120401404   -0.06023658549705001
-1.9115652180100096   -0.1572713120401404   -0.06023658549705001
-1.9115652180100096   -0.1572713120401404   -0.06023658549705001
-1.9115652180100096   -0.1572713120401404   -0.06023658549705001
-1.499143409819135   -0.24594795697569655   -0.0041597353628692775
-1.499143409819135   -0.24594795697569655   -0.0041597353628692775
-1.499143409819135   -0.24594795697569655   -0.0041597353628692775
-1.499143409819135   -0.24594795697569655   -0.0041597353628692775
-2.0756262650028607   -0.5189065662507152   -0.5189065662507152
-2.0756262650028607   -0.5189065662507152   -0.5189065662507152
-2.0756262650028607   -0.5189065662507152   -0.5189065662507152
-2.0756262650028607   -0.5189065662507152   -0.5189065662507152
-1.1116211631379278   0.013511758189507506   -0.006265289220894268
-1.1116211631379278   0.013511758189507506   -0.006265289220894268
-1.1116211631379278   0.013511758189507506   -0.006265289220894268
-1.1116211631379278   0.013511758189507506   -0.006265289220894268
-1.2400339155597884   -0.3100084788899471   -0.3100084788899471
-1.2400339155597884   -0.3100084788899471   -0.3100084788899471
-1.2400339155597884   -0.3100084788899471   -0.3100084788899471
-1.2400339155597884   -0.3100084788899471   -0.3100084788899471
-1.9755859167618506   -0.1587173724631014   -0.08823945663275791
-1.9755859167618506   -0.1587173724631014   -0.08823945663275791
-1.9755859167618506   -0.1587173724631014   -0.08823945663275791
-1.9755859167618506   -0.1587173724631014   -0.08823945663275791
-1.554844659358988   -0.23149202690099605   -0.08249586362799533
-1.554844659358988   -0.23149202690099605   -0.08249586362799533
-1.554844659358988   -0.23149202690099605   -0.08249586362799533
-1.554844659358988   -0.23149202690099605   -0.08249586362799533
-2.1402161677140916   -0.5350540419285229   -0.5350540419285229
-2.1402161677140916   -0.5350540419285229   -0.5350540419285229
-2.1402161677140916   -0.5350540419285229   -0.5350540419285229
-2.1402161677140916   -0.5350540419285229   -0.5350540419285229
-1.1082047758084936   0.033527079374531754   0.005601661602047281
-1.1082047758084936   0.033527079374531754   0.005601661602047281
-1.1082047758084936   0.033527079374531754   0.005601661602047281
-1.1082047758084936   0.033527079374531754   0.005601661602047281
-1.2391579373226969   -0.3097894843306742   -0.3097894843306742
-1.2391579373226969   -0.3097894843306742   -0.3097894843306742
-1.2391579373226969   -0.3097894843306742   -0.3097894843306742
-1.2391579373226969   -0.3097894843306742   -0.3097894843306742
-2.0900251019781275   -0.1390689721036626   -0.05304564983427337
-2.0900251019781275   -0.1390689721036626   -0.05304564983427337
-2.0900251019781275   -0.1390689721036626   -0.05304564983427337
-2.0900251019781275   -0.1390689721036626   -0.05304564983427337
-1.5960952154747416   -0.22782897617358644   -0.1490553648673608
-1.5960952154747416   -0.22782897617358644   -0.1490553648673608
-1.5960952154747416   -0.22782897617358644   -0.1490553648673608
-1.5960952154747416   -0.22782897617358644   -0.1490553648673608
-1.2618848696655278   -0.31547121741638195   -0.31547121741638195
-1.2618848696655278   -0.31547121741638195   -0.31547121741638195
-1.2618848696655278   -0.31547121741638195   -0.31547121741638195
-1.2618848696655278   -0.31547121741638195   -0.31547121741638195
-0.5267572404837539   -0.035292428024820965   -0.011447467896562907
-0.5267572404837539   -0.035292428024820965   -0.011447467896562907
-0.5267572404837539   -0.035292428024820965   -0.011447467896562907
-0.5267572404837539   -0.035292428024820965   -0.011447467896562907
-0.5527360649632569   -0.13818401624081422   -0.13818401624081422
-0.5527360649632569   -0.13818401624081422   -0.13818401624081422
-0.5527360649632569   -0.13818401624081422   -0.13818401624081422
-0.5527360649632569   -0.13818401624081422   -0.13818401624081422
-1.1487351302546753   -0.13525168362837237   -0.04307168298675114
-1.1487351302546753   -0.13525168362837237   -0.04307168298675114
-1.1487351302546753   -0.13525168362837237   -0.04307168298675114
-1.1487351302546753   -0.13525168362837237   -0.04307168298675114
-0.847383687577636   -0.16060945709600682   0.006588122122585048
-0.847383687577636   -0.16060945709600682   0.006588122122585048
-0.847383687577636   -0.16060945709600682   0.006588122122585048
-0.847383687577636   -0.16060945709600682   0.006588122122585048
-1.2367449521462772   -0.3091862380365693   -0.3091862380365693
-1.2367449521462772   -0.3091862380365693   -0.3091862380365693
-1.2367449521462772   -0.3091862380365693   -0.3091862380365693
-1.2367449521462772   -0.3091862380365693   -0.3091862380365693
-0.49679849392485503   0.0036782873141816413   -0.0003584646038011334
-0.49679849392485503   0.0036782873141816413   -0.0003584646038011334
-0.49679849392485503   0.0036782873141816413   -0.0003584646038011334
-0.49679849392485503   0.0036782873141816413   -0.0003584646038011334
-0.540207282012569   -0.13505182050314224   -0.13505182050314224
-0.540207282012569   -0.13505182050314224   -0.13505182050314224
-0.540207282012569   -0.13505182050314224   -0.13505182050314224
-0.540207282012569   -0.13505182050314224   -0.13505182050314224
-1.145653456773746   -0.1102838035531018   -0.03783086029657973
-1.145653456773746   -0.1102838035531018   -0.03783086029657973
-1.145653456773746   -0.1102838035531018   -0.03783086029657973
-1.145653456773746   -0.1102838035531018   -0.03783086029657973
-0.8353942329633669   -0.13517207574026202   -0.04365656221917441
-0.8353942329633669   -0.13517207574026202   -0.04365656221917441
-0.8353942329633669   -0.13517207574026202   -0.04365656221917441
-0.8353942329633669   -0.13517207574026202   -0.04365656221917441
-1.2400339155597884   -0.3100084788899471   -0.3100084788899471
-1.2400339155597884   -0.3100084788899471   -0.3100084788899471
-1.2400339155597884   -0.3100084788899471   -0.3100084788899471
-1.2400339155597884   -0.3100084788899471   -0.3100084788899471
-0.4768909115896811   0.033608766470548376   0.012869444637606434
-0.4768909115896811   0.033608766470548376   0.012869444637606434
-0.4768909115896811   0.033608766470548376   0.012869444637606434
-0.4768909115896811   0.033608766470548376   0.012869444637606434
-0.528765990549109   -0.13219149763727725   -0.13219149763727725
-0.528765990549109   -0.13219149763727725   -0.13219149763727725
-0.528765990549109   -0.13219149763727725   -0.13219149763727725
-0.528765990549109   -0.13219149763727725   -0.13219149763727725
-1.13702571353592   -0.08504158992427768   -0.02387625980320033
-1.13702571353592   -0.08504158992427768   -0.02387625980320033
-1.13702571353592   -0.08504158992427768   -0.02387625980320033
-1.13702571353592   -0.08504158992427768   -0.02387625980320033
-0.8393199442692899   -0.11956440351287287   -0.09723552908855906
-0.8393199442692899   -0.11956440351287287   -0.09723552908855906
-0.8393199442692899   -0.11956440351287287   -0.09723552908855906
-0.8393199442692899   -0.11956440351287287   -0.09723552908855906
-0.5748991792216422   -0.14372479480541056   -0.14372479480541056
-0.5748991792216422   -0.14372479480541056   -0.14372479480541056
-0.5748991792216422   -0.14372479480541056   -0.14372479480541056
-0.5748991792216422   -0.14372479480541056   -0.14372479480541056
0.06757782405395958   0.004311672911577578   0.0005626968800767364
0.06757782405395958   0.004311672911577578   0.0005626968800767364
0.06757782405395958   0.004311672911577578   0.0005626968800767364
0.06757782405395958   0.004311672911577578   0.0005626968800767364
0.08824214740709459   0.022060536851773647   0.022060536851773647
0.08824214740709459   0.022060536851773647   0.022060536851773647
0.08824214740709459   0.022060536851773647   0.022060536851773647
0.08824214740709459   0.022060536851773647   0.022060536851773647
-0.5196073978029623   -0.08980473577059943   -0.02091996090956027
-0.5196073978029623   -0.08980473577059943   -0.02091996090956027
-0.5196073978029623   -0.08980473577059943   -0.02091996090956027
-0.5196073978029623   -0.08980473577059943   -0.02091996090956027
-0.22276478511276923   -0.056496925552869004   0.03765132157175058
-0.22276478511276923   -0.056496925552869004   0.03765132157175058
-0.22276478511276923   -0.056496925552869004   0.03765132157175058
-0.22276478511276923   -0.056496925552869004   0.03765132157175058
-0.5527360649632569   -0.13818401624081422   -0.13818401624081422
-0.5527360649632569   -0.13818401624081422   -0.13818401624081422
-0.5527360649632569   -0.13818401624081422   -0.13818401624081422
-0.5527360649632569   -0.13818401624081422   -0.13818401624081422
0.08984480150298846   0.038913804257588294   0.01322053992542763
0.08984480150298846   0.038913804257588294   0.01322053992542763
0.08984480150298846   0.038913804257588294   0.01322053992542763
0.08984480150298846   0.038913804257588294   0.01322053992542763
0.09950665214168979   0.024876663035422446   0.024876663035422446
0.09950665214168979   0.024876663035422446   0.024876663035422446
0.09950665214168979   0.024876663035422446   0.024876663035422446
0.09950665214168979   0.024876663035422446   0.024876663035422446
-0.5010706201334821   -0.06039315358541321   -0.014027178025445699
-0.5010706201334821   -0.06039315358541321   -0.014027178025445699
-0.5010706201334821   -0.06039315358541321   -0.014027178025445699
-0.5010706201334821   -0.06039315358541321   -0.014027178025445699
-0.2135165711334401   -0.03489183565078931   -0.012924841167887308
-0.2135165711334401   -0.03489183565078931   -0.012924841167887308
-0.2135165711334401   -0.03489183565078931   -0.012924841167887308
-0.2135165711334401   -0.03489183565078931   -0.012924841167887308
-0.540207282012569   -0.13505182050314224   -0.13505182050314224
-0.540207282012569   -0.13505182050314224   -0.13505182050314224
-0.540207282012569   -0.13505182050314224   -0.13505182050314224
-0.540207282012569   -0.13505182050314224   -0.13505182050314224
0.10775229018888356   0.06864430612125988   0.022337210185553083
0.10775229018888356   0.06864430612125988   0.022337210185553083
0.10775229018888356   0.06864430612125988   0.022337210185553083
0.10775229018888356   0.06864430612125988   0.022337210185553083
0.11459707891224528   0.02864926972806132   0.02864926972806132
0.11459707891224528   0.02864926972806132   0.02864926972806132
0.11459707891224528   0.02864926972806132   0.02864926972806132
0.11459707891224528   0.02864926972806132   0.02864926972806132
-0.48090016741238467   -0.025333099808246107   0.0002792202173067214
-0.48090016741238467   -0.025333099808246107   0.0002792202173067214
-0.48090016741238467   -0.025333099808246107   0.0002792202173067214
-0.48090016741238467   -0.025333099808246107   0.0002792202173067214
-0.20694712840150734   -0.014063547202552838   -0.0630491378292579
-0.20694712840150734   -0.014063547202552838   -0.0630491378292579
-0.20694712840150734   -0.014063547202552838   -0.0630491378292579
-0.20694712840150734   -0.014063547202552838   -0.0630491378292579
0.07400327788403205   0.018500819471008012   0.018500819471008012
0.07400327788403205   0.018500819471008012   0.018500819471008012
0.07400327788403205   0.018500819471008012   0.018500819471008012
0.07400327788403205   0.018500819471008012   0.018500819471008012
0.7183304933121962   0.06593335619611534   0.02226087009287387
0.7183304933121962   0.06593335619611534   0.02226087009287387
0.7183304933121962   0.06593335619611534   0.02226087009287387
0.7183304933121962   0.06593335619611534   0.02226087009287387
0.7801685902318273   0.19504214755795682   0.19504214755795682
0.7801685902318273   0.19504214755795682   0.19504214755795682
0.7801685902318273   0.19504214755795682   0.19504214755795682
0.7801685902318273   0.19504214755795682   0.19504214755795682
0.06720845236768452   -0.050561574545008904   -0.010485826948495572
0.06720845236768452   -0.050561574545008904   -0.010485826948495572
0.06720845236768452   -0.050561574545008904   -0.010485826948495572
0.06720845236768452   -0.050561574545008904   -0.010485826948495572
0.4094420404450966   0.05098670071708791   0.07433679824771189
0.4094420404450966   0.05098670071708791   0.07433679824771189
0.4094420404450966   0.05098670071708791   0.07433679824771189
0.4094420404450966   0.05098670071708791   0.07433679824771189
0.0882421474070949   0.022060536851773727   0.022060536851773727
0.0882421474070949   0.022060536851773727   0.022060536851773727
0.0882421474070949   0.022060536851773727   0.022060536851773727
0.0882421474070949   0.022060536851773727   0.022060536851773727
0.7270845962735513   0.09036973724230858   0.03429458808222503
0.7270845962735513   0.09036973724230858   0.03429458808222503
0.7270845962735513   0.09036973724230858   0.03429458808222503
0.7270845962735513   0.09036973724230858   0.03429458808222503
0.7770322834393283   0.19425807085983207   0.19425807085983207
0.7770322834393283   0.19425807085983207   0.19425807085983207
0.7770322834393283   0.19425807085983207   0.19425807085983207
0.7770322834393283   0.19425807085983207   0.19425807085983207
0.08522834309769241   -0.021793922118327994   0.00015570296918515983
0.08522834309769241   -0.021793922118327994   0.00015570296918515983
0.08522834309769241   -0.021793922118327994   0.00015570296918515983
0.08522834309769241   -0.021793922118327994   0.00015570296918515983
0.4066292224007084   0.0669935717980262   0.01928507080106363
0.4066292224007084   0.0669935717980262   0.01928507080106363
0.4066292224007084   0.0669935717980262   0.01928507080106363
0.4066292224007084   0.0669935717980262   0.01928507080106363
0.09950665214168988   0.02487666303542247   0.02487666303542247
0.09950665214168988   0.02487666303542247   0.02487666303542247
0.09950665214168988   0.02487666303542247   0.02487666303542247
0.09950665214168988   0.02487666303542247   0.02487666303542247
0.7310128528037287   0.11584636411447961   0.04257262442718686
0.7310128528037287   0.11584636411447961   0.04257262442718686
0.7310128528037287   0.11584636411447961   0.04257262442718686
0.7310128528037287   0.11584636411447961   0.04257262442718686
0.792278078911989   0.19806951972799725   0.19806951972799725
0.792278078911989   0.19806951972799725   0.19806951972799725
0.792278078911989   0.19806951972799725   0.19806951972799725
0.792278078911989   0.19806951972799725   0.19806951972799725
0.10879994162568687   0.016245811478889954   0.012067041544439758
0.10879994162568687   0.016245811478889954   0.012067041544439758
0.10879994162568687   0.016245811478889954   0.012067041544439758
0.10879994162568687   0.016245811478889954   0.012067041544439758
0.4131382553988612   0.09093457328943703   -0.031758941165907204
0.4131382553988612   0.09093457328943703   -0.031758941165907204
0.4131382553988612   0.09093457328943703   -0.031758941165907204
0.4131382553988612   0.09093457328943703   -0.031758941165907204
0.7785462756159982   0.19463656890399955   0.19463656890399955
0.7785462756159982   0.19463656890399955   0.19463656890399955
0.7785462756159982   0.19463656890399955   0.19463656890399955
0.7785462756159982   0.19463656890399955   0.19463656890399955
1.616200882286786   0.12326245619987272   0.04252360423240851
1.616200882286786   0.12326245619987272   0.04252360423240851
1.616200882286786   0.12326245619987272   0.04252360423240851
1.616200882286786   0.12326245619987272   0.04252360423240851
1.6522351356679594   0.41305878391698986   0.41305878391698986
1.6522351356679594   0.41305878391698986   0.41305878391698986
1.6522351356679594   0.41305878391698986   0.41305878391698986
1.6522351356679594   0.41305878391698986   0.41305878391698986
0.6935396510039437   -0.039313692846253495   -0.0037467081772504934
0.6935396510039437   -0.039313692846253495   -0.0037467081772504934
0.6935396510039437   -0.039313692846253495   -0.0037467081772504934
0.6935396510039437   -0.039313692846253495   -0.0037467081772504934
1.15249285179021   0.1631891979880421   0.13001688557410307
1.15249285179021   0.1631891979880421   0.13001688557410307
1.15249285179021   0.1631891979880421   0.13001688557410307
1.15249285179021   0.1631891979880421   0.13001688557410307
0.7801685902318265   0.19504214755795662   0.19504214755795662
0.7801685902318265   0.19504214755795662   0.19504214755795662
0.7801685902318265   0.19504214755795662   0.19504214755795662
0.7801685902318265   0.19504214755795662   0.19504214755795662
1.5312450988782982   0.14434184595100685   0.07682553793469113
1.5312450988782982   0.14434184595100685   0.07682553793469113
1.5312450988782982   0.14434184595100685   0.07682553793469113
1.5312450988782982   0.14434184595100685   0.07682553793469113
1.603123065377038   0.4007807663442595   0.4007807663442595
1.603123065377038   0.4007807663442595   0.4007807663442595
1.603123065377038   0.4007807663442595   0.4007807663442595
1.603123065377038   0.4007807663442595   0.4007807663442595
0.696159196895372   -0.021570709798537424   0.005721418798419767
0.696159196895372   -0.021570709798537424   0.005721418798419767
0.696159196895372   -0.021570709798537424   0.005721418798419767
0.696159196895372   -0.021570709798537424   0.005721418798419767
1.11854050739074   0.16796475862362217   0.06233155321013407
1.11854050739074   0.16796475862362217   0.06233155321013407
1.11854050739074   0.16796475862362217   0.06233155321013407
1.11854050739074   0.16796475862362217   0.06233155321013407
0.7770322834393283   0.19425807085983207   0.19425807085983207
0.7770322834393283   0.19425807085983207   0.19425807085983207
0.7770322834393283   0.19425807085983207   0.19425807085983207
0.7770322834393283   0.19425807085983207   0.19425807085983207
1.4821743413475084   0.1448763482003216   0.05194156434057482
1.4821743413475084   0.1448763482003216   0.05194156434057482
1.4821743413475084   0.1448763482003216   0.05194156434057482
1.4821743413475084   0.1448763482003216   0.05194156434057482
1.5298656940986939   0.38246642352467347   0.38246642352467347
1.5298656940986939   0.38246642352467347   0.38246642352467347
1.5298656940986939   0.38246642352467347   0.38246642352467347
1.5298656940986939   0.38246642352467347   0.38246642352467347
0.7221293951061184   0.023140800301560543   0.022254820125080968
0.7221293951061184   0.023140800301560543   0.022254820125080968
0.7221293951061184   0.023140800301560543   0.022254820125080968
0.7221293951061184   0.023140800301560543   0.022254820125080968
1.0712602130105673   0.18219518371410648   -0.01641456812182611
1.0712602130105673   0.18219518371410648   -0.01641456812182611
1.0712602130105673   0.18219518371410648   -0.01641456812182611
1.0712602130105673   0.18219518371410648   -0.01641456812182611
-1.565915660633007   -0.11216448260209538   0.017914691865958926
-1.565915660633007   -0.11216448260209538   0.017914691865958926
-1.565915660633007   -0.11216448260209538   0.017914691865958926
-1.565915660633007   -0.11216448260209538   0.017914691865958926
-0.9970111539229057   -0.02327187164060182   -0.006548225661862479
-0.9970111539229057   -0.02327187164060182   -0.006548225661862479
-0.9970111539229057   -0.02327187164060182   -0.006548225661862479
-0.9970111539229057   -0.02327187164060182   -0.006548225661862479
-1.003539473408251   0.040609073959648384   0.02113959990013746
-1.003539473408251   0.040609073959648384   0.02113959990013746
-1.003539473408251   0.040609073959648384   0.02113959990013746
-1.003539473408251   0.040609073959648384   0.02113959990013746
-1.5891151642194454   -0.10854281509975436   -0.018943554297606906
-1.5891151642194454   -0.10854281509975436   -0.018943554297606906
-1.5891151642194454   -0.10854281509975436   -0.018943554297606906
-1.5891151642194454   -0.10854281509975436   -0.018943554297606906
-1.2382047370003597   -0.042371660902668445   -0.0050554436809020845
-1.2382047370003597   -0.042371660902668445   -0.0050554436809020845
-1.2382047370003597   -0.042371660902668445   -0.0050554436809020845
-1.2382047370003597   -0.042371660902668445   -0.0050554436809020845
-1.5774336976351082   -0.076844581800738   0.007765545325062698
-1.5774336976351082   -0.076844581800738   0.007765545325062698
-1.5774336976351082   -0.076844581800738   0.007765545325062698
-1.5774336976351082   -0.076844581800738   0.007765545325062698
-1.0168745841281641   0.0072571965250598225   -0.012184076264821347
-1.0168745841281641   0.0072571965250598225   -0.012184076264821347
-1.0168745841281641   0.0072571965250598225   -0.012184076264821347
-1.0168745841281641   0.0072571965250598225   -0.012184076264821347
-1.0046046515165599   0.05793115021417056   0.024021891508311174
-1.0046046515165599   0.05793115021417056   0.024021891508311174
-1.0046046515165599   0.05793115021417056   0.024021891508311174
-1.0046046515165599   0.05793115021417056   0.024021891508311174
-1.5985643869780473   -0.09555861518864112   -0.024994343952455436
-1.5985643869780473   -0.09555861518864112   -0.024994343952455436
-1.5985643869780473   -0.09555861518864112   -0.024994343952455436
-1.5985643869780473   -0.09555861518864112   -0.024994343952455436
-1.2728120058021744   -0.028312618519499178   -0.012141648408661526
-1.2728120058021744   -0.028312618519499178   -0.012141648408661526
-1.2728120058021744   -0.028312618519499178   -0.012141648408661526
-1.2728120058021744   -0.028312618519499178   -0.012141648408661526
-1.5697206426114994   -0.04596939480679452   0.06963515749842523
-1.5697206426114994   -0.04596939480679452   0.06963515749842523
-1.5697206426114994   -0.04596939480679452   0.06963515749842523
-1.5697206426114994   -0.04596939480679452   0.06963515749842523
-1.0214675970432878   0.020322728672142937   -0.022684414583294718
-1.0214675970432878   0.020322728672142937   -0.022684414583294718
-1.0214675970432878   0.020322728672142937   -0.022684414583294718
-1.0214675970432878   0.020322728672142937   -0.022684414583294718
-0.9861842047920498   0.10100875967343032   0.0435021118651152
-0.9861842047920498   0.10100875967343032   0.0435021118651152
-0.9861842047920498   0.10100875967343032   0.0435021118651152
-0.9861842047920498   0.10100875967343032   0.0435021118651152
-1.5541109131385278   -0.07698972773084012   -0.04082174922734519
-1.5541109131385278   -0.07698972773084012   -0.04082174922734519
-1.5541109131385278   -0.07698972773084012   -0.04082174922734519
-1.5541109131385278   -0.07698972773084012   -0.04082174922734519
-1.223930456845447   0.011537925621142753   0.027170208122486106
-1.223930456845447   0.011537925621142753   0.027170208122486106
-1.223930456845447   0.011537925621142753   0.027170208122486106
-1.223930456845447   0.011537925621142753   0.027170208122486106
-1.0216984290023754   -0.1355353889076628   -0.017721083792149647
-1.0216984290023754   -0.1355353889076628   -0.017721083792149647
-1.0216984290023754   -0.1355353889076628   -0.017721083792149647
-1.0216984290023754   -0.1355353889076628   -0.017721083792149647
-0.47104552825471974   -0.01064857645274156   0.004957465540857735
-0.47104552825471974   -0.01064857645274156   0.004957465540857735
-0.47104552825471974   -0.01064857645274156   0.004957465540857735
-0.47104552825471974   -0.01064857645274156   0.004957465540857735
-0.47779676631712714   0.008990571109200776   0.0072012267635665934
-0.47779676631712714   0.008990571109200776   0.0072012267635665934
-0.47779676631712714   0.008990571109200776   0.0072012267635665934
-0.47779676631712714   0.008990571109200776   0.0072012267635665934
-1.0418662982280895   -0.0991838083705229   -0.030701641868883446
-1.0418662982280895   -0.0991838083705229   -0.030701641868883446
-1.0418662982280895   -0.0991838083705229   -0.030701641868883446
-1.0418662982280895   -0.0991838083705229   -0.030701641868883446
-0.7530940754920006   -0.061231002942610996   -0.017335916295206644
-0.7530940754920006   -0.061231002942610996   -0.017335916295206644
-0.7530940754920006   -0.061231002942610996   -0.017335916295206644
-0.7530940754920006   -0.061231002942610996   -0.017335916295206644
-1.0408584894255912   -0.10835941675882414   -0.016486989468094026
-1.0408584894255912   -0.10835941675882414   -0.016486989468094026
-1.0408584894255912   -0.10835941675882414   -0.016486989468094026
-1.0408584894255912   -0.10835941675882414   -0.016486989468094026
-0.47695073209752026   0.020020022519608077   0.0004019464511983567
-0.47695073209752026   0.020020022519608077   0.0004019464511983567
-0.47695073209752026   0.020020022519608077   0.0004019464511983567
-0.47695073209752026   0.020020022519608077   0.0004019464511983567
-0.4758804622545538   0.033182150274517375   0.009725914322326078
-0.4758804622545538   0.033182150274517375   0.009725914322326078
-0.4758804622545538   0.033182150274517375   0.009725914322326078
-0.4758804622545538   0.033182150274517375   0.009725914322326078
-1.0421618328603475   -0.07261658306682087   -0.03321628192963468
-1.0421618328603475   -0.07261658306682087   -0.03321628192963468
-1.0421618328603475   -0.07261658306682087   -0.03321628192963468
-1.0421618328603475   -0.07261658306682087   -0.03321628192963468
-0.7515167916813139   -0.034048614863270626   -0.008247064477411852
-0.7515167916813139   -0.034048614863270626   -0.008247064477411852
-0.7515167916813139   -0.034048614863270626   -0.008247064477411852
-0.7515167916813139   -0.034048614863270626   -0.008247064477411852
-1.0380641051928952   -0.08189050542454593   -0.0034537212346491195
-1.0380641051928952   -0.08189050542454593   -0.0034537212346491195
-1.0380641051928952   -0.08189050542454593   -0.0034537212346491195
-1.0380641051928952   -0.08189050542454593   -0.0034537212346491195
-0.47653419930812047   0.04590006324612983   -0.006260683917111778
-0.47653419930812047   0.04590006324612983   -0.006260683917111778
-0.47653419930812047   0.04590006324612983   -0.006260683917111778
-0.47653419930812047   0.04590006324612983   -0.006260683917111778
-0.4678005939415996   0.05747066346859277   0.019459887566831514
-0.4678005939415996   0.05747066346859277   0.019459887566831514
-0.4678005939415996   0.05747066346859277   0.019459887566831514
-0.4678005939415996   0.05747066346859277   0.019459887566831514
-1.0308726988371895   -0.04191801500887715   -0.037013583678279414
-1.0308726988371895   -0.04191801500887715   -0.037013583678279414
-1.0308726988371895   -0.04191801500887715   -0.037013583678279414
-1.0308726988371895   -0.04191801500887715   -0.037013583678279414
-0.748251164683426   -0.0083231959599335   0.0037503278078296065
-0.748251164683426   -0.0083231959599335   0.0037503278078296065
-0.748251164683426   -0.0083231959599335   0.0037503278078296065
-0.748251164683426   -0.0083231959599335   0.0037503278078296065
-0.49666199715540177   -0.11283626815780826   -0.02093718725749013
-0.49666199715540177   -0.11283626815780826   -0.02093718725749013
-0.49666199715540177   -0.11283626815780826   -0.02093718725749013
-0.49666199715540177   -0.11283626815780826   -0.02093718725749013
0.05082021209706888   0.011545030034528909   0.01934742577733381
0.05082021209706888   0.011545030034528909   0.01934742577733381
0.05082021209706888   0.011545030034528909   0.01934742577733381
0.05082021209706888   0.011545030034528909   0.01934742577733381
0.04859503348608806   0.028333857818708612   0.0015705757479286386
0.04859503348608806   0.028333857818708612   0.0015705757479286386
0.04859503348608806   0.028333857818708612   0.0015705757479286386
0.04859503348608806   0.028333857818708612   0.0015705757479286386
-0.49865078610235075   -0.07470369192935848   -0.013374609123991844
-0.49865078610235075   -0.07470369192935848   -0.013374609123991844
-0.49865078610235075   -0.07470369192935848   -0.013374609123991844
-0.49865078610235075   -0.07470369192935848   -0.013374609123991844
-0.2261426083615622   -0.03745877039415894   -0.007191822510222511
-0.2261426083615622   -0.03745877039415894   -0.007191822510222511
-0.2261426083615622   -0.03745877039415894   -0.007191822510222511
-0.2261426083615622   -0.03745877039415894   -0.007191822510222511
-0.5021039419101345   -0.08599072369047998   -0.019353356401789732
-0.5021039419101345   -0.08599072369047998   -0.019353356401789732
-0.5021039419101345   -0.08599072369047998   -0.019353356401789732
-0.5021039419101345   -0.08599072369047998   -0.019353356401789732
0.05395670519268167   0.041529405478638884   0.0151833866209664
0.05395670519268167   0.041529405478638884   0.0151833866209664
0.05395670519268167   0.041529405478638884   0.0151833866209664
0.05395670519268167   0.041529405478638884   0.0151833866209664
0.05261537557670853   0.054945687436921936   0.008981031376038371
0.05261537557670853   0.054945687436921936   0.008981031376038371
0.05261537557670853   0.054945687436921936   0.008981031376038371
0.05261537557670853   0.054945687436921936   0.008981031376038371
-0.49690487566032066   -0.04551759638892275   -0.016696406043067887
-0.49690487566032066   -0.04551759638892275   -0.016696406043067887
-0.49690487566032066   -0.04551759638892275   -0.016696406043067887
-0.49690487566032066   -0.04551759638892275   -0.016696406043067887
-0.22248268680831368   -0.00918609779880513   0.00263002493735613
-0.22248268680831368   -0.00918609779880513   0.00263002493735613
-0.22248268680831368   -0.00918609779880513   0.00263002493735613
-0.22248268680831368   -0.00918609779880513   0.00263002493735613
-0.49824889471885686   -0.05900849370194431   -0.009925604022727448
-0.49824889471885686   -0.05900849370194431   -0.009925604022727448
-0.49824889471885686   -0.05900849370194431   -0.009925604022727448
-0.49824889471885686   -0.05900849370194431   -0.009925604022727448
0.056014247715198265   0.07049143782989695   0.010429641675511636
0.056014247715198265   0.07049143782989695   0.010429641675511636
0.056014247715198265   0.07049143782989695   0.010429641675511636
0.056014247715198265   0.07049143782989695   0.010429641675511636
0.05397570973358823   0.08453837307451598   0.014760707485145233
0.05397570973358823   0.08453837307451598   0.014760707485145233
0.05397570973358823   0.08453837307451598   0.014760707485145233
0.05397570973358823   0.08453837307451598   0.014760707485145233
-0.4902624207695863   -0.014326868538229773   -0.021051714566277042
-0.4902624207695863   -0.014326868538229773   -0.021051714566277042
-0.4902624207695863   -0.014326868538229773   -0.021051714566277042
-0.4902624207695863   -0.014326868538229773   -0.021051714566277042
-0.21677838076766137   0.020380128626858167   0.013382866974535557
-0.21677838076766137   0.020380128626858167   0.013382866974535557
-0.21677838076766137   0.020380128626858167   0.013382866974535557
-0.21677838076766137   0.020380128626858167   0.013382866974535557
0.022935212428015595   -0.08275365208831342   -0.025778890445090262
0.022935212428015595   -0.08275365208831342   -0.025778890445090262
0.022935212428015595   -0.08275365208831342   -0.025778890445090262
0.022935212428015595   -0.08275365208831342   -0.025778890445090262
0.59012825294614   0.04065055200346862   0.035552571398306636
0.59012825294614   0.04065055200346862   0.035552571398306636
0.59012825294614   0.04065055200346862   0.035552571398306636
0.59012825294614   0.04065055200346862   0.035552571398306636
0.5895373540890212   0.0548588389487093   -0.005712661201242239
0.5895373540890212   0.0548588389487093   -0.005712661201242239
0.5895373540890212   0.0548588389487093   -0.005712661201242239
0.5895373540890212   0.0548588389487093   -0.005712661201242239
0.033415713654762855   -0.04962473805996285   0.0036325724699740602
0.033415713654762855   -0.04962473805996285   0.0036325724699740602
0.033415713654762855   -0.04962473805996285   0.0036325724699740602
0.033415713654762855   -0.04962473805996285   0.0036325724699740602
0.3051879213707651   -0.007149686420352311   0.0006019431298911193
0.3051879213707651   -0.007149686420352311   0.0006019431298911193
0.3051879213707651   -0.007149686420352311   0.0006019431298911193
0.3051879213707651   -0.007149686420352311   0.0006019431298911193
0.02667202950986337   -0.06042817582480901   -0.01928241048967685
0.02667202950986337   -0.06042817582480901   -0.01928241048967685
0.02667202950986337   -0.06042817582480901   -0.01928241048967685
0.02667202950986337   -0.06042817582480901   -0.01928241048967685
0.5997194399765284   0.06910067845616191   0.030955928728836013
0.5997194399765284   0.06910067845616191   0.030955928728836013
0.5997194399765284   0.06910067845616191   0.030955928728836013
0.5997194399765284   0.06910067845616191   0.030955928728836013
0.5943769104851914   0.08118799110474295   0.005916701697039931
0.5943769104851914   0.08118799110474295   0.005916701697039931
0.5943769104851914   0.08118799110474295   0.005916701697039931
0.5943769104851914   0.08118799110474295   0.005916701697039931
0.0347913235921154   -0.0235316419292756   -0.0016618991807297511
0.0347913235921154   -0.0235316419292756   -0.0016618991807297511
0.0347913235921154   -0.0235316419292756   -0.0016618991807297511
0.0347913235921154   -0.0235316419292756   -0.0016618991807297511
0.3094419224158253   0.018011947926192443   0.012674193344904352
0.3094419224158253   0.018011947926192443   0.012674193344904352
0.3094419224158253   0.018011947926192443   0.012674193344904352
0.3094419224158253   0.018011947926192443   0.012674193344904352
0.02986313523563518   -0.03572083405254811   -0.014113648839858193
0.02986313523563518   -0.03572083405254811   -0.014113648839858193
0.02986313523563518   -0.03572083405254811   -0.014113648839858193
0.02986313523563518   -0.03572083405254811   -0.014113648839858193
0.601794630779317   0.09586671516565903   0.028326579106741696
0.601794630779317   0.09586671516565903   0.028326579106741696
0.601794630779317   0.09586671516565903   0.028326579106741696
0.601794630779317   0.09586671516565903   0.028326579106741696
0.5849830995323082   0.11157136973054986   0.01251167489611697
0.5849830995323082   0.11157136973054986   0.01251167489611697
0.5849830995323082   0.11157136973054986   0.01251167489611697
0.5849830995323082   0.11157136973054986   0.01251167489611697
0.034628264612382574   0.008756414553886533   -0.0061945596002535835
0.034628264612382574   0.008756414553886533   -0.0061945596002535835
0.034628264612382574   0.008756414553886533   -0.0061945596002535835
0.034628264612382574   0.008756414553886533   -0.0061945596002535835
0.31419419804842535   0.04677224019642973   0.02385786441322956
0.31419419804842535   0.04677224019642973   0.02385786441322956
0.31419419804842535   0.04677224019642973   0.02385786441322956
0.31419419804842535   0.04677224019642973   0.02385786441322956
0.5434656033751071   -0.10934278776635215   -0.04776733668703725
0.5434656033751071   -0.10934278776635215   -0.04776733668703725
0.5434656033751071   -0.10934278776635215   -0.04776733668703725
0.5434656033751071   -0.10934278776635215   -0.04776733668703725
1.119755951906281   0.07397016836096823   0.0347693669004452
1.119755951906281   0.07397016836096823   0.0347693669004452
1.119755951906281   0.07397016836096823   0.0347693669004452
1.119755951906281   0.07397016836096823   0.0347693669004452
1.132616178733157   0.03487686332435533   -0.07187045505342135
1.132616178733157   0.03487686332435533   -0.07187045505342135
1.132616178733157   0.03487686332435533   -0.07187045505342135
1.132616178733157   0.03487686332435533   -0.07187045505342135
0.5794313037530443   -0.022222620909517737   0.020838546977090214
0.5794313037530443   -0.022222620909517737   0.020838546977090214
0.5794313037530443   -0.022222620909517737   0.020838546977090214
0.5794313037530443   -0.022222620909517737   0.020838546977090214
0.8018389616402163   -0.014158135192095522   -0.020173041835169686
0.8018389616402163   -0.014158135192095522   -0.020173041835169686
0.8018389616402163   -0.014158135192095522   -0.020173041835169686
0.8018389616402163   -0.014158135192095522   -0.020173041835169686
0.5589899761459929   -0.0718270238132738   -0.03176368815440302
0.5589899761459929   -0.0718270238132738   -0.03176368815440302
0.5589899761459929   -0.0718270238132738   -0.03176368815440302
0.5589899761459929   -0.0718270238132738   -0.03176368815440302
1.1633721526865155   0.09479591257441972   0.021990365463306433
1.1633721526865155   0.09479591257441972   0.021990365463306433
1.1633721526865155   0.09479591257441972   0.021990365463306433
1.1633721526865155   0.09479591257441972   0.021990365463306433
1.1453670610803197   0.0638363453289034   -0.01645116974932561
1.1453670610803197   0.0638363453289034   -0.01645116974932561
1.1453670610803197   0.0638363453289034   -0.01645116974932561
1.1453670610803197   0.0638363453289034   -0.01645116974932561
0.57727876680929   -0.009194736651575108   0.01080871107384055
0.57727876680929   -0.009194736651575108   0.01080871107384055
0.57727876680929   -0.009194736651575108   0.01080871107384055
0.57727876680929   -0.009194736651575108   0.01080871107384055
0.8441100284088113   0.021100905562795425   0.013899343092883328
0.8441100284088113   0.021100905562795425   0.013899343092883328
0.8441100284088113   0.021100905562795425   0.013899343092883328
0.8441100284088113   0.021100905562795425   0.013899343092883328
0.5608549543904429   -0.05489738299466626   -0.025607704677299135
0.5608549543904429   -0.05489738299466626   -0.025607704677299135
0.5608549543904429   -0.05489738299466626   -0.025607704677299135
0.5608549543904429   -0.05489738299466626   -0.025607704677299135
1.1604420445958374   0.10819016276866622   0.014569930388499984
1.1604420445958374   0.10819016276866622   0.014569930388499984
1.1604420445958374   0.10819016276866622   0.014569930388499984
1.1604420445958374   0.10819016276866622   0.014569930388499984
1.1437610750949228   0.09799260475448315   -0.02511783759911039
1.1437610750949228   0.09799260475448315   -0.02511783759911039
1.1437610750949228   0.09799260475448315   -0.02511783759911039
1.1437610750949228   0.09799260475448315   -0.02511783759911039
0.5655328180737349   0.020775636501081274   0.006056000832709706
0.5655328180737349   0.020775636501081274   0.006056000832709706
0.5655328180737349   0.020775636501081274   0.006056000832709706
0.5655328180737349   0.020775636501081274   0.006056000832709706
0.8227410152435638   0.03708708342881398   0.01039488400704628
0.8227410152435638   0.03708708342881398   0.01039488400704628
0.8227410152435638   0.03708708342881398   0.01039488400704628
0.8227410152435638   0.03708708342881398   0.01039488400704628
-1.2292989687124445   -0.05570222906394515   0.06358780201095557
-1.2292989687124445   -0.05570222906394515   0.06358780201095557
-1.2292989687124445   -0.05570222906394515   0.06358780201095557
-1.2292989687124445   -0.05570222906394515   0.06358780201095557
-0.8168698787168417   -0.031231513028909058   -0.016545611426060487
-0.8168698787168417   -0.031231513028909058   -0.016545611426060487
-0.8168698787168417   -0.031231513028909058   -0.016545611426060487
-0.8168698787168417   -0.031231513028909058   -0.016545611426060487
-0.7872450509270872   0.06628311694929487   0.05331599265528059
-0.7872450509270872   0.06628311694929487   0.05331599265528059
-0.7872450509270872   0.06628311694929487   0.05331599265528059
-0.7872450509270872   0.06628311694929487   0.05331599265528059
-1.2348995175251365   -0.08823299849044719   -0.025906816172310276
-1.2348995175251365   -0.08823299849044719   -0.025906816172310276
-1.2348995175251365   -0.08823299849044719   -0.025906816172310276
-1.2348995175251365   -0.08823299849044719   -0.025906816172310276
-0.9758115289151817   -0.015083992285062353   -0.0019372435039659575
-0.9758115289151817   -0.015083992285062353   -0.0019372435039659575
-0.9758115289151817   -0.015083992285062353   -0.0019372435039659575
-0.9758115289151817   -0.015083992285062353   -0.0019372435039659575
-1.2003852870238338   -0.012768217693632844   0.07119955553738888
-1.2003852870238338   -0.012768217693632844   0.07119955553738888
-1.2003852870238338   -0.012768217693632844   0.07119955553738888
-1.2003852870238338   -0.012768217693632844   0.07119955553738888
-0.8163263346395829   -0.003748717058711326   -0.02205859189919212
-0.8163263346395829   -0.003748717058711326   -0.02205859189919212
-0.8163263346395829   -0.003748717058711326   -0.02205859189919212
-0.8163263346395829   -0.003748717058711326   -0.02205859189919212
-0.7839602071543382   0.08224016826206049   0.049395393477343244
-0.7839602071543382   0.08224016826206049   0.049395393477343244
-0.7839602071543382   0.08224016826206049   0.049395393477343244
-0.7839602071543382   0.08224016826206049   0.049395393477343244
-1.2156136177585264   -0.07376040816528545   -0.03544897978035634
-1.2156136177585264   -0.07376040816528545   -0.03544897978035634
-1.2156136177585264   -0.07376040816528545   -0.03544897978035634
-1.2156136177585264   -0.07376040816528545   -0.03544897978035634
-0.9777562141265467   0.0036620385260561217   0.011202329835836043
-0.9777562141265467   0.0036620385260561217   0.011202329835836043
-0.9777562141265467   0.0036620385260561217   0.011202329835836043
-0.9777562141265467   0.0036620385260561217   0.011202329835836043
-1.1834820696482236   0.0022886563241577007   0.04915969628171467
-1.1834820696482236   0.0022886563241577007   0.04915969628171467
-1.1834820696482236   0.0022886563241577007   0.04915969628171467
-1.1834820696482236   0.0022886563241577007   0.04915969628171467
-0.814302103183333   0.007980755853926436   -0.02805467425949039
-0.814302103183333   0.007980755853926436   -0.02805467425949039
-0.814302103183333   0.007980755853926436   -0.02805467425949039
-0.814302103183333   0.007980755853926436   -0.02805467425949039
-0.7846517996938895   0.0929055048270706   0.03919530011757011
-0.7846517996938895   0.0929055048270706   0.03919530011757011
-0.7846517996938895   0.0929055048270706   0.03919530011757011
-0.7846517996938895   0.0929055048270706   0.03919530011757011
-1.19062328079254   -0.05834171523851281   -0.045185794057835064
-1.19062328079254   -0.05834171523851281   -0.045185794057835064
-1.19062328079254   -0.05834171523851281   -0.045185794057835064
-1.19062328079254   -0.05834171523851281   -0.045185794057835064
-0.9495427628248495   0.020468479849969773   0.023427682107315037
-0.9495427628248495   0.020468479849969773   0.023427682107315037
-0.9495427628248495   0.020468479849969773   0.023427682107315037
-0.9495427628248495   0.020468479849969773   0.023427682107315037
-0.8192167777118117   -0.07764720278191344   0.01813558335209405
-0.8192167777118117   -0.07764720278191344   0.01813558335209405
-0.8192167777118117   -0.07764720278191344   0.01813558335209405
-0.8192167777118117   -0.07764720278191344   0.01813558335209405
-0.4141510154916701   -0.015085988913062662   0.0007725504936301822
-0.4141510154916701   -0.015085988913062662   0.0007725504936301822
-0.4141510154916701   -0.015085988913062662   0.0007725504936301822
-0.4141510154916701   -0.015085988913062662   0.0007725504936301822
-0.40231661085240383   0.04065942743829663   0.028964849799528562
-0.40231661085240383   0.04065942743829663   0.028964849799528562
-0.40231661085240383   0.04065942743829663   0.028964849799528562
-0.40231661085240383   0.04065942743829663   0.028964849799528562
-0.8322161131821035   -0.07657303829765102   -0.028683163372861253
-0.8322161131821035   -0.07657303829765102   -0.028683163372861253
-0.8322161131821035   -0.07657303829765102   -0.028683163372861253
-0.8322161131821035   -0.07657303829765102   -0.028683163372861253
-0.6147992991442125   -0.030171110369329568   -0.01252341244639009
-0.6147992991442125   -0.030171110369329568   -0.01252341244639009
-0.6147992991442125   -0.030171110369329568   -0.01252341244639009
-0.6147992991442125   -0.030171110369329568   -0.01252341244639009
-0.8165528640242603   -0.0444739869435323   0.017534031062240267
-0.8165528640242603   -0.0444739869435323   0.017534031062240267
-0.8165528640242603   -0.0444739869435323   0.017534031062240267
-0.8165528640242603   -0.0444739869435323   0.017534031062240267
-0.41481092231798466   0.01172931377644304   -0.004576593866517313
-0.41481092231798466   0.01172931377644304   -0.004576593866517313
-0.41481092231798466   0.01172931377644304   -0.004576593866517313
-0.41481092231798466   0.01172931377644304   -0.004576593866517313
-0.4009745778102395   0.06727370717716058   0.025047914240164816
-0.4009745778102395   0.06727370717716058   0.025047914240164816
-0.4009745778102395   0.06727370717716058   0.025047914240164816
-0.4009745778102395   0.06727370717716058   0.025047914240164816
-0.8274109538642921   -0.05174366623164528   -0.033874505578720744
-0.8274109538642921   -0.05174366623164528   -0.033874505578720744
-0.8274109538642921   -0.05174366623164528   -0.033874505578720744
-0.8274109538642921   -0.05174366623164528   -0.033874505578720744
-0.608013590531775   -0.003265199847171496   -8.10007733961643e-05
-0.608013590531775   -0.003265199847171496   -8.10007733961643e-05
-0.608013590531775   -0.003265199847171496   -8.10007733961643e-05
-0.608013590531775   -0.003265199847171496   -8.10007733961643e-05
-0.8114293552852125   -0.01747405579071662   0.011763876875748064
-0.8114293552852125   -0.01747405579071662   0.011763876875748064
-0.8114293552852125   -0.01747405579071662   0.011763876875748064
-0.8114293552852125   -0.01747405579071662   0.011763876875748064
-0.4143762175662621   0.035584055559290756   -0.010270632922070637
-0.4143762175662621   0.035584055559290756   -0.010270632922070637
-0.4143762175662621   0.035584055559290756   -0.010270632922070637
-0.4143762175662621   0.035584055559290756   -0.010270632922070637
-0.40078964449066656   0.09525307862032782   0.018758830121218623
-0.40078964449066656   0.09525307862032782   0.018758830121218623
-0.40078964449066656   0.09525307862032782   0.018758830121218623
-0.40078964449066656   0.09525307862032782   0.018758830121218623
-0.8233482634042903   -0.024934546777414773   -0.03644696682995011
-0.8233482634042903   -0.024934546777414773   -0.03644696682995011
-0.8233482634042903   -0.024934546777414773   -0.03644696682995011
-0.8233482634042903   -0.024934546777414773   -0.03644696682995011
-0.608327960119938   0.02143107681183462   0.009439306522277355
-0.608327960119938   0.02143107681183462   0.009439306522277355
-0.608327960119938   0.02143107681183462   0.009439306522277355
-0.608327960119938   0.02143107681183462   0.009439306522277355
-0.42954042285809274   -0.08887389763523322   -0.0023865776163151937
-0.42954042285809274   -0.08887389763523322   -0.0023865776163151937
-0.42954042285809274   -0.08887389763523322   -0.0023865776163151937
-0.42954042285809274   -0.08887389763523322   -0.0023865776163151937
-0.015129536876577903   0.004249904336968827   0.018338219683957817
-0.015129536876577903   0.004249904336968827   0.018338219683957817
-0.015129536876577903   0.004249904336968827   0.018338219683957817
-0.015129536876577903   0.004249904336968827   0.018338219683957817
-0.016635681929907425   0.026128853044723267   0.008773011573977422
-0.016635681929907425   0.026128853044723267   0.008773011573977422
-0.016635681929907425   0.026128853044723267   0.008773011573977422
-0.016635681929907425   0.026128853044723267   0.008773011573977422
-0.42976236539139884   -0.05689331146120581   -0.010711183995944187
-0.42976236539139884   -0.05689331146120581   -0.010711183995944187
-0.42976236539139884   -0.05689331146120581   -0.010711183995944187
-0.42976236539139884   -0.05689331146120581   -0.010711183995944187
-0.2234538200613067   -0.02790538743468474   -0.0070238197073034
-0.2234538200613067   -0.02790538743468474   -0.0070238197073034
-0.2234538200613067   -0.02790538743468474   -0.0070238197073034
-0.2234538200613067   -0.02790538743468474   -0.0070238197073034
-0.42929899714366243   -0.05934661929709664   -0.005941034921371008
-0.42929899714366243   -0.05934661929709664   -0.005941034921371008
-0.42929899714366243   -0.05934661929709664   -0.005941034921371008
-0.42929899714366243   -0.05934661929709664   -0.005941034921371008
-0.014737855720205965   0.03094335533805399   0.013447640329154239
-0.014737855720205965   0.03094335533805399   0.013447640329154239
-0.014737855720205965   0.03094335533805399   0.013447640329154239
-0.014737855720205965   0.03094335533805399   0.013447640329154239
-0.014607784135738662   0.055118775683873064   0.00418836279632917
-0.014607784135738662   0.055118775683873064   0.00418836279632917
-0.014607784135738662   0.055118775683873064   0.00418836279632917
-0.014607784135738662   0.055118775683873064   0.00418836279632917
-0.4286116674428154   -0.030151017582315268   -0.01571280916323513
-0.4286116674428154   -0.030151017582315268   -0.01571280916323513
-0.4286116674428154   -0.030151017582315268   -0.01571280916323513
-0.4286116674428154   -0.030151017582315268   -0.01571280916323513
-0.2212179983891617   -0.0011086071472277553   0.003032850708004114
-0.2212179983891617   -0.0011086071472277553   0.003032850708004114
-0.2212179983891617   -0.0011086071472277553   0.003032850708004114
-0.2212179983891617   -0.0011086071472277553   0.003032850708004114
-0.427968556979939   -0.030767255275388705   -0.011881019155779361
-0.427968556979939   -0.030767255275388705   -0.011881019155779361
-0.427968556979939   -0.030767255275388705   -0.011881019155779361
-0.427968556979939   -0.030767255275388705   -0.011881019155779361
-0.013301732394148044   0.05768417558141364   0.008153221606741975
-0.013301732394148044   0.05768417558141364   0.008153221606741975
-0.013301732394148044   0.05768417558141364   0.008153221606741975
-0.013301732394148044   0.05768417558141364   0.008153221606741975
-0.014122295869759067   0.08497115461822838   -0.0007017236838135453
-0.014122295869759067   0.08497115461822838   -0.0007017236838135453
-0.014122295869759067   0.08497115461822838   -0.0007017236838135453
-0.014122295869759067   0.08497115461822838   -0.0007017236838135453
-0.42833777081832447   -0.0029574735103360394   -0.02077124938640848
-0.42833777081832447   -0.0029574735103360394   -0.02077124938640848
-0.42833777081832447   -0.0029574735103360394   -0.02077124938640848
-0.42833777081832447   -0.0029574735103360394   -0.02077124938640848
-0.2194661417230643   0.025713987437597063   0.012256232926229328
-0.2194661417230643   0.025713987437597063   0.012256232926229328
-0.2194661417230643   0.025713987437597063   0.012256232926229328
-0.2194661417230643   0.025713987437597063   0.012256232926229328
-0.043388856177072097   -0.0974208988309533   -0.021287573650590825
-0.043388856177072097   -0.0974208988309533   -0.021287573650590825
-0.043388856177072097   -0.0974208988309533   -0.021287573650590825
-0.043388856177072097   -0.0974208988309533   -0.021287573650590825
0.38227437868645325   0.026864676370331866   0.034872298695307336
0.38227437868645325   0.026864676370331866   0.034872298695307336
0.38227437868645325   0.026864676370331866   0.034872298695307336
0.38227437868645325   0.026864676370331866   0.034872298695307336
0.36975085507157257   0.014151220847858498   -0.013822774407728899
0.36975085507157257   0.014151220847858498   -0.013822774407728899
0.36975085507157257   0.014151220847858498   -0.013822774407728899
0.36975085507157257   0.014151220847858498   -0.013822774407728899
-0.029222588388240565   -0.03558524682266358   0.007552579149698804
-0.029222588388240565   -0.03558524682266358   0.007552579149698804
-0.029222588388240565   -0.03558524682266358   0.007552579149698804
-0.029222588388240565   -0.03558524682266358   0.007552579149698804
0.16744183666022522   -0.022640372012965405   -0.003978367490787777
0.16744183666022522   -0.022640372012965405   -0.003978367490787777
0.16744183666022522   -0.022640372012965405   -0.003978367490787777
0.16744183666022522   -0.022640372012965405   -0.003978367490787777
-0.04317012505911087   -0.07101874208516369   -0.026751608942152623
-0.04317012505911087   -0.07101874208516369   -0.026751608942152623
-0.04317012505911087   -0.07101874208516369   -0.026751608942152623
-0.04317012505911087   -0.07101874208516369   -0.026751608942152623
0.3863843558966098   0.05227068026452366   0.03122527030079228
0.3863843558966098   0.05227068026452366   0.03122527030079228
0.3863843558966098   0.05227068026452366   0.03122527030079228
0.3863843558966098   0.05227068026452366   0.03122527030079228
0.3758395352720468   0.041127440273122956   -0.019414699848668317
0.3758395352720468   0.041127440273122956   -0.019414699848668317
0.3758395352720468   0.041127440273122956   -0.019414699848668317
0.3758395352720468   0.041127440273122956   -0.019414699848668317
-0.028351561220687056   -0.011623312588322075   0.0022115656437828074
-0.028351561220687056   -0.011623312588322075   0.0022115656437828074
-0.028351561220687056   -0.011623312588322075   0.0022115656437828074
-0.028351561220687056   -0.011623312588322075   0.0022115656437828074
0.16900332069152232   0.0016161987536330302   0.006019978946293197
0.16900332069152232   0.0016161987536330302   0.006019978946293197
0.16900332069152232   0.0016161987536330302   0.006019978946293197
0.16900332069152232   0.0016161987536330302   0.006019978946293197
-0.04191829710338241   -0.0449918929198604   -0.03225353343815597
-0.04191829710338241   -0.0449918929198604   -0.03225353343815597
-0.04191829710338241   -0.0449918929198604   -0.03225353343815597
-0.04191829710338241   -0.0449918929198604   -0.03225353343815597
0.3923338328033859   0.07742358225330377   0.026760645827846742
0.3923338328033859   0.07742358225330377   0.026760645827846742
0.3923338328033859   0.07742358225330377   0.026760645827846742
0.3923338328033859   0.07742358225330377   0.026760645827846742
0.3796211190669802   0.07493500428237969   -0.02029446541238156
0.3796211190669802   0.07493500428237969   -0.02029446541238156
0.3796211190669802   0.07493500428237969   -0.02029446541238156
0.3796211190669802   0.07493500428237969   -0.02029446541238156
-0.028327688698114337   0.016359392969144154   -0.0031169261765055644
-0.028327688698114337   0.016359392969144154   -0.0031169261765055644
-0.028327688698114337   0.016359392969144154   -0.0031169261765055644
-0.028327688698114337   0.016359392969144154   -0.0031169261765055644
0.17494964110819833   0.02864322572941083   0.017884259392343282
0.17494964110819833   0.02864322572941083   0.017884259392343282
0.17494964110819833   0.02864322572941083   0.017884259392343282
0.17494964110819833   0.02864322572941083   0.017884259392343282
0.3422694026948074   -0.09678216319994404   -0.04150574169264244
0.3422694026948074   -0.09678216319994404   -0.04150574169264244
0.3422694026948074   -0.09678216319994404   -0.04150574169264244
0.3422694026948074   -0.09678216319994404   -0.04150574169264244
0.7533128307532265   0.05598074744750525   0.03887421031793278
0.7533128307532265   0.05598074744750525   0.03887421031793278
0.7533128307532265   0.05598074744750525   0.03887421031793278
0.7533128307532265   0.05598074744750525   0.03887421031793278
0.7474624493153382   -0.003834140260899427   -0.055250195342115956
0.7474624493153382   -0.003834140260899427   -0.055250195342115956
0.7474624493153382   -0.003834140260899427   -0.055250195342115956
0.7474624493153382   -0.003834140260899427   -0.055250195342115956
0.3733189992142399   -0.0079492669777744   0.026118434131243408
0.3733189992142399   -0.0079492669777744   0.026118434131243408
0.3733189992142399   -0.0079492669777744   0.026118434131243408
0.3733189992142399   -0.0079492669777744   0.026118434131243408
0.527189692849951   -0.018951664298839488   -0.017351198469097523
0.527189692849951   -0.018951664298839488   -0.017351198469097523
0.527189692849951   -0.018951664298839488   -0.017351198469097523
0.527189692849951   -0.018951664298839488   -0.017351198469097523
0.3426822158669268   -0.08395258149898106   -0.05106216808411291
0.3426822158669268   -0.08395258149898106   -0.05106216808411291
0.3426822158669268   -0.08395258149898106   -0.05106216808411291
0.3426822158669268   -0.08395258149898106   -0.05106216808411291
0.7802982157889856   0.07436815738664333   0.030726339378578656
0.7802982157889856   0.07436815738664333   0.030726339378578656
0.7802982157889856   0.07436815738664333   0.030726339378578656
0.7802982157889856   0.07436815738664333   0.030726339378578656
0.7659643019989255   0.011552657014338413   -0.0741398557862274
0.7659643019989255   0.011552657014338413   -0.0741398557862274
0.7659643019989255   0.011552657014338413   -0.0741398557862274
0.7659643019989255   0.011552657014338413   -0.0741398557862274
0.3761517185927562   0.003790875200743074   0.019482781827265438
0.3761517185927562   0.003790875200743074   0.019482781827265438
0.3761517185927562   0.003790875200743074   0.019482781827265438
0.3761517185927562   0.003790875200743074   0.019482781827265438
0.5511947149929968   -0.002303936002233803   -0.00526247875376485
0.5511947149929968   -0.002303936002233803   -0.00526247875376485
0.5511947149929968   -0.002303936002233803   -0.00526247875376485
0.5511947149929968   -0.002303936002233803   -0.00526247875376485
0.34665834067726814   -0.06859934216886207   -0.055593890380572324
0.34665834067726814   -0.06859934216886207   -0.055593890380572324
0.34665834067726814   -0.06859934216886207   -0.055593890380572324
0.34665834067726814   -0.06859934216886207   -0.055593890380572324
0.8003174448218371   0.0888026392913676   0.020375876051307123
0.8003174448218371   0.0888026392913676   0.020375876051307123
0.8003174448218371   0.0888026392913676   0.020375876051307123
0.8003174448218371   0.0888026392913676   0.020375876051307123
0.7953331557269153   0.05156929987226247   -0.06977601996456476
0.7953331557269153   0.05156929987226247   -0.06977601996456476
0.7953331557269153   0.05156929987226247   -0.06977601996456476
0.7953331557269153   0.05156929987226247   -0.06977601996456476
0.37747720438961263   0.029680301490613167   0.014240663992553967
0.37747720438961263   0.029680301490613167   0.014240663992553967
0.37747720438961263   0.029680301490613167   0.014240663992553967
0.37747720438961263   0.029680301490613167   0.014240663992553967
0.5554213565034293   0.01671252854181772   0.008133719290495209
0.5554213565034293   0.01671252854181772   0.008133719290495209
0.5554213565034293   0.01671252854181772   0.008133719290495209
0.5554213565034293   0.01671252854181772   0.008133719290495209
-0.8774197080718521   -0.02852625784522067   0.05753049384739194
-0.8774197080718521   -0.02852625784522067   0.05753049384739194
-0.8774197080718521   -0.02852625784522067   0.05753049384739194
-0.8774197080718521   -0.02852625784522067   0.05753049384739194
-0.6144721242213443   -0.041192402270247674   -0.021693785496559363
-0.6144721242213443   -0.041192402270247674   -0.021693785496559363
-0.6144721242213443   -0.041192402270247674   -0.021693785496559363
-0.6144721242213443   -0.041192402270247674   -0.021693785496559363
-0.5782701463587233   0.058081631778715115   0.04903696400708801
-0.5782701463587233   0.058081631778715115   0.04903696400708801
-0.5782701463587233   0.058081631778715115   0.04903696400708801
-0.5782701463587233   0.058081631778715115   0.04903696400708801
-0.8774814344258114   -0.07226077881651721   -0.0317402502328231
-0.8774814344258114   -0.07226077881651721   -0.0317402502328231
-0.8774814344258114   -0.07226077881651721   -0.0317402502328231
-0.8774814344258114   -0.07226077881651721   -0.0317402502328231
-0.7067527230893543   -0.011230718771726739   -0.0016754569638283562
-0.7067527230893543   -0.011230718771726739   -0.0016754569638283562
-0.7067527230893543   -0.011230718771726739   -0.0016754569638283562
-0.7067527230893543   -0.011230718771726739   -0.0016754569638283562
-0.8445474502250904   0.005960463829064261   0.054708428125200825
-0.8445474502250904   0.005960463829064261   0.054708428125200825
-0.8445474502250904   0.005960463829064261   0.054708428125200825
-0.8445474502250904   0.005960463829064261   0.054708428125200825
-0.6085219295203983   -0.01745740982781968   -0.02668291019474852
-0.6085219295203983   -0.01745740982781968   -0.02668291019474852
-0.6085219295203983   -0.01745740982781968   -0.02668291019474852
-0.6085219295203983   -0.01745740982781968   -0.02668291019474852
-0.5728188633745692   0.07017382064654981   0.04142740989486286
-0.5728188633745692   0.07017382064654981   0.04142740989486286
-0.5728188633745692   0.07017382064654981   0.04142740989486286
-0.5728188633745692   0.07017382064654981   0.04142740989486286
-0.8566412190349452   -0.058778759059450236   -0.04010695334436006
-0.8566412190349452   -0.058778759059450236   -0.04010695334436006
-0.8566412190349452   -0.058778759059450236   -0.04010695334436006
-0.8566412190349452   -0.058778759059450236   -0.04010695334436006
-0.7017608769859591   0.004711124072366679   0.007339242695953985
-0.7017608769859591   0.004711124072366679   0.007339242695953985
-0.7017608769859591   0.004711124072366679   0.007339242695953985
-0.7017608769859591   0.004711124072366679   0.007339242695953985
-0.8239991638127405   0.020430992767821343   0.04389357093939171
-0.8239991638127405   0.020430992767821343   0.04389357093939171
-0.8239991638127405   0.020430992767821343   0.04389357093939171
-0.8239991638127405   0.020430992767821343   0.04389357093939171
-0.6030386007580557   -0.006613613342002639   -0.032883843034011574
-0.6030386007580557   -0.006613613342002639   -0.032883843034011574
-0.6030386007580557   -0.006613613342002639   -0.032883843034011574
-0.6030386007580557   -0.006613613342002639   -0.032883843034011574
-0.5698028654725403   0.08198888652024028   0.035646799415930526
-0.5698028654725403   0.08198888652024028   0.035646799415930526
-0.5698028654725403   0.08198888652024028   0.035646799415930526
-0.5698028654725403   0.08198888652024028   0.035646799415930526
-0.828749195874947   -0.04093643693551624   -0.04800848536106416
-0.828749195874947   -0.04093643693551624   -0.04800848536106416
-0.828749195874947   -0.04093643693551624   -0.04800848536106416
-0.828749195874947   -0.04093643693551624   -0.04800848536106416
-0.6753906403707172   0.019664990716580205   0.01996423545753962
-0.6753906403707172   0.019664990716580205   0.01996423545753962
-0.6753906403707172   0.019664990716580205   0.01996423545753962
-0.6753906403707172   0.019664990716580205   0.01996423545753962
-0.6074764376839701   -0.049572612055197446   0.021664856975256143
-0.6074764376839701   -0.049572612055197446   0.021664856975256143
-0.6074764376839701   -0.049572612055197446   0.021664856975256143
-0.6074764376839701   -0.049572612055197446   0.021664856975256143
-0.35277799686854916   -0.026688400943183407   -0.0035035147303214657
-0.35277799686854916   -0.026688400943183407   -0.0035035147303214657
-0.35277799686854916   -0.026688400943183407   -0.0035035147303214657
-0.35277799686854916   -0.026688400943183407   -0.0035035147303214657
-0.33484033880700304   0.033926172890185555   0.02643711819121363
-0.33484033880700304   0.033926172890185555   0.02643711819121363
-0.33484033880700304   0.033926172890185555   0.02643711819121363
-0.33484033880700304   0.033926172890185555   0.02643711819121363
-0.6166392253907378   -0.05903172841490044   -0.025695070959368977
-0.6166392253907378   -0.05903172841490044   -0.025695070959368977
-0.6166392253907378   -0.05903172841490044   -0.025695070959368977
-0.6166392253907378   -0.05903172841490044   -0.025695070959368977
-0.47602692485868076   -0.023176469152543983   -0.009769474646815681
-0.47602692485868076   -0.023176469152543983   -0.009769474646815681
-0.47602692485868076   -0.023176469152543983   -0.009769474646815681
-0.47602692485868076   -0.023176469152543983   -0.009769474646815681
-0.6003367296138119   -0.020919494172789654   0.017705173683146426
-0.6003367296138119   -0.020919494172789654   0.017705173683146426
-0.6003367296138119   -0.020919494172789654   0.017705173683146426
-0.6003367296138119   -0.020919494172789654   0.017705173683146426
-0.349050862329176   -0.0020940890971728326   -0.008595237432292766
-0.349050862329176   -0.0020940890971728326   -0.008595237432292766
-0.349050862329176   -0.0020940890971728326   -0.008595237432292766
-0.349050862329176   -0.0020940890971728326   -0.008595237432292766
-0.33058356223545027   0.05873053780084109   0.021669122954869176
-0.33058356223545027   0.05873053780084109   0.021669122954869176
-0.33058356223545027   0.05873053780084109   0.021669122954869176
-0.33058356223545027   0.05873053780084109   0.021669122954869176
-0.6083229782493953   -0.03563975488144534   -0.030279588951273053
-0.6083229782493953   -0.03563975488144534   -0.030279588951273053
-0.6083229782493953   -0.03563975488144534   -0.030279588951273053
-0.6083229782493953   -0.03563975488144534   -0.030279588951273053
-0.4668823310082514   0.0011843701961974235   0.0006971620515724246
-0.4668823310082514   0.0011843701961974235   0.0006971620515724246
-0.4668823310082514   0.0011843701961974235   0.0006971620515724246
-0.4668823310082514   0.0011843701961974235   0.0006971620515724246
-0.590787060296683   0.005590052319824457   0.01617019361101881
-0.590787060296683   0.005590052319824457   0.01617019361101881
-0.590787060296683   0.005590052319824457   0.01617019361101881
-0.590787060296683   0.005590052319824457   0.01617019361101881
-0.3455216709153887   0.020098539872348192   -0.014389422516327414
-0.3455216709153887   0.020098539872348192   -0.014389422516327414
-0.3455216709153887   0.020098539872348192   -0.014389422516327414
-0.3455216709153887   0.020098539872348192   -0.014389422516327414
-0.32647012128798275   0.08517628130852319   0.0172290314834321
-0.32647012128798275   0.08517628130852319   0.0172290314834321
-0.32647012128798275   0.08517628130852319   0.0172290314834321
-0.32647012128798275   0.08517628130852319   0.0172290314834321
-0.6021044871113945   -0.010415103851516283   -0.03345731840658208
-0.6021044871113945   -0.010415103851516283   -0.03345731840658208
-0.6021044871113945   -0.010415103851516283   -0.03345731840658208
-0.6021044871113945   -0.010415103851516283   -0.03345731840658208
-0.4633316866021454   0.02412821143356962   0.010672115871260435
-0.4633316866021454   0.02412821143356962   0.010672115871260435
-0.4633316866021454   0.02412821143356962   0.010672115871260435
-0.4633316866021454   0.02412821143356962   0.010672115871260435
-0.3602028710514778   -0.06824638646036092   0.0009300998722090003
-0.3602028710514778   -0.06824638646036092   0.0009300998722090003
-0.3602028710514778   -0.06824638646036092   0.0009300998722090003
-0.3602028710514778   -0.06824638646036092   0.0009300998722090003
-0.093734344718486   -0.00808628460362806   0.014674322930136034
-0.093734344718486   -0.00808628460362806   0.014674322930136034
-0.093734344718486   -0.00808628460362806   0.014674322930136034
-0.093734344718486   -0.00808628460362806   0.014674322930136034
-0.09145764865284463   0.013910824977037516   0.005004781456718208
-0.09145764865284463   0.013910824977037516   0.005004781456718208
-0.09145764865284463   0.013910824977037516   0.005004781456718208
-0.09145764865284463   0.013910824977037516   0.005004781456718208
-0.35625427813935084   -0.03987109565374782   -0.0068353099265950745
-0.35625427813935084   -0.03987109565374782   -0.0068353099265950745
-0.35625427813935084   -0.03987109565374782   -0.0068353099265950745
-0.35625427813935084   -0.03987109565374782   -0.0068353099265950745
-0.22579918486092224   -0.024476849110653703   -0.006949792797634375
-0.22579918486092224   -0.024476849110653703   -0.006949792797634375
-0.22579918486092224   -0.024476849110653703   -0.006949792797634375
-0.22579918486092224   -0.024476849110653703   -0.006949792797634375
-0.3556696838430765   -0.04057435431012224   -0.00320907978884874
-0.3556696838430765   -0.04057435431012224   -0.00320907978884874
-0.3556696838430765   -0.04057435431012224   -0.00320907978884874
-0.3556696838430765   -0.04057435431012224   -0.00320907978884874
-0.08994489308790915   0.016711433494621807   0.009767950763811357
-0.08994489308790915   0.016711433494621807   0.009767950763811357
-0.08994489308790915   0.016711433494621807   0.009767950763811357
-0.08994489308790915   0.016711433494621807   0.009767950763811357
-0.08631602137376859   0.04170764655240346   0.001284865441311605
-0.08631602137376859   0.04170764655240346   0.001284865441311605
-0.08631602137376859   0.04170764655240346   0.001284865441311605
-0.08631602137376859   0.04170764655240346   0.001284865441311605
-0.35199222591813445   -0.0148991377725511   -0.011744519885159736
-0.35199222591813445   -0.0148991377725511   -0.011744519885159736
-0.35199222591813445   -0.0148991377725511   -0.011744519885159736
-0.35199222591813445   -0.0148991377725511   -0.011744519885159736
-0.22030665047822545   0.0004942325711226603   0.002918160165438022
-0.22030665047822545   0.0004942325711226603   0.002918160165438022
-0.22030665047822545   0.0004942325711226603   0.002918160165438022
-0.22030665047822545   0.0004942325711226603   0.002918160165438022
-0.3506811945355974   -0.012866717764358118   -0.007221782980667477
-0.3506811945355974   -0.012866717764358118   -0.007221782980667477
-0.3506811945355974   -0.012866717764358118   -0.007221782980667477
-0.3506811945355974   -0.012866717764358118   -0.007221782980667477
-0.08569047112241067   0.04161180817810558   0.004508455072399902
-0.08569047112241067   0.04161180817810558   0.004508455072399902
-0.08569047112241067   0.04161180817810558   0.004508455072399902
-0.08569047112241067   0.04161180817810558   0.004508455072399902
-0.08170113930895502   0.06990771217741575   -0.003081952457018998
-0.08170113930895502   0.06990771217741575   -0.003081952457018998
-0.08170113930895502   0.06990771217741575   -0.003081952457018998
-0.08170113930895502   0.06990771217741575   -0.003081952457018998
-0.3482558524488275   0.01036051982101234   -0.016883862833282345
-0.3482558524488275   0.01036051982101234   -0.016883862833282345
-0.3482558524488275   0.01036051982101234   -0.016883862833282345
-0.3482558524488275   0.01036051982101234   -0.016883862833282345
-0.2152924112942609   0.025585194167504183   0.012425047262518508
-0.2152924112942609   0.025585194167504183   0.012425047262518508
-0.2152924112942609   0.025585194167504183   0.012425047262518508
-0.2152924112942609   0.025585194167504183   0.012425047262518508
-0.11562731179146951   -0.08355456739333021   -0.019322229645080315
-0.11562731179146951   -0.08355456739333021   -0.019322229645080315
-0.11562731179146951   -0.08355456739333021   -0.019322229645080315
-0.11562731179146951   -0.08355456739333021   -0.019322229645080315
0.16176729429984388   0.012763141798040195   0.03181505680050825
0.16176729429984388   0.012763141798040195   0.03181505680050825
0.16176729429984388   0.012763141798040195   0.03181505680050825
0.16176729429984388   0.012763141798040195   0.03181505680050825
0.15035525866990218   -0.0047469639139464115   -0.01783385336485814
0.15035525866990218   -0.0047469639139464115   -0.01783385336485814
0.15035525866990218   -0.0047469639139464115   -0.01783385336485814
0.15035525866990218   -0.0047469639139464115   -0.01783385336485814
-0.09674763131994125   -0.019352691193581618   0.011818384291854273
-0.09674763131994125   -0.019352691193581618   0.011818384291854273
-0.09674763131994125   -0.019352691193581618   0.011818384291854273
-0.09674763131994125   -0.019352691193581618   0.011818384291854273
0.023916881333531908   -0.02306330044410484   -0.004951567998613561
0.023916881333531908   -0.02306330044410484   -0.004951567998613561
0.023916881333531908   -0.02306330044410484   -0.004951567998613561
0.023916881333531908   -0.02306330044410484   -0.004951567998613561
-0.11166882897993158   -0.05834422484273112   -0.02379607035894791
-0.11166882897993158   -0.05834422484273112   -0.02379607035894791
-0.11166882897993158   -0.05834422484273112   -0.02379607035894791
-0.11166882897993158   -0.05834422484273112   -0.02379607035894791
0.16777194177146637   0.036740055176773576   0.02776254305223798
0.16777194177146637   0.036740055176773576   0.02776254305223798
0.16777194177146637   0.036740055176773576   0.02776254305223798
0.16777194177146637   0.036740055176773576   0.02776254305223798
0.15993004757730928   0.021548698499298045   -0.020209987716112942
0.15993004757730928   0.021548698499298045   -0.020209987716112942
0.15993004757730928   0.021548698499298045   -0.020209987716112942
0.15993004757730928   0.021548698499298045   -0.020209987716112942
-0.09303804077267976   0.002979483726022688   0.006402931273137412
-0.09303804077267976   0.002979483726022688   0.006402931273137412
-0.09303804077267976   0.002979483726022688   0.006402931273137412
-0.09303804077267976   0.002979483726022688   0.006402931273137412
0.02901508455363952   -0.00040963611818729123   0.005090679305424011
0.02901508455363952   -0.00040963611818729123   0.005090679305424011
0.02901508455363952   -0.00040963611818729123   0.005090679305424011
0.02901508455363952   -0.00040963611818729123   0.005090679305424011
-0.10743796544269434   -0.03367195685971893   -0.028945251491194177
-0.10743796544269434   -0.03367195685971893   -0.028945251491194177
-0.10743796544269434   -0.03367195685971893   -0.028945251491194177
-0.10743796544269434   -0.03367195685971893   -0.028945251491194177
0.1764945242137234   0.060364691051438504   0.02379640291381331
0.1764945242137234   0.060364691051438504   0.02379640291381331
0.1764945242137234   0.060364691051438504   0.02379640291381331
0.1764945242137234   0.060364691051438504   0.02379640291381331
0.16764356652429496   0.05150479632625071   -0.02336116461338206
0.16764356652429496   0.05150479632625071   -0.02336116461338206
0.16764356652429496   0.05150479632625071   -0.02336116461338206
0.16764356652429496   0.05150479632625071   -0.02336116461338206
-0.08907428421620416   0.028708920305108507   0.00125111487904179
-0.08907428421620416   0.028708920305108507   0.00125111487904179
-0.08907428421620416   0.028708920305108507   0.00125111487904179
-0.08907428421620416   0.028708920305108507   0.00125111487904179
0.03687302733747856   0.024212707871723617   0.015482930199691687
0.03687302733747856   0.024212707871723617   0.015482930199691687
0.03687302733747856   0.024212707871723617   0.015482930199691687
0.03687302733747856   0.024212707871723617   0.015482930199691687
0.12833179034382214   -0.08442513911189503   -0.03817418206966427
0.12833179034382214   -0.08442513911189503   -0.03817418206966427
0.12833179034382214   -0.08442513911189503   -0.03817418206966427
0.12833179034382214   -0.08442513911189503   -0.03817418206966427
0.38849816069828963   0.03837309115834923   0.041275653273593435
0.38849816069828963   0.03837309115834923   0.041275653273593435
0.38849816069828963   0.03837309115834923   0.041275653273593435
0.38849816069828963   0.03837309115834923   0.041275653273593435
0.3845809732978974   -0.0209731469998109   -0.050262940062596656
0.3845809732978974   -0.0209731469998109   -0.050262940062596656
0.3845809732978974   -0.0209731469998109   -0.050262940062596656
0.3845809732978974   -0.0209731469998109   -0.050262940062596656
0.16244814664501384   0.0070708530723462976   0.03081276952440347
0.16244814664501384   0.0070708530723462976   0.03081276952440347
0.16244814664501384   0.0070708530723462976   0.03081276952440347
0.16244814664501384   0.0070708530723462976   0.03081276952440347
0.2520930234976226   -0.017531774363776606   -0.013386535932871084
0.2520930234976226   -0.017531774363776606   -0.013386535932871084
0.2520930234976226   -0.017531774363776606   -0.013386535932871084
0.2520930234976226   -0.017531774363776606   -0.013386535932871084
0.13198422164565227   -0.07027259149812637   -0.044163410901928844
0.13198422164565227   -0.07027259149812637   -0.044163410901928844
0.13198422164565227   -0.07027259149812637   -0.044163410901928844
0.13198422164565227   -0.07027259149812637   -0.044163410901928844
0.417589157426722   0.05891455670012361   0.0348902768815973
0.417589157426722   0.05891455670012361   0.0348902768815973
0.417589157426722   0.05891455670012361   0.0348902768815973
0.417589157426722   0.05891455670012361   0.0348902768815973
0.4057502246679646   -0.00624724793151997   -0.06030633990925821
0.4057502246679646   -0.00624724793151997   -0.06030633990925821
0.4057502246679646   -0.00624724793151997   -0.06030633990925821
0.4057502246679646   -0.00624724793151997   -0.06030633990925821
0.16804226240019127   0.01785932396246906   0.024040460935122056
0.16804226240019127   0.01785932396246906   0.024040460935122056
0.16804226240019127   0.01785932396246906   0.024040460935122056
0.16804226240019127   0.01785932396246906   0.024040460935122056
0.2734384154145211   -0.0026721902094948013   -0.0015658742855970686
0.2734384154145211   -0.0026721902094948013   -0.0015658742855970686
0.2734384154145211   -0.0026721902094948013   -0.0015658742855970686
0.2734384154145211   -0.0026721902094948013   -0.0015658742855970686
0.13781176655998303   -0.05802017535996204   -0.051232518943487
0.13781176655998303   -0.05802017535996204   -0.051232518943487
0.13781176655998303   -0.05802017535996204   -0.051232518943487
0.13781176655998303   -0.05802017535996204   -0.051232518943487
0.438634074995916   0.07228560587865798   0.02558005792032661
0.438634074995916   0.07228560587865798   0.02558005792032661
0.438634074995916   0.07228560587865798   0.02558005792032661
0.438634074995916   0.07228560587865798   0.02558005792032661
0.4382776974189422   0.02607681983381159   -0.06457723732078344
0.4382776974189422   0.02607681983381159   -0.06457723732078344
0.4382776974189422   0.02607681983381159   -0.06457723732078344
0.4382776974189422   0.02607681983381159   -0.06457723732078344
0.1737657600390368   0.039647406181656714   0.01910719310492001
0.1737657600390368   0.039647406181656714   0.01910719310492001
0.1737657600390368   0.039647406181656714   0.01910719310492001
0.1737657600390368   0.039647406181656714   0.01910719310492001
0.2841468094429859   0.013686582219456428   0.008623597083824833
0.2841468094429859   0.013686582219456428   0.008623597083824833
0.2841468094429859   0.013686582219456428   0.008623597083824833
0.2841468094429859   0.013686582219456428   0.008623597083824833
-0.5248817441196016   -0.008634583783586322   0.05150492683500465
-0.5248817441196016   -0.008634583783586322   0.05150492683500465
-0.5248817441196016   -0.008634583783586322   0.05150492683500465
-0.5248817441196016   -0.008634583783586322   0.05150492683500465
-0.41013052368623165   -0.05217543858051507   -0.025426487292714666
-0.41013052368623165   -0.05217543858051507   -0.025426487292714666
-0.41013052368623165   -0.05217543858051507   -0.025426487292714666
-0.41013052368623165   -0.05217543858051507   -0.025426487292714666
-0.37121153709116533   0.04414647205591904   0.04402610679471209
-0.37121153709116533   0.04414647205591904   0.04402610679471209
-0.37121153709116533   0.04414647205591904   0.04402610679471209
-0.37121153709116533   0.04414647205591904   0.04402610679471209
-0.5227000951185858   -0.0569657993075809   -0.03463050378960425
-0.5227000951185858   -0.0569657993075809   -0.03463050378960425
-0.5227000951185858   -0.0569657993075809   -0.03463050378960425
-0.5227000951185858   -0.0569657993075809   -0.03463050378960425
-0.4397648746280106   -0.012067310227650604   -0.006585247433052891
-0.4397648746280106   -0.012067310227650604   -0.006585247433052891
-0.4397648746280106   -0.012067310227650604   -0.006585247433052891
-0.4397648746280106   -0.012067310227650604   -0.006585247433052891
-0.49026742711301863   0.02136956673228016   0.04919747019837092
-0.49026742711301863   0.02136956673228016   0.04919747019837092
-0.49026742711301863   0.02136956673228016   0.04919747019837092
-0.49026742711301863   0.02136956673228016   0.04919747019837092
-0.40138441085630183   -0.0319290997435106   -0.030762690231536792
-0.40138441085630183   -0.0319290997435106   -0.030762690231536792
-0.40138441085630183   -0.0319290997435106   -0.030762690231536792
-0.40138441085630183   -0.0319290997435106   -0.030762690231536792
-0.3620401721577319   0.055608151701595276   0.03722655358366968
-0.3620401721577319   0.055608151701595276   0.03722655358366968
-0.3620401721577319   0.055608151701595276   0.03722655358366968
-0.3620401721577319   0.055608151701595276   0.03722655358366968
-0.4986695383983837   -0.04397594345535577   -0.04324919883289924
-0.4986695383983837   -0.04397594345535577   -0.04324919883289924
-0.4986695383983837   -0.04397594345535577   -0.04324919883289924
-0.4986695383983837   -0.04397594345535577   -0.04324919883289924
-0.4272017484643804   0.0029271283399145975   0.00299389514596465
-0.4272017484643804   0.0029271283399145975   0.00299389514596465
-0.4272017484643804   0.0029271283399145975   0.00299389514596465
-0.4272017484643804   0.0029271283399145975   0.00299389514596465
-0.466221811984858   0.035274342479424486   0.03973914729994178
-0.466221811984858   0.035274342479424486   0.03973914729994178
-0.466221811984858   0.035274342479424486   0.03973914729994178
-0.466221811984858   0.035274342479424486   0.03973914729994178
-0.39235128510922357   -0.021505520771151504   -0.037215338701038124
-0.39235128510922357   -0.021505520771151504   -0.037215338701038124
-0.39235128510922357   -0.021505520771151504   -0.037215338701038124
-0.39235128510922357   -0.021505520771151504   -0.037215338701038124
-0.354623029665672   0.06991134598867198   0.032104263050601996
-0.354623029665672   0.06991134598867198   0.032104263050601996
-0.354623029665672   0.06991134598867198   0.032104263050601996
-0.354623029665672   0.06991134598867198   0.032104263050601996
-0.46639053307623074   -0.023174038242393863   -0.050043744140262914
-0.46639053307623074   -0.023174038242393863   -0.050043744140262914
-0.46639053307623074   -0.023174038242393863   -0.050043744140262914
-0.46639053307623074   -0.023174038242393863   -0.050043744140262914
-0.4018734149026862   0.017728053651448278   0.014865651152271224
-0.4018734149026862   0.017728053651448278   0.014865651152271224
-0.4018734149026862   0.017728053651448278   0.014865651152271224
-0.4018734149026862   0.017728053651448278   0.014865651152271224
-0.39567598135222115   -0.029694281445409997   0.024365067242232835
-0.39567598135222115   -0.029694281445409997   0.024365067242232835
-0.39567598135222115   -0.029694281445409997   0.024365067242232835
-0.39567598135222115   -0.029694281445409997   0.024365067242232835
-0.2911226056434819   -0.039550126878733015   -0.007524030225363137
-0.2911226056434819   -0.039550126878733015   -0.007524030225363137
-0.2911226056434819   -0.039550126878733015   -0.007524030225363137
-0.2911226056434819   -0.039550126878733015   -0.007524030225363137
-0.26944995126466526   0.020046974497923115   0.02250916947867623
-0.26944995126466526   0.020046974497923115   0.02250916947867623
-0.26944995126466526   0.020046974497923115   0.02250916947867623
-0.26944995126466526   0.020046974497923115   0.02250916947867623
-0.4015901075967706   -0.042030797765560256   -0.02168947591183111
-0.4015901075967706   -0.042030797765560256   -0.02168947591183111
-0.4015901075967706   -0.042030797765560256   -0.02168947591183111
-0.4015901075967706   -0.042030797765560256   -0.02168947591183111
-0.3385377415209655   -0.020999308824780273   -0.009156119981406067
-0.3385377415209655   -0.020999308824780273   -0.009156119981406067
-0.3385377415209655   -0.020999308824780273   -0.009156119981406067
-0.3385377415209655   -0.020999308824780273   -0.009156119981406067
-0.3853989230319863   -0.0034979366016425623   0.020733585748168925
-0.3853989230319863   -0.0034979366016425623   0.020733585748168925
-0.3853989230319863   -0.0034979366016425623   0.020733585748168925
-0.3853989230319863   -0.0034979366016425623   0.020733585748168925
-0.2838187270973204   -0.016663477933866057   -0.012624257252810312
-0.2838187270973204   -0.016663477933866057   -0.012624257252810312
-0.2838187270973204   -0.016663477933866057   -0.012624257252810312
-0.2838187270973204   -0.016663477933866057   -0.012624257252810312
-0.2615455763365892   0.04337142792552326   0.01799892317076381
-0.2615455763365892   0.04337142792552326   0.01799892317076381
-0.2615455763365892   0.04337142792552326   0.01799892317076381
-0.2615455763365892   0.04337142792552326   0.01799892317076381
-0.3897258820120709   -0.019623899560364644   -0.0259699444260618
-0.3897258820120709   -0.019623899560364644   -0.0259699444260618
-0.3897258820120709   -0.019623899560364644   -0.0259699444260618
-0.3897258820120709   -0.019623899560364644   -0.0259699444260618
-0.327089391805028   0.001472052580694161   0.0009081579607074924
-0.327089391805028   0.001472052580694161   0.0009081579607074924
-0.327089391805028   0.001472052580694161   0.0009081579607074924
-0.327089391805028   0.001472052580694161   0.0009081579607074924
-0.3725836373651254   0.021322922446102274   0.01879445680219508
-0.3725836373651254   0.021322922446102274   0.01879445680219508
-0.3725836373651254   0.021322922446102274   0.01879445680219508
-0.3725836373651254   0.021322922446102274   0.01879445680219508
-0.2765840340914883   0.004528392811101886   -0.01835033048931179
-0.2765840340914883   0.004528392811101886   -0.01835033048931179
-0.2765840340914883   0.004528392811101886   -0.01835033048931179
-0.2765840340914883   0.004528392811101886   -0.01835033048931179
-0.25366568600798134   0.06870472223814547   0.013703010938313519
-0.25366568600798134   0.06870472223814547   0.013703010938313519
-0.25366568600798134   0.06870472223814547   0.013703010938313519
-0.25366568600798134   0.06870472223814547   0.013703010938313519
-0.3799450575172497   0.004865382341504923   -0.02945991256011169
-0.3799450575172497   0.004865382341504923   -0.02945991256011169
-0.3799450575172497   0.004865382341504923   -0.02945991256011169
-0.3799450575172497   0.004865382341504923   -0.02945991256011169
-0.3188162615156949   0.023520320715161414   0.0107592540511488
-0.3188162615156949   0.023520320715161414   0.0107592540511488
-0.3188162615156949   0.023520320715161414   0.0107592540511488
-0.3188162615156949   0.023520320715161414   0.0107592540511488
-0.2907543367512725   -0.04955975843735265   0.004326945794299629
-0.2907543367512725   -0.04955975843735265   0.004326945794299629
-0.2907543367512725   -0.04955975843735265   0.004326945794299629
-0.2907543367512725   -0.04955975843735265   0.004326945794299629
-0.173673334480937   -0.020956295866655292   0.01066226030755647
-0.173673334480937   -0.020956295866655292   0.01066226030755647
-0.173673334480937   -0.020956295866655292   0.01066226030755647
-0.173673334480937   -0.020956295866655292   0.01066226030755647
-0.16780386348649767   -0.0005400161650065752   0.0013696728642579956
-0.16780386348649767   -0.0005400161650065752   0.0013696728642579956
-0.16780386348649767   -0.0005400161650065752   0.0013696728642579956
-0.16780386348649767   -0.0005400161650065752   0.0013696728642579956
-0.28297372690020717   -0.022565420916789883   -0.00249731328431994
-0.28297372690020717   -0.022565420916789883   -0.00249731328431994
-0.28297372690020717   -0.022565420916789883   -0.00249731328431994
-0.28297372690020717   -0.022565420916789883   -0.00249731328431994
-0.22916659585521226   -0.02230849782360445   -0.0066736499512815095
-0.22916659585521226   -0.02230849782360445   -0.0066736499512815095
-0.22916659585521226   -0.02230849782360445   -0.0066736499512815095
-0.22916659585521226   -0.02230849782360445   -0.0066736499512815095
-0.282628929285422   -0.023705594269233875   0.00036684814204582424
-0.282628929285422   -0.023705594269233875   0.00036684814204582424
-0.282628929285422   -0.023705594269233875   0.00036684814204582424
-0.282628929285422   -0.023705594269233875   0.00036684814204582424
-0.16633583089442536   0.0024129873942942276   0.005756832265318829
-0.16633583089442536   0.0024129873942942276   0.005756832265318829
-0.16633583089442536   0.0024129873942942276   0.005756832265318829
-0.16633583089442536   0.0024129873942942276   0.005756832265318829
-0.15921268298068517   0.025541766676285396   -0.00231954057841113
-0.15921268298068517   0.025541766676285396   -0.00231954057841113
-0.15921268298068517   0.025541766676285396   -0.00231954057841113
-0.15921268298068517   0.025541766676285396   -0.00231954057841113
-0.2750542380783108   0.0011380885415938347   -0.007311046153916409
-0.2750542380783108   0.0011380885415938347   -0.007311046153916409
-0.2750542380783108   0.0011380885415938347   -0.007311046153916409
-0.2750542380783108   0.0011380885415938347   -0.007311046153916409
-0.2201016101493241   0.001132135907709636   0.0030905683085004285
-0.2201016101493241   0.001132135907709636   0.0030905683085004285
-0.2201016101493241   0.001132135907709636   0.0030905683085004285
-0.2201016101493241   0.001132135907709636   0.0030905683085004285
-0.27409310309527646   0.00229677852468492   -0.0036640612218376174
-0.27409310309527646   0.00229677852468492   -0.0036640612218376174
-0.27409310309527646   0.00229677852468492   -0.0036640612218376174
-0.27409310309527646   0.00229677852468492   -0.0036640612218376174
-0.1585340621964425   0.026022832460473856   0.0005924975586153701
-0.1585340621964425   0.026022832460473856   0.0005924975586153701
-0.1585340621964425   0.026022832460473856   0.0005924975586153701
-0.1585340621964425   0.026022832460473856   0.0005924975586153701
-0.15109725210063038   0.05186454156826584   -0.006522354445211986
-0.15109725210063038   0.05186454156826584   -0.006522354445211986
-0.15109725210063038   0.05186454156826584   -0.006522354445211986
-0.15109725210063038   0.05186454156826584   -0.006522354445211986
-0.2676347637491417   0.02502374954476773   -0.012461405074108926
-0.2676347637491417   0.02502374954476773   -0.012461405074108926
-0.2676347637491417   0.02502374954476773   -0.012461405074108926
-0.2676347637491417   0.02502374954476773   -0.012461405074108926
-0.21153055934454978   0.024657217220893902   0.012461355113189139
-0.21153055934454978   0.024657217220893902   0.012461355113189139
-0.21153055934454978   0.024657217220893902   0.012461355113189139
-0.21153055934454978   0.024657217220893902   0.012461355113189139
-0.18815916363998275   -0.06677483118407743   -0.015948350170253187
-0.18815916363998275   -0.06677483118407743   -0.015948350170253187
-0.18815916363998275   -0.06677483118407743   -0.015948350170253187
-0.18815916363998275   -0.06677483118407743   -0.015948350170253187
-0.05964730442720227   -0.0012169024494403198   0.027945773224852543
-0.05964730442720227   -0.0012169024494403198   0.027945773224852543
-0.05964730442720227   -0.0012169024494403198   0.027945773224852543
-0.05964730442720227   -0.0012169024494403198   0.027945773224852543
-0.06764760121009845   -0.020021325168960043   -0.02062481569488064
-0.06764760121009845   -0.020021325168960043   -0.02062481569488064
-0.06764760121009845   -0.020021325168960043   -0.02062481569488064
-0.06764760121009845   -0.020021325168960043   -0.02062481569488064
-0.1652737026979788   -0.0025441543296956803   0.01602461497154003
-0.1652737026979788   -0.0025441543296956803   0.01602461497154003
-0.1652737026979788   -0.0025441543296956803   0.01602461497154003
-0.1652737026979788   -0.0025441543296956803   0.01602461497154003
-0.12014630508527341   -0.02165348360847107   -0.0048178543108103
-0.12014630508527341   -0.02165348360847107   -0.0048178543108103
-0.12014630508527341   -0.02165348360847107   -0.0048178543108103
-0.12014630508527341   -0.02165348360847107   -0.0048178543108103
-0.1805087162252458   -0.04250625535992652   -0.020188351634565636
-0.1805087162252458   -0.04250625535992652   -0.020188351634565636
-0.1805087162252458   -0.04250625535992652   -0.020188351634565636
-0.1805087162252458   -0.04250625535992652   -0.020188351634565636
-0.05038217583376029   0.021971187710341702   0.023709798307508426
-0.05038217583376029   0.021971187710341702   0.023709798307508426
-0.05038217583376029   0.021971187710341702   0.023709798307508426
-0.05038217583376029   0.021971187710341702   0.023709798307508426
-0.0550569800230076   0.004650894950965968   -0.023221073351818333
-0.0550569800230076   0.004650894950965968   -0.023221073351818333
-0.0550569800230076   0.004650894950965968   -0.023221073351818333
-0.0550569800230076   0.004650894950965968   -0.023221073351818333
-0.1579706342342622   0.018737663092913824   0.010694806737075383
-0.1579706342342622   0.018737663092913824   0.010694806737075383
-0.1579706342342622   0.018737663092913824   0.010694806737075383
-0.1579706342342622   0.018737663092913824   0.010694806737075383
-0.11049113561102368   0.00018784877975227404   0.005136187390011613
-0.11049113561102368   0.00018784877975227404   0.005136187390011613
-0.11049113561102368   0.00018784877975227404   0.005136187390011613
-0.11049113561102368   0.00018784877975227404   0.005136187390011613
-0.172721616531624   -0.019251921676465018   -0.02507051998035688
-0.172721616531624   -0.019251921676465018   -0.02507051998035688
-0.172721616531624   -0.019251921676465018   -0.02507051998035688
-0.172721616531624   -0.019251921676465018   -0.02507051998035688
-0.038415620226582604   0.044530857219407985   0.020105763361866598
-0.038415620226582604   0.044530857219407985   0.020105763361866598
-0.038415620226582604   0.044530857219407985   0.020105763361866598
-0.038415620226582604   0.044530857219407985   0.020105763361866598
-0.04440925647987047   0.03218775478075868   -0.026019740479041046
-0.04440925647987047   0.03218775478075868   -0.026019740479041046
-0.04440925647987047   0.03218775478075868   -0.026019740479041046
-0.04440925647987047   0.03218775478075868   -0.026019740479041046
-0.15049391765304937   0.042802416154799725   0.005556443206159167
-0.15049391765304937   0.042802416154799725   0.005556443206159167
-0.15049391765304937   0.042802416154799725   0.005556443206159167
-0.15049391765304937   0.042802416154799725   0.005556443206159167
-0.10051039388871842   0.022934242278230217   0.015084293932481759
-0.10051039388871842   0.022934242278230217   0.015084293932481759
-0.10051039388871842   0.022934242278230217   0.015084293932481759
-0.10051039388871842   0.022934242278230217   0.015084293932481759
-0.08629028232895326   -0.07178077654040292   -0.03470524219293979
-0.08629028232895326   -0.07178077654040292   -0.03470524219293979
-0.08629028232895326   -0.07178077654040292   -0.03470524219293979
-0.08629028232895326   -0.07178077654040292   -0.03470524219293979
0.02600741587275303   0.021005316857276468   0.04268399174829496
0.02600741587275303   0.021005316857276468   0.04268399174829496
0.02600741587275303   0.021005316857276468   0.04268399174829496
0.02600741587275303   0.021005316857276468   0.04268399174829496
0.02615783826715215   -0.035544967080177695   -0.04597602286033945
0.02615783826715215   -0.035544967080177695   -0.04597602286033945
0.02615783826715215   -0.035544967080177695   -0.04597602286033945
0.02615783826715215   -0.035544967080177695   -0.04597602286033945
-0.048092990374508204   0.02218908065735927   0.03493783265675127
-0.048092990374508204   0.02218908065735927   0.03493783265675127
-0.048092990374508204   0.02218908065735927   0.03493783265675127
-0.048092990374508204   0.02218908065735927   0.03493783265675127
-0.021383516155068807   -0.015309316049238401   -0.008064501849380916
-0.021383516155068807   -0.015309316049238401   -0.008064501849380916
-0.021383516155068807   -0.015309316049238401   -0.008064501849380916
-0.021383516155068807   -0.015309316049238401   -0.008064501849380916
-0.07855407740229721   -0.05527320833913913   -0.03990531348569728
-0.07855407740229721   -0.05527320833913913   -0.03990531348569728
-0.07855407740229721   -0.05527320833913913   -0.03990531348569728
-0.07855407740229721   -0.05527320833913913   -0.03990531348569728
0.05878857421520358   0.044086970836583445   0.03754571896316037
0.05878857421520358   0.044086970836583445   0.03754571896316037
0.05878857421520358   0.044086970836583445   0.03754571896316037
0.05878857421520358   0.044086970836583445   0.03754571896316037
0.05030828867059358   -0.02142221313791921   -0.05463325083723694
0.05030828867059358   -0.02142221313791921   -0.05463325083723694
0.05030828867059358   -0.02142221313791921   -0.05463325083723694
0.05030828867059358   -0.02142221313791921   -0.05463325083723694
-0.03924954359563731   0.03243743043578031   0.02802957330022074
-0.03924954359563731   0.03243743043578031   0.02802957330022074
-0.03924954359563731   0.03243743043578031   0.02802957330022074
-0.03924954359563731   0.03243743043578031   0.02802957330022074
-0.0015701745370962795   -0.0007689106140167088   0.002711615617731237
-0.0015701745370962795   -0.0007689106140167088   0.002711615617731237
-0.0015701745370962795   -0.0007689106140167088   0.002711615617731237
-0.0015701745370962795   -0.0007689106140167088   0.002711615617731237
-0.06930678839309937   -0.04365201869456055   -0.04616720155675067
-0.06930678839309937   -0.04365201869456055   -0.04616720155675067
-0.06930678839309937   -0.04365201869456055   -0.04616720155675067
-0.06930678839309937   -0.04365201869456055   -0.04616720155675067
0.08253895746966804   0.05684065999403372   0.028257220026182417
0.08253895746966804   0.05684065999403372   0.028257220026182417
0.08253895746966804   0.05684065999403372   0.028257220026182417
0.08253895746966804   0.05684065999403372   0.028257220026182417
0.08419265606227536   0.006206538913431044   -0.05852403925944691
0.08419265606227536   0.006206538913431044   -0.05852403925944691
0.08419265606227536   0.006206538913431044   -0.05852403925944691
0.08419265606227536   0.006206538913431044   -0.05852403925944691
-0.0309912630766436   0.05047793164156631   0.02278004967628568
-0.0309912630766436   0.05047793164156631   0.02278004967628568
-0.0309912630766436   0.05047793164156631   0.02278004967628568
-0.0309912630766436   0.05047793164156631   0.02278004967628568
0.016353693504813808   0.014490576361338128   0.013260449824085748
0.016353693504813808   0.014490576361338128   0.013260449824085748
0.016353693504813808   0.014490576361338128   0.013260449824085748
0.016353693504813808   0.014490576361338128   0.013260449824085748
-0.17277472323156823   0.010136005269607944   0.04877493150323704
-0.17277472323156823   0.010136005269607944   0.04877493150323704
-0.17277472323156823   0.010136005269607944   0.04877493150323704
-0.17277472323156823   0.010136005269607944   0.04877493150323704
-0.20671903246473183   -0.06351791192311218   -0.028683605165746865
-0.20671903246473183   -0.06351791192311218   -0.028683605165746865
-0.20671903246473183   -0.06351791192311218   -0.028683605165746865
-0.20671903246473183   -0.06351791192311218   -0.028683605165746865
-0.16504072087347108   0.02947655051724062   0.039921871089388584
-0.16504072087347108   0.02947655051724062   0.039921871089388584
-0.16504072087347108   0.02947655051724062   0.039921871089388584
-0.16504072087347108   0.02947655051724062   0.039921871089388584
-0.1678144646211524   -0.04159615285835972   -0.036991349933050116
-0.1678144646211524   -0.04159615285835972   -0.036991349933050116
-0.1678144646211524   -0.04159615285835972   -0.036991349933050116
-0.1678144646211524   -0.04159615285835972   -0.036991349933050116
-0.17362750296808951   -0.013347912972927055   -0.013401929462669881
-0.17362750296808951   -0.013347912972927055   -0.013401929462669881
-0.17362750296808951   -0.013347912972927055   -0.013401929462669881
-0.17362750296808951   -0.013347912972927055   -0.013401929462669881
-0.13572434395543703   0.0364400598253353   0.045423040711827935
-0.13572434395543703   0.0364400598253353   0.045423040711827935
-0.13572434395543703   0.0364400598253353   0.045423040711827935
-0.13572434395543703   0.0364400598253353   0.045423040711827935
-0.19511062560950168   -0.04653944623676449   -0.03441165583675539
-0.19511062560950168   -0.04653944623676449   -0.03441165583675539
-0.19511062560950168   -0.04653944623676449   -0.03441165583675539
-0.19511062560950168   -0.04653944623676449   -0.03441165583675539
-0.15224829586922484   0.040675224333304186   0.033585397581241565
-0.15224829586922484   0.040675224333304186   0.033585397581241565
-0.15224829586922484   0.040675224333304186   0.033585397581241565
-0.15224829586922484   0.040675224333304186   0.033585397581241565
-0.14029566051906012   -0.028940195375707835   -0.0460565461313318
-0.14029566051906012   -0.028940195375707835   -0.0460565461313318
-0.14029566051906012   -0.028940195375707835   -0.0460565461313318
-0.14029566051906012   -0.028940195375707835   -0.0460565461313318
-0.15332845211510965   0.0009505891989501497   -0.0028460301842690924
-0.15332845211510965   0.0009505891989501497   -0.0028460301842690924
-0.15332845211510965   0.0009505891989501497   -0.0028460301842690924
-0.15332845211510965   0.0009505891989501497   -0.0028460301842690924
-0.10803007632118028   0.050056687185947885   0.03627449229641553
-0.10803007632118028   0.050056687185947885   0.03627449229641553
-0.10803007632118028   0.050056687185947885   0.03627449229641553
-0.10803007632118028   0.050056687185947885   0.03627449229641553
-0.18261160315124444   -0.036419381312490666   -0.041136533183061666
-0.18261160315124444   -0.036419381312490666   -0.041136533183061666
-0.18261160315124444   -0.036419381312490666   -0.041136533183061666
-0.18261160315124444   -0.036419381312490666   -0.041136533183061666
-0.14055431281840547   0.057803111061973875   0.029005782123750563
-0.14055431281840547   0.057803111061973875   0.029005782123750563
-0.14055431281840547   0.057803111061973875   0.029005782123750563
-0.14055431281840547   0.057803111061973875   0.029005782123750563
-0.10355848200886149   -0.004885272653541273   -0.05187684614066833
-0.10355848200886149   -0.004885272653541273   -0.05187684614066833
-0.10355848200886149   -0.004885272653541273   -0.05187684614066833
-0.10355848200886149   -0.004885272653541273   -0.05187684614066833
-0.12895124330940366   0.015905796026081484   0.0084445513908485
-0.12895124330940366   0.015905796026081484   0.0084445513908485
-0.12895124330940366   0.015905796026081484   0.0084445513908485
-0.12895124330940366   0.015905796026081484   0.0084445513908485
-0.1849725029811582   -0.011257561862828162   0.027788692191837404
-0.1849725029811582   -0.011257561862828162   0.027788692191837404
-0.1849725029811582   -0.011257561862828162   0.027788692191837404
-0.1849725029811582   -0.011257561862828162   0.027788692191837404
-0.23050112189398828   -0.05181691832181292   -0.01120478229422867
-0.23050112189398828   -0.05181691832181292   -0.01120478229422867
-0.23050112189398828   -0.05181691832181292   -0.01120478229422867
-0.23050112189398828   -0.05181691832181292   -0.01120478229422867
-0.20561604546318732   0.005207678417508299   0.01852884286994366
-0.20561604546318732   0.005207678417508299   0.01852884286994366
-0.20561604546318732   0.005207678417508299   0.01852884286994366
-0.20561604546318732   0.005207678417508299   0.01852884286994366
-0.1871772265688118   -0.02434370439010847   -0.016940402479962115
-0.1871772265688118   -0.02434370439010847   -0.016940402479962115
-0.1871772265688118   -0.02434370439010847   -0.016940402479962115
-0.1871772265688118   -0.02434370439010847   -0.016940402479962115
-0.2022250666733647   -0.018969401728685217   -0.009402023630289563
-0.2022250666733647   -0.018969401728685217   -0.009402023630289563
-0.2022250666733647   -0.018969401728685217   -0.009402023630289563
-0.2022250666733647   -0.018969401728685217   -0.009402023630289563
-0.17143235832072362   0.013188911788404693   0.02425132258196191
-0.17143235832072362   0.013188911788404693   0.02425132258196191
-0.17143235832072362   0.013188911788404693   0.02425132258196191
-0.17143235832072362   0.013188911788404693   0.02425132258196191
-0.21977756132800128   -0.03074158537773668   -0.016329472658883036
-0.21977756132800128   -0.03074158537773668   -0.016329472658883036
-0.21977756132800128   -0.03074158537773668   -0.016329472658883036
-0.21977756132800128   -0.03074158537773668   -0.016329472658883036
-0.19419879399146597   0.027502074916665134   0.014132839938466816
-0.19419879399146597   0.027502074916665134   0.014132839938466816
-0.19419879399146597   0.027502074916665134   0.014132839938466816
-0.19419879399146597   0.027502074916665134   0.014132839938466816
-0.17188155180886258   -0.002873088295300301   -0.021032569488335127
-0.17188155180886258   -0.002873088295300301   -0.021032569488335127
-0.17188155180886258   -0.002873088295300301   -0.021032569488335127
-0.17188155180886258   -0.002873088295300301   -0.021032569488335127
-0.1885733619419372   0.0018190417596038455   0.0003360403035479881
-0.1885733619419372   0.0018190417596038455   0.0003360403035479881
-0.1885733619419372   0.0018190417596038455   0.0003360403035479881
-0.1885733619419372   0.0018190417596038455   0.0003360403035479881
-0.15536955355728807   0.036810184758875146   0.021844148715354297
-0.15536955355728807   0.036810184758875146   0.021844148715354297
-0.15536955355728807   0.036810184758875146   0.021844148715354297
-0.15536955355728807   0.036810184758875146   0.021844148715354297
-0.20902271909310097   -0.010493124987575278   -0.021991585665471627
-0.20902271909310097   -0.010493124987575278   -0.021991585665471627
-0.20902271909310097   -0.010493124987575278   -0.021991585665471627
-0.20902271909310097   -0.010493124987575278   -0.021991585665471627
-0.1827246211474261   0.05219231961973435   0.009954337461227137
-0.1827246211474261   0.05219231961973435   0.009954337461227137
-0.1827246211474261   0.05219231961973435   0.009954337461227137
-0.1827246211474261   0.05219231961973435   0.009954337461227137
-0.15869689891192673   0.0209713989923513   -0.024875436274229345
-0.15869689891192673   0.0209713989923513   -0.024875436274229345
-0.15869689891192673   0.0209713989923513   -0.024875436274229345
-0.15869689891192673   0.0209713989923513   -0.024875436274229345
-0.17566506964669742   0.02330379083056991   0.010253180246677193
-0.17566506964669742   0.02330379083056991   0.010253180246677193
-0.17566506964669742   0.02330379083056991   0.010253180246677193
-0.17566506964669742   0.02330379083056991   0.010253180246677193
-0.2225918588433375   -0.03130627489433781   0.007830889531544403
-0.2225918588433375   -0.03130627489433781   0.007830889531544403
-0.2225918588433375   -0.03130627489433781   0.007830889531544403
-0.2225918588433375   -0.03130627489433781   0.007830889531544403
-0.2541629153279909   -0.032812415600278116   0.006766506364801268
-0.2541629153279909   -0.032812415600278116   0.006766506364801268
-0.2541629153279909   -0.032812415600278116   0.006766506364801268
-0.2541629153279909   -0.032812415600278116   0.006766506364801268
-0.2450305777993759   -0.014959285704496492   -0.0024097863236995486
-0.2450305777993759   -0.014959285704496492   -0.0024097863236995486
-0.2450305777993759   -0.014959285704496492   -0.0024097863236995486
-0.2450305777993759   -0.014959285704496492   -0.0024097863236995486
-0.21079995443754593   -0.004401548704804165   0.0022185251204611643
-0.21079995443754593   -0.004401548704804165   0.0022185251204611643
-0.21079995443754593   -0.004401548704804165   0.0022185251204611643
-0.21079995443754593   -0.004401548704804165   0.0022185251204611643
-0.2334962688641077   -0.01968731983301432   -0.006248598647815011
-0.2334962688641077   -0.01968731983301432   -0.006248598647815011
-0.2334962688641077   -0.01968731983301432   -0.006248598647815011
-0.2334962688641077   -0.01968731983301432   -0.006248598647815011
-0.21095900778032284   -0.0068822270796598875   0.0039039367814304397
-0.21095900778032284   -0.0068822270796598875   0.0039039367814304397
-0.21095900778032284   -0.0068822270796598875   0.0039039367814304397
-0.21095900778032284   -0.0068822270796598875   0.0039039367814304397
-0.24337746430199675   -0.010984547175038557   0.0018810426337400633
-0.24337746430199675   -0.010984547175038557   0.0018810426337400633
-0.24337746430199675   -0.010984547175038557   0.0018810426337400633
-0.24337746430199675   -0.010984547175038557   0.0018810426337400633
-0.2330318784188066   0.009783098708949639   -0.006108354976626335
-0.2330318784188066   0.009783098708949639   -0.006108354976626335
-0.2330318784188066   0.009783098708949639   -0.006108354976626335
-0.2330318784188066   0.009783098708949639   -0.006108354976626335
-0.19942104156166032   0.018027940528522746   -0.002504263524362574
-0.19942104156166032   0.018027940528522746   -0.002504263524362574
-0.19942104156166032   0.018027940528522746   -0.002504263524362574
-0.19942104156166032   0.018027940528522746   -0.002504263524362574
-0.2209579974336477   0.0024223155590127818   0.003370290994966602
-0.2209579974336477   0.0024223155590127818   0.003370290994966602
-0.2209579974336477   0.0024223155590127818   0.003370290994966602
-0.2209579974336477   0.0024223155590127818   0.003370290994966602
-0.19900865685976699   0.01777211176567539   -0.0001865112520524556
-0.19900865685976699   0.01777211176567539   -0.0001865112520524556
-0.19900865685976699   0.01777211176567539   -0.0001865112520524556
-0.19900865685976699   0.01777211176567539   -0.0001865112520524556
-0.23214021436424123   0.011342976228257584   -0.0032099122231075
-0.23214021436424123   0.011342976228257584   -0.0032099122231075
-0.23214021436424123   0.011342976228257584   -0.0032099122231075
-0.23214021436424123   0.011342976228257584   -0.0032099122231075
-0.22154226390192258   0.034678946535539844   -0.010277919967467446
-0.22154226390192258   0.034678946535539844   -0.010277919967467446
-0.22154226390192258   0.034678946535539844   -0.010277919967467446
-0.22154226390192258   0.034678946535539844   -0.010277919967467446
-0.18858312990886897   0.040549296754047406   -0.007695183480300308
-0.18858312990886897   0.040549296754047406   -0.007695183480300308
-0.18858312990886897   0.040549296754047406   -0.007695183480300308
-0.18858312990886897   0.040549296754047406   -0.007695183480300308
-0.2090038849508234   0.02457309958133662   0.012538558057618783
-0.2090038849508234   0.02457309958133662   0.012538558057618783
-0.2090038849508234   0.02457309958133662   0.012538558057618783
-0.2090038849508234   0.02457309958133662   0.012538558057618783
-0.2614175954876317   -0.04968664776102812   -0.012632662272657039
-0.2614175954876317   -0.04968664776102812   -0.012632662272657039
-0.2614175954876317   -0.04968664776102812   -0.012632662272657039
-0.2614175954876317   -0.04968664776102812   -0.012632662272657039
-0.27989386845066744   -0.014195858612974198   0.02393061567372365
-0.27989386845066744   -0.014195858612974198   0.02393061567372365
-0.27989386845066744   -0.014195858612974198   0.02393061567372365
-0.27989386845066744   -0.014195858612974198   0.02393061567372365
-0.28446106969126944   -0.03431382353153788   -0.023636364044380402
-0.28446106969126944   -0.03431382353153788   -0.023636364044380402
-0.28446106969126944   -0.03431382353153788   -0.023636364044380402
-0.28446106969126944   -0.03431382353153788   -0.023636364044380402
-0.23453872150371097   0.01486365100034634   0.02022655844978215
-0.23453872150371097   0.01486365100034634   0.02022655844978215
-0.23453872150371097   0.01486365100034634   0.02022655844978215
-0.23453872150371097   0.01486365100034634   0.02022655844978215
-0.2639673974456821   -0.01949110216251252   -0.003930966937939916
-0.2639673974456821   -0.01949110216251252   -0.003930966937939916
-0.2639673974456821   -0.01949110216251252   -0.003930966937939916
-0.2639673974456821   -0.01949110216251252   -0.003930966937939916
-0.25010555260944756   -0.02605353043500987   -0.01669041564354681
-0.25010555260944756   -0.02605353043500987   -0.01669041564354681
-0.25010555260944756   -0.02605353043500987   -0.01669041564354681
-0.25010555260944756   -0.02605353043500987   -0.01669041564354681
-0.26732787591048945   0.008169720578858758   0.019546060749122716
-0.26732787591048945   0.008169720578858758   0.019546060749122716
-0.26732787591048945   0.008169720578858758   0.019546060749122716
-0.26732787591048945   0.008169720578858758   0.019546060749122716
-0.2687089190045732   -0.010853034148237455   -0.026520394698369996
-0.2687089190045732   -0.010853034148237455   -0.026520394698369996
-0.2687089190045732   -0.010853034148237455   -0.026520394698369996
-0.2687089190045732   -0.010853034148237455   -0.026520394698369996
-0.22374412561829582   0.03509073994115609   0.015022767793718802
-0.22374412561829582   0.03509073994115609   0.015022767793718802
-0.22374412561829582   0.03509073994115609   0.015022767793718802
-0.22374412561829582   0.03509073994115609   0.015022767793718802
-0.24970203428601886   0.0018070852764242723   0.006001195996858782
-0.24970203428601886   0.0018070852764242723   0.006001195996858782
-0.24970203428601886   0.0018070852764242723   0.006001195996858782
-0.24970203428601886   0.0018070852764242723   0.006001195996858782
-0.23882770460081118   -0.0038613248027934283   -0.02144306237491183
-0.23882770460081118   -0.0038613248027934283   -0.02144306237491183
-0.23882770460081118   -0.0038613248027934283   -0.02144306237491183
-0.23882770460081118   -0.0038613248027934283   -0.02144306237491183
-0.252042413898236   0.02968195671953895   0.016277139965542635
-0.252042413898236   0.02968195671953895   0.016277139965542635
-0.252042413898236   0.02968195671953895   0.016277139965542635
-0.252042413898236   0.02968195671953895   0.016277139965542635
-0.2549285671056479   0.014982914720294366   -0.02910641451376918
-0.2549285671056479   0.014982914720294366   -0.02910641451376918
-0.2549285671056479   0.014982914720294366   -0.02910641451376918
-0.2549285671056479   0.014982914720294366   -0.02910641451376918
-0.21292010292147845   0.057621930542082825   0.009889900928210103
-0.21292010292147845   0.057621930542082825   0.009889900928210103
-0.21292010292147845   0.057621930542082825   0.009889900928210103
-0.21292010292147845   0.057621930542082825   0.009889900928210103
-0.23761180563642537   0.022924614073474923   0.015492014509063748
-0.23761180563642537   0.022924614073474923   0.015492014509063748
-0.23761180563642537   0.022924614073474923   0.015492014509063748
-0.23761180563642537   0.022924614073474923   0.015492014509063748
-0.29999378597722715   -0.05907057331399107   -0.03169425725806258
-0.29999378597722715   -0.05907057331399107   -0.03169425725806258
-0.29999378597722715   -0.05907057331399107   -0.03169425725806258
-0.29999378597722715   -0.05907057331399107   -0.03169425725806258
-0.33268194292538533   0.004349200050807245   0.04313790032845127
-0.33268194292538533   0.004349200050807245   0.04313790032845127
-0.33268194292538533   0.004349200050807245   0.04313790032845127
-0.33268194292538533   0.004349200050807245   0.04313790032845127
-0.32833991127247214   -0.04929705985835914   -0.04224594902387681
-0.32833991127247214   -0.04929705985835914   -0.04224594902387681
-0.32833991127247214   -0.04929705985835914   -0.04224594902387681
-0.32833991127247214   -0.04929705985835914   -0.04224594902387681
-0.2576846861709909   0.037266755144349156   0.03866497488112325
-0.2576846861709909   0.037266755144349156   0.03866497488112325
-0.2576846861709909   0.037266755144349156   0.03866497488112325
-0.2576846861709909   0.037266755144349156   0.03866497488112325
-0.2924469768687572   -0.01275812910640143   -0.00187471617778197
-0.2924469768687572   -0.01275812910640143   -0.00187471617778197
-0.2924469768687572   -0.01275812910640143   -0.00187471617778197
-0.2924469768687572   -0.01275812910640143   -0.00187471617778197
-0.28813111682534237   -0.04005516317784376   -0.03624526006844509
-0.28813111682534237   -0.04005516317784376   -0.03624526006844509
-0.28813111682534237   -0.04005516317784376   -0.03624526006844509
-0.28813111682534237   -0.04005516317784376   -0.03624526006844509
-0.2962381403746348   0.02968019870732605   0.03928564689962091
-0.2962381403746348   0.02968019870732605   0.03928564689962091
-0.2962381403746348   0.02968019870732605   0.03928564689962091
-0.2962381403746348   0.02968019870732605   0.03928564689962091
-0.30107820931208606   -0.03560752473903795   -0.05036653685742184
-0.30107820931208606   -0.03560752473903795   -0.05036653685742184
-0.30107820931208606   -0.03560752473903795   -0.05036653685742184
-0.30107820931208606   -0.03560752473903795   -0.05036653685742184
-0.24552126323742915   0.046909509017624806   0.031655340971487984
-0.24552126323742915   0.046909509017624806   0.031655340971487984
-0.24552126323742915   0.046909509017624806   0.031655340971487984
-0.24552126323742915   0.046909509017624806   0.031655340971487984
-0.27405466310834947   0.0015575666807041907   0.007646498169987961
-0.27405466310834947   0.0015575666807041907   0.007646498169987961
-0.27405466310834947   0.0015575666807041907   0.007646498169987961
-0.27405466310834947   0.0015575666807041907   0.007646498169987961
-0.27538133124523345   -0.028784949803470926   -0.041950540246439356
-0.27538133124523345   -0.028784949803470926   -0.041950540246439356
-0.27538133124523345   -0.028784949803470926   -0.041950540246439356
-0.27538133124523345   -0.028784949803470926   -0.041950540246439356
-0.2694825131000846   0.04182256228625472   0.03018185717729297
-0.2694825131000846   0.04182256228625472   0.03018185717729297
-0.2694825131000846   0.04182256228625472   0.03018185717729297
-0.2694825131000846   0.04182256228625472   0.03018185717729297
-0.2652542271852231   -0.011942271766796027   -0.05505800325696177
-0.2652542271852231   -0.011942271766796027   -0.05505800325696177
-0.2652542271852231   -0.011942271766796027   -0.05505800325696177
-0.2652542271852231   -0.011942271766796027   -0.05505800325696177
-0.23463708525368493   0.06126007926316063   0.026073830203177186
-0.23463708525368493   0.06126007926316063   0.026073830203177186
-0.23463708525368493   0.06126007926316063   0.026073830203177186
-0.23463708525368493   0.06126007926316063   0.026073830203177186
-0.24877296260566484   0.015845507319937703   0.01868455716592573
-0.24877296260566484   0.015845507319937703   0.01868455716592573
-0.24877296260566484   0.015845507319937703   0.01868455716592573
-0.24877296260566484   0.015845507319937703   0.01868455716592573
0.18169955059454346   0.029321523394004644   0.04709498836056193
0.18169955059454346   0.029321523394004644   0.04709498836056193
0.18169955059454346   0.029321523394004644   0.04709498836056193
0.18169955059454346   0.029321523394004644   0.04709498836056193
-0.004033074828593854   -0.07562932771385604   -0.031055104031291105
-0.004033074828593854   -0.07562932771385604   -0.031055104031291105
-0.004033074828593854   -0.07562932771385604   -0.031055104031291105
-0.004033074828593854   -0.07562932771385604   -0.031055104031291105
0.04033200698214404   0.0147056754901664   0.03637132020628403
0.04033200698214404   0.0147056754901664   0.03637132020628403
0.04033200698214404   0.0147056754901664   0.03637132020628403
0.04033200698214404   0.0147056754901664   0.03637132020628403
0.18940493394003785   -0.026312537193060495   -0.038894467888385006
0.18940493394003785   -0.026312537193060495   -0.038894467888385006
0.18940493394003785   -0.026312537193060495   -0.038894467888385006
0.18940493394003785   -0.026312537193060495   -0.038894467888385006
0.092758001483906   -0.014624248559364818   -0.022469444607039153
0.092758001483906   -0.014624248559364818   -0.022469444607039153
0.092758001483906   -0.014624248559364818   -0.022469444607039153
0.092758001483906   -0.014624248559364818   -0.022469444607039153
0.22137249303483708   0.052138055614964623   0.04249273477758213
0.22137249303483708   0.052138055614964623   0.04249273477758213
0.22137249303483708   0.052138055614964623   0.04249273477758213
0.22137249303483708   0.052138055614964623   0.04249273477758213
0.010339596329254637   -0.06176976887594955   -0.03711528869204707
0.010339596329254637   -0.06176976887594955   -0.03711528869204707
0.010339596329254637   -0.06176976887594955   -0.03711528869204707
0.010339596329254637   -0.06176976887594955   -0.03711528869204707
0.05644027254040334   0.025687065698507212   0.030343826180279948
0.05644027254040334   0.025687065698507212   0.030343826180279948
0.05644027254040334   0.025687065698507212   0.030343826180279948
0.05644027254040334   0.025687065698507212   0.030343826180279948
0.22034844177056126   -0.013909584461475555   -0.04863144344518765
0.22034844177056126   -0.013909584461475555   -0.04863144344518765
0.22034844177056126   -0.013909584461475555   -0.04863144344518765
0.22034844177056126   -0.013909584461475555   -0.04863144344518765
0.12069221223293758   -0.0009437500239299033   -0.010591235554709727
0.12069221223293758   -0.0009437500239299033   -0.010591235554709727
0.12069221223293758   -0.0009437500239299033   -0.010591235554709727
0.12069221223293758   -0.0009437500239299033   -0.010591235554709727
0.25265798337604395   0.06555264887810787   0.033454031242642596
0.25265798337604395   0.06555264887810787   0.033454031242642596
0.25265798337604395   0.06555264887810787   0.033454031242642596
0.25265798337604395   0.06555264887810787   0.033454031242642596
0.0260588345071389   -0.05184706406885728   -0.04402923421867393
0.0260588345071389   -0.05184706406885728   -0.04402923421867393
0.0260588345071389   -0.05184706406885728   -0.04402923421867393
0.0260588345071389   -0.05184706406885728   -0.04402923421867393
0.07206923793971882   0.045867023774827376   0.026256916052594594
0.07206923793971882   0.045867023774827376   0.026256916052594594
0.07206923793971882   0.045867023774827376   0.026256916052594594
0.07206923793971882   0.045867023774827376   0.026256916052594594
0.26143521366292305   0.013845250550674489   -0.05362378931113081
0.26143521366292305   0.013845250550674489   -0.05362378931113081
0.26143521366292305   0.013845250550674489   -0.05362378931113081
0.26143521366292305   0.013845250550674489   -0.05362378931113081
0.14408854443896324   0.014402482722316767   0.000627863865739201
0.14408854443896324   0.014402482722316767   0.000627863865739201
0.14408854443896324   0.014402482722316767   0.000627863865739201
0.14408854443896324   0.014402482722316767   0.000627863865739201
0.025306470085942976   0.007990179248772055   0.03202311357876495
0.025306470085942976   0.007990179248772055   0.03202311357876495
0.025306470085942976   0.007990179248772055   0.03202311357876495
0.025306470085942976   0.007990179248772055   0.03202311357876495
-0.17185092106529712   -0.0642361129219218   -0.014251432673911896
-0.17185092106529712   -0.0642361129219218   -0.014251432673911896
-0.17185092106529712   -0.0642361129219218   -0.014251432673911896
-0.17185092106529712   -0.0642361129219218   -0.014251432673911896
-0.1438950367230298   -0.009378356504271598   0.014604147103470903
-0.1438950367230298   -0.009378356504271598   0.014604147103470903
-0.1438950367230298   -0.009378356504271598   0.014604147103470903
-0.1438950367230298   -0.009378356504271598   0.014604147103470903
0.02641207265246237   -0.007235389133041409   -0.01128728681891655
0.02641207265246237   -0.007235389133041409   -0.01128728681891655
0.02641207265246237   -0.007235389133041409   -0.01128728681891655
0.02641207265246237   -0.007235389133041409   -0.01128728681891655
-0.0674318440964724   -0.016570411681481004   -0.010786909900891088
-0.0674318440964724   -0.016570411681481004   -0.010786909900891088
-0.0674318440964724   -0.016570411681481004   -0.010786909900891088
-0.0674318440964724   -0.016570411681481004   -0.010786909900891088
0.04190683647876667   0.030542847792760296   0.02840829538680323
0.04190683647876667   0.030542847792760296   0.02840829538680323
0.04190683647876667   0.030542847792760296   0.02840829538680323
0.04190683647876667   0.030542847792760296   0.02840829538680323
-0.15794926310647325   -0.04571605598720736   -0.01932928533081068
-0.15794926310647325   -0.04571605598720736   -0.01932928533081068
-0.15794926310647325   -0.04571605598720736   -0.01932928533081068
-0.15794926310647325   -0.04571605598720736   -0.01932928533081068
-0.1292121259726389   0.011930934444957103   0.010318118376728195
-0.1292121259726389   0.011930934444957103   0.010318118376728195
-0.1292121259726389   0.011930934444957103   0.010318118376728195
-0.1292121259726389   0.011930934444957103   0.010318118376728195
0.044772970857341526   0.01297420289559855   -0.015279819432120454
0.044772970857341526   0.01297420289559855   -0.015279819432120454
0.044772970857341526   0.01297420289559855   -0.015279819432120454
0.044772970857341526   0.01297420289559855   -0.015279819432120454
-0.0518661606469493   0.002218090682424243   -0.0013231053410590003
-0.0518661606469493   0.002218090682424243   -0.0013231053410590003
-0.0518661606469493   0.002218090682424243   -0.0013231053410590003
-0.0518661606469493   0.002218090682424243   -0.0013231053410590003
0.06092104898122451   0.05298408381413562   0.02545069026875738
0.06092104898122451   0.05298408381413562   0.02545069026875738
0.06092104898122451   0.05298408381413562   0.02545069026875738
0.06092104898122451   0.05298408381413562   0.02545069026875738
-0.14397282484434026   -0.02669156722139837   -0.02486287431542324
-0.14397282484434026   -0.02669156722139837   -0.02486287431542324
-0.14397282484434026   -0.02669156722139837   -0.02486287431542324
-0.14397282484434026   -0.02669156722139837   -0.02486287431542324
-0.11443952590538163   0.03604447546085805   0.00623257306175929
-0.11443952590538163   0.03604447546085805   0.00623257306175929
-0.11443952590538163   0.03604447546085805   0.00623257306175929
-0.11443952590538163   0.03604447546085805   0.00623257306175929
0.060924492464280444   0.0359057518864167   -0.019505539436190437
0.060924492464280444   0.0359057518864167   -0.019505539436190437
0.060924492464280444   0.0359057518864167   -0.019505539436190437
0.060924492464280444   0.0359057518864167   -0.019505539436190437
-0.03463593470508619   0.022977894990491562   0.008772183362853772
-0.03463593470508619   0.022977894990491562   0.008772183362853772
-0.03463593470508619   0.022977894990491562   0.008772183362853772
-0.03463593470508619   0.022977894990491562   0.008772183362853772
-0.15630220995645333   -0.012285311507711186   0.011541321456098281
-0.15630220995645333   -0.012285311507711186   0.011541321456098281
-0.15630220995645333   -0.012285311507711186   0.011541321456098281
-0.15630220995645333   -0.012285311507711186   0.011541321456098281
-0.3366165933296015   -0.04573407649796102   0.0029349777915743253
-0.3366165933296015   -0.04573407649796102   0.0029349777915743253
-0.3366165933296015   -0.04573407649796102   0.0029349777915743253
-0.3366165933296015   -0.04573407649796102   0.0029349777915743253
-0.3237784780586318   -0.028708107359758164   -0.006335744533222918
-0.3237784780586318   -0.028708107359758164   -0.006335744533222918
-0.3237784780586318   -0.028708107359758164   -0.006335744533222918
-0.3237784780586318   -0.028708107359758164   -0.006335744533222918
-0.14112332126406743   0.011952548352743998   0.0071318195412672005
-0.14112332126406743   0.011952548352743998   0.0071318195412672005
-0.14112332126406743   0.011952548352743998   0.0071318195412672005
-0.14112332126406743   0.011952548352743998   0.0071318195412672005
-0.23980436092452784   -0.017169185657623126   -0.006292102063820838
-0.23980436092452784   -0.017169185657623126   -0.006292102063820838
-0.23980436092452784   -0.017169185657623126   -0.006292102063820838
-0.23980436092452784   -0.017169185657623126   -0.006292102063820838
-0.14129769042516863   0.01058141957606163   0.007631102512443545
-0.14129769042516863   0.01058141957606163   0.007631102512443545
-0.14129769042516863   0.01058141957606163   0.007631102512443545
-0.14129769042516863   0.01058141957606163   0.007631102512443545
-0.322366057284554   -0.02609892697010429   -0.0018828210524876616
-0.322366057284554   -0.02609892697010429   -0.0018828210524876616
-0.322366057284554   -0.02609892697010429   -0.0018828210524876616
-0.322366057284554   -0.02609892697010429   -0.0018828210524876616
-0.30833486930806375   -0.005246539689977653   -0.009962836870461157
-0.30833486930806375   -0.005246539689977653   -0.009962836870461157
-0.30833486930806375   -0.005246539689977653   -0.009962836870461157
-0.30833486930806375   -0.005246539689977653   -0.009962836870461157
-0.12658663499960235   0.032741713499054206   0.0026347941878158143
-0.12658663499960235   0.032741713499054206   0.0026347941878158143
-0.12658663499960235   0.032741713499054206   0.0026347941878158143
-0.12658663499960235   0.032741713499054206   0.0026347941878158143
-0.22385600370255354   0.0034327475004426386   0.003246448915548159
-0.22385600370255354   0.0034327475004426386   0.003246448915548159
-0.22385600370255354   0.0034327475004426386   0.003246448915548159
-0.22385600370255354   0.0034327475004426386   0.003246448915548159
-0.12620087818097614   0.033861570221276935   0.0034437215587241644
-0.12620087818097614   0.033861570221276935   0.0034437215587241644
-0.12620087818097614   0.033861570221276935   0.0034437215587241644
-0.12620087818097614   0.033861570221276935   0.0034437215587241644
-0.3077294078958835   -0.005375178181394352   -0.006806891318145852
-0.3077294078958835   -0.005375178181394352   -0.006806891318145852
-0.3077294078958835   -0.005375178181394352   -0.006806891318145852
-0.3077294078958835   -0.005375178181394352   -0.006806891318145852
-0.29351357899629954   0.0182829245349867   -0.014096595488173328
-0.29351357899629954   0.0182829245349867   -0.014096595488173328
-0.29351357899629954   0.0182829245349867   -0.014096595488173328
-0.29351357899629954   0.0182829245349867   -0.014096595488173328
-0.11268631043185091   0.05359198656576569   -0.0025488606754929394
-0.11268631043185091   0.05359198656576569   -0.0025488606754929394
-0.11268631043185091   0.05359198656576569   -0.0025488606754929394
-0.11268631043185091   0.05359198656576569   -0.0025488606754929394
-0.20874378862921866   0.023979673363144972   0.01216246991820636
-0.20874378862921866   0.023979673363144972   0.01216246991820636
-0.20874378862921866   0.023979673363144972   0.01216246991820636
-0.20874378862921866   0.023979673363144972   0.01216246991820636
-0.3364079805167858   -0.032196675907836474   -0.009559358734469376
-0.3364079805167858   -0.032196675907836474   -0.009559358734469376
-0.3364079805167858   -0.032196675907836474   -0.009559358734469376
-0.3364079805167858   -0.032196675907836474   -0.009559358734469376
-0.4998081117054839   -0.0283403427223579   0.019798222472148363
-0.4998081117054839   -0.0283403427223579   0.019798222472148363
-0.4998081117054839   -0.0283403427223579   0.019798222472148363
-0.4998081117054839   -0.0283403427223579   0.019798222472148363
-0.5000775948317537   -0.04764877805333173   -0.026796713490565487
-0.5000775948317537   -0.04764877805333173   -0.026796713490565487
-0.5000775948317537   -0.04764877805333173   -0.026796713490565487
-0.5000775948317537   -0.04764877805333173   -0.026796713490565487
-0.3058515235968569   0.030296761148481732   0.02429415926741179
-0.3058515235968569   0.030296761148481732   0.02429415926741179
-0.3058515235968569   0.030296761148481732   0.02429415926741179
-0.3058515235968569   0.030296761148481732   0.02429415926741179
-0.40823544407885703   -0.017484648172784945   -0.0026584369566824036
-0.40823544407885703   -0.017484648172784945   -0.0026584369566824036
-0.40823544407885703   -0.017484648172784945   -0.0026584369566824036
-0.40823544407885703   -0.017484648172784945   -0.0026584369566824036
-0.3212775839388514   -0.009197757862877923   -0.013341623431198744
-0.3212775839388514   -0.009197757862877923   -0.013341623431198744
-0.3212775839388514   -0.009197757862877923   -0.013341623431198744
-0.3212775839388514   -0.009197757862877923   -0.013341623431198744
-0.4836249514320786   -0.007127675984285126   0.014945401438768484
-0.4836249514320786   -0.007127675984285126   0.014945401438768484
-0.4836249514320786   -0.007127675984285126   0.014945401438768484
-0.4836249514320786   -0.007127675984285126   0.014945401438768484
-0.48070639685383015   -0.025269776433074834   -0.029817542841932144
-0.48070639685383015   -0.025269776433074834   -0.029817542841932144
-0.48070639685383015   -0.025269776433074834   -0.029817542841932144
-0.48070639685383015   -0.025269776433074834   -0.029817542841932144
-0.2915829725631319   0.0492137715653356   0.019336335598884726
-0.2915829725631319   0.0492137715653356   0.019336335598884726
-0.2915829725631319   0.0492137715653356   0.019336335598884726
-0.2915829725631319   0.0492137715653356   0.019336335598884726
-0.38908210256090553   0.0032857356311109115   0.007174157611511651
-0.38908210256090553   0.0032857356311109115   0.007174157611511651
-0.38908210256090553   0.0032857356311109115   0.007174157611511651
-0.38908210256090553   0.0032857356311109115   0.007174157611511651
-0.30649650807603773   0.011943496509006696   -0.017961066909316974
-0.30649650807603773   0.011943496509006696   -0.017961066909316974
-0.30649650807603773   0.011943496509006696   -0.017961066909316974
-0.30649650807603773   0.011943496509006696   -0.017961066909316974
-0.4646390841361194   0.01315427582805373   0.01209496848549342
-0.4646390841361194   0.01315427582805373   0.01209496848549342
-0.4646390841361194   0.01315427582805373   0.01209496848549342
-0.4646390841361194   0.01315427582805373   0.01209496848549342
-0.4633800703885423   -0.0008681246586012964   -0.03210040760814667
-0.4633800703885423   -0.0008681246586012964   -0.03210040760814667
-0.4633800703885423   -0.0008681246586012964   -0.03210040760814667
-0.4633800703885423   -0.0008681246586012964   -0.03210040760814667
-0.2774636949398763   0.07009538534966236   0.01434036397926692
-0.2774636949398763   0.07009538534966236   0.01434036397926692
-0.2774636949398763   0.07009538534966236   0.01434036397926692
-0.2774636949398763   0.07009538534966236   0.01434036397926692
-0.3747807384232623   0.02264543422319512   0.0159831691261086
-0.3747807384232623   0.02264543422319512   0.0159831691261086
-0.3747807384232623   0.02264543422319512   0.0159831691261086
-0.3747807384232623   0.02264543422319512   0.0159831691261086
-0.5131644947125339   -0.04619974785783715   -0.02912428742762221
-0.5131644947125339   -0.04619974785783715   -0.02912428742762221
-0.5131644947125339   -0.04619974785783715   -0.02912428742762221
-0.5131644947125339   -0.04619974785783715   -0.02912428742762221
-0.6859463617278251   -0.012228328025695456   0.04299341615427944
-0.6859463617278251   -0.012228328025695456   0.04299341615427944
-0.6859463617278251   -0.012228328025695456   0.04299341615427944
-0.6859463617278251   -0.012228328025695456   0.04299341615427944
-0.6765479817846597   -0.06202075879720424   -0.038909299213005524
-0.6765479817846597   -0.06202075879720424   -0.038909299213005524
-0.6765479817846597   -0.06202075879720424   -0.038909299213005524
-0.6765479817846597   -0.06202075879720424   -0.038909299213005524
-0.46646470897946024   0.05123663846312118   0.042382299254448905
-0.46646470897946024   0.05123663846312118   0.042382299254448905
-0.46646470897946024   0.05123663846312118   0.042382299254448905
-0.46646470897946024   0.05123663846312118   0.042382299254448905
-0.5602772714657974   -0.00995904455076825   0.004702882933227594
-0.5602772714657974   -0.00995904455076825   0.004702882933227594
-0.5602772714657974   -0.00995904455076825   0.004702882933227594
-0.5602772714657974   -0.00995904455076825   0.004702882933227594
-0.4967515546872558   -0.02486889308283624   -0.032946397738569555
-0.4967515546872558   -0.02486889308283624   -0.032946397738569555
-0.4967515546872558   -0.02486889308283624   -0.032946397738569555
-0.4967515546872558   -0.02486889308283624   -0.032946397738569555
-0.6453272871191373   0.015018621706479163   0.040154793610915965
-0.6453272871191373   0.015018621706479163   0.040154793610915965
-0.6453272871191373   0.015018621706479163   0.040154793610915965
-0.6453272871191373   0.015018621706479163   0.040154793610915965
-0.6458404468573898   -0.048749548675358245   -0.04632076387346656
-0.6458404468573898   -0.048749548675358245   -0.04632076387346656
-0.6458404468573898   -0.048749548675358245   -0.04632076387346656
-0.6458404468573898   -0.048749548675358245   -0.04632076387346656
-0.4507068234066641   0.059963321433426364   0.034947226527393294
-0.4507068234066641   0.059963321433426364   0.034947226527393294
-0.4507068234066641   0.059963321433426364   0.034947226527393294
-0.4507068234066641   0.059963321433426364   0.034947226527393294
-0.5429474542682178   0.003976559160709603   0.012636895238945532
-0.5429474542682178   0.003976559160709603   0.012636895238945532
-0.5429474542682178   0.003976559160709603   0.012636895238945532
-0.5429474542682178   0.003976559160709603   0.012636895238945532
-0.48008994642311836   -0.01394692436508864   -0.03805814275635935
-0.48008994642311836   -0.01394692436508864   -0.03805814275635935
-0.48008994642311836   -0.01394692436508864   -0.03805814275635935
-0.48008994642311836   -0.01394692436508864   -0.03805814275635935
-0.6153172832444862   0.02630073771960073   0.03124476779608701
-0.6153172832444862   0.02630073771960073   0.03124476779608701
-0.6153172832444862   0.02630073771960073   0.03124476779608701
-0.6153172832444862   0.02630073771960073   0.03124476779608701
-0.6079698448202647   -0.02895548230790572   -0.05167121808557476
-0.6079698448202647   -0.02895548230790572   -0.05167121808557476
-0.6079698448202647   -0.02895548230790572   -0.05167121808557476
-0.6079698448202647   -0.02895548230790572   -0.05167121808557476
-0.4368725110147821   0.07045986388158579   0.02910940072046729
-0.4368725110147821   0.07045986388158579   0.02910940072046729
-0.4368725110147821   0.07045986388158579   0.02910940072046729
-0.4368725110147821   0.07045986388158579   0.02910940072046729
-0.5102828052888292   0.017016415662810258   0.023829869408854495
-0.5102828052888292   0.017016415662810258   0.023829869408854495
-0.5102828052888292   0.017016415662810258   0.023829869408854495
-0.5102828052888292   0.017016415662810258   0.023829869408854495
0.5429402055201823   0.04936600826605066   0.04694829551946614
0.5429402055201823   0.04936600826605066   0.04694829551946614
0.5429402055201823   0.04936600826605066   0.04694829551946614
0.5429402055201823   0.04936600826605066   0.04694829551946614
0.19867075383275692   -0.08995108962703553   -0.03089519317957093
0.19867075383275692   -0.08995108962703553   -0.03089519317957093
0.19867075383275692   -0.08995108962703553   -0.03089519317957093
0.19867075383275692   -0.08995108962703553   -0.03089519317957093
0.2450785544158032   -0.0006461479668317116   0.03376385776699356
0.2450785544158032   -0.0006461479668317116   0.03376385776699356
0.2450785544158032   -0.0006461479668317116   0.03376385776699356
0.2450785544158032   -0.0006461479668317116   0.03376385776699356
0.5526491210870252   -0.012252175182906944   -0.039454083983375646
0.5526491210870252   -0.012252175182906944   -0.039454083983375646
0.5526491210870252   -0.012252175182906944   -0.039454083983375646
0.5526491210870252   -0.012252175182906944   -0.039454083983375646
0.36116662144151   -0.01620714408313867   -0.03479897615046176
0.36116662144151   -0.01620714408313867   -0.03479897615046176
0.36116662144151   -0.01620714408313867   -0.03479897615046176
0.36116662144151   -0.01620714408313867   -0.03479897615046176
0.5848965684363148   0.0687257323332536   0.0408052452469085
0.5848965684363148   0.0687257323332536   0.0408052452469085
0.5848965684363148   0.0687257323332536   0.0408052452469085
0.5848965684363148   0.0687257323332536   0.0408052452469085
0.21512121607486234   -0.07933394647464406   -0.03733503542989847
0.21512121607486234   -0.07933394647464406   -0.03733503542989847
0.21512121607486234   -0.07933394647464406   -0.03733503542989847
0.21512121607486234   -0.07933394647464406   -0.03733503542989847
0.26332439084644393   0.009978144625056834   0.027831252911591674
0.26332439084644393   0.009978144625056834   0.027831252911591674
0.26332439084644393   0.009978144625056834   0.027831252911591674
0.26332439084644393   0.009978144625056834   0.027831252911591674
0.586007577743748   -0.00018236003113690502   -0.04966679410128784
0.586007577743748   -0.00018236003113690502   -0.04966679410128784
0.586007577743748   -0.00018236003113690502   -0.04966679410128784
0.586007577743748   -0.00018236003113690502   -0.04966679410128784
0.3960336544185605   -0.0031790856572894433   -0.021097761654855444
0.3960336544185605   -0.0031790856572894433   -0.021097761654855444
0.3960336544185605   -0.0031790856572894433   -0.021097761654855444
0.3960336544185605   -0.0031790856572894433   -0.021097761654855444
0.6186046577779263   0.08174599719727287   0.0313902488411895
0.6186046577779263   0.08174599719727287   0.0313902488411895
0.6186046577779263   0.08174599719727287   0.0313902488411895
0.6186046577779263   0.08174599719727287   0.0313902488411895
0.233157097468714   -0.06952042594690525   -0.04350664340509558
0.233157097468714   -0.06952042594690525   -0.04350664340509558
0.233157097468714   -0.06952042594690525   -0.04350664340509558
0.233157097468714   -0.06952042594690525   -0.04350664340509558
0.281546494215472   0.033416465240378494   0.02412100358484024
0.281546494215472   0.033416465240378494   0.02412100358484024
0.281546494215472   0.033416465240378494   0.02412100358484024
0.281546494215472   0.033416465240378494   0.02412100358484024
0.6298295832362423   0.03129130883689128   -0.05356571405801697
0.6298295832362423   0.03129130883689128   -0.05356571405801697
0.6298295832362423   0.03129130883689128   -0.05356571405801697
0.6298295832362423   0.03129130883689128   -0.05356571405801697
0.4174625468502458   0.012687020914518246   -0.009265145872551592
0.4174625468502458   0.012687020914518246   -0.009265145872551592
0.4174625468502458   0.012687020914518246   -0.009265145872551592
0.4174625468502458   0.012687020914518246   -0.009265145872551592
0.235894937744285   0.027681893937481373   0.03759274281355253
0.235894937744285   0.027681893937481373   0.03759274281355253
0.235894937744285   0.027681893937481373   0.03759274281355253
0.235894937744285   0.027681893937481373   0.03759274281355253
-0.11527379336258173   -0.08394165487863935   -0.01619672968004469
-0.11527379336258173   -0.08394165487863935   -0.01619672968004469
-0.11527379336258173   -0.08394165487863935   -0.01619672968004469
-0.11527379336258173   -0.08394165487863935   -0.01619672968004469
-0.08340282674734435   -0.024670656140007123   0.011351277546061592
-0.08340282674734435   -0.024670656140007123   0.011351277546061592
-0.08340282674734435   -0.024670656140007123   0.011351277546061592
-0.08340282674734435   -0.024670656140007123   0.011351277546061592
0.23765520059404177   0.0009241888277179075   -0.004923248136363273
0.23765520059404177   0.0009241888277179075   -0.004923248136363273
0.23765520059404177   0.0009241888277179075   -0.004923248136363273
0.23765520059404177   0.0009241888277179075   -0.004923248136363273
0.06561275896200605   -0.017677016816466634   -0.01480194814551268
0.06561275896200605   -0.017677016816466634   -0.01480194814551268
0.06561275896200605   -0.017677016816466634   -0.01480194814551268
0.06561275896200605   -0.017677016816466634   -0.01480194814551268
0.25464734703906233   0.0473845480761278   0.03357712484032955
0.25464734703906233   0.0473845480761278   0.03357712484032955
0.25464734703906233   0.0473845480761278   0.03357712484032955
0.25464734703906233   0.0473845480761278   0.03357712484032955
-0.09900935453215418   -0.06974539672820662   -0.02160662078979
-0.09900935453215418   -0.06974539672820662   -0.02160662078979
-0.09900935453215418   -0.06974539672820662   -0.02160662078979
-0.09900935453215418   -0.06974539672820662   -0.02160662078979
-0.06640948823660969   -0.004772863404840524   0.007167308159635399
-0.06640948823660969   -0.004772863404840524   0.007167308159635399
-0.06640948823660969   -0.004772863404840524   0.007167308159635399
-0.06640948823660969   -0.004772863404840524   0.007167308159635399
0.2576747648265409   0.018765669851473078   -0.009204402414339315
0.2576747648265409   0.018765669851473078   -0.009204402414339315
0.2576747648265409   0.018765669851473078   -0.009204402414339315
0.2576747648265409   0.018765669851473078   -0.009204402414339315
0.08202258409317481   -0.0019605538803949656   -0.0058825769436858955
0.08202258409317481   -0.0019605538803949656   -0.0058825769436858955
0.08202258409317481   -0.0019605538803949656   -0.0058825769436858955
0.08202258409317481   -0.0019605538803949656   -0.0058825769436858955
0.27534834157241145   0.06810922596527824   0.029819925201208075
0.27534834157241145   0.06810922596527824   0.029819925201208075
0.27534834157241145   0.06810922596527824   0.029819925201208075
0.27534834157241145   0.06810922596527824   0.029819925201208075
-0.08269535743239428   -0.052728711968559765   -0.026306189255568276
-0.08269535743239428   -0.052728711968559765   -0.026306189255568276
-0.08269535743239428   -0.052728711968559765   -0.026306189255568276
-0.08269535743239428   -0.052728711968559765   -0.026306189255568276
-0.04962584483999902   0.018297665977851763   0.0030043683252950404
-0.04962584483999902   0.018297665977851763   0.0030043683252950404
-0.04962584483999902   0.018297665977851763   0.0030043683252950404
-0.04962584483999902   0.018297665977851763   0.0030043683252950404
0.2754151591511883   0.040026449485852975   -0.013145655982049077
0.2754151591511883   0.040026449485852975   -0.013145655982049077
0.2754151591511883   0.040026449485852975   -0.013145655982049077
0.2754151591511883   0.040026449485852975   -0.013145655982049077
0.10233387735924007   0.017329255913457894   0.004535517258452205
0.10233387735924007   0.017329255913457894   0.004535517258452205
0.10233387735924007   0.017329255913457894   0.004535517258452205
0.10233387735924007   0.017329255913457894   0.004535517258452205
-0.09083784585283258   0.006035790030913642   0.016005562959148095
-0.09083784585283258   0.006035790030913642   0.016005562959148095
-0.09083784585283258   0.006035790030913642   0.016005562959148095
-0.09083784585283258   0.006035790030913642   0.016005562959148095
-0.4229941637931434   -0.07416201233600263   -0.0021684924830705564
-0.4229941637931434   -0.07416201233600263   -0.0021684924830705564
-0.4229941637931434   -0.07416201233600263   -0.0021684924830705564
-0.4229941637931434   -0.07416201233600263   -0.0021684924830705564
-0.4028634213647232   -0.04380765633208959   -0.009929103782275728
-0.4028634213647232   -0.04380765633208959   -0.009929103782275728
-0.4028634213647232   -0.04380765633208959   -0.009929103782275728
-0.4028634213647232   -0.04380765633208959   -0.009929103782275728
-0.07636611519283104   0.011242535207488087   0.010621643971130934
-0.07636611519283104   0.011242535207488087   0.010621643971130934
-0.07636611519283104   0.011242535207488087   0.010621643971130934
-0.07636611519283104   0.011242535207488087   0.010621643971130934
-0.2486995984403957   -0.022777665609649438   -0.00924676628738313
-0.2486995984403957   -0.022777665609649438   -0.00924676628738313
-0.2486995984403957   -0.022777665609649438   -0.00924676628738313
-0.2486995984403957   -0.022777665609649438   -0.00924676628738313
-0.07300032692471985   0.026574506180162882   0.012118614339014051
-0.07300032692471985   0.026574506180162882   0.012118614339014051
-0.07300032692471985   0.026574506180162882   0.012118614339014051
-0.07300032692471985   0.026574506180162882   0.012118614339014051
-0.40529786642421534   -0.05820828409615012   -0.007700701315675894
-0.40529786642421534   -0.05820828409615012   -0.007700701315675894
-0.40529786642421534   -0.05820828409615012   -0.007700701315675894
-0.40529786642421534   -0.05820828409615012   -0.007700701315675894
-0.3841304511373288   -0.021976241095686036   -0.013411162648158968
-0.3841304511373288   -0.021976241095686036   -0.013411162648158968
-0.3841304511373288   -0.021976241095686036   -0.013411162648158968
-0.3841304511373288   -0.021976241095686036   -0.013411162648158968
-0.05982823232277612   0.029268367771863195   0.0060323565520995735
-0.05982823232277612   0.029268367771863195   0.0060323565520995735
-0.05982823232277612   0.029268367771863195   0.0060323565520995735
-0.05982823232277612   0.029268367771863195   0.0060323565520995735
-0.22980246306029933   -0.004514182548804979   -0.00013822482367681528
-0.22980246306029933   -0.004514182548804979   -0.00013822482367681528
-0.22980246306029933   -0.004514182548804979   -0.00013822482367681528
-0.22980246306029933   -0.004514182548804979   -0.00013822482367681528
-0.055764284164205195   0.047919431543278296   0.0077010335735391115
-0.055764284164205195   0.047919431543278296   0.0077010335735391115
-0.055764284164205195   0.047919431543278296   0.0077010335735391115
-0.055764284164205195   0.047919431543278296   0.0077010335735391115
-0.3873305526937279   -0.03976345826492937   -0.011624453260911462
-0.3873305526937279   -0.03976345826492937   -0.011624453260911462
-0.3873305526937279   -0.03976345826492937   -0.011624453260911462
-0.3873305526937279   -0.03976345826492937   -0.011624453260911462
-0.36669051139646613   -0.00021239246713479487   -0.017566554875410857
-0.36669051139646613   -0.00021239246713479487   -0.017566554875410857
-0.36669051139646613   -0.00021239246713479487   -0.017566554875410857
-0.36669051139646613   -0.00021239246713479487   -0.017566554875410857
-0.044050966970630934   0.04767332701624239   0.0015030966337448212
-0.044050966970630934   0.04767332701624239   0.0015030966337448212
-0.044050966970630934   0.04767332701624239   0.0015030966337448212
-0.044050966970630934   0.04767332701624239   0.0015030966337448212
-0.21244808081712938   0.013681828414401048   0.008526777701507542
-0.21244808081712938   0.013681828414401048   0.008526777701507542
-0.21244808081712938   0.013681828414401048   0.008526777701507542
-0.21244808081712938   0.013681828414401048   0.008526777701507542
-0.41217930678775605   -0.01602122515972383   -0.00623499463240915
-0.41217930678775605   -0.01602122515972383   -0.00623499463240915
-0.41217930678775605   -0.01602122515972383   -0.00623499463240915
-0.41217930678775605   -0.01602122515972383   -0.00623499463240915
-0.7239074334622467   -0.06016700694763644   0.013833156886528253
-0.7239074334622467   -0.06016700694763644   0.013833156886528253
-0.7239074334622467   -0.06016700694763644   0.013833156886528253
-0.7239074334622467   -0.06016700694763644   0.013833156886528253
-0.7142227016573014   -0.06220794969983151   -0.02985821691370987
-0.7142227016573014   -0.06220794969983151   -0.02985821691370987
-0.7142227016573014   -0.06220794969983151   -0.02985821691370987
-0.7142227016573014   -0.06220794969983151   -0.02985821691370987
-0.38116955907332456   0.028086433678781345   0.026646117663850017
-0.38116955907332456   0.028086433678781345   0.026646117663850017
-0.38116955907332456   0.028086433678781345   0.026646117663850017
-0.38116955907332456   0.028086433678781345   0.026646117663850017
-0.5540109767764271   -0.02412081257866784   -0.0032295964675314974
-0.5540109767764271   -0.02412081257866784   -0.0032295964675314974
-0.5540109767764271   -0.02412081257866784   -0.0032295964675314974
-0.5540109767764271   -0.02412081257866784   -0.0032295964675314974
-0.39279051876516163   0.0061464006983614344   -0.00951864781491566
-0.39279051876516163   0.0061464006983614344   -0.00951864781491566
-0.39279051876516163   0.0061464006983614344   -0.00951864781491566
-0.39279051876516163   0.0061464006983614344   -0.00951864781491566
-0.7025367620804279   -0.04020293683436908   0.00656646810520119
-0.7025367620804279   -0.04020293683436908   0.00656646810520119
-0.7025367620804279   -0.04020293683436908   0.00656646810520119
-0.7025367620804279   -0.04020293683436908   0.00656646810520119
-0.6897239403067166   -0.04088693888647778   -0.033026248916597625
-0.6897239403067166   -0.04088693888647778   -0.033026248916597625
-0.6897239403067166   -0.04088693888647778   -0.033026248916597625
-0.6897239403067166   -0.04088693888647778   -0.033026248916597625
-0.3637390352020574   0.045264128487107785   0.021305547445407268
-0.3637390352020574   0.045264128487107785   0.021305547445407268
-0.3637390352020574   0.045264128487107785   0.021305547445407268
-0.3637390352020574   0.045264128487107785   0.021305547445407268
-0.5290673981337217   -0.0039392718906366   0.005912391191680463
-0.5290673981337217   -0.0039392718906366   0.005912391191680463
-0.5290673981337217   -0.0039392718906366   0.005912391191680463
-0.5290673981337217   -0.0039392718906366   0.005912391191680463
-0.3746485435274295   0.025948180928191497   -0.013926046622538272
-0.3746485435274295   0.025948180928191497   -0.013926046622538272
-0.3746485435274295   0.025948180928191497   -0.013926046622538272
-0.3746485435274295   0.025948180928191497   -0.013926046622538272
-0.6782196993266586   -0.020976258672875864   0.004584275770090067
-0.6782196993266586   -0.020976258672875864   0.004584275770090067
-0.6782196993266586   -0.020976258672875864   0.004584275770090067
-0.6782196993266586   -0.020976258672875864   0.004584275770090067
-0.6678197575755798   -0.01778990025722249   -0.03473000141945391
-0.6678197575755798   -0.01778990025722249   -0.03473000141945391
-0.6678197575755798   -0.01778990025722249   -0.03473000141945391
-0.6678197575755798   -0.01778990025722249   -0.03473000141945391
-0.3468573617874784   0.06413660344089299   0.01725019726150292
-0.3468573617874784   0.06413660344089299   0.01725019726150292
-0.3468573617874784   0.06413660344089299   0.01725019726150292
-0.3468573617874784   0.06413660344089299   0.01725019726150292
-0.5122517103369686   0.013301888694969094   0.01379427964658652
-0.5122517103369686   0.013301888694969094   0.01379427964658652
-0.5122517103369686   0.013301888694969094   0.01379427964658652
-0.5122517103369686   0.013301888694969094   0.01379427964658652
-0.7268812442648244   -0.03437880714895872   -0.026824096925037608
-0.7268812442648244   -0.03437880714895872   -0.026824096925037608
-0.7268812442648244   -0.03437880714895872   -0.026824096925037608
-0.7268812442648244   -0.03437880714895872   -0.026824096925037608
-1.0364121154276087   -0.03743431580791526   0.04645860056953596
-1.0364121154276087   -0.03743431580791526   0.04645860056953596
-1.0364121154276087   -0.03743431580791526   0.04645860056953596
-1.0364121154276087   -0.03743431580791526   0.04645860056953596
-1.0167553429378675   -0.0744192615374667   -0.03560656679008327
-1.0167553429378675   -0.0744192615374667   -0.03560656679008327
-1.0167553429378675   -0.0744192615374667   -0.03560656679008327
-1.0167553429378675   -0.0744192615374667   -0.03560656679008327
-0.674792098714718   0.05783101906151236   0.047255829037863385
-0.674792098714718   0.05783101906151236   0.047255829037863385
-0.674792098714718   0.05783101906151236   0.047255829037863385
-0.674792098714718   0.05783101906151236   0.047255829037863385
-0.8253863965423857   -0.010197188636255211   0.009652813750427376
-0.8253863965423857   -0.010197188636255211   0.009652813750427376
-0.8253863965423857   -0.010197188636255211   0.009652813750427376
-0.8253863965423857   -0.010197188636255211   0.009652813750427376
-0.7039135627800597   -0.010694738827800393   -0.029825733399528848
-0.7039135627800597   -0.010694738827800393   -0.029825733399528848
-0.7039135627800597   -0.010694738827800393   -0.029825733399528848
-0.7039135627800597   -0.010694738827800393   -0.029825733399528848
-0.9871393764893608   -0.005399001264994763   0.04345300517997051
-0.9871393764893608   -0.005399001264994763   0.04345300517997051
-0.9871393764893608   -0.005399001264994763   0.04345300517997051
-0.9871393764893608   -0.005399001264994763   0.04345300517997051
-0.9796145357997331   -0.06119681504579763   -0.04194574347565777
-0.9796145357997331   -0.06119681504579763   -0.04194574347565777
-0.9796145357997331   -0.06119681504579763   -0.04194574347565777
-0.9796145357997331   -0.06119681504579763   -0.04194574347565777
-0.6542522200171424   0.06598454146671892   0.03746087217807589
-0.6542522200171424   0.06598454146671892   0.03746087217807589
-0.6542522200171424   0.06598454146671892   0.03746087217807589
-0.6542522200171424   0.06598454146671892   0.03746087217807589
-0.8063465386817378   0.0042409817616868295   0.01723852369184315
-0.8063465386817378   0.0042409817616868295   0.01723852369184315
-0.8063465386817378   0.0042409817616868295   0.01723852369184315
-0.8063465386817378   0.0042409817616868295   0.01723852369184315
-0.6817383444522268   -2.4558156075216164e-05   -0.033960650374551954
-0.6817383444522268   -2.4558156075216164e-05   -0.033960650374551954
-0.6817383444522268   -2.4558156075216164e-05   -0.033960650374551954
-0.6817383444522268   -2.4558156075216164e-05   -0.033960650374551954
-0.9516325587529706   0.005308137188671874   0.03145918952366885
-0.9516325587529706   0.005308137188671874   0.03145918952366885
-0.9516325587529706   0.005308137188671874   0.03145918952366885
-0.9516325587529706   0.005308137188671874   0.03145918952366885
-0.9389812587791597   -0.045347292485767354   -0.04781763335192091
-0.9389812587791597   -0.045347292485767354   -0.04781763335192091
-0.9389812587791597   -0.045347292485767354   -0.04781763335192091
-0.9389812587791597   -0.045347292485767354   -0.04781763335192091
-0.6362193863900308   0.07358530346589834   0.031896650785170476
-0.6362193863900308   0.07358530346589834   0.031896650785170476
-0.6362193863900308   0.07358530346589834   0.031896650785170476
-0.6362193863900308   0.07358530346589834   0.031896650785170476
-0.76529701495683   0.016228783444521888   0.028738523474405017
-0.76529701495683   0.016228783444521888   0.028738523474405017
-0.76529701495683   0.016228783444521888   0.028738523474405017
-0.76529701495683   0.016228783444521888   0.028738523474405017
0.9097333153610986   0.06804489510015088   0.04802216892805021
0.9097333153610986   0.06804489510015088   0.04802216892805021
0.9097333153610986   0.06804489510015088   0.04802216892805021
0.9097333153610986   0.06804489510015088   0.04802216892805021
0.4010073004155898   -0.10681373228468777   -0.02214180400057309
0.4010073004155898   -0.10681373228468777   -0.02214180400057309
0.4010073004155898   -0.10681373228468777   -0.02214180400057309
0.4010073004155898   -0.10681373228468777   -0.02214180400057309
0.4468993211793941   -0.018919969504928552   0.032956744314177895
0.4468993211793941   -0.018919969504928552   0.032956744314177895
0.4468993211793941   -0.018919969504928552   0.032956744314177895
0.4468993211793941   -0.018919969504928552   0.032956744314177895
0.9196345722437842   -0.0013606882334463721   -0.03465355024867337
0.9196345722437842   -0.0013606882334463721   -0.03465355024867337
0.9196345722437842   -0.0013606882334463721   -0.03465355024867337
0.9196345722437842   -0.0013606882334463721   -0.03465355024867337
0.6301298257765471   -0.018973115593830248   -0.04917069661118682
0.6301298257765471   -0.018973115593830248   -0.04917069661118682
0.6301298257765471   -0.018973115593830248   -0.04917069661118682
0.6301298257765471   -0.018973115593830248   -0.04917069661118682
0.9515629609759405   0.08345579218939664   0.04017191298925738
0.9515629609759405   0.08345579218939664   0.04017191298925738
0.9515629609759405   0.08345579218939664   0.04017191298925738
0.9515629609759405   0.08345579218939664   0.04017191298925738
0.4180400309220925   -0.10066735145291718   -0.029592325024335668
0.4180400309220925   -0.10066735145291718   -0.029592325024335668
0.4180400309220925   -0.10066735145291718   -0.029592325024335668
0.4180400309220925   -0.10066735145291718   -0.029592325024335668
0.464793514046936   -0.009165178394117415   0.0266331777806216
0.464793514046936   -0.009165178394117415   0.0266331777806216
0.464793514046936   -0.009165178394117415   0.0266331777806216
0.464793514046936   -0.009165178394117415   0.0266331777806216
0.9509833313507199   0.009390305917724245   -0.04326498605804975
0.9509833313507199   0.009390305917724245   -0.04326498605804975
0.9509833313507199   0.009390305917724245   -0.04326498605804975
0.9509833313507199   0.009390305917724245   -0.04326498605804975
0.6695492053090607   -0.007494629365055433   -0.03346674620419184
0.6695492053090607   -0.007494629365055433   -0.03346674620419184
0.6695492053090607   -0.007494629365055433   -0.03346674620419184
0.6695492053090607   -0.007494629365055433   -0.03346674620419184
0.9827201834119078   0.0950461966298961   0.02976338353571743
0.9827201834119078   0.0950461966298961   0.02976338353571743
0.9827201834119078   0.0950461966298961   0.02976338353571743
0.9827201834119078   0.0950461966298961   0.02976338353571743
0.43573985247474745   -0.09213787861729004   -0.03566242985714872
0.43573985247474745   -0.09213787861729004   -0.03566242985714872
0.43573985247474745   -0.09213787861729004   -0.03566242985714872
0.43573985247474745   -0.09213787861729004   -0.03566242985714872
0.4810107071058269   0.016910738713284565   0.023350311454364944
0.4810107071058269   0.016910738713284565   0.023350311454364944
0.4810107071058269   0.016910738713284565   0.023350311454364944
0.4810107071058269   0.016910738713284565   0.023350311454364944
0.9895771322558993   0.04085798808528823   -0.045295480183108805
0.9895771322558993   0.04085798808528823   -0.045295480183108805
0.9895771322558993   0.04085798808528823   -0.045295480183108805
0.9895771322558993   0.04085798808528823   -0.045295480183108805
0.6841858047634186   0.0079787084076543   -0.022615015878579725
0.6841858047634186   0.0079787084076543   -0.022615015878579725
0.6841858047634186   0.0079787084076543   -0.022615015878579725
0.6841858047634186   0.0079787084076543   -0.022615015878579725
0.44358526511104107   0.03988030015874884   0.04405398703324277
0.44358526511104107   0.03988030015874884   0.04405398703324277
0.44358526511104107   0.03988030015874884   0.04405398703324277
0.44358526511104107   0.03988030015874884   0.04405398703324277
-0.055413650971898105   -0.1314772496271535   -0.012628219004958832
-0.055413650971898105   -0.1314772496271535   -0.012628219004958832
-0.055413650971898105   -0.1314772496271535   -0.012628219004958832
-0.055413650971898105   -0.1314772496271535   -0.012628219004958832
-0.01594598773443472   -0.04658329867337091   0.0111405026866384
-0.01594598773443472   -0.04658329867337091   0.0111405026866384
-0.01594598773443472   -0.04658329867337091   0.0111405026866384
-0.01594598773443472   -0.04658329867337091   0.0111405026866384
0.439784631378457   -0.02376090237031131   0.0022242281748752687
0.439784631378457   -0.02376090237031131   0.0022242281748752687
0.439784631378457   -0.02376090237031131   0.0022242281748752687
0.439784631378457   -0.02376090237031131   0.0022242281748752687
0.1974987639557907   -0.03650593615794432   -0.023373211661683223
0.1974987639557907   -0.03650593615794432   -0.023373211661683223
0.1974987639557907   -0.03650593615794432   -0.023373211661683223
0.1974987639557907   -0.03650593615794432   -0.023373211661683223
0.462848103849006   0.054752963947876425   0.039027724209434365
0.462848103849006   0.054752963947876425   0.039027724209434365
0.462848103849006   0.054752963947876425   0.039027724209434365
0.462848103849006   0.054752963947876425   0.039027724209434365
-0.03738619245749393   -0.12347389724406854   -0.019169922357960008
-0.03738619245749393   -0.12347389724406854   -0.019169922357960008
-0.03738619245749393   -0.12347389724406854   -0.019169922357960008
-0.03738619245749393   -0.12347389724406854   -0.019169922357960008
0.002298076919797668   -0.029112498205999433   0.006781445205041422
0.002298076919797668   -0.029112498205999433   0.006781445205041422
0.002298076919797668   -0.029112498205999433   0.006781445205041422
0.002298076919797668   -0.029112498205999433   0.006781445205041422
0.4584853722505007   -0.010585769273001547   -0.0034869403226709082
0.4584853722505007   -0.010585769273001547   -0.0034869403226709082
0.4584853722505007   -0.010585769273001547   -0.0034869403226709082
0.4584853722505007   -0.010585769273001547   -0.0034869403226709082
0.21332474651638306   -0.02577425525248222   -0.015139797022989974
0.21332474651638306   -0.02577425525248222   -0.015139797022989974
0.21332474651638306   -0.02577425525248222   -0.015139797022989974
0.21332474651638306   -0.02577425525248222   -0.015139797022989974
0.4827881323161433   0.07259786831564136   0.034843222416899605
0.4827881323161433   0.07259786831564136   0.034843222416899605
0.4827881323161433   0.07259786831564136   0.034843222416899605
0.4827881323161433   0.07259786831564136   0.034843222416899605
-0.02103391858785339   -0.1113253712366555   -0.02766565930255589
-0.02103391858785339   -0.1113253712366555   -0.02766565930255589
-0.02103391858785339   -0.1113253712366555   -0.02766565930255589
-0.02103391858785339   -0.1113253712366555   -0.02766565930255589
0.01662253576179304   -0.008627414208556143   0.002377648935269911
0.01662253576179304   -0.008627414208556143   0.002377648935269911
0.01662253576179304   -0.008627414208556143   0.002377648935269911
0.01662253576179304   -0.008627414208556143   0.002377648935269911
0.47247730776359836   0.006234513777016393   -0.008640460320517244
0.47247730776359836   0.006234513777016393   -0.008640460320517244
0.47247730776359836   0.006234513777016393   -0.008640460320517244
0.47247730776359836   0.006234513777016393   -0.008640460320517244
0.23277112966769042   -0.009712601213384256   -0.006290813380520349
0.23277112966769042   -0.009712601213384256   -0.006290813380520349
0.23277112966769042   -0.009712601213384256   -0.006290813380520349
0.23277112966769042   -0.009712601213384256   -0.006290813380520349
-0.01995926391513028   0.011259966222127785   0.02190650042959903
-0.01995926391513028   0.011259966222127785   0.02190650042959903
-0.01995926391513028   0.011259966222127785   0.02190650042959903
-0.01995926391513028   0.011259966222127785   0.02190650042959903
-0.5082856733199504   -0.16486908700127467   -0.010118787103150364
-0.5082856733199504   -0.16486908700127467   -0.010118787103150364
-0.5082856733199504   -0.16486908700127467   -0.010118787103150364
-0.5082856733199504   -0.16486908700127467   -0.010118787103150364
-0.4684328653813523   -0.07143740592827574   -0.010711311519166948
-0.4684328653813523   -0.07143740592827574   -0.010711311519166948
-0.4684328653813523   -0.07143740592827574   -0.010711311519166948
-0.4684328653813523   -0.07143740592827574   -0.010711311519166948
-0.018090218710124235   -0.05607989019833895   0.009915939333158848
-0.018090218710124235   -0.05607989019833895   0.009915939333158848
-0.018090218710124235   -0.05607989019833895   0.009915939333158848
-0.018090218710124235   -0.05607989019833895   0.009915939333158848
-0.2548339958262446   -0.06651209663467322   -0.020862658992966555
-0.2548339958262446   -0.06651209663467322   -0.020862658992966555
-0.2548339958262446   -0.06651209663467322   -0.020862658992966555
-0.2548339958262446   -0.06651209663467322   -0.020862658992966555
0.000307234657154834   0.028014616314585107   0.017808699656630147
0.000307234657154834   0.028014616314585107   0.017808699656630147
0.000307234657154834   0.028014616314585107   0.017808699656630147
0.000307234657154834   0.028014616314585107   0.017808699656630147
-0.48565578804376347   -0.1543573817363319   -0.013905949023166697
-0.48565578804376347   -0.1543573817363319   -0.013905949023166697
-0.48565578804376347   -0.1543573817363319   -0.013905949023166697
-0.48565578804376347   -0.1543573817363319   -0.013905949023166697
-0.44579885679212217   -0.05204591348586603   -0.014568425267200449
-0.44579885679212217   -0.05204591348586603   -0.014568425267200449
-0.44579885679212217   -0.05204591348586603   -0.014568425267200449
-0.44579885679212217   -0.05204591348586603   -0.014568425267200449
-0.0010986664381883813   -0.04341427673800127   0.004099506947114936
-0.0010986664381883813   -0.04341427673800127   0.004099506947114936
-0.0010986664381883813   -0.04341427673800127   0.004099506947114936
-0.0010986664381883813   -0.04341427673800127   0.004099506947114936
-0.2328617689063231   -0.05256239163864105   -0.01156411734101363
-0.2328617689063231   -0.05256239163864105   -0.01156411734101363
-0.2328617689063231   -0.05256239163864105   -0.01156411734101363
-0.2328617689063231   -0.05256239163864105   -0.01156411734101363
0.01885092156404905   0.04657030106905707   0.013862869151243755
0.01885092156404905   0.04657030106905707   0.013862869151243755
0.01885092156404905   0.04657030106905707   0.013862869151243755
0.01885092156404905   0.04657030106905707   0.013862869151243755
-0.4657425910617831   -0.14202463756034728   -0.02430837254102025
-0.4657425910617831   -0.14202463756034728   -0.02430837254102025
-0.4657425910617831   -0.14202463756034728   -0.02430837254102025
-0.4657425910617831   -0.14202463756034728   -0.02430837254102025
-0.4298011964310148   -0.03355262111839577   -0.018876414579062115
-0.4298011964310148   -0.03355262111839577   -0.018876414579062115
-0.4298011964310148   -0.03355262111839577   -0.018876414579062115
-0.4298011964310148   -0.03355262111839577   -0.018876414579062115
0.010050663669641979   -0.03327121427526318   -0.005837911458778353
0.010050663669641979   -0.03327121427526318   -0.005837911458778353
0.010050663669641979   -0.03327121427526318   -0.005837911458778353
0.010050663669641979   -0.03327121427526318   -0.005837911458778353
-0.2167491772229392   -0.039540493957754635   -0.005726682749520422
-0.2167491772229392   -0.039540493957754635   -0.005726682749520422
-0.2167491772229392   -0.039540493957754635   -0.005726682749520422
-0.2167491772229392   -0.039540493957754635   -0.005726682749520422
-0.4761227230238867   -0.013509433968410214   -0.0006636886557007254
-0.4761227230238867   -0.013509433968410214   -0.0006636886557007254
-0.4761227230238867   -0.013509433968410214   -0.0006636886557007254
-0.4761227230238867   -0.013509433968410214   -0.0006636886557007254
-0.9633762037217035   -0.17725393216632312   -0.008101379185235536
-0.9633762037217035   -0.17725393216632312   -0.008101379185235536
-0.9633762037217035   -0.17725393216632312   -0.008101379185235536
-0.9633762037217035   -0.17725393216632312   -0.008101379185235536
-0.9206514491370168   -0.09149543420678438   -0.03178133170025573
-0.9206514491370168   -0.09149543420678438   -0.03178133170025573
-0.9206514491370168   -0.09149543420678438   -0.03178133170025573
-0.9206514491370168   -0.09149543420678438   -0.03178133170025573
-0.45946762085834186   -0.05828427968485085   0.02096178485245612
-0.45946762085834186   -0.05828427968485085   0.02096178485245612
-0.45946762085834186   -0.05828427968485085   0.02096178485245612
-0.45946762085834186   -0.05828427968485085   0.02096178485245612
-0.6987499304590112   -0.08003108812393285   -0.014695435178193984
-0.6987499304590112   -0.08003108812393285   -0.014695435178193984
-0.6987499304590112   -0.08003108812393285   -0.014695435178193984
-0.6987499304590112   -0.08003108812393285   -0.014695435178193984
-0.4511168991162179   0.008044970760892972   -0.0036138568826677916
-0.4511168991162179   0.008044970760892972   -0.0036138568826677916
-0.4511168991162179   0.008044970760892972   -0.0036138568826677916
-0.4511168991162179   0.008044970760892972   -0.0036138568826677916
-0.9293517942749668   -0.15817430804835303   -0.008604183548429786
-0.9293517942749668   -0.15817430804835303   -0.008604183548429786
-0.9293517942749668   -0.15817430804835303   -0.008604183548429786
-0.9293517942749668   -0.15817430804835303   -0.008604183548429786
-0.8882763061056194   -0.07126313109300514   -0.036793479551564694
-0.8882763061056194   -0.07126313109300514   -0.036793479551564694
-0.8882763061056194   -0.07126313109300514   -0.036793479551564694
-0.8882763061056194   -0.07126313109300514   -0.036793479551564694
-0.4375021888825119   -0.04310603863446773   0.01797503942945645
-0.4375021888825119   -0.04310603863446773   0.01797503942945645
-0.4375021888825119   -0.04310603863446773   0.01797503942945645
-0.4375021888825119   -0.04310603863446773   0.01797503942945645
-0.665444774423035   -0.06061840485274307   -0.0047811894292446415
-0.665444774423035   -0.06061840485274307   -0.0047811894292446415
-0.665444774423035   -0.06061840485274307   -0.0047811894292446415
-0.665444774423035   -0.06061840485274307   -0.0047811894292446415
-0.42843299477688396   0.02675601778973284   -0.006541046466610224
-0.42843299477688396   0.02675601778973284   -0.006541046466610224
-0.42843299477688396   0.02675601778973284   -0.006541046466610224
-0.42843299477688396   0.02675601778973284   -0.006541046466610224
-0.8988870311001583   -0.14266671840611622   -0.01844351721113974
-0.8988870311001583   -0.14266671840611622   -0.01844351721113974
-0.8988870311001583   -0.14266671840611622   -0.01844351721113974
-0.8988870311001583   -0.14266671840611622   -0.01844351721113974
-0.8620452770085231   -0.04994597568954598   -0.03797478316961645
-0.8620452770085231   -0.04994597568954598   -0.03797478316961645
-0.8620452770085231   -0.04994597568954598   -0.03797478316961645
-0.8620452770085231   -0.04994597568954598   -0.03797478316961645
-0.42489154762132897   -0.0334562960901376   0.00557550444111251
-0.42489154762132897   -0.0334562960901376   0.00557550444111251
-0.42489154762132897   -0.0334562960901376   0.00557550444111251
-0.42489154762132897   -0.0334562960901376   0.00557550444111251
-0.647166651443484   -0.04879097809820661   -0.001534835082465675
-0.647166651443484   -0.04879097809820661   -0.001534835082465675
-0.647166651443484   -0.04879097809820661   -0.001534835082465675
-0.647166651443484   -0.04879097809820661   -0.001534835082465675
-0.9372267037981535   -0.03150876328557242   -0.023099048448235696
-0.9372267037981535   -0.03150876328557242   -0.023099048448235696
-0.9372267037981535   -0.03150876328557242   -0.023099048448235696
-0.9372267037981535   -0.03150876328557242   -0.023099048448235696
-1.4133041008360097   -0.1201751260197517   0.05307257324948197
-1.4133041008360097   -0.1201751260197517   0.05307257324948197
-1.4133041008360097   -0.1201751260197517   0.05307257324948197
-1.4133041008360097   -0.1201751260197517   0.05307257324948197
-1.365219618001052   -0.09590506037503635   -0.03099704885857655
-1.365219618001052   -0.09590506037503635   -0.03099704885857655
-1.365219618001052   -0.09590506037503635   -0.03099704885857655
-1.365219618001052   -0.09590506037503635   -0.03099704885857655
-0.8811400773328231   0.0254028838234297   0.048877209290490754
-0.8811400773328231   0.0254028838234297   0.048877209290490754
-0.8811400773328231   0.0254028838234297   0.048877209290490754
-0.8811400773328231   0.0254028838234297   0.048877209290490754
-1.0977682115989311   -0.03761485816205637   0.0054561502214873076
-1.0977682115989311   -0.03761485816205637   0.0054561502214873076
-1.0977682115989311   -0.03761485816205637   0.0054561502214873076
-1.0977682115989311   -0.03761485816205637   0.0054561502214873076
-0.9015365841492732   -0.002091276688857391   -0.025611164279460898
-0.9015365841492732   -0.002091276688857391   -0.025611164279460898
-0.9015365841492732   -0.002091276688857391   -0.025611164279460898
-0.9015365841492732   -0.002091276688857391   -0.025611164279460898
-1.3415350082414943   -0.0651227969196396   0.05664373648381552
-1.3415350082414943   -0.0651227969196396   0.05664373648381552
-1.3415350082414943   -0.0651227969196396   0.05664373648381552
-1.3415350082414943   -0.0651227969196396   0.05664373648381552
-1.3136122493639182   -0.08076249236108293   -0.036914267614157815
-1.3136122493639182   -0.08076249236108293   -0.036914267614157815
-1.3136122493639182   -0.08076249236108293   -0.036914267614157815
-1.3136122493639182   -0.08076249236108293   -0.036914267614157815
-0.8491386487375975   0.04046530752235483   0.0471663686731853
-0.8491386487375975   0.04046530752235483   0.0471663686731853
-0.8491386487375975   0.04046530752235483   0.0471663686731853
-0.8491386487375975   0.04046530752235483   0.0471663686731853
-1.0674831907844822   -0.015170569257943245   0.021920597462795358
-1.0674831907844822   -0.015170569257943245   0.021920597462795358
-1.0674831907844822   -0.015170569257943245   0.021920597462795358
-1.0674831907844822   -0.015170569257943245   0.021920597462795358
-0.870248238195082   0.00975825764761748   -0.02767452873949173
-0.870248238195082   0.00975825764761748   -0.02767452873949173
-0.870248238195082   0.00975825764761748   -0.02767452873949173
-0.870248238195082   0.00975825764761748   -0.02767452873949173
-1.2918254761499453   -0.04937825872985796   0.04063536482446925
-1.2918254761499453   -0.04937825872985796   0.04063536482446925
-1.2918254761499453   -0.04937825872985796   0.04063536482446925
-1.2918254761499453   -0.04937825872985796   0.04063536482446925
-1.2602207929097498   -0.06651908848350399   -0.04462390244212217
-1.2602207929097498   -0.06651908848350399   -0.04462390244212217
-1.2602207929097498   -0.06651908848350399   -0.04462390244212217
-1.2602207929097498   -0.06651908848350399   -0.04462390244212217
-0.8254927302569319   0.058394406883387096   0.03644756801540622
-0.8254927302569319   0.058394406883387096   0.03644756801540622
-0.8254927302569319   0.058394406883387096   0.03644756801540622
-0.8254927302569319   0.058394406883387096   0.03644756801540622
-1.0099746247977262   0.003993621545958254   0.038474079582602766
-1.0099746247977262   0.003993621545958254   0.038474079582602766
-1.0099746247977262   0.003993621545958254   0.038474079582602766
-1.0099746247977262   0.003993621545958254   0.038474079582602766
1.2409255225518525   0.07455586295271385   0.04478795005017234
1.2409255225518525   0.07455586295271385   0.04478795005017234
1.2409255225518525   0.07455586295271385   0.04478795005017234
1.2409255225518525   0.07455586295271385   0.04478795005017234
0.5911751330002563   -0.1104855230827223   0.00981986864210252
0.5911751330002563   -0.1104855230827223   0.00981986864210252
0.5911751330002563   -0.1104855230827223   0.00981986864210252
0.5911751330002563   -0.1104855230827223   0.00981986864210252
0.6236199789585057   -0.046754376258102026   0.034392602913326874
0.6236199789585057   -0.046754376258102026   0.034392602913326874
0.6236199789585057   -0.046754376258102026   0.034392602913326874
0.6236199789585057   -0.046754376258102026   0.034392602913326874
1.2473575864088786   0.010987431187374719   -0.010135939166388566
1.2473575864088786   0.010987431187374719   -0.010135939166388566
1.2473575864088786   0.010987431187374719   -0.010135939166388566
1.2473575864088786   0.010987431187374719   -0.010135939166388566
0.8722258965970039   -0.02362021447275864   -0.05782640854468784
0.8722258965970039   -0.02362021447275864   -0.05782640854468784
0.8722258965970039   -0.02362021447275864   -0.05782640854468784
0.8722258965970039   -0.02362021447275864   -0.05782640854468784
1.2708479294095885   0.08289444554529687   0.03540876147923882
1.2708479294095885   0.08289444554529687   0.03540876147923882
1.2708479294095885   0.08289444554529687   0.03540876147923882
1.2708479294095885   0.08289444554529687   0.03540876147923882
0.605752672034428   -0.11303835453939201   0.011340046574228102
0.605752672034428   -0.11303835453939201   0.011340046574228102
0.605752672034428   -0.11303835453939201   0.011340046574228102
0.605752672034428   -0.11303835453939201   0.011340046574228102
0.635866549140607   -0.03974871201114402   0.026156706507721852
0.635866549140607   -0.03974871201114402   0.026156706507721852
0.635866549140607   -0.03974871201114402   0.026156706507721852
0.635866549140607   -0.03974871201114402   0.026156706507721852
1.2690738033526983   0.018878351677490135   -0.003256661622489096
1.2690738033526983   0.018878351677490135   -0.003256661622489096
1.2690738033526983   0.018878351677490135   -0.003256661622489096
1.2690738033526983   0.018878351677490135   -0.003256661622489096
0.9080637356966328   -0.018650335302685617   -0.039543399952809595
0.9080637356966328   -0.018650335302685617   -0.039543399952809595
0.9080637356966328   -0.018650335302685617   -0.039543399952809595
0.9080637356966328   -0.018650335302685617   -0.039543399952809595
1.2889616649929545   0.0905426412575312   0.024518356998750476
1.2889616649929545   0.0905426412575312   0.024518356998750476
1.2889616649929545   0.0905426412575312   0.024518356998750476
1.2889616649929545   0.0905426412575312   0.024518356998750476
0.6198898263422477   -0.10750186274928836   0.014026243254069357
0.6198898263422477   -0.10750186274928836   0.014026243254069357
0.6198898263422477   -0.10750186274928836   0.014026243254069357
0.6198898263422477   -0.10750186274928836   0.014026243254069357
0.6539102520658318   -0.012433798707491839   0.023912466043027783
0.6539102520658318   -0.012433798707491839   0.023912466043027783
0.6539102520658318   -0.012433798707491839   0.023912466043027783
0.6539102520658318   -0.012433798707491839   0.023912466043027783
1.2916909144021886   0.037031774054306105   -0.0007050762587098372
1.2916909144021886   0.037031774054306105   -0.0007050762587098372
1.2916909144021886   0.037031774054306105   -0.0007050762587098372
1.2916909144021886   0.037031774054306105   -0.0007050762587098372
0.9123867884150556   -0.008517762098223719   -0.029612224852818447
0.9123867884150556   -0.008517762098223719   -0.029612224852818447
0.9123867884150556   -0.008517762098223719   -0.029612224852818447
0.9123867884150556   -0.008517762098223719   -0.029612224852818447
0.6239954617486069   0.016347845481804985   0.047088143819328514
0.6239954617486069   0.016347845481804985   0.047088143819328514
0.6239954617486069   0.016347845481804985   0.047088143819328514
0.6239954617486069   0.016347845481804985   0.047088143819328514
0.03187929122177982   -0.2195027219001125   0.02234354472520296
0.03187929122177982   -0.2195027219001125   0.02234354472520296
0.03187929122177982   -0.2195027219001125   0.02234354472520296
0.03187929122177982   -0.2195027219001125   0.02234354472520296
0.07408249105018672   -0.09315925438121109   0.020934608448646606
0.07408249105018672   -0.09315925438121109   0.020934608448646606
0.07408249105018672   -0.09315925438121109   0.020934608448646606
0.07408249105018672   -0.09315925438121109   0.020934608448646606
0.6080407307130553   -0.1046234228110346   0.014365408238999872
0.6080407307130553   -0.1046234228110346   0.014365408238999872
0.6080407307130553   -0.1046234228110346   0.014365408238999872
0.6080407307130553   -0.1046234228110346   0.014365408238999872
0.3236561320169648   -0.09810128321155705   -0.03683171218472807
0.3236561320169648   -0.09810128321155705   -0.03683171218472807
0.3236561320169648   -0.09810128321155705   -0.03683171218472807
0.3236561320169648   -0.09810128321155705   -0.03683171218472807
0.6386499442529707   0.02343743766260528   0.03935061546494447
0.6386499442529707   0.02343743766260528   0.03935061546494447
0.6386499442529707   0.02343743766260528   0.03935061546494447
0.6386499442529707   0.02343743766260528   0.03935061546494447
0.05155637620053233   -0.2131370161645887   0.028281795983752286
0.05155637620053233   -0.2131370161645887   0.028281795983752286
0.05155637620053233   -0.2131370161645887   0.028281795983752286
0.05155637620053233   -0.2131370161645887   0.028281795983752286
0.0910225582842563   -0.0803537734936203   0.015135852540479684
0.0910225582842563   -0.0803537734936203   0.015135852540479684
0.0910225582842563   -0.0803537734936203   0.015135852540479684
0.0910225582842563   -0.0803537734936203   0.015135852540479684
0.6225527090417868   -0.09789077573425126   0.0177295697367284
0.6225527090417868   -0.09789077573425126   0.0177295697367284
0.6225527090417868   -0.09789077573425126   0.0177295697367284
0.6225527090417868   -0.09789077573425126   0.0177295697367284
0.33804579996839623   -0.09317901406687401   -0.018419747123032557
0.33804579996839623   -0.09317901406687401   -0.018419747123032557
0.33804579996839623   -0.09317901406687401   -0.018419747123032557
0.33804579996839623   -0.09317901406687401   -0.018419747123032557
0.6523254224105423   0.03551675082732139   0.03318561001893292
0.6523254224105423   0.03551675082732139   0.03318561001893292
0.6523254224105423   0.03551675082732139   0.03318561001893292
0.6523254224105423   0.03551675082732139   0.03318561001893292
0.06902385023824315   -0.20598729473245547   0.030775833549251022
0.06902385023824315   -0.20598729473245547   0.030775833549251022
0.06902385023824315   -0.20598729473245547   0.030775833549251022
0.06902385023824315   -0.20598729473245547   0.030775833549251022
0.11704206813126414   -0.06112658294544506   0.009989295699509706
0.11704206813126414   -0.06112658294544506   0.009989295699509706
0.11704206813126414   -0.06112658294544506   0.009989295699509706
0.11704206813126414   -0.06112658294544506   0.009989295699509706
0.638420636159513   -0.08766849163619617   0.021699079440140483
0.638420636159513   -0.08766849163619617   0.021699079440140483
0.638420636159513   -0.08766849163619617   0.021699079440140483
0.638420636159513   -0.08766849163619617   0.021699079440140483
0.36338356321202436   -0.08128941072156996   0.0030189357756942176
0.36338356321202436   -0.08128941072156996   0.0030189357756942176
0.36338356321202436   -0.08128941072156996   0.0030189357756942176
0.36338356321202436   -0.08128941072156996   0.0030189357756942176
0.06911285356256605   -0.04130324774861924   0.030311882277640846
0.06911285356256605   -0.04130324774861924   0.030311882277640846
0.06911285356256605   -0.04130324774861924   0.030311882277640846
0.06911285356256605   -0.04130324774861924   0.030311882277640846
-0.5318702185720501   -0.3766070905701924   0.032514022832509995
-0.5318702185720501   -0.3766070905701924   0.032514022832509995
-0.5318702185720501   -0.3766070905701924   0.032514022832509995
-0.5318702185720501   -0.3766070905701924   0.032514022832509995
-0.4652265006602042   -0.14708016821789155   0.00205083118547591
-0.4652265006602042   -0.14708016821789155   0.00205083118547591
-0.4652265006602042   -0.14708016821789155   0.00205083118547591
-0.4652265006602042   -0.14708016821789155   0.00205083118547591
0.03644837268834206   -0.2729609526169384   0.01256571487515061
0.03644837268834206   -0.2729609526169384   0.01256571487515061
0.03644837268834206   -0.2729609526169384   0.01256571487515061
0.03644837268834206   -0.2729609526169384   0.01256571487515061
-0.22977443547722137   -0.21097954675622047   -0.04418745822428622
-0.22977443547722137   -0.21097954675622047   -0.04418745822428622
-0.22977443547722137   -0.21097954675622047   -0.04418745822428622
-0.22977443547722137   -0.21097954675622047   -0.04418745822428622
0.08685187283505708   -0.03229183929798084   0.023914102289768112
0.08685187283505708   -0.03229183929798084   0.023914102289768112
0.08685187283505708   -0.03229183929798084   0.023914102289768112
0.08685187283505708   -0.03229183929798084   0.023914102289768112
-0.5039083684280136   -0.37602764915794284   0.03758897328648403
-0.5039083684280136   -0.37602764915794284   0.03758897328648403
-0.5039083684280136   -0.37602764915794284   0.03758897328648403
-0.5039083684280136   -0.37602764915794284   0.03758897328648403
-0.4395155190407887   -0.13195711710729738   -0.00019784229676524274
-0.4395155190407887   -0.13195711710729738   -0.00019784229676524274
-0.4395155190407887   -0.13195711710729738   -0.00019784229676524274
-0.4395155190407887   -0.13195711710729738   -0.00019784229676524274
0.054314652848593784   -0.26684858556477803   0.018091137433326715
0.054314652848593784   -0.26684858556477803   0.018091137433326715
0.054314652848593784   -0.26684858556477803   0.018091137433326715
0.054314652848593784   -0.26684858556477803   0.018091137433326715
-0.2037129715327612   -0.2036721024426836   -0.016414738290655373
-0.2037129715327612   -0.2036721024426836   -0.016414738290655373
-0.2037129715327612   -0.2036721024426836   -0.016414738290655373
-0.2037129715327612   -0.2036721024426836   -0.016414738290655373
0.10307120103391701   -0.020329288394970075   0.015354581190134891
0.10307120103391701   -0.020329288394970075   0.015354581190134891
0.10307120103391701   -0.020329288394970075   0.015354581190134891
0.10307120103391701   -0.020329288394970075   0.015354581190134891
-0.477713766200879   -0.3679181132518715   0.04477191804736291
-0.477713766200879   -0.3679181132518715   0.04477191804736291
-0.477713766200879   -0.3679181132518715   0.04477191804736291
-0.477713766200879   -0.3679181132518715   0.04477191804736291
-0.39708208151898117   -0.1145463017138649   -0.005080603463163781
-0.39708208151898117   -0.1145463017138649   -0.005080603463163781
-0.39708208151898117   -0.1145463017138649   -0.005080603463163781
-0.39708208151898117   -0.1145463017138649   -0.005080603463163781
0.08219779073263882   -0.24997229569473792   0.024613621455674042
0.08219779073263882   -0.24997229569473792   0.024613621455674042
0.08219779073263882   -0.24997229569473792   0.024613621455674042
0.08219779073263882   -0.24997229569473792   0.024613621455674042
-0.16991506754105054   -0.18746932390032744   0.012590340061579296
-0.16991506754105054   -0.18746932390032744   0.012590340061579296
-0.16991506754105054   -0.18746932390032744   0.012590340061579296
-0.16991506754105054   -0.18746932390032744   0.012590340061579296
-0.47518129742274606   -0.07510363955642628   0.014455177565260591
-0.47518129742274606   -0.07510363955642628   0.014455177565260591
-0.47518129742274606   -0.07510363955642628   0.014455177565260591
-0.47518129742274606   -0.07510363955642628   0.014455177565260591
-1.18131366626886   -0.585617417585824   -0.027118495615534866
-1.18131366626886   -0.585617417585824   -0.027118495615534866
-1.18131366626886   -0.585617417585824   -0.027118495615534866
-1.18131366626886   -0.585617417585824   -0.027118495615534866
-1.0714163775791703   -0.1913730349002089   -0.03253323450350601
-1.0714163775791703   -0.1913730349002089   -0.03253323450350601
-1.0714163775791703   -0.1913730349002089   -0.03253323450350601
-1.0714163775791703   -0.1913730349002089   -0.03253323450350601
-0.5319895471872265   -0.48888012074253295   0.010035551075005825
-0.5319895471872265   -0.48888012074253295   0.010035551075005825
-0.5319895471872265   -0.48888012074253295   0.010035551075005825
-0.5319895471872265   -0.48888012074253295   0.010035551075005825
-0.8140724598570405   -0.3464280725298581   -0.04646493431320133
-0.8140724598570405   -0.3464280725298581   -0.04646493431320133
-0.8140724598570405   -0.3464280725298581   -0.04646493431320133
-0.8140724598570405   -0.3464280725298581   -0.04646493431320133
-0.44482471126825174   -0.056793443959878856   0.013773053887225859
-0.44482471126825174   -0.056793443959878856   0.013773053887225859
-0.44482471126825174   -0.056793443959878856   0.013773053887225859
-0.44482471126825174   -0.056793443959878856   0.013773053887225859
-1.1558060980813964   -0.6206845962661092   -0.02517027564873653
-1.1558060980813964   -0.6206845962661092   -0.02517027564873653
-1.1558060980813964   -0.6206845962661092   -0.02517027564873653
-1.1558060980813964   -0.6206845962661092   -0.02517027564873653
-1.0371322541336156   -0.1732626482840393   -0.033177943567297585
-1.0371322541336156   -0.1732626482840393   -0.033177943567297585
-1.0371322541336156   -0.1732626482840393   -0.033177943567297585
-1.0371322541336156   -0.1732626482840393   -0.033177943567297585
-0.5070233273357505   -0.484887926846162   0.015193925967292451
-0.5070233273357505   -0.484887926846162   0.015193925967292451
-0.5070233273357505   -0.484887926846162   0.015193925967292451
-0.5070233273357505   -0.484887926846162   0.015193925967292451
-0.7780067896981928   -0.33688081881881815   -0.0323471417890795
-0.7780067896981928   -0.33688081881881815   -0.0323471417890795
-0.7780067896981928   -0.33688081881881815   -0.0323471417890795
-0.7780067896981928   -0.33688081881881815   -0.0323471417890795
-0.42063712338898784   -0.04240052470888808   0.004637543563830639
-0.42063712338898784   -0.04240052470888808   0.004637543563830639
-0.42063712338898784   -0.04240052470888808   0.004637543563830639
-0.42063712338898784   -0.04240052470888808   0.004637543563830639
-1.1233772936130413   -0.61560888595397   -0.022056903294487284
-1.1233772936130413   -0.61560888595397   -0.022056903294487284
-1.1233772936130413   -0.61560888595397   -0.022056903294487284
-1.1233772936130413   -0.61560888595397   -0.022056903294487284
-0.9835975252509326   -0.15383650726697404   -0.03761957381346615
-0.9835975252509326   -0.15383650726697404   -0.03761957381346615
-0.9835975252509326   -0.15383650726697404   -0.03761957381346615
-0.9835975252509326   -0.15383650726697404   -0.03761957381346615
-0.4530005888126552   -0.4354313481839791   0.03621190653858615
-0.4530005888126552   -0.4354313481839791   0.03621190653858615
-0.4530005888126552   -0.4354313481839791   0.03621190653858615
-0.4530005888126552   -0.4354313481839791   0.03621190653858615
-0.7378505943329723   -0.3050281061671415   -0.01769126414449384
-0.7378505943329723   -0.3050281061671415   -0.01769126414449384
-0.7378505943329723   -0.3050281061671415   -0.01769126414449384
-0.7378505943329723   -0.3050281061671415   -0.01769126414449384
-1.073102807506786   -0.06423808823500088   -0.007443531155987566
-1.073102807506786   -0.06423808823500088   -0.007443531155987566
-1.073102807506786   -0.06423808823500088   -0.007443531155987566
-1.073102807506786   -0.06423808823500088   -0.007443531155987566
-1.8913962908832807   -0.37441265769905524   0.019333002388004505
-1.8913962908832807   -0.37441265769905524   0.019333002388004505
-1.8913962908832807   -0.37441265769905524   0.019333002388004505
-1.8913962908832807   -0.37441265769905524   0.019333002388004505
-1.8172694970894407   -0.17951618556817578   -0.039588717910888305
-1.8172694970894407   -0.17951618556817578   -0.039588717910888305
-1.8172694970894407   -0.17951618556817578   -0.039588717910888305
-1.8172694970894407   -0.17951618556817578   -0.039588717910888305
-1.0500757704550832   -0.1945465007063954   0.07734326692310622
-1.0500757704550832   -0.1945465007063954   0.07734326692310622
-1.0500757704550832   -0.1945465007063954   0.07734326692310622
-1.0500757704550832   -0.1945465007063954   0.07734326692310622
-1.398954896748522   -0.21697475357983548   0.019720904352930998
-1.398954896748522   -0.21697475357983548   0.019720904352930998
-1.398954896748522   -0.21697475357983548   0.019720904352930998
-1.398954896748522   -0.21697475357983548   0.019720904352930998
-1.029384444568217   -0.013975626959619986   0.0002290226106667903
-1.029384444568217   -0.013975626959619986   0.0002290226106667903
-1.029384444568217   -0.013975626959619986   0.0002290226106667903
-1.029384444568217   -0.013975626959619986   0.0002290226106667903
-1.8449503089996344   -0.36707654533828027   0.009567582308233069
-1.8449503089996344   -0.36707654533828027   0.009567582308233069
-1.8449503089996344   -0.36707654533828027   0.009567582308233069
-1.8449503089996344   -0.36707654533828027   0.009567582308233069
-1.7766496582969216   -0.16452197390918266   -0.05025902892517811
-1.7766496582969216   -0.16452197390918266   -0.05025902892517811
-1.7766496582969216   -0.16452197390918266   -0.05025902892517811
-1.7766496582969216   -0.16452197390918266   -0.05025902892517811
-1.0147912999535098   -0.18492118681738484   0.09018536586658565
-1.0147912999535098   -0.18492118681738484   0.09018536586658565
-1.0147912999535098   -0.18492118681738484   0.09018536586658565
-1.0147912999535098   -0.18492118681738484   0.09018536586658565
-1.3776925464981968   -0.17876916449758556   0.019033417377452577
-1.3776925464981968   -0.17876916449758556   0.019033417377452577
-1.3776925464981968   -0.17876916449758556   0.019033417377452577
-1.3776925464981968   -0.17876916449758556   0.019033417377452577
-0.9979582074522355   -0.0007049580367460284   -0.009865400407681107
-0.9979582074522355   -0.0007049580367460284   -0.009865400407681107
-0.9979582074522355   -0.0007049580367460284   -0.009865400407681107
-0.9979582074522355   -0.0007049580367460284   -0.009865400407681107
-1.795986515434985   -0.35124196732661295   0.03977667880192004
-1.795986515434985   -0.35124196732661295   0.03977667880192004
-1.795986515434985   -0.35124196732661295   0.03977667880192004
-1.795986515434985   -0.35124196732661295   0.03977667880192004
-1.692277746518063   -0.13350833070057994   -0.05628110364329794
-1.692277746518063   -0.13350833070057994   -0.05628110364329794
-1.692277746518063   -0.13350833070057994   -0.05628110364329794
-1.692277746518063   -0.13350833070057994   -0.05628110364329794
-0.9598569176445748   -0.17210166011553635   0.09934861706689313
-0.9598569176445748   -0.17210166011553635   0.09934861706689313
-0.9598569176445748   -0.17210166011553635   0.09934861706689313
-0.9598569176445748   -0.17210166011553635   0.09934861706689313
-1.2957605300467399   -0.13671980859988028   0.039322915501059354
-1.2957605300467399   -0.13671980859988028   0.039322915501059354
-1.2957605300467399   -0.13671980859988028   0.039322915501059354
-1.2957605300467399   -0.13671980859988028   0.039322915501059354
1.3592406539114215   0.04497108853168669   0.01903740580298241
1.3592406539114215   0.04497108853168669   0.01903740580298241
1.3592406539114215   0.04497108853168669   0.01903740580298241
1.3592406539114215   0.04497108853168669   0.01903740580298241
0.6933796047607637   -0.03678860673549908   0.013834790878699009
0.6933796047607637   -0.03678860673549908   0.013834790878699009
0.6933796047607637   -0.03678860673549908   0.013834790878699009
0.6933796047607637   -0.03678860673549908   0.013834790878699009
0.6664905061670073   -0.09766957025971074   0.02744613384005505
0.6664905061670073   -0.09766957025971074   0.02744613384005505
0.6664905061670073   -0.09766957025971074   0.02744613384005505
0.6664905061670073   -0.09766957025971074   0.02744613384005505
1.3493997719246116   0.07599879170929075   0.009948867814846704
1.3493997719246116   0.07599879170929075   0.009948867814846704
1.3493997719246116   0.07599879170929075   0.009948867814846704
1.3493997719246116   0.07599879170929075   0.009948867814846704
0.9629228879199374   -0.01356267448033846   -0.035595483428351456
0.9629228879199374   -0.01356267448033846   -0.035595483428351456
0.9629228879199374   -0.01356267448033846   -0.035595483428351456
0.9629228879199374   -0.01356267448033846   -0.035595483428351456
1.3420936025526353   0.03487098731854571   0.014545825345709404
1.3420936025526353   0.03487098731854571   0.014545825345709404
1.3420936025526353   0.03487098731854571   0.014545825345709404
1.3420936025526353   0.03487098731854571   0.014545825345709404
0.6716078516021311   -0.05873058980581847   0.014093880561781166
0.6716078516021311   -0.05873058980581847   0.014093880561781166
0.6716078516021311   -0.05873058980581847   0.014093880561781166
0.6716078516021311   -0.05873058980581847   0.014093880561781166
0.6493103112449252   -0.09988663057783906   0.02268191920863813
0.6493103112449252   -0.09988663057783906   0.02268191920863813
0.6493103112449252   -0.09988663057783906   0.02268191920863813
0.6493103112449252   -0.09988663057783906   0.02268191920863813
1.3337263064236407   0.07275333273817147   0.017330679653909095
1.3337263064236407   0.07275333273817147   0.017330679653909095
1.3337263064236407   0.07275333273817147   0.017330679653909095
1.3337263064236407   0.07275333273817147   0.017330679653909095
0.9602005384643096   -0.018701380275702784   -0.04110757756488494
0.9602005384643096   -0.018701380275702784   -0.04110757756488494
0.9602005384643096   -0.018701380275702784   -0.04110757756488494
0.9602005384643096   -0.018701380275702784   -0.04110757756488494
1.3228064792117649   0.031144328700287716   0.0043405476324017145
1.3228064792117649   0.031144328700287716   0.0043405476324017145
1.3228064792117649   0.031144328700287716   0.0043405476324017145
1.3228064792117649   0.031144328700287716   0.0043405476324017145
0.6562847333911849   -0.062223031605568385   0.01989043096766585
0.6562847333911849   -0.062223031605568385   0.01989043096766585
0.6562847333911849   -0.062223031605568385   0.01989043096766585
0.6562847333911849   -0.062223031605568385   0.01989043096766585
0.6312043751572098   -0.09100688898912904   0.01958814776909327
0.6312043751572098   -0.09100688898912904   0.01958814776909327
0.6312043751572098   -0.09100688898912904   0.01958814776909327
0.6312043751572098   -0.09100688898912904   0.01958814776909327
1.3095957250618755   0.07370642405113303   0.025013967980478974
1.3095957250618755   0.07370642405113303   0.025013967980478974
1.3095957250618755   0.07370642405113303   0.025013967980478974
1.3095957250618755   0.07370642405113303   0.025013967980478974
0.9242646829806167   -0.018793390044868102   -0.05541487973357325
0.9242646829806167   -0.018793390044868102   -0.05541487973357325
0.9242646829806167   -0.018793390044868102   -0.05541487973357325
0.9242646829806167   -0.018793390044868102   -0.05541487973357325
0.6875600359159948   -0.08603801160203245   0.033986351521388194
0.6875600359159948   -0.08603801160203245   0.033986351521388194
0.6875600359159948   -0.08603801160203245   0.033986351521388194
0.6875600359159948   -0.08603801160203245   0.033986351521388194
0.13199746416858474   -0.08184749595387378   0.007087076238703992
0.13199746416858474   -0.08184749595387378   0.007087076238703992
0.13199746416858474   -0.08184749595387378   0.007087076238703992
0.13199746416858474   -0.08184749595387378   0.007087076238703992
0.0856107499914332   -0.20477544211596643   0.036035292435962846
0.0856107499914332   -0.20477544211596643   0.036035292435962846
0.0856107499914332   -0.20477544211596643   0.036035292435962846
0.0856107499914332   -0.20477544211596643   0.036035292435962846
0.6912168210526846   0.027206818770455776   0.026201319238274158
0.6912168210526846   0.027206818770455776   0.026201319238274158
0.6912168210526846   0.027206818770455776   0.026201319238274158
0.6912168210526846   0.027206818770455776   0.026201319238274158
0.3929548538906212   -0.08671313560013988   -0.0015404693662013705
0.3929548538906212   -0.08671313560013988   -0.0015404693662013705
0.3929548538906212   -0.08671313560013988   -0.0015404693662013705
0.3929548538906212   -0.08671313560013988   -0.0015404693662013705
0.6682870295215363   -0.08974617385545083   0.028505354208437625
0.6682870295215363   -0.08974617385545083   0.028505354208437625
0.6682870295215363   -0.08974617385545083   0.028505354208437625
0.6682870295215363   -0.08974617385545083   0.028505354208437625
0.10274578467003692   -0.09361720634260462   0.010552230055619727
0.10274578467003692   -0.09361720634260462   0.010552230055619727
0.10274578467003692   -0.09361720634260462   0.010552230055619727
0.10274578467003692   -0.09361720634260462   0.010552230055619727
0.06480796743347911   -0.20653514011521523   0.03225248944021633
0.06480796743347911   -0.20653514011521523   0.03225248944021633
0.06480796743347911   -0.20653514011521523   0.03225248944021633
0.06480796743347911   -0.20653514011521523   0.03225248944021633
0.6753762812619682   0.022109545217585014   0.031015593498429292
0.6753762812619682   0.022109545217585014   0.031015593498429292
0.6753762812619682   0.022109545217585014   0.031015593498429292
0.6753762812619682   0.022109545217585014   0.031015593498429292
0.36467743566097205   -0.09239582987825395   -0.018763054202334706
0.36467743566097205   -0.09239582987825395   -0.018763054202334706
0.36467743566097205   -0.09239582987825395   -0.018763054202334706
0.36467743566097205   -0.09239582987825395   -0.018763054202334706
0.6512795647557191   -0.09096917275154823   0.02361072893631129
0.6512795647557191   -0.09096917275154823   0.02361072893631129
0.6512795647557191   -0.09096917275154823   0.02361072893631129
0.6512795647557191   -0.09096917275154823   0.02361072893631129
0.08260408795158584   -0.0997570181342253   0.014454970049760096
0.08260408795158584   -0.0997570181342253   0.014454970049760096
0.08260408795158584   -0.0997570181342253   0.014454970049760096
0.08260408795158584   -0.0997570181342253   0.014454970049760096
0.04153706449565404   -0.2063435779036991   0.025207219766484858
0.04153706449565404   -0.2063435779036991   0.025207219766484858
0.04153706449565404   -0.2063435779036991   0.025207219766484858
0.04153706449565404   -0.2063435779036991   0.025207219766484858
0.657398564119825   0.02249533346544738   0.037056870127597036
0.657398564119825   0.02249533346544738   0.037056870127597036
0.657398564119825   0.02249533346544738   0.037056870127597036
0.657398564119825   0.02249533346544738   0.037056870127597036
0.347454702138436   -0.09161049502050213   -0.03339160671395067
0.347454702138436   -0.09161049502050213   -0.03339160671395067
0.347454702138436   -0.09161049502050213   -0.03339160671395067
0.347454702138436   -0.09161049502050213   -0.03339160671395067
0.1030362699680726   -0.25003489631018033   0.030468505592447945
0.1030362699680726   -0.25003489631018033   0.030468505592447945
0.1030362699680726   -0.25003489631018033   0.030468505592447945
0.1030362699680726   -0.25003489631018033   0.030468505592447945
-0.40779650761873404   -0.12678112819312487   0.000292405977699391
-0.40779650761873404   -0.12678112819312487   0.000292405977699391
-0.40779650761873404   -0.12678112819312487   0.000292405977699391
-0.40779650761873404   -0.12678112819312487   0.000292405977699391
-0.49171524237275516   -0.3728474285071942   0.04129695048496862
-0.49171524237275516   -0.3728474285071942   0.04129695048496862
-0.49171524237275516   -0.3728474285071942   0.04129695048496862
-0.49171524237275516   -0.3728474285071942   0.04129695048496862
0.11852921088462988   -0.020758974988924504   0.01661112977490249
0.11852921088462988   -0.020758974988924504   0.01661112977490249
0.11852921088462988   -0.020758974988924504   0.01661112977490249
0.11852921088462988   -0.020758974988924504   0.01661112977490249
-0.16724924477838557   -0.18988773731390654   0.007175220499771713
-0.16724924477838557   -0.18988773731390654   0.007175220499771713
-0.16724924477838557   -0.18988773731390654   0.007175220499771713
-0.16724924477838557   -0.18988773731390654   0.007175220499771713
0.07090813154351729   -0.2641939935040417   0.02194075158445867
0.07090813154351729   -0.2641939935040417   0.02194075158445867
0.07090813154351729   -0.2641939935040417   0.02194075158445867
0.07090813154351729   -0.2641939935040417   0.02194075158445867
-0.45221780024711367   -0.13753604720754334   0.003472779813521171
-0.45221780024711367   -0.13753604720754334   0.003472779813521171
-0.45221780024711367   -0.13753604720754334   0.003472779813521171
-0.45221780024711367   -0.13753604720754334   0.003472779813521171
-0.5206664429131835   -0.3787233901662471   0.03369821018778918
-0.5206664429131835   -0.3787233901662471   0.03369821018778918
-0.5206664429131835   -0.3787233901662471   0.03369821018778918
-0.5206664429131835   -0.3787233901662471   0.03369821018778918
0.09903170516351062   -0.026414014539730562   0.023250052514889284
0.09903170516351062   -0.026414014539730562   0.023250052514889284
0.09903170516351062   -0.026414014539730562   0.023250052514889284
0.09903170516351062   -0.026414014539730562   0.023250052514889284
-0.20343954720002932   -0.20136794919333392   -0.01698142934829419
-0.20343954720002932   -0.20136794919333392   -0.01698142934829419
-0.20343954720002932   -0.20136794919333392   -0.01698142934829419
-0.20343954720002932   -0.20136794919333392   -0.01698142934829419
0.04874910252801057   -0.2687460984633614   0.014169123261023694
0.04874910252801057   -0.2687460984633614   0.014169123261023694
0.04874910252801057   -0.2687460984633614   0.014169123261023694
0.04874910252801057   -0.2687460984633614   0.014169123261023694
-0.4800680825276257   -0.14607554849255844   0.004042170441886114
-0.4800680825276257   -0.14607554849255844   0.004042170441886114
-0.4800680825276257   -0.14607554849255844   0.004042170441886114
-0.4800680825276257   -0.14607554849255844   0.004042170441886114
-0.5520710511946987   -0.37609580378286   0.02826492294240128
-0.5520710511946987   -0.37609580378286   0.02826492294240128
-0.5520710511946987   -0.37609580378286   0.02826492294240128
-0.5520710511946987   -0.37609580378286   0.02826492294240128
0.07734492682797664   -0.02954298993957046   0.02744594346396922
0.07734492682797664   -0.02954298993957046   0.02744594346396922
0.07734492682797664   -0.02954298993957046   0.02744594346396922
0.07734492682797664   -0.02954298993957046   0.02744594346396922
-0.23282426017765956   -0.20570424097519915   -0.04115726635008919
-0.23282426017765956   -0.20570424097519915   -0.04115726635008919
-0.23282426017765956   -0.20570424097519915   -0.04115726635008919
-0.23282426017765956   -0.20570424097519915   -0.04115726635008919
-0.4610323759029404   -0.42889256093068645   0.03622449729423313
-0.4610323759029404   -0.42889256093068645   0.03622449729423313
-0.4610323759029404   -0.42889256093068645   0.03622449729423313
-0.4610323759029404   -0.42889256093068645   0.03622449729423313
-1.0207216333301938   -0.15777392909098065   -0.023527276484936945
-1.0207216333301938   -0.15777392909098065   -0.023527276484936945
-1.0207216333301938   -0.15777392909098065   -0.023527276484936945
-1.0207216333301938   -0.15777392909098065   -0.023527276484936945
-1.1674384789059902   -0.624396887735875   -0.03209935217297111
-1.1674384789059902   -0.624396887735875   -0.03209935217297111
-1.1674384789059902   -0.624396887735875   -0.03209935217297111
-1.1674384789059902   -0.624396887735875   -0.03209935217297111
-0.42949161889894966   -0.034784975011235966   0.014352614358034053
-0.42949161889894966   -0.034784975011235966   0.014352614358034053
-0.42949161889894966   -0.034784975011235966   0.014352614358034053
-0.42949161889894966   -0.034784975011235966   0.014352614358034053
-0.7622576286042252   -0.29923735862064293   -0.025454298914432745
-0.7622576286042252   -0.29923735862064293   -0.025454298914432745
-0.7622576286042252   -0.29923735862064293   -0.025454298914432745
-0.7622576286042252   -0.29923735862064293   -0.025454298914432745
-0.5201482588304577   -0.4860517377902682   0.012336177479529767
-0.5201482588304577   -0.4860517377902682   0.012336177479529767
-0.5201482588304577   -0.4860517377902682   0.012336177479529767
-0.5201482588304577   -0.4860517377902682   0.012336177479529767
-1.0745210410050186   -0.17086932698737325   -0.021039723416614094
-1.0745210410050186   -0.17086932698737325   -0.021039723416614094
-1.0745210410050186   -0.17086932698737325   -0.021039723416614094
-1.0745210410050186   -0.17086932698737325   -0.021039723416614094
-1.2019028055191714   -0.6343261950551172   -0.03711793689409315
-1.2019028055191714   -0.6343261950551172   -0.03711793689409315
-1.2019028055191714   -0.6343261950551172   -0.03711793689409315
-1.2019028055191714   -0.6343261950551172   -0.03711793689409315
-0.45620880652259466   -0.044098988354542575   0.021361990329025124
-0.45620880652259466   -0.044098988354542575   0.021361990329025124
-0.45620880652259466   -0.044098988354542575   0.021361990329025124
-0.45620880652259466   -0.044098988354542575   0.021361990329025124
-0.8044067887055493   -0.3316767043175473   -0.036302563729045764
-0.8044067887055493   -0.3316767043175473   -0.036302563729045764
-0.8044067887055493   -0.3316767043175473   -0.036302563729045764
-0.8044067887055493   -0.3316767043175473   -0.036302563729045764
-0.5497970500845892   -0.49551424979707226   0.004836033961579972
-0.5497970500845892   -0.49551424979707226   0.004836033961579972
-0.5497970500845892   -0.49551424979707226   0.004836033961579972
-0.5497970500845892   -0.49551424979707226   0.004836033961579972
-1.1085620742565214   -0.18315844591193906   -0.02158202972403063
-1.1085620742565214   -0.18315844591193906   -0.02158202972403063
-1.1085620742565214   -0.18315844591193906   -0.02158202972403063
-1.1085620742565214   -0.18315844591193906   -0.02158202972403063
-1.2312633280965932   -0.6066966082797549   -0.04185165465635461
-1.2312633280965932   -0.6066966082797549   -0.04185165465635461
-1.2312633280965932   -0.6066966082797549   -0.04185165465635461
-1.2312633280965932   -0.6066966082797549   -0.04185165465635461
-0.4899945943744004   -0.05726714542501443   0.019818548686039557
-0.4899945943744004   -0.05726714542501443   0.019818548686039557
-0.4899945943744004   -0.05726714542501443   0.019818548686039557
-0.4899945943744004   -0.05726714542501443   0.019818548686039557
-0.8432970043614885   -0.3426875140573607   -0.04672829094701782
-0.8432970043614885   -0.3426875140573607   -0.04672829094701782
-0.8432970043614885   -0.3426875140573607   -0.04672829094701782
-0.8432970043614885   -0.3426875140573607   -0.04672829094701782
-1.003216068806841   -0.18283157529433502   0.08905819233516599
-1.003216068806841   -0.18283157529433502   0.08905819233516599
-1.003216068806841   -0.18283157529433502   0.08905819233516599
-1.003216068806841   -0.18283157529433502   0.08905819233516599
-1.7635866432489202   -0.1316190448250661   -0.03099646116267238
-1.7635866432489202   -0.1316190448250661   -0.03099646116267238
-1.7635866432489202   -0.1316190448250661   -0.03099646116267238
-1.7635866432489202   -0.1316190448250661   -0.03099646116267238
-1.8710963374543235   -0.36933766934181594   0.0244079907452438
-1.8710963374543235   -0.36933766934181594   0.0244079907452438
-1.8710963374543235   -0.36933766934181594   0.0244079907452438
-1.8710963374543235   -0.36933766934181594   0.0244079907452438
-1.0313167153069736   0.015170070956937953   0.008942507129290504
-1.0313167153069736   0.015170070956937953   0.008942507129290504
-1.0313167153069736   0.015170070956937953   0.008942507129290504
-1.0313167153069736   0.015170070956937953   0.008942507129290504
-1.3498140202350744   -0.12971693721694721   0.02705824663358547
-1.3498140202350744   -0.12971693721694721   0.02705824663358547
-1.3498140202350744   -0.12971693721694721   0.02705824663358547
-1.3498140202350744   -0.12971693721694721   0.02705824663358547
-1.0595636279100304   -0.19611426880651517   0.07899228387745466
-1.0595636279100304   -0.19611426880651517   0.07899228387745466
-1.0595636279100304   -0.19611426880651517   0.07899228387745466
-1.0595636279100304   -0.19611426880651517   0.07899228387745466
-1.8382027777132517   -0.15340668244034608   -0.027055197450851255
-1.8382027777132517   -0.15340668244034608   -0.027055197450851255
-1.8382027777132517   -0.15340668244034608   -0.027055197450851255
-1.8382027777132517   -0.15340668244034608   -0.027055197450851255
-1.9165236786664057   -0.3849698877549731   -0.008325760108459757
-1.9165236786664057   -0.3849698877549731   -0.008325760108459757
-1.9165236786664057   -0.3849698877549731   -0.008325760108459757
-1.9165236786664057   -0.3849698877549731   -0.008325760108459757
-1.0634184746008293   0.00468572281732621   0.016291799825163274
-1.0634184746008293   0.00468572281732621   0.016291799825163274
-1.0634184746008293   0.00468572281732621   0.016291799825163274
-1.0634184746008293   0.00468572281732621   0.016291799825163274
-1.430115315459118   -0.17114759346077196   0.011075821188442803
-1.430115315459118   -0.17114759346077196   0.011075821188442803
-1.430115315459118   -0.17114759346077196   0.011075821188442803
-1.430115315459118   -0.17114759346077196   0.011075821188442803
-1.095754328860665   -0.206076012919559   0.06537426426287019
-1.095754328860665   -0.206076012919559   0.06537426426287019
-1.095754328860665   -0.206076012919559   0.06537426426287019
-1.095754328860665   -0.206076012919559   0.06537426426287019
-1.8747937895616897   -0.16481411717320246   -0.019832085166619544
-1.8747937895616897   -0.16481411717320246   -0.019832085166619544
-1.8747937895616897   -0.16481411717320246   -0.019832085166619544
-1.8747937895616897   -0.16481411717320246   -0.019832085166619544
-1.9558541998490853   -0.391208888430138   -0.00019024230160502587
-1.9558541998490853   -0.391208888430138   -0.00019024230160502587
-1.9558541998490853   -0.391208888430138   -0.00019024230160502587
-1.9558541998490853   -0.391208888430138   -0.00019024230160502587
-1.1085362779836332   -0.04163985923687041   0.006726846865561492
-1.1085362779836332   -0.04163985923687041   0.006726846865561492
-1.1085362779836332   -0.04163985923687041   0.006726846865561492
-1.1085362779836332   -0.04163985923687041   0.006726846865561492
-1.4472177597857854   -0.20667140863514435   0.017459832009031277
-1.4472177597857854   -0.20667140863514435   0.017459832009031277
-1.4472177597857854   -0.20667140863514435   0.017459832009031277
-1.4472177597857854   -0.20667140863514435   0.017459832009031277
1.1921965891888002   0.0550724234995206   -0.02567704237426998
1.1921965891888002   0.0550724234995206   -0.02567704237426998
1.1921965891888002   0.0550724234995206   -0.02567704237426998
1.1921965891888002   0.0550724234995206   -0.02567704237426998
0.5995954980931518   -0.012381060155624263   0.012545331043696623
0.5995954980931518   -0.012381060155624263   0.012545331043696623
0.5995954980931518   -0.012381060155624263   0.012545331043696623
0.5995954980931518   -0.012381060155624263   0.012545331043696623
0.5616905624098043   -0.08808529479741528   -0.02276235520387611
0.5616905624098043   -0.08808529479741528   -0.02276235520387611
0.5616905624098043   -0.08808529479741528   -0.02276235520387611
0.5616905624098043   -0.08808529479741528   -0.02276235520387611
1.1784588308294903   0.08594012875386717   0.014677838579018075
1.1784588308294903   0.08594012875386717   0.014677838579018075
1.1784588308294903   0.08594012875386717   0.014677838579018075
1.1784588308294903   0.08594012875386717   0.014677838579018075
0.8367022294041003   0.0020585312103774955   -0.0323124752530179
0.8367022294041003   0.0020585312103774955   -0.0323124752530179
0.8367022294041003   0.0020585312103774955   -0.0323124752530179
0.8367022294041003   0.0020585312103774955   -0.0323124752530179
1.1593068791762755   0.030801734508348527   -0.025943525441528517
1.1593068791762755   0.030801734508348527   -0.025943525441528517
1.1593068791762755   0.030801734508348527   -0.025943525441528517
1.1593068791762755   0.030801734508348527   -0.025943525441528517
0.5797858945010231   -0.03400352011389193   0.013632530568689884
0.5797858945010231   -0.03400352011389193   0.013632530568689884
0.5797858945010231   -0.03400352011389193   0.013632530568689884
0.5797858945010231   -0.03400352011389193   0.013632530568689884
0.5412709235127597   -0.09296808041017968   -0.018821003176965348
0.5412709235127597   -0.09296808041017968   -0.018821003176965348
0.5412709235127597   -0.09296808041017968   -0.018821003176965348
0.5412709235127597   -0.09296808041017968   -0.018821003176965348
1.1501135784344916   0.07900508875790421   0.02151095512384201
1.1501135784344916   0.07900508875790421   0.02151095512384201
1.1501135784344916   0.07900508875790421   0.02151095512384201
1.1501135784344916   0.07900508875790421   0.02151095512384201
0.8256642089817787   -0.008295920795361483   -0.03849288495022118
0.8256642089817787   -0.008295920795361483   -0.03849288495022118
0.8256642089817787   -0.008295920795361483   -0.03849288495022118
0.8256642089817787   -0.008295920795361483   -0.03849288495022118
1.1308158200869745   0.02459212497407376   -0.020564872829913053
1.1308158200869745   0.02459212497407376   -0.020564872829913053
1.1308158200869745   0.02459212497407376   -0.020564872829913053
1.1308158200869745   0.02459212497407376   -0.020564872829913053
0.5590944754232327   -0.04002932306339335   0.01735799902861302
0.5590944754232327   -0.04002932306339335   0.01735799902861302
0.5590944754232327   -0.04002932306339335   0.01735799902861302
0.5590944754232327   -0.04002932306339335   0.01735799902861302
0.5215100314271537   -0.09149738426324842   -0.012919379956676004
0.5215100314271537   -0.09149738426324842   -0.012919379956676004
0.5215100314271537   -0.09149738426324842   -0.012919379956676004
0.5215100314271537   -0.09149738426324842   -0.012919379956676004
1.1150317200991047   0.07438716151078667   0.028040664634305518
1.1150317200991047   0.07438716151078667   0.028040664634305518
1.1150317200991047   0.07438716151078667   0.028040664634305518
1.1150317200991047   0.07438716151078667   0.028040664634305518
0.7850144310286878   -0.01445369663087781   -0.05050796729462235
0.7850144310286878   -0.01445369663087781   -0.05050796729462235
0.7850144310286878   -0.01445369663087781   -0.05050796729462235
0.7850144310286878   -0.01445369663087781   -0.05050796729462235
0.6030841008056852   0.012061560846627128   0.005545723604108148
0.6030841008056852   0.012061560846627128   0.005545723604108148
0.6030841008056852   0.012061560846627128   0.005545723604108148
0.6030841008056852   0.012061560846627128   0.005545723604108148
0.057144584851415735   -0.03629612588372158   -0.0014674259913499289
0.057144584851415735   -0.03629612588372158   -0.0014674259913499289
0.057144584851415735   -0.03629612588372158   -0.0014674259913499289
0.057144584851415735   -0.03629612588372158   -0.0014674259913499289
0.021423903775750174   -0.11637880818999741   -0.021933898287088027
0.021423903775750174   -0.11637880818999741   -0.021933898287088027
0.021423903775750174   -0.11637880818999741   -0.021933898287088027
0.021423903775750174   -0.11637880818999741   -0.021933898287088027
0.6037579041671844   0.06969586207998034   0.029793196705624077
0.6037579041671844   0.06969586207998034   0.029793196705624077
0.6037579041671844   0.06969586207998034   0.029793196705624077
0.6037579041671844   0.06969586207998034   0.029793196705624077
0.31545709263143695   -0.016214964176868546   -0.012438315645758941
0.31545709263143695   -0.016214964176868546   -0.012438315645758941
0.31545709263143695   -0.016214964176868546   -0.012438315645758941
0.31545709263143695   -0.016214964176868546   -0.012438315645758941
0.5863005523764003   0.0028531342949062455   0.00934916553677996
0.5863005523764003   0.0028531342949062455   0.00934916553677996
0.5863005523764003   0.0028531342949062455   0.00934916553677996
0.5863005523764003   0.0028531342949062455   0.00934916553677996
0.03954933943324035   -0.048867996538216836   0.0011824683485822558
0.03954933943324035   -0.048867996538216836   0.0011824683485822558
0.03954933943324035   -0.048867996538216836   0.0011824683485822558
0.03954933943324035   -0.048867996538216836   0.0011824683485822558
0.0017346814354640971   -0.12188250344995463   -0.01530305001276484
0.0017346814354640971   -0.12188250344995463   -0.01530305001276484
0.0017346814354640971   -0.12188250344995463   -0.01530305001276484
0.0017346814354640971   -0.12188250344995463   -0.01530305001276484
0.5821462109086598   0.05973504626613299   0.0328523071262222
0.5821462109086598   0.05973504626613299   0.0328523071262222
0.5821462109086598   0.05973504626613299   0.0328523071262222
0.5821462109086598   0.05973504626613299   0.0328523071262222
0.2927689104450345   -0.025396441335303332   -0.01760969655465495
0.2927689104450345   -0.025396441335303332   -0.01760969655465495
0.2927689104450345   -0.025396441335303332   -0.01760969655465495
0.2927689104450345   -0.025396441335303332   -0.01760969655465495
0.5656733949435557   -0.0033245800270130244   0.01354785359385148
0.5656733949435557   -0.0033245800270130244   0.01354785359385148
0.5656733949435557   -0.0033245800270130244   0.01354785359385148
0.5656733949435557   -0.0033245800270130244   0.01354785359385148
0.018117525954355555   -0.058912848603020596   0.003641517734758442
0.018117525954355555   -0.058912848603020596   0.003641517734758442
0.018117525954355555   -0.058912848603020596   0.003641517734758442
0.018117525954355555   -0.058912848603020596   0.003641517734758442
-0.01939302962309866   -0.12236767632950325   -0.010466585104232394
-0.01939302962309866   -0.12236767632950325   -0.010466585104232394
-0.01939302962309866   -0.12236767632950325   -0.010466585104232394
-0.01939302962309866   -0.12236767632950325   -0.010466585104232394
0.560340277991167   0.053434537037721774   0.036299931562423296
0.560340277991167   0.053434537037721774   0.036299931562423296
0.560340277991167   0.053434537037721774   0.036299931562423296
0.560340277991167   0.053434537037721774   0.036299931562423296
0.27507104010664407   -0.029011113121094938   -0.022034153582672807
0.27507104010664407   -0.029011113121094938   -0.022034153582672807
0.27507104010664407   -0.029011113121094938   -0.022034153582672807
0.27507104010664407   -0.029011113121094938   -0.022034153582672807
0.05849054323237879   -0.03315745934374452   0.0021236993734882713
0.05849054323237879   -0.03315745934374452   0.0021236993734882713
0.05849054323237879   -0.03315745934374452   0.0021236993734882713
0.05849054323237879   -0.03315745934374452   0.0021236993734882713
-0.4672972513300024   -0.05394846359735658   -0.014686383886141699
-0.4672972513300024   -0.05394846359735658   -0.014686383886141699
-0.4672972513300024   -0.05394846359735658   -0.014686383886141699
-0.4672972513300024   -0.05394846359735658   -0.014686383886141699
-0.5070100515548208   -0.15419569673538291   -0.025033216517969574
-0.5070100515548208   -0.15419569673538291   -0.025033216517969574
-0.5070100515548208   -0.15419569673538291   -0.025033216517969574
-0.5070100515548208   -0.15419569673538291   -0.025033216517969574
0.06274097315563615   0.05113463631342161   0.017138004108922793
0.06274097315563615   0.05113463631342161   0.017138004108922793
0.06274097315563615   0.05113463631342161   0.017138004108922793
0.06274097315563615   0.05113463631342161   0.017138004108922793
-0.2138889167657972   -0.045268110910932184   -0.012325289766499515
-0.2138889167657972   -0.045268110910932184   -0.012325289766499515
-0.2138889167657972   -0.045268110910932184   -0.012325289766499515
-0.2138889167657972   -0.045268110910932184   -0.012325289766499515
0.04369034765388263   -0.03703755917277746   0.0100570720863543
0.04369034765388263   -0.03703755917277746   0.0100570720863543
0.04369034765388263   -0.03703755917277746   0.0100570720863543
0.04369034765388263   -0.03703755917277746   0.0100570720863543
-0.48649595279635705   -0.0645600279924736   -0.012098391468560081
-0.48649595279635705   -0.0645600279924736   -0.012098391468560081
-0.48649595279635705   -0.0645600279924736   -0.012098391468560081
-0.48649595279635705   -0.0645600279924736   -0.012098391468560081
-0.530092831849275   -0.16021659985244377   -0.01663833703589116
-0.530092831849275   -0.16021659985244377   -0.01663833703589116
-0.530092831849275   -0.16021659985244377   -0.01663833703589116
-0.530092831849275   -0.16021659985244377   -0.01663833703589116
0.04114082181389856   0.040475653580913006   0.01936949484853987
0.04114082181389856   0.040475653580913006   0.01936949484853987
0.04114082181389856   0.040475653580913006   0.01936949484853987
0.04114082181389856   0.040475653580913006   0.01936949484853987
-0.2329920098255955   -0.05159731819478424   -0.014777497973150944
-0.2329920098255955   -0.05159731819478424   -0.014777497973150944
-0.2329920098255955   -0.05159731819478424   -0.014777497973150944
-0.2329920098255955   -0.05159731819478424   -0.014777497973150944
0.02325065514525261   -0.043451143357596166   0.013845458443819276
0.02325065514525261   -0.043451143357596166   0.013845458443819276
0.02325065514525261   -0.043451143357596166   0.013845458443819276
0.02325065514525261   -0.043451143357596166   0.013845458443819276
-0.511891691636814   -0.07597882937012027   -0.009870406455913942
-0.511891691636814   -0.07597882937012027   -0.009870406455913942
-0.511891691636814   -0.07597882937012027   -0.009870406455913942
-0.511891691636814   -0.07597882937012027   -0.009870406455913942
-0.5556972807041963   -0.16459826253935003   -0.014788212002786343
-0.5556972807041963   -0.16459826253935003   -0.014788212002786343
-0.5556972807041963   -0.16459826253935003   -0.014788212002786343
-0.5556972807041963   -0.16459826253935003   -0.014788212002786343
0.01777591298046116   0.03137890560289822   0.021631545981163326
0.01777591298046116   0.03137890560289822   0.021631545981163326
0.01777591298046116   0.03137890560289822   0.021631545981163326
0.01777591298046116   0.03137890560289822   0.021631545981163326
-0.2578013116064463   -0.05917401247859107   -0.02069494480721709
-0.2578013116064463   -0.05917401247859107   -0.02069494480721709
-0.2578013116064463   -0.05917401247859107   -0.02069494480721709
-0.2578013116064463   -0.05917401247859107   -0.02069494480721709
-0.45999926147808007   -0.039460815890291094   0.007315917666396948
-0.45999926147808007   -0.039460815890291094   0.007315917666396948
-0.45999926147808007   -0.039460815890291094   0.007315917666396948
-0.45999926147808007   -0.039460815890291094   0.007315917666396948
-0.9794419607671045   -0.06315359582690863   -0.025822938166443904
-0.9794419607671045   -0.06315359582690863   -0.025822938166443904
-0.9794419607671045   -0.06315359582690863   -0.025822938166443904
-0.9794419607671045   -0.06315359582690863   -0.025822938166443904
-1.0245598170047079   -0.1616845447753366   -0.02507703635671093
-1.0245598170047079   -0.1616845447753366   -0.02507703635671093
-1.0245598170047079   -0.1616845447753366   -0.02507703635671093
-1.0245598170047079   -0.1616845447753366   -0.02507703635671093
-0.46235489236170507   0.039129251737691495   0.004917630974526979
-0.46235489236170507   0.039129251737691495   0.004917630974526979
-0.46235489236170507   0.039129251737691495   0.004917630974526979
-0.46235489236170507   0.039129251737691495   0.004917630974526979
-0.7255751364779404   -0.053687371821319385   -0.010313716011636186
-0.7255751364779404   -0.053687371821319385   -0.010313716011636186
-0.7255751364779404   -0.053687371821319385   -0.010313716011636186
-0.7255751364779404   -0.053687371821319385   -0.010313716011636186
-0.4763863056708868   -0.04354706000330107   0.017436876169615
-0.4763863056708868   -0.04354706000330107   0.017436876169615
-0.4763863056708868   -0.04354706000330107   0.017436876169615
-0.4763863056708868   -0.04354706000330107   0.017436876169615
-1.0076691307299444   -0.0761489600687526   -0.02615918968948508
-1.0076691307299444   -0.0761489600687526   -0.02615918968948508
-1.0076691307299444   -0.0761489600687526   -0.02615918968948508
-1.0076691307299444   -0.0761489600687526   -0.02615918968948508
-1.0564745509258493   -0.17195400760589546   -0.017647361524484664
-1.0564745509258493   -0.17195400760589546   -0.017647361524484664
-1.0564745509258493   -0.17195400760589546   -0.017647361524484664
-1.0564745509258493   -0.17195400760589546   -0.017647361524484664
-0.48803229941507276   0.027451150397067053   0.005996574885604906
-0.48803229941507276   0.027451150397067053   0.005996574885604906
-0.48803229941507276   0.027451150397067053   0.005996574885604906
-0.48803229941507276   0.027451150397067053   0.005996574885604906
-0.7457031036529773   -0.05934244052821672   -0.010323631849983424
-0.7457031036529773   -0.05934244052821672   -0.010323631849983424
-0.7457031036529773   -0.05934244052821672   -0.010323631849983424
-0.7457031036529773   -0.05934244052821672   -0.010323631849983424
-0.5018739184323143   -0.05388040230249957   0.018120032498959757
-0.5018739184323143   -0.05388040230249957   0.018120032498959757
-0.5018739184323143   -0.05388040230249957   0.018120032498959757
-0.5018739184323143   -0.05388040230249957   0.018120032498959757
-1.040714684367279   -0.08870420736500079   -0.022097828972528107
-1.040714684367279   -0.08870420736500079   -0.022097828972528107
-1.040714684367279   -0.08870420736500079   -0.022097828972528107
-1.040714684367279   -0.08870420736500079   -0.022097828972528107
-1.0925718792073764   -0.185517471286646   -0.01885579578914228
-1.0925718792073764   -0.185517471286646   -0.01885579578914228
-1.0925718792073764   -0.185517471286646   -0.01885579578914228
-1.0925718792073764   -0.185517471286646   -0.01885579578914228
-0.5157860042483041   0.013019509034584112   0.007150398702729301
-0.5157860042483041   0.013019509034584112   0.007150398702729301
-0.5157860042483041   0.013019509034584112   0.007150398702729301
-0.5157860042483041   0.013019509034584112   0.007150398702729301
-0.7815888763624321   -0.07328764335627069   -0.016836981383095154
-0.7815888763624321   -0.07328764335627069   -0.016836981383095154
-0.7815888763624321   -0.07328764335627069   -0.016836981383095154
-0.7815888763624321   -0.07328764335627069   -0.016836981383095154
-0.9464214455047741   0.044365412849964786   0.031760629468335744
-0.9464214455047741   0.044365412849964786   0.031760629468335744
-0.9464214455047741   0.044365412849964786   0.031760629468335744
-0.9464214455047741   0.044365412849964786   0.031760629468335744
-1.4671852702748227   -0.07307551660713887   -0.019543207235731476
-1.4671852702748227   -0.07307551660713887   -0.019543207235731476
-1.4671852702748227   -0.07307551660713887   -0.019543207235731476
-1.4671852702748227   -0.07307551660713887   -0.019543207235731476
-1.5029559137978046   -0.07443288690476416   0.03256691631161115
-1.5029559137978046   -0.07443288690476416   0.03256691631161115
-1.5029559137978046   -0.07443288690476416   0.03256691631161115
-1.5029559137978046   -0.07443288690476416   0.03256691631161115
-0.9826236248907098   0.030623276053098225   -0.007703896615163172
-0.9826236248907098   0.030623276053098225   -0.007703896615163172
-0.9826236248907098   0.030623276053098225   -0.007703896615163172
-0.9826236248907098   0.030623276053098225   -0.007703896615163172
-1.1676984369273868   0.0008082750796091775   0.02967745255551052
-1.1676984369273868   0.0008082750796091775   0.02967745255551052
-1.1676984369273868   0.0008082750796091775   0.02967745255551052
-1.1676984369273868   0.0008082750796091775   0.02967745255551052
-0.9725407612052348   0.033169583270407255   0.0401641145948984
-0.9725407612052348   0.033169583270407255   0.0401641145948984
-0.9725407612052348   0.033169583270407255   0.0401641145948984
-0.9725407612052348   0.033169583270407255   0.0401641145948984
-1.5123659728090264   -0.0763063894478157   -0.012609876201446824
-1.5123659728090264   -0.0763063894478157   -0.012609876201446824
-1.5123659728090264   -0.0763063894478157   -0.012609876201446824
-1.5123659728090264   -0.0763063894478157   -0.012609876201446824
-1.5480758999584054   -0.08663939510581695   0.04432363556702341
-1.5480758999584054   -0.08663939510581695   0.04432363556702341
-1.5480758999584054   -0.08663939510581695   0.04432363556702341
-1.5480758999584054   -0.08663939510581695   0.04432363556702341
-1.0157036775930681   0.022324420484898022   -0.008071422951379303
-1.0157036775930681   0.022324420484898022   -0.008071422951379303
-1.0157036775930681   0.022324420484898022   -0.008071422951379303
-1.0157036775930681   0.022324420484898022   -0.008071422951379303
-1.22606875080368   -0.013460051884672641   0.016360772801045864
-1.22606875080368   -0.013460051884672641   0.016360772801045864
-1.22606875080368   -0.013460051884672641   0.016360772801045864
-1.22606875080368   -0.013460051884672641   0.016360772801045864
-1.0064844378658238   0.02073667452770217   0.0396125216420375
-1.0064844378658238   0.02073667452770217   0.0396125216420375
-1.0064844378658238   0.02073667452770217   0.0396125216420375
-1.0064844378658238   0.02073667452770217   0.0396125216420375
-1.5590317073804731   -0.08678821684344956   -0.010306579805681546
-1.5590317073804731   -0.08678821684344956   -0.010306579805681546
-1.5590317073804731   -0.08678821684344956   -0.010306579805681546
-1.5590317073804731   -0.08678821684344956   -0.010306579805681546
-1.6122619115144443   -0.13604472139651808   0.03842816959816496
-1.6122619115144443   -0.13604472139651808   0.03842816959816496
-1.6122619115144443   -0.13604472139651808   0.03842816959816496
-1.6122619115144443   -0.13604472139651808   0.03842816959816496
-1.0538457171136388   -0.003132718798600026   -0.007609737808520672
-1.0538457171136388   -0.003132718798600026   -0.007609737808520672
-1.0538457171136388   -0.003132718798600026   -0.007609737808520672
-1.0538457171136388   -0.003132718798600026   -0.007609737808520672
-1.250664252775819   -0.03147105698376229   0.004713649536120856
-1.250664252775819   -0.03147105698376229   0.004713649536120856
-1.250664252775819   -0.03147105698376229   0.004713649536120856
-1.250664252775819   -0.03147105698376229   0.004713649536120856
0.9679250180952973   0.05192957051286112   -0.03423103561602196
0.9679250180952973   0.05192957051286112   -0.03423103561602196
0.9679250180952973   0.05192957051286112   -0.03423103561602196
0.9679250180952973   0.05192957051286112   -0.03423103561602196
0.47942049336605985   -0.0007879532616408141   0.012325716253286597
0.47942049336605985   -0.0007879532616408141   0.012325716253286597
0.47942049336605985   -0.0007879532616408141   0.012325716253286597
0.47942049336605985   -0.0007879532616408141   0.012325716253286597
0.43846914885327076   -0.07128554240814308   -0.031460835254782965
0.43846914885327076   -0.07128554240814308   -0.031460835254782965
0.43846914885327076   -0.07128554240814308   -0.031460835254782965
0.43846914885327076   -0.07128554240814308   -0.031460835254782965
0.9498432846024654   0.0781280935657106   0.015468001418569244
0.9498432846024654   0.0781280935657106   0.015468001418569244
0.9498432846024654   0.0781280935657106   0.015468001418569244
0.9498432846024654   0.0781280935657106   0.015468001418569244
0.6722643353008338   0.005924326666546437   -0.022132376783854033
0.6722643353008338   0.005924326666546437   -0.022132376783854033
0.6722643353008338   0.005924326666546437   -0.022132376783854033
0.6722643353008338   0.005924326666546437   -0.022132376783854033
0.929860077494433   0.02668401854989788   -0.03300395910577098
0.929860077494433   0.02668401854989788   -0.03300395910577098
0.929860077494433   0.02668401854989788   -0.03300395910577098
0.929860077494433   0.02668401854989788   -0.03300395910577098
0.45760165250268475   -0.020692170850943478   0.013608311435079415
0.45760165250268475   -0.020692170850943478   0.013608311435079415
0.45760165250268475   -0.020692170850943478   0.013608311435079415
0.45760165250268475   -0.020692170850943478   0.013608311435079415
0.41799000577675155   -0.07719479732196811   -0.027364902617779678
0.41799000577675155   -0.07719479732196811   -0.027364902617779678
0.41799000577675155   -0.07719479732196811   -0.027364902617779678
0.41799000577675155   -0.07719479732196811   -0.027364902617779678
0.9192206902400178   0.06999146796453276   0.021191734172478778
0.9192206902400178   0.06999146796453276   0.021191734172478778
0.9192206902400178   0.06999146796453276   0.021191734172478778
0.9192206902400178   0.06999146796453276   0.021191734172478778
0.6563516227738688   -0.004757965993602453   -0.028982644046792676
0.6563516227738688   -0.004757965993602453   -0.028982644046792676
0.6563516227738688   -0.004757965993602453   -0.028982644046792676
0.6563516227738688   -0.004757965993602453   -0.028982644046792676
0.8996592415580578   0.01940601841940709   -0.026030059692179378
0.8996592415580578   0.01940601841940709   -0.026030059692179378
0.8996592415580578   0.01940601841940709   -0.026030059692179378
0.8996592415580578   0.01940601841940709   -0.026030059692179378
0.43678306181982757   -0.027377740415729435   0.016783320691358038
0.43678306181982757   -0.027377740415729435   0.016783320691358038
0.43678306181982757   -0.027377740415729435   0.016783320691358038
0.43678306181982757   -0.027377740415729435   0.016783320691358038
0.39930441391810634   -0.07883881498356328   -0.02236191165644584
0.39930441391810634   -0.07883881498356328   -0.02236191165644584
0.39930441391810634   -0.07883881498356328   -0.02236191165644584
0.39930441391810634   -0.07883881498356328   -0.02236191165644584
0.8846989683277409   0.06294039687737382   0.02641314435943832
0.8846989683277409   0.06294039687737382   0.02641314435943832
0.8846989683277409   0.06294039687737382   0.02641314435943832
0.8846989683277409   0.06294039687737382   0.02641314435943832
0.6189038342884888   -0.012079347689566589   -0.03931958483304483
0.6189038342884888   -0.012079347689566589   -0.03931958483304483
0.6189038342884888   -0.012079347689566589   -0.03931958483304483
0.6189038342884888   -0.012079347689566589   -0.03931958483304483
0.48781184690871643   0.050691431555828566   0.0028030991491001193
0.48781184690871643   0.050691431555828566   0.0028030991491001193
0.48781184690871643   0.050691431555828566   0.0028030991491001193
0.48781184690871643   0.050691431555828566   0.0028030991491001193
0.016063631060403837   -0.016196655521183476   -0.002069696244247258
0.016063631060403837   -0.016196655521183476   -0.002069696244247258
0.016063631060403837   -0.016196655521183476   -0.002069696244247258
0.016063631060403837   -0.016196655521183476   -0.002069696244247258
-0.014807512349403055   -0.06426623397438519   -0.021451867049646793
-0.014807512349403055   -0.06426623397438519   -0.021451867049646793
-0.014807512349403055   -0.06426623397438519   -0.021451867049646793
-0.014807512349403055   -0.06426623397438519   -0.021451867049646793
0.4784714882536089   0.07080984454636005   0.026455474792396586
0.4784714882536089   0.07080984454636005   0.026455474792396586
0.4784714882536089   0.07080984454636005   0.026455474792396586
0.4784714882536089   0.07080984454636005   0.026455474792396586
0.23811325747112136   0.010090760113831351   -0.0026923682046390944
0.23811325747112136   0.010090760113831351   -0.0026923682046390944
0.23811325747112136   0.010090760113831351   -0.0026923682046390944
0.23811325747112136   0.010090760113831351   -0.0026923682046390944
0.46764872087225307   0.03762140213855428   0.005530080293425107
0.46764872087225307   0.03762140213855428   0.005530080293425107
0.46764872087225307   0.03762140213855428   0.005530080293425107
0.46764872087225307   0.03762140213855428   0.005530080293425107
-0.0037904437377743617   -0.03088349033631135   0.00025073237042284
-0.0037904437377743617   -0.03088349033631135   0.00025073237042284
-0.0037904437377743617   -0.03088349033631135   0.00025073237042284
-0.0037904437377743617   -0.03088349033631135   0.00025073237042284
-0.03420613308612733   -0.07381759304958171   -0.01855854545756425
-0.03420613308612733   -0.07381759304958171   -0.01855854545756425
-0.03420613308612733   -0.07381759304958171   -0.01855854545756425
-0.03420613308612733   -0.07381759304958171   -0.01855854545756425
0.45649459138325454   0.05869824559281789   0.029264982499945642
0.45649459138325454   0.05869824559281789   0.029264982499945642
0.45649459138325454   0.05869824559281789   0.029264982499945642
0.45649459138325454   0.05869824559281789   0.029264982499945642
0.21438972372291232   -0.0018561841562688072   -0.009476721593806138
0.21438972372291232   -0.0018561841562688072   -0.009476721593806138
0.21438972372291232   -0.0018561841562688072   -0.009476721593806138
0.21438972372291232   -0.0018561841562688072   -0.009476721593806138
0.4460800261873924   0.027607856932777106   0.008282545180679442
0.4460800261873924   0.027607856932777106   0.008282545180679442
0.4460800261873924   0.027607856932777106   0.008282545180679442
0.4460800261873924   0.027607856932777106   0.008282545180679442
-0.023773642778101782   -0.042709279277371795   0.0024955923103535393
-0.023773642778101782   -0.042709279277371795   0.0024955923103535393
-0.023773642778101782   -0.042709279277371795   0.0024955923103535393
-0.023773642778101782   -0.042709279277371795   0.0024955923103535393
-0.05340384476744933   -0.0795315741294644   -0.014786501514891299
-0.05340384476744933   -0.0795315741294644   -0.014786501514891299
-0.05340384476744933   -0.0795315741294644   -0.014786501514891299
-0.05340384476744933   -0.0795315741294644   -0.014786501514891299
0.43559141082159814   0.048511432752155054   0.03172282512528906
0.43559141082159814   0.048511432752155054   0.03172282512528906
0.43559141082159814   0.048511432752155054   0.03172282512528906
0.43559141082159814   0.048511432752155054   0.03172282512528906
0.19689367267931407   -0.00945918615706208   -0.014464267000791902
0.19689367267931407   -0.00945918615706208   -0.014464267000791902
0.19689367267931407   -0.00945918615706208   -0.014464267000791902
0.19689367267931407   -0.00945918615706208   -0.014464267000791902
0.032132986476373165   0.05107578817002503   0.011004637144390879
0.032132986476373165   0.05107578817002503   0.011004637144390879
0.032132986476373165   0.05107578817002503   0.011004637144390879
0.032132986476373165   0.05107578817002503   0.011004637144390879
-0.4330042804357497   -0.028179367786754506   -0.01487778037154579
-0.4330042804357497   -0.028179367786754506   -0.01487778037154579
-0.4330042804357497   -0.028179367786754506   -0.01487778037154579
-0.4330042804357497   -0.028179367786754506   -0.01487778037154579
-0.45708766383184457   -0.058989215249242694   -0.013652616716887361
-0.45708766383184457   -0.058989215249242694   -0.013652616716887361
-0.45708766383184457   -0.058989215249242694   -0.013652616716887361
-0.45708766383184457   -0.058989215249242694   -0.013652616716887361
0.016507312432258343   0.05799804312492889   0.012857979759346116
0.016507312432258343   0.05799804312492889   0.012857979759346116
0.016507312432258343   0.05799804312492889   0.012857979759346116
0.016507312432258343   0.05799804312492889   0.012857979759346116
-0.210097198859714   0.006442486872020085   0.000819100138448995
-0.210097198859714   0.006442486872020085   0.000819100138448995
-0.210097198859714   0.006442486872020085   0.000819100138448995
-0.210097198859714   0.006442486872020085   0.000819100138448995
0.013208186681026279   0.04056046418527657   0.013799929942838126
0.013208186681026279   0.04056046418527657   0.013799929942838126
0.013208186681026279   0.04056046418527657   0.013799929942838126
0.013208186681026279   0.04056046418527657   0.013799929942838126
-0.45325806391314544   -0.04102116214211825   -0.012472670230516406
-0.45325806391314544   -0.04102116214211825   -0.012472670230516406
-0.45325806391314544   -0.04102116214211825   -0.012472670230516406
-0.45325806391314544   -0.04102116214211825   -0.012472670230516406
-0.4779029944687929   -0.06947975779817062   -0.011363745764186665
-0.4779029944687929   -0.06947975779817062   -0.011363745764186665
-0.4779029944687929   -0.06947975779817062   -0.011363745764186665
-0.4779029944687929   -0.06947975779817062   -0.011363745764186665
-0.003504130411154549   0.04554098480392403   0.015592890063793878
-0.003504130411154549   0.04554098480392403   0.015592890063793878
-0.003504130411154549   0.04554098480392403   0.015592890063793878
-0.003504130411154549   0.04554098480392403   0.015592890063793878
-0.23004232044262762   -0.0038404403250452274   -0.004271656116109038
-0.23004232044262762   -0.0038404403250452274   -0.004271656116109038
-0.23004232044262762   -0.0038404403250452274   -0.004271656116109038
-0.23004232044262762   -0.0038404403250452274   -0.004271656116109038
-0.006319291396076598   0.03043445496485961   0.016623614978248054
-0.006319291396076598   0.03043445496485961   0.016623614978248054
-0.006319291396076598   0.03043445496485961   0.016623614978248054
-0.006319291396076598   0.03043445496485961   0.016623614978248054
-0.47463428550154585   -0.053919679976780446   -0.01058027874933724
-0.47463428550154585   -0.053919679976780446   -0.01058027874933724
-0.47463428550154585   -0.053919679976780446   -0.01058027874933724
-0.47463428550154585   -0.053919679976780446   -0.01058027874933724
-0.4985736322447081   -0.07772866497818313   -0.007556761699104936
-0.4985736322447081   -0.07772866497818313   -0.007556761699104936
-0.4985736322447081   -0.07772866497818313   -0.007556761699104936
-0.4985736322447081   -0.07772866497818313   -0.007556761699104936
-0.02423782856073347   0.03380616198326834   0.017705843405955227
-0.02423782856073347   0.03380616198326834   0.017705843405955227
-0.02423782856073347   0.03380616198326834   0.017705843405955227
-0.02423782856073347   0.03380616198326834   0.017705843405955227
-0.25150446244348335   -0.014297104310777256   -0.009839030945239675
-0.25150446244348335   -0.014297104310777256   -0.009839030945239675
-0.25150446244348335   -0.014297104310777256   -0.009839030945239675
-0.25150446244348335   -0.014297104310777256   -0.009839030945239675
-0.4083636833770094   0.06021317892623414   0.019932658209174656
-0.4083636833770094   0.06021317892623414   0.019932658209174656
-0.4083636833770094   0.06021317892623414   0.019932658209174656
-0.4083636833770094   0.06021317892623414   0.019932658209174656
-0.867443756863737   -0.038705736889940195   -0.024345916441244994
-0.867443756863737   -0.038705736889940195   -0.024345916441244994
-0.867443756863737   -0.038705736889940195   -0.024345916441244994
-0.867443756863737   -0.038705736889940195   -0.024345916441244994
-0.8862123998525812   -0.04743233054064   -0.004032772926285094
-0.8862123998525812   -0.04743233054064   -0.004032772926285094
-0.8862123998525812   -0.04743233054064   -0.004032772926285094
-0.8862123998525812   -0.04743233054064   -0.004032772926285094
-0.4339034780620228   0.04391736935202668   -0.0006382724690441738
-0.4339034780620228   0.04391736935202668   -0.0006382724690441738
-0.4339034780620228   0.04391736935202668   -0.0006382724690441738
-0.4339034780620228   0.04391736935202668   -0.0006382724690441738
-0.6442899151505143   0.006466991653140325   0.004711294877783677
-0.6442899151505143   0.006466991653140325   0.004711294877783677
-0.6442899151505143   0.006466991653140325   0.004711294877783677
-0.6442899151505143   0.006466991653140325   0.004711294877783677
-0.42819657806948275   0.04945008980864439   0.022363507037038377
-0.42819657806948275   0.04945008980864439   0.022363507037038377
-0.42819657806948275   0.04945008980864439   0.022363507037038377
-0.42819657806948275   0.04945008980864439   0.022363507037038377
-0.8912047227186398   -0.052250473870782604   -0.024176243926442964
-0.8912047227186398   -0.052250473870782604   -0.024176243926442964
-0.8912047227186398   -0.052250473870782604   -0.024176243926442964
-0.8912047227186398   -0.052250473870782604   -0.024176243926442964
-0.911842417500261   -0.05923229083651152   -0.0036105131970997698
-0.911842417500261   -0.05923229083651152   -0.0036105131970997698
-0.911842417500261   -0.05923229083651152   -0.0036105131970997698
-0.911842417500261   -0.05923229083651152   -0.0036105131970997698
-0.4549691873663064   0.0320301620356698   0.001795369914409782
-0.4549691873663064   0.0320301620356698   0.001795369914409782
-0.4549691873663064   0.0320301620356698   0.001795369914409782
-0.4549691873663064   0.0320301620356698   0.001795369914409782
-0.6621975482719854   -0.0029178183484497577   0.0005390450808381228
-0.6621975482719854   -0.0029178183484497577   0.0005390450808381228
-0.6621975482719854   -0.0029178183484497577   0.0005390450808381228
-0.6621975482719854   -0.0029178183484497577   0.0005390450808381228
-0.4487153283269038   0.039278495889164974   0.025816331257925533
-0.4487153283269038   0.039278495889164974   0.025816331257925533
-0.4487153283269038   0.039278495889164974   0.025816331257925533
-0.4487153283269038   0.039278495889164974   0.025816331257925533
-0.9166365351147368   -0.06502088326508154   -0.021792508840916526
-0.9166365351147368   -0.06502088326508154   -0.021792508840916526
-0.9166365351147368   -0.06502088326508154   -0.021792508840916526
-0.9166365351147368   -0.06502088326508154   -0.021792508840916526
-0.935432590720659   -0.07187500182757667   0.002324430864280337
-0.935432590720659   -0.07187500182757667   0.002324430864280337
-0.935432590720659   -0.07187500182757667   0.002324430864280337
-0.935432590720659   -0.07187500182757667   0.002324430864280337
-0.4772940410859572   0.017867352489447513   0.0032451766270260793
-0.4772940410859572   0.017867352489447513   0.0032451766270260793
-0.4772940410859572   0.017867352489447513   0.0032451766270260793
-0.4772940410859572   0.017867352489447513   0.0032451766270260793
-0.6902506072496987   -0.01613878518633413   -0.00508822551741691
-0.6902506072496987   -0.01613878518633413   -0.00508822551741691
-0.6902506072496987   -0.01613878518633413   -0.00508822551741691
-0.6902506072496987   -0.01613878518633413   -0.00508822551741691
-0.8367687090951842   0.06248429514854112   0.027839290363030143
-0.8367687090951842   0.06248429514854112   0.027839290363030143
-0.8367687090951842   0.06248429514854112   0.027839290363030143
-0.8367687090951842   0.06248429514854112   0.027839290363030143
-1.2807253602388768   -0.05927895248041001   -0.02234290963796267
-1.2807253602388768   -0.05927895248041001   -0.02234290963796267
-1.2807253602388768   -0.05927895248041001   -0.02234290963796267
-1.2807253602388768   -0.05927895248041001   -0.02234290963796267
-1.2981264231044578   -0.02620809496110288   0.0236420465275487
-1.2981264231044578   -0.02620809496110288   0.0236420465275487
-1.2981264231044578   -0.02620809496110288   0.0236420465275487
-1.2981264231044578   -0.02620809496110288   0.0236420465275487
-0.8731213924743769   0.026441858007900554   -0.01245192458380446
-0.8731213924743769   0.026441858007900554   -0.01245192458380446
-0.8731213924743769   0.026441858007900554   -0.01245192458380446
-0.8731213924743769   0.026441858007900554   -0.01245192458380446
-1.0247752188446828   0.012929784564986613   0.023616066810400793
-1.0247752188446828   0.012929784564986613   0.023616066810400793
-1.0247752188446828   0.012929784564986613   0.023616066810400793
-1.0247752188446828   0.012929784564986613   0.023616066810400793
-0.8567734188367356   0.06373338075781992   0.03199642085447117
-0.8567734188367356   0.06373338075781992   0.03199642085447117
-0.8567734188367356   0.06373338075781992   0.03199642085447117
-0.8567734188367356   0.06373338075781992   0.03199642085447117
-1.3135103046773402   -0.06253552564626638   -0.016949930651675972
-1.3135103046773402   -0.06253552564626638   -0.016949930651675972
-1.3135103046773402   -0.06253552564626638   -0.016949930651675972
-1.3135103046773402   -0.06253552564626638   -0.016949930651675972
-1.3299658580477607   -0.032382756341351016   0.032654873372098894
-1.3299658580477607   -0.032382756341351016   0.032654873372098894
-1.3299658580477607   -0.032382756341351016   0.032654873372098894
-1.3299658580477607   -0.032382756341351016   0.032654873372098894
-0.8975667469737323   0.01961175216861366   -0.011076203569581833
-0.8975667469737323   0.01961175216861366   -0.011076203569581833
-0.8975667469737323   0.01961175216861366   -0.011076203569581833
-0.8975667469737323   0.01961175216861366   -0.011076203569581833
-1.0687205422245167   0.00639334371631145   0.015255079681273015
-1.0687205422245167   0.00639334371631145   0.015255079681273015
-1.0687205422245167   0.00639334371631145   0.015255079681273015
-1.0687205422245167   0.00639334371631145   0.015255079681273015
-0.879508343557346   0.059119404182087276   0.039708161498875724
-0.879508343557346   0.059119404182087276   0.039708161498875724
-0.879508343557346   0.059119404182087276   0.039708161498875724
-0.879508343557346   0.059119404182087276   0.039708161498875724
-1.3470895103445326   -0.07095565723520647   -0.014390487217882303
-1.3470895103445326   -0.07095565723520647   -0.014390487217882303
-1.3470895103445326   -0.07095565723520647   -0.014390487217882303
-1.3470895103445326   -0.07095565723520647   -0.014390487217882303
-1.3731564264398208   -0.058987176199900626   0.03242868451115827
-1.3731564264398208   -0.058987176199900626   0.03242868451115827
-1.3731564264398208   -0.058987176199900626   0.03242868451115827
-1.3731564264398208   -0.058987176199900626   0.03242868451115827
-0.9237983401621794   -0.0009655208112582525   -0.010413797359640029
-0.9237983401621794   -0.0009655208112582525   -0.010413797359640029
-0.9237983401621794   -0.0009655208112582525   -0.010413797359640029
-0.9237983401621794   -0.0009655208112582525   -0.010413797359640029
-1.081323294021326   -0.003057915739402589   0.012526829446082348
-1.081323294021326   -0.003057915739402589   0.012526829446082348
-1.081323294021326   -0.003057915739402589   0.012526829446082348
-1.081323294021326   -0.003057915739402589   0.012526829446082348
0.7354330272332539   0.04098070469526842   -0.0348435278293613
0.7354330272332539   0.04098070469526842   -0.0348435278293613
0.7354330272332539   0.04098070469526842   -0.0348435278293613
0.7354330272332539   0.04098070469526842   -0.0348435278293613
0.3494552143452583   0.006759845883602733   0.013225344443542921
0.3494552143452583   0.006759845883602733   0.013225344443542921
0.3494552143452583   0.006759845883602733   0.013225344443542921
0.3494552143452583   0.006759845883602733   0.013225344443542921
0.3107732780928548   -0.059404932551802625   -0.033127122659386374
0.3107732780928548   -0.059404932551802625   -0.033127122659386374
0.3107732780928548   -0.059404932551802625   -0.033127122659386374
0.3107732780928548   -0.059404932551802625   -0.033127122659386374
0.7196543992544078   0.06746285114749222   0.016362749236305107
0.7196543992544078   0.06746285114749222   0.016362749236305107
0.7196543992544078   0.06746285114749222   0.016362749236305107
0.7196543992544078   0.06746285114749222   0.016362749236305107
0.5015171674042728   0.0067723316983067244   -0.014836907852989831
0.5015171674042728   0.0067723316983067244   -0.014836907852989831
0.5015171674042728   0.0067723316983067244   -0.014836907852989831
0.5015171674042728   0.0067723316983067244   -0.014836907852989831
0.6999922932232404   0.018472757543119916   -0.03295768731515927
0.6999922932232404   0.018472757543119916   -0.03295768731515927
0.6999922932232404   0.018472757543119916   -0.03295768731515927
0.6999922932232404   0.018472757543119916   -0.03295768731515927
0.33004991845271153   -0.010800304618741388   0.014651451206833348
0.33004991845271153   -0.010800304618741388   0.014651451206833348
0.33004991845271153   -0.010800304618741388   0.014651451206833348
0.33004991845271153   -0.010800304618741388   0.014651451206833348
0.29271410535419295   -0.06520244647084794   -0.02827125311859984
0.29271410535419295   -0.06520244647084794   -0.02827125311859984
0.29271410535419295   -0.06520244647084794   -0.02827125311859984
0.29271410535419295   -0.06520244647084794   -0.02827125311859984
0.6915709907030675   0.05916802595220373   0.021554915068484396
0.6915709907030675   0.05916802595220373   0.021554915068484396
0.6915709907030675   0.05916802595220373   0.021554915068484396
0.6915709907030675   0.05916802595220373   0.021554915068484396
0.48543456892541964   -0.003302727345006043   -0.020762277565782705
0.48543456892541964   -0.003302727345006043   -0.020762277565782705
0.48543456892541964   -0.003302727345006043   -0.020762277565782705
0.48543456892541964   -0.003302727345006043   -0.020762277565782705
0.6723610734433788   0.011096557262632784   -0.0264232025403821
0.6723610734433788   0.011096557262632784   -0.0264232025403821
0.6723610734433788   0.011096557262632784   -0.0264232025403821
0.6723610734433788   0.011096557262632784   -0.0264232025403821
0.3114323527750249   -0.01762264762013313   0.017740185134842674
0.3114323527750249   -0.01762264762013313   0.017740185134842674
0.3114323527750249   -0.01762264762013313   0.017740185134842674
0.3114323527750249   -0.01762264762013313   0.017740185134842674
0.2764498189739938   -0.06870168523353731   -0.023548116841370294
0.2764498189739938   -0.06870168523353731   -0.023548116841370294
0.2764498189739938   -0.06870168523353731   -0.023548116841370294
0.2764498189739938   -0.06870168523353731   -0.023548116841370294
0.659891772302473   0.05023972578751855   0.025635248781236537
0.659891772302473   0.05023972578751855   0.025635248781236537
0.659891772302473   0.05023972578751855   0.025635248781236537
0.659891772302473   0.05023972578751855   0.025635248781236537
0.4533886726109868   -0.01089063662298119   -0.029574044394204975
0.4533886726109868   -0.01089063662298119   -0.029574044394204975
0.4533886726109868   -0.01089063662298119   -0.029574044394204975
0.4533886726109868   -0.01089063662298119   -0.029574044394204975
0.355399019685361   0.05168767071515885   -0.0019834536874928487
0.355399019685361   0.05168767071515885   -0.0019834536874928487
0.355399019685361   0.05168767071515885   -0.0019834536874928487
0.355399019685361   0.05168767071515885   -0.0019834536874928487
-0.023486767670247165   -0.0052208680732081115   -0.0002527987846172204
-0.023486767670247165   -0.0052208680732081115   -0.0002527987846172204
-0.023486767670247165   -0.0052208680732081115   -0.0002527987846172204
-0.023486767670247165   -0.0052208680732081115   -0.0002527987846172204
-0.05073823178829315   -0.04454306454421848   -0.02109935061859404
-0.05073823178829315   -0.04454306454421848   -0.02109935061859404
-0.05073823178829315   -0.04454306454421848   -0.02109935061859404
-0.05073823178829315   -0.04454306454421848   -0.02109935061859404
0.3462516774357449   0.06135606134861597   0.023503880154642894
0.3462516774357449   0.06135606134861597   0.023503880154642894
0.3462516774357449   0.06135606134861597   0.023503880154642894
0.3462516774357449   0.06135606134861597   0.023503880154642894
0.15443559672264662   0.015107361944130208   0.0011199719108101495
0.15443559672264662   0.015107361944130208   0.0011199719108101495
0.15443559672264662   0.015107361944130208   0.0011199719108101495
0.15443559672264662   0.015107361944130208   0.0011199719108101495
0.3369915621061848   0.03744553110791216   0.001113833747550556
0.3369915621061848   0.03744553110791216   0.001113833747550556
0.3369915621061848   0.03744553110791216   0.001113833747550556
0.3369915621061848   0.03744553110791216   0.001113833747550556
-0.04132089539244891   -0.0204753132372247   0.001919580053633354
-0.04132089539244891   -0.0204753132372247   0.001919580053633354
-0.04132089539244891   -0.0204753132372247   0.001919580053633354
-0.04132089539244891   -0.0204753132372247   0.001919580053633354
-0.06774601580200056   -0.05549542618672321   -0.017462769212504774
-0.06774601580200056   -0.05549542618672321   -0.017462769212504774
-0.06774601580200056   -0.05549542618672321   -0.017462769212504774
-0.06774601580200056   -0.05549542618672321   -0.017462769212504774
0.3261971504143221   0.04825047265691   0.02569105305428574
0.3261971504143221   0.04825047265691   0.02569105305428574
0.3261971504143221   0.04825047265691   0.02569105305428574
0.3261971504143221   0.04825047265691   0.02569105305428574
0.13345038034491544   0.0021398135100911715   -0.0053875831322338676
0.13345038034491544   0.0021398135100911715   -0.0053875831322338676
0.13345038034491544   0.0021398135100911715   -0.0053875831322338676
0.13345038034491544   0.0021398135100911715   -0.0053875831322338676
0.31724554675417954   0.02569345137425899   0.0034900560362261177
0.31724554675417954   0.02569345137425899   0.0034900560362261177
0.31724554675417954   0.02569345137425899   0.0034900560362261177
0.31724554675417954   0.02569345137425899   0.0034900560362261177
-0.05892738800391814   -0.03307138076613198   0.004206324357316069
-0.05892738800391814   -0.03307138076613198   0.004206324357316069
-0.05892738800391814   -0.03307138076613198   0.004206324357316069
-0.05892738800391814   -0.03307138076613198   0.004206324357316069
-0.08452785367633694   -0.06466631664088918   -0.01404665734199697
-0.08452785367633694   -0.06466631664088918   -0.01404665734199697
-0.08452785367633694   -0.06466631664088918   -0.01404665734199697
-0.08452785367633694   -0.06466631664088918   -0.01404665734199697
0.30768075033648506   0.03615871713865541   0.02774613759889242
0.30768075033648506   0.03615871713865541   0.02774613759889242
0.30768075033648506   0.03615871713865541   0.02774613759889242
0.30768075033648506   0.03615871713865541   0.02774613759889242
0.11739283422195826   -0.007655054301135212   -0.010797422470777883
0.11739283422195826   -0.007655054301135212   -0.010797422470777883
0.11739283422195826   -0.007655054301135212   -0.010797422470777883
0.11739283422195826   -0.007655054301135212   -0.010797422470777883
-0.00839282893669865   0.06143140329112359   0.00856462351879366
-0.00839282893669865   0.06143140329112359   0.00856462351879366
-0.00839282893669865   0.06143140329112359   0.00856462351879366
-0.00839282893669865   0.06143140329112359   0.00856462351879366
-0.3885042560091364   -0.017029867311589925   -0.012883924909179258
-0.3885042560091364   -0.017029867311589925   -0.012883924909179258
-0.3885042560091364   -0.017029867311589925   -0.012883924909179258
-0.3885042560091364   -0.017029867311589925   -0.012883924909179258
-0.4060643432446032   -0.031102778997395372   -0.010074475175444287
-0.4060643432446032   -0.031102778997395372   -0.010074475175444287
-0.4060643432446032   -0.031102778997395372   -0.010074475175444287
-0.4060643432446032   -0.031102778997395372   -0.010074475175444287
-0.025646703208699044   0.04954653334401996   0.01026869439113802
-0.025646703208699044   0.04954653334401996   0.01026869439113802
-0.025646703208699044   0.04954653334401996   0.01026869439113802
-0.025646703208699044   0.04954653334401996   0.01026869439113802
-0.20665995101153511   0.01580813025756609   0.004050155393873323
-0.20665995101153511   0.01580813025756609   0.004050155393873323
-0.20665995101153511   0.01580813025756609   0.004050155393873323
-0.20665995101153511   0.01580813025756609   0.004050155393873323
-0.025313469764187385   0.049465474771094815   0.012015920186621468
-0.025313469764187385   0.049465474771094815   0.012015920186621468
-0.025313469764187385   0.049465474771094815   0.012015920186621468
-0.025313469764187385   0.049465474771094815   0.012015920186621468
-0.4060707358773992   -0.03069487961275965   -0.010514337724059868
-0.4060707358773992   -0.03069487961275965   -0.010514337724059868
-0.4060707358773992   -0.03069487961275965   -0.010514337724059868
-0.4060707358773992   -0.03069487961275965   -0.010514337724059868
-0.4234863554400419   -0.042955059829277636   -0.006905108073327181
-0.4234863554400419   -0.042955059829277636   -0.006905108073327181
-0.4234863554400419   -0.042955059829277636   -0.006905108073327181
-0.4234863554400419   -0.042955059829277636   -0.006905108073327181
-0.043381204123154465   0.03605273503338921   0.012813127961615217
-0.043381204123154465   0.03605273503338921   0.012813127961615217
-0.043381204123154465   0.03605273503338921   0.012813127961615217
-0.043381204123154465   0.03605273503338921   0.012813127961615217
-0.22426145165981995   0.004100311899105334   -0.0012233949463842948
-0.22426145165981995   0.004100311899105334   -0.0012233949463842948
-0.22426145165981995   0.004100311899105334   -0.0012233949463842948
-0.22426145165981995   0.004100311899105334   -0.0012233949463842948
-0.04269502702604916   0.037536314303577095   0.014760434176953843
-0.04269502702604916   0.037536314303577095   0.014760434176953843
-0.04269502702604916   0.037536314303577095   0.014760434176953843
-0.04269502702604916   0.037536314303577095   0.014760434176953843
-0.4240793714833026   -0.04434547804562101   -0.008479770073287733
-0.4240793714833026   -0.04434547804562101   -0.008479770073287733
-0.4240793714833026   -0.04434547804562101   -0.008479770073287733
-0.4240793714833026   -0.04434547804562101   -0.008479770073287733
-0.4406987577902392   -0.05378024998559148   -0.0037652872088381143
-0.4406987577902392   -0.05378024998559148   -0.0037652872088381143
-0.4406987577902392   -0.05378024998559148   -0.0037652872088381143
-0.4406987577902392   -0.05378024998559148   -0.0037652872088381143
-0.06119118827665171   0.023002093799620416   0.014968259215919641
-0.06119118827665171   0.023002093799620416   0.014968259215919641
-0.06119118827665171   0.023002093799620416   0.014968259215919641
-0.06119118827665171   0.023002093799620416   0.014968259215919641
-0.24267258755428855   -0.007704172504450456   -0.007098829109068946
-0.24267258755428855   -0.007704172504450456   -0.007098829109068946
-0.24267258755428855   -0.007704172504450456   -0.007098829109068946
-0.24267258755428855   -0.007704172504450456   -0.007098829109068946
-0.3647430120044216   0.07040173410894378   0.018490693693859486
-0.3647430120044216   0.07040173410894378   0.018490693693859486
-0.3647430120044216   0.07040173410894378   0.018490693693859486
-0.3647430120044216   0.07040173410894378   0.018490693693859486
-0.7453749557975866   -0.02910730664258629   -0.02318626229400595
-0.7453749557975866   -0.02910730664258629   -0.02318626229400595
-0.7453749557975866   -0.02910730664258629   -0.02318626229400595
-0.7453749557975866   -0.02910730664258629   -0.02318626229400595
-0.75496273031657   -0.019779728495665228   0.0019354905470434086
-0.75496273031657   -0.019779728495665228   0.0019354905470434086
-0.75496273031657   -0.019779728495665228   0.0019354905470434086
-0.75496273031657   -0.019779728495665228   0.0019354905470434086
-0.39128934353546857   0.035610594437469556   -0.002912850064633786
-0.39128934353546857   0.035610594437469556   -0.002912850064633786
-0.39128934353546857   0.035610594437469556   -0.002912850064633786
-0.39128934353546857   0.035610594437469556   -0.002912850064633786
-0.560418229161691   0.01498362821379115   0.006859729900522686
-0.560418229161691   0.01498362821379115   0.006859729900522686
-0.560418229161691   0.01498362821379115   0.006859729900522686
-0.560418229161691   0.01498362821379115   0.006859729900522686
-0.38169629866704746   0.05884921122317688   0.021813757491762217
-0.38169629866704746   0.05884921122317688   0.021813757491762217
-0.38169629866704746   0.05884921122317688   0.021813757491762217
-0.38169629866704746   0.05884921122317688   0.021813757491762217
-0.7644721062772851   -0.04293467637367207   -0.022456441378525323
-0.7644721062772851   -0.04293467637367207   -0.022456441378525323
-0.7644721062772851   -0.04293467637367207   -0.022456441378525323
-0.7644721062772851   -0.04293467637367207   -0.022456441378525323
-0.7752531564760561   -0.031763409322829145   0.0031114822316648458
-0.7752531564760561   -0.031763409322829145   0.0031114822316648458
-0.7752531564760561   -0.031763409322829145   0.0031114822316648458
-0.7752531564760561   -0.031763409322829145   0.0031114822316648458
-0.40895808323309774   0.023111687003974077   -0.00033049387185263984
-0.40895808323309774   0.023111687003974077   -0.00033049387185263984
-0.40895808323309774   0.023111687003974077   -0.00033049387185263984
-0.40895808323309774   0.023111687003974077   -0.00033049387185263984
-0.5752677064675211   0.004559749420904147   0.0019556627146519734
-0.5752677064675211   0.004559749420904147   0.0019556627146519734
-0.5752677064675211   0.004559749420904147   0.0019556627146519734
-0.5752677064675211   0.004559749420904147   0.0019556627146519734
-0.3989616243238086   0.04785441516416736   0.02490907251439977
-0.3989616243238086   0.04785441516416736   0.02490907251439977
-0.3989616243238086   0.04785441516416736   0.02490907251439977
-0.3989616243238086   0.04785441516416736   0.02490907251439977
-0.7847372818786588   -0.05599380397633594   -0.020078750127841695
-0.7847372818786588   -0.05599380397633594   -0.020078750127841695
-0.7847372818786588   -0.05599380397633594   -0.020078750127841695
-0.7847372818786588   -0.05599380397633594   -0.020078750127841695
-0.7936473879784874   -0.044677554965201816   0.006873986246309659
-0.7936473879784874   -0.044677554965201816   0.006873986246309659
-0.7936473879784874   -0.044677554965201816   0.006873986246309659
-0.7936473879784874   -0.044677554965201816   0.006873986246309659
-0.4271234605949118   0.008792034223912101   0.001538914558297251
-0.4271234605949118   0.008792034223912101   0.001538914558297251
-0.4271234605949118   0.008792034223912101   0.001538914558297251
-0.4271234605949118   0.008792034223912101   0.001538914558297251
-0.5979791556432659   -0.008555745625293806   -0.004287525817700758
-0.5979791556432659   -0.008555745625293806   -0.004287525817700758
-0.5979791556432659   -0.008555745625293806   -0.004287525817700758
-0.5979791556432659   -0.008555745625293806   -0.004287525817700758
-0.7170684122879513   0.06314070729973717   0.026098441311847638
-0.7170684122879513   0.06314070729973717   0.026098441311847638
-0.7170684122879513   0.06314070729973717   0.026098441311847638
-0.7170684122879513   0.06314070729973717   0.026098441311847638
-1.0851655055079068   -0.050123721307251845   -0.025433909914539143
-1.0851655055079068   -0.050123721307251845   -0.025433909914539143
-1.0851655055079068   -0.050123721307251845   -0.025433909914539143
-1.0851655055079068   -0.050123721307251845   -0.025433909914539143
-1.0970980419306717   -0.011057727148589047   0.024026799090042204
-1.0970980419306717   -0.011057727148589047   0.024026799090042204
-1.0970980419306717   -0.011057727148589047   0.024026799090042204
-1.0970980419306717   -0.011057727148589047   0.024026799090042204
-0.7507360607606003   0.018105109824431587   -0.014815999993205112
-0.7507360607606003   0.018105109824431587   -0.014815999993205112
-0.7507360607606003   0.018105109824431587   -0.014815999993205112
-0.7507360607606003   0.018105109824431587   -0.014815999993205112
-0.8721216825347925   0.014114456116289392   0.02141840519563911
-0.8721216825347925   0.014114456116289392   0.02141840519563911
-0.8721216825347925   0.014114456116289392   0.02141840519563911
-0.8721216825347925   0.014114456116289392   0.02141840519563911
-0.7326400594712225   0.06315194398409565   0.030617172294016524
-0.7326400594712225   0.06315194398409565   0.030617172294016524
-0.7326400594712225   0.06315194398409565   0.030617172294016524
-0.7326400594712225   0.06315194398409565   0.030617172294016524
-1.1148938269040964   -0.05580434499229864   -0.020205507933360192
-1.1148938269040964   -0.05580434499229864   -0.020205507933360192
-1.1148938269040964   -0.05580434499229864   -0.020205507933360192
-1.1148938269040964   -0.05580434499229864   -0.020205507933360192
-1.1236727561805147   -0.017384658461914615   0.030047752484559126
-1.1236727561805147   -0.017384658461914615   0.030047752484559126
-1.1236727561805147   -0.017384658461914615   0.030047752484559126
-1.1236727561805147   -0.017384658461914615   0.030047752484559126
-0.7698092520378275   0.01125377529656535   -0.012686180196586308
-0.7698092520378275   0.01125377529656535   -0.012686180196586308
-0.7698092520378275   0.01125377529656535   -0.012686180196586308
-0.7698092520378275   0.01125377529656535   -0.012686180196586308
-0.9093739368216891   0.007063722441257497   0.013098196971972093
-0.9093739368216891   0.007063722441257497   0.013098196971972093
-0.9093739368216891   0.007063722441257497   0.013098196971972093
-0.9093739368216891   0.007063722441257497   0.013098196971972093
-0.7506143797552691   0.058438214690647305   0.03610374182212314
-0.7506143797552691   0.058438214690647305   0.03610374182212314
-0.7506143797552691   0.058438214690647305   0.03610374182212314
-0.7506143797552691   0.058438214690647305   0.03610374182212314
-1.1423664022570788   -0.06406787165000044   -0.016737264710164054
-1.1423664022570788   -0.06406787165000044   -0.016737264710164054
-1.1423664022570788   -0.06406787165000044   -0.016737264710164054
-1.1423664022570788   -0.06406787165000044   -0.016737264710164054
-1.158750003821031   -0.03997852600450935   0.02947284033295626
-1.158750003821031   -0.03997852600450935   0.02947284033295626
-1.158750003821031   -0.03997852600450935   0.02947284033295626
-1.158750003821031   -0.03997852600450935   0.02947284033295626
-0.7899622690140086   -0.007877489280711247   -0.011500484615786725
-0.7899622690140086   -0.007877489280711247   -0.011500484615786725
-0.7899622690140086   -0.007877489280711247   -0.011500484615786725
-0.7899622690140086   -0.007877489280711247   -0.011500484615786725
-0.9188087752588905   -0.0017391542013547034   0.010352861126803302
-0.9188087752588905   -0.0017391542013547034   0.010352861126803302
-0.9188087752588905   -0.0017391542013547034   0.010352861126803302
-0.9188087752588905   -0.0017391542013547034   0.010352861126803302
0.5068033667192999   0.02879625205172237   -0.03394077708986984
0.5068033667192999   0.02879625205172237   -0.03394077708986984
0.5068033667192999   0.02879625205172237   -0.03394077708986984
0.5068033667192999   0.02879625205172237   -0.03394077708986984
0.21646215769153046   0.013576690030729352   0.014513661468834154
0.21646215769153046   0.013576690030729352   0.014513661468834154
0.21646215769153046   0.013576690030729352   0.014513661468834154
0.21646215769153046   0.013576690030729352   0.014513661468834154
0.18151931403506413   -0.04977028823195919   -0.0316678624416083
0.18151931403506413   -0.04977028823195919   -0.0316678624416083
0.18151931403506413   -0.04977028823195919   -0.0316678624416083
0.18151931403506413   -0.04977028823195919   -0.0316678624416083
0.4950572257647254   0.05740000484536437   0.01764020122589907
0.4950572257647254   0.05740000484536437   0.01764020122589907
0.4950572257647254   0.05740000484536437   0.01764020122589907
0.4950572257647254   0.05740000484536437   0.01764020122589907
0.3314328560732124   0.00733506976948832   -0.009050603677548428
0.3314328560732124   0.00733506976948832   -0.009050603677548428
0.3314328560732124   0.00733506976948832   -0.009050603677548428
0.3314328560732124   0.00733506976948832   -0.009050603677548428
0.47551757538574263   0.009026106134806144   -0.0316841519584601
0.47551757538574263   0.009026106134806144   -0.0316841519584601
0.47551757538574263   0.009026106134806144   -0.0316841519584601
0.47551757538574263   0.009026106134806144   -0.0316841519584601
0.20069142832972614   -0.001763925605721764   0.01618634640546769
0.20069142832972614   -0.001763925605721764   0.01618634640546769
0.20069142832972614   -0.001763925605721764   0.01618634640546769
0.20069142832972614   -0.001763925605721764   0.01618634640546769
0.16664984518418746   -0.055521756947805985   -0.026972853912684194
0.16664984518418746   -0.055521756947805985   -0.026972853912684194
0.16664984518418746   -0.055521756947805985   -0.026972853912684194
0.16664984518418746   -0.055521756947805985   -0.026972853912684194
0.4705836649173296   0.04923610959837418   0.022765517104364717
0.4705836649173296   0.04923610959837418   0.022765517104364717
0.4705836649173296   0.04923610959837418   0.022765517104364717
0.4705836649173296   0.04923610959837418   0.022765517104364717
0.3161250518208393   -0.002167914734863788   -0.01467432638067101
0.3161250518208393   -0.002167914734863788   -0.01467432638067101
0.3161250518208393   -0.002167914734863788   -0.01467432638067101
0.3161250518208393   -0.002167914734863788   -0.01467432638067101
0.451356986741184   0.001656574425442911   -0.025788338603436208
0.451356986741184   0.001656574425442911   -0.025788338603436208
0.451356986741184   0.001656574425442911   -0.025788338603436208
0.451356986741184   0.001656574425442911   -0.025788338603436208
0.18533094801479794   -0.008487797120410319   0.019398700412973903
0.18533094801479794   -0.008487797120410319   0.019398700412973903
0.18533094801479794   -0.008487797120410319   0.019398700412973903
0.18533094801479794   -0.008487797120410319   0.019398700412973903
0.15336754192102747   -0.060689395361879075   -0.022486126584305998
0.15336754192102747   -0.060689395361879075   -0.022486126584305998
0.15336754192102747   -0.060689395361879075   -0.022486126584305998
0.15336754192102747   -0.060689395361879075   -0.022486126584305998
0.4419974139564585   0.03854245578205819   0.026008132518896616
0.4419974139564585   0.03854245578205819   0.026008132518896616
0.4419974139564585   0.03854245578205819   0.026008132518896616
0.4419974139564585   0.03854245578205819   0.026008132518896616
0.2900374542473673   -0.009942818608779075   -0.02242886229211265
0.2900374542473673   -0.009942818608779075   -0.02242886229211265
0.2900374542473673   -0.009942818608779075   -0.02242886229211265
0.2900374542473673   -0.009942818608779075   -0.02242886229211265
0.21802381310611216   0.04192627796122888   -0.006027649388760889
0.21802381310611216   0.04192627796122888   -0.006027649388760889
0.21802381310611216   0.04192627796122888   -0.006027649388760889
0.21802381310611216   0.04192627796122888   -0.006027649388760889
-0.06662637790003427   0.003462267170781184   0.0019138583986671722
-0.06662637790003427   0.003462267170781184   0.0019138583986671722
-0.06662637790003427   0.003462267170781184   0.0019138583986671722
-0.06662637790003427   0.003462267170781184   0.0019138583986671722
-0.09051588971920053   -0.034605331280473904   -0.019535515835861054
-0.09051588971920053   -0.034605331280473904   -0.019535515835861054
-0.09051588971920053   -0.034605331280473904   -0.019535515835861054
-0.09051588971920053   -0.034605331280473904   -0.019535515835861054
0.21208088116635523   0.050373014021031844   0.020996670961859608
0.21208088116635523   0.050373014021031844   0.020996670961859608
0.21208088116635523   0.050373014021031844   0.020996670961859608
0.21208088116635523   0.050373014021031844   0.020996670961859608
0.06674669533472295   0.014543306827756198   0.002567739439380743
0.06674669533472295   0.014543306827756198   0.002567739439380743
0.06674669533472295   0.014543306827756198   0.002567739439380743
0.06674669533472295   0.014543306827756198   0.002567739439380743
0.20262062637491332   0.027285631092214033   -0.003217220066535214
0.20262062637491332   0.027285631092214033   -0.003217220066535214
0.20262062637491332   0.027285631092214033   -0.003217220066535214
0.20262062637491332   0.027285631092214033   -0.003217220066535214
-0.08119833651841439   -0.011660649942306946   0.004107568829904631
-0.08119833651841439   -0.011660649942306946   0.004107568829904631
-0.08119833651841439   -0.011660649942306946   0.004107568829904631
-0.08119833651841439   -0.011660649942306946   0.004107568829904631
-0.10434247130714533   -0.046159996661055025   -0.015821671814071993
-0.10434247130714533   -0.046159996661055025   -0.015821671814071993
-0.10434247130714533   -0.046159996661055025   -0.015821671814071993
-0.10434247130714533   -0.046159996661055025   -0.015821671814071993
0.19511836694291548   0.03701956556991791   0.02282843236323349
0.19511836694291548   0.03701956556991791   0.02282843236323349
0.19511836694291548   0.03701956556991791   0.02282843236323349
0.19511836694291548   0.03701956556991791   0.02282843236323349
0.049676074757730865   0.001448613536186331   -0.0037221861975155483
0.049676074757730865   0.001448613536186331   -0.0037221861975155483
0.049676074757730865   0.001448613536186331   -0.0037221861975155483
0.049676074757730865   0.001448613536186331   -0.0037221861975155483
0.1859572626367211   0.014893983142473293   -0.0008515067402967988
0.1859572626367211   0.014893983142473293   -0.0008515067402967988
0.1859572626367211   0.014893983142473293   -0.0008515067402967988
0.1859572626367211   0.014893983142473293   -0.0008515067402967988
-0.0955390903272867   -0.02439213755994668   0.006427373984112738
-0.0955390903272867   -0.02439213755994668   0.006427373984112738
-0.0955390903272867   -0.02439213755994668   0.006427373984112738
-0.0955390903272867   -0.02439213755994668   0.006427373984112738
-0.11798262125579188   -0.05700132700785929   -0.01239071154140414
-0.11798262125579188   -0.05700132700785929   -0.01239071154140414
-0.11798262125579188   -0.05700132700785929   -0.01239071154140414
-0.11798262125579188   -0.05700132700785929   -0.01239071154140414
0.17981142112872792   0.02420959969373211   0.024834274398588384
0.17981142112872792   0.02420959969373211   0.024834274398588384
0.17981142112872792   0.02420959969373211   0.024834274398588384
0.17981142112872792   0.02420959969373211   0.024834274398588384
0.03600066851172374   -0.009391909200449454   -0.00926927398144961
0.03600066851172374   -0.009391909200449454   -0.00926927398144961
0.03600066851172374   -0.009391909200449454   -0.00926927398144961
0.03600066851172374   -0.009391909200449454   -0.00926927398144961
-0.056130531894320795   0.05299394467733839   0.004861410920677354
-0.056130531894320795   0.05299394467733839   0.004861410920677354
-0.056130531894320795   0.05299394467733839   0.004861410920677354
-0.056130531894320795   0.05299394467733839   0.004861410920677354
-0.3454863266247865   -0.008887089157244898   -0.01052254950125972
-0.3454863266247865   -0.008887089157244898   -0.01052254950125972
-0.3454863266247865   -0.008887089157244898   -0.01052254950125972
-0.3454863266247865   -0.008887089157244898   -0.01052254950125972
-0.3591400105414685   -0.02075717444940315   -0.00775653724320813
-0.3591400105414685   -0.02075717444940315   -0.00775653724320813
-0.3591400105414685   -0.02075717444940315   -0.00775653724320813
-0.3591400105414685   -0.02075717444940315   -0.00775653724320813
-0.07037722996145743   0.038401014266795236   0.008151437405585351
-0.07037722996145743   0.038401014266795236   0.008151437405585351
-0.07037722996145743   0.038401014266795236   0.008151437405585351
-0.07037722996145743   0.038401014266795236   0.008151437405585351
-0.20727486591383826   0.015190093117046437   0.004112680263268515
-0.20727486591383826   0.015190093117046437   0.004112680263268515
-0.20727486591383826   0.015190093117046437   0.004112680263268515
-0.20727486591383826   0.015190093117046437   0.004112680263268515
-0.06995831230462049   0.04029990053160094   0.008347139424964357
-0.06995831230462049   0.04029990053160094   0.008347139424964357
-0.06995831230462049   0.04029990053160094   0.008347139424964357
-0.06995831230462049   0.04029990053160094   0.008347139424964357
-0.35960137003251524   -0.022698502548418653   -0.008122006599426287
-0.35960137003251524   -0.022698502548418653   -0.008122006599426287
-0.35960137003251524   -0.022698502548418653   -0.008122006599426287
-0.35960137003251524   -0.022698502548418653   -0.008122006599426287
-0.37311156159876113   -0.033346528586678324   -0.0044528326631158004
-0.37311156159876113   -0.033346528586678324   -0.0044528326631158004
-0.37311156159876113   -0.033346528586678324   -0.0044528326631158004
-0.37311156159876113   -0.033346528586678324   -0.0044528326631158004
-0.08488755865603105   0.024659200324668142   0.010633694455776123
-0.08488755865603105   0.024659200324668142   0.010633694455776123
-0.08488755865603105   0.024659200324668142   0.010633694455776123
-0.08488755865603105   0.024659200324668142   0.010633694455776123
-0.2216382387568102   0.0029231174828704826   -0.0012897847337386796
-0.2216382387568102   0.0029231174828704826   -0.0012897847337386796
-0.2216382387568102   0.0029231174828704826   -0.0012897847337386796
-0.2216382387568102   0.0029231174828704826   -0.0012897847337386796
-0.08417003390873797   0.02759037265610951   0.011290145860800209
-0.08417003390873797   0.02759037265610951   0.011290145860800209
-0.08417003390873797   0.02759037265610951   0.011290145860800209
-0.08417003390873797   0.02759037265610951   0.011290145860800209
-0.37405724695953907   -0.036505861531604504   -0.006021926522079104
-0.37405724695953907   -0.036505861531604504   -0.006021926522079104
-0.37405724695953907   -0.036505861531604504   -0.006021926522079104
-0.37405724695953907   -0.036505861531604504   -0.006021926522079104
-0.3868434215756318   -0.04536948083321392   -0.001237380649271952
-0.3868434215756318   -0.04536948083321392   -0.001237380649271952
-0.3868434215756318   -0.04536948083321392   -0.001237380649271952
-0.3868434215756318   -0.04536948083321392   -0.001237380649271952
-0.09927875698265487   0.011307845542825937   0.01281943727359382
-0.09927875698265487   0.011307845542825937   0.01281943727359382
-0.09927875698265487   0.011307845542825937   0.01281943727359382
-0.09927875698265487   0.011307845542825937   0.01281943727359382
-0.23659709490971856   -0.009355962037976069   -0.007148060972762308
-0.23659709490971856   -0.009355962037976069   -0.007148060972762308
-0.23659709490971856   -0.009355962037976069   -0.007148060972762308
-0.23659709490971856   -0.009355962037976069   -0.007148060972762308
-0.32599715523379   0.06251062465689153   0.015525593639586506
-0.32599715523379   0.06251062465689153   0.015525593639586506
-0.32599715523379   0.06251062465689153   0.015525593639586506
-0.32599715523379   0.06251062465689153   0.015525593639586506
-0.6195728720583648   -0.021191770576720545   -0.021365696820886872
-0.6195728720583648   -0.021191770576720545   -0.021365696820886872
-0.6195728720583648   -0.021191770576720545   -0.021365696820886872
-0.6195728720583648   -0.021191770576720545   -0.021365696820886872
-0.6246920398651028   -0.00951356080346763   0.004869070060314555
-0.6246920398651028   -0.00951356080346763   0.004869070060314555
-0.6246920398651028   -0.00951356080346763   0.004869070060314555
-0.6246920398651028   -0.00951356080346763   0.004869070060314555
-0.34932998038262086   0.025041917935833685   -0.004505478834210867
-0.34932998038262086   0.025041917935833685   -0.004505478834210867
-0.34932998038262086   0.025041917935833685   -0.004505478834210867
-0.34932998038262086   0.025041917935833685   -0.004505478834210867
-0.4770367179061781   0.014345946190534836   0.005960983674476235
-0.4770367179061781   0.014345946190534836   0.005960983674476235
-0.4770367179061781   0.014345946190534836   0.005960983674476235
-0.4770367179061781   0.014345946190534836   0.005960983674476235
-0.3395720150778658   0.05033490272250292   0.018991362902899524
-0.3395720150778658   0.05033490272250292   0.018991362902899524
-0.3395720150778658   0.05033490272250292   0.018991362902899524
-0.3395720150778658   0.05033490272250292   0.018991362902899524
-0.6348818053600651   -0.0352383457803396   -0.020354972437633144
-0.6348818053600651   -0.0352383457803396   -0.020354972437633144
-0.6348818053600651   -0.0352383457803396   -0.020354972437633144
-0.6348818053600651   -0.0352383457803396   -0.020354972437633144
-0.6411681152470646   -0.02198537729583136   0.006394216643086918
-0.6411681152470646   -0.02198537729583136   0.006394216643086918
-0.6411681152470646   -0.02198537729583136   0.006394216643086918
-0.6411681152470646   -0.02198537729583136   0.006394216643086918
-0.363452358969859   0.012374296476600335   -0.0018776445818914356
-0.363452358969859   0.012374296476600335   -0.0018776445818914356
-0.363452358969859   0.012374296476600335   -0.0018776445818914356
-0.363452358969859   0.012374296476600335   -0.0018776445818914356
-0.4891030626494802   0.003237260760973207   0.0005487372975259211
-0.4891030626494802   0.003237260760973207   0.0005487372975259211
-0.4891030626494802   0.003237260760973207   0.0005487372975259211
-0.4891030626494802   0.003237260760973207   0.0005487372975259211
-0.35334226531604024   0.03875864449543118   0.022288475668375378
-0.35334226531604024   0.03875864449543118   0.022288475668375378
-0.35334226531604024   0.03875864449543118   0.022288475668375378
-0.35334226531604024   0.03875864449543118   0.022288475668375378
-0.6513187888799884   -0.0484103052937673   -0.0179342235236003
-0.6513187888799884   -0.0484103052937673   -0.0179342235236003
-0.6513187888799884   -0.0484103052937673   -0.0179342235236003
-0.6513187888799884   -0.0484103052937673   -0.0179342235236003
-0.6558277241029435   -0.03528772598420832   0.009844377025726873
-0.6558277241029435   -0.03528772598420832   0.009844377025726873
-0.6558277241029435   -0.03528772598420832   0.009844377025726873
-0.6558277241029435   -0.03528772598420832   0.009844377025726873
-0.3778236993266929   -0.0016951712905081823   0.0001869210527092012
-0.3778236993266929   -0.0016951712905081823   0.0001869210527092012
-0.3778236993266929   -0.0016951712905081823   0.0001869210527092012
-0.3778236993266929   -0.0016951712905081823   0.0001869210527092012
-0.5072872944618522   -0.009691295607677466   -0.005746864301067984
-0.5072872944618522   -0.009691295607677466   -0.005746864301067984
-0.5072872944618522   -0.009691295607677466   -0.005746864301067984
-0.5072872944618522   -0.009691295607677466   -0.005746864301067984
-0.594594211762252   0.057953738534481936   0.02438209554847462
-0.594594211762252   0.057953738534481936   0.02438209554847462
-0.594594211762252   0.057953738534481936   0.02438209554847462
-0.594594211762252   0.057953738534481936   0.02438209554847462
-0.8778027110842717   -0.040485245420924854   -0.027629384029649838
-0.8778027110842717   -0.040485245420924854   -0.027629384029649838
-0.8778027110842717   -0.040485245420924854   -0.027629384029649838
-0.8778027110842717   -0.040485245420924854   -0.027629384029649838
-0.8861786743215164   -0.0011901799711175332   0.024150164589965453
-0.8861786743215164   -0.0011901799711175332   0.024150164589965453
-0.8861786743215164   -0.0011901799711175332   0.024150164589965453
-0.8861786743215164   -0.0011901799711175332   0.024150164589965453
-0.6253357795306445   0.00868061260760472   -0.016543801678477965
-0.6253357795306445   0.00868061260760472   -0.016543801678477965
-0.6253357795306445   0.00868061260760472   -0.016543801678477965
-0.6253357795306445   0.00868061260760472   -0.016543801678477965
-0.7131264021580617   0.013360513580221334   0.01810921919970597
-0.7131264021580617   0.013360513580221334   0.01810921919970597
-0.7131264021580617   0.013360513580221334   0.01810921919970597
-0.7131264021580617   0.013360513580221334   0.01810921919970597
-0.6068922582608425   0.055589961482205824   0.02876445579593879
-0.6068922582608425   0.055589961482205824   0.02876445579593879
-0.6068922582608425   0.055589961482205824   0.02876445579593879
-0.6068922582608425   0.055589961482205824   0.02876445579593879
-0.9049926322530897   -0.04846996550749244   -0.022639839531518505
-0.9049926322530897   -0.04846996550749244   -0.022639839531518505
-0.9049926322530897   -0.04846996550749244   -0.022639839531518505
-0.9049926322530897   -0.04846996550749244   -0.022639839531518505
-0.9094743067037738   -0.00805640268361868   0.03042798456843994
-0.9094743067037738   -0.00805640268361868   0.03042798456843994
-0.9094743067037738   -0.00805640268361868   0.03042798456843994
-0.9094743067037738   -0.00805640268361868   0.03042798456843994
-0.6405204071564223   0.0017353362010796847   -0.014087956400620744
-0.6405204071564223   0.0017353362010796847   -0.014087956400620744
-0.6405204071564223   0.0017353362010796847   -0.014087956400620744
-0.6405204071564223   0.0017353362010796847   -0.014087956400620744
-0.744646878211379   0.0054781839450172565   0.009561872070822222
-0.744646878211379   0.0054781839450172565   0.009561872070822222
-0.744646878211379   0.0054781839450172565   0.009561872070822222
-0.744646878211379   0.0054781839450172565   0.009561872070822222
-0.6212164454665159   0.05028584191678723   0.03388134633321151
-0.6212164454665159   0.05028584191678723   0.03388134633321151
-0.6212164454665159   0.05028584191678723   0.03388134633321151
-0.6212164454665159   0.05028584191678723   0.03388134633321151
-0.9290450299303934   -0.056873669936037985   -0.018608364312238168
-0.9290450299303934   -0.056873669936037985   -0.018608364312238168
-0.9290450299303934   -0.056873669936037985   -0.018608364312238168
-0.9290450299303934   -0.056873669936037985   -0.018608364312238168
-0.9406383702826953   -0.029612738967029872   0.030499368221306784
-0.9406383702826953   -0.029612738967029872   0.030499368221306784
-0.9406383702826953   -0.029612738967029872   0.030499368221306784
-0.9406383702826953   -0.029612738967029872   0.030499368221306784
-0.6564176098342224   -0.015934042465994586   -0.012458735148892765
-0.6564176098342224   -0.015934042465994586   -0.012458735148892765
-0.6564176098342224   -0.015934042465994586   -0.012458735148892765
-0.6564176098342224   -0.015934042465994586   -0.012458735148892765
-0.753422146251578   -0.0035419448915841034   0.005522621929381598
-0.753422146251578   -0.0035419448915841034   0.005522621929381598
-0.753422146251578   -0.0035419448915841034   0.005522621929381598
-0.753422146251578   -0.0035419448915841034   0.005522621929381598
0.28083235719172306   0.016886503068173117   -0.03330747284413964
0.28083235719172306   0.016886503068173117   -0.03330747284413964
0.28083235719172306   0.016886503068173117   -0.03330747284413964
0.28083235719172306   0.016886503068173117   -0.03330747284413964
0.08226451214334041   0.019918930916887276   0.01588220514664417
0.08226451214334041   0.019918930916887276   0.01588220514664417
0.08226451214334041   0.019918930916887276   0.01588220514664417
0.08226451214334041   0.019918930916887276   0.01588220514664417
0.05128983349779568   -0.0407591063837701   -0.02938796265281289
0.05128983349779568   -0.0407591063837701   -0.02938796265281289
0.05128983349779568   -0.0407591063837701   -0.02938796265281289
0.05128983349779568   -0.0407591063837701   -0.02938796265281289
0.27323072046815106   0.04751722438895123   0.019107007564377852
0.27323072046815106   0.04751722438895123   0.019107007564377852
0.27323072046815106   0.04751722438895123   0.019107007564377852
0.27323072046815106   0.04751722438895123   0.019107007564377852
0.16188953970524808   0.007937470786813033   -0.003725902809538724
0.16188953970524808   0.007937470786813033   -0.003725902809538724
0.16188953970524808   0.007937470786813033   -0.003725902809538724
0.16188953970524808   0.007937470786813033   -0.003725902809538724
0.2536904383217794   -0.0005140238700923963   -0.030563154908438736
0.2536904383217794   -0.0005140238700923963   -0.030563154908438736
0.2536904383217794   -0.0005140238700923963   -0.030563154908438736
0.2536904383217794   -0.0005140238700923963   -0.030563154908438736
0.07022065732066833   0.006662683551779474   0.0178443665260018
0.07022065732066833   0.006662683551779474   0.0178443665260018
0.07022065732066833   0.006662683551779474   0.0178443665260018
0.07022065732066833   0.006662683551779474   0.0178443665260018
0.03960365188495015   -0.04650904289733676   -0.02498023234181051
0.03960365188495015   -0.04650904289733676   -0.02498023234181051
0.03960365188495015   -0.04650904289733676   -0.02498023234181051
0.03960365188495015   -0.04650904289733676   -0.02498023234181051
0.25222284474059153   0.0395856547859415   0.024574590118063216
0.25222284474059153   0.0395856547859415   0.024574590118063216
0.25222284474059153   0.0395856547859415   0.024574590118063216
0.25222284474059153   0.0395856547859415   0.024574590118063216
0.14728225279502113   -0.0010559167272002623   -0.009543062676688101
0.14728225279502113   -0.0010559167272002623   -0.009543062676688101
0.14728225279502113   -0.0010559167272002623   -0.009543062676688101
0.14728225279502113   -0.0010559167272002623   -0.009543062676688101
0.2327860041123314   -0.007901098025798449   -0.025122860211500224
0.2327860041123314   -0.007901098025798449   -0.025122860211500224
0.2327860041123314   -0.007901098025798449   -0.025122860211500224
0.2327860041123314   -0.007901098025798449   -0.025122860211500224
0.058221921097167686   0.0001591384983602867   0.021442932323581035
0.058221921097167686   0.0001591384983602867   0.021442932323581035
0.058221921097167686   0.0001591384983602867   0.021442932323581035
0.058221921097167686   0.0001591384983602867   0.021442932323581035
0.029160598407070207   -0.05338968317551739   -0.02081574671959305
0.029160598407070207   -0.05338968317551739   -0.02081574671959305
0.029160598407070207   -0.05338968317551739   -0.02081574671959305
0.029160598407070207   -0.05338968317551739   -0.02081574671959305
0.22619288824128575   0.026934562028272387   0.027307603680210076
0.22619288824128575   0.026934562028272387   0.027307603680210076
0.22619288824128575   0.026934562028272387   0.027307603680210076
0.22619288824128575   0.026934562028272387   0.027307603680210076
0.12694548252014384   -0.00904159902936117   -0.01668098174097283
0.12694548252014384   -0.00904159902936117   -0.01668098174097283
0.12694548252014384   -0.00904159902936117   -0.01668098174097283
0.12694548252014384   -0.00904159902936117   -0.01668098174097283
0.07925772297721656   0.030341461427571992   -0.009574271194660297
0.07925772297721656   0.030341461427571992   -0.009574271194660297
0.07925772297721656   0.030341461427571992   -0.009574271194660297
0.07925772297721656   0.030341461427571992   -0.009574271194660297
-0.11249160787587838   0.009616830931172361   0.003815756144316772
-0.11249160787587838   0.009616830931172361   0.003815756144316772
-0.11249160787587838   0.009616830931172361   0.003815756144316772
-0.11249160787587838   0.009616830931172361   0.003815756144316772
-0.13245069565477594   -0.0261680492217227   -0.017177068430781935
-0.13245069565477594   -0.0261680492217227   -0.017177068430781935
-0.13245069565477594   -0.0261680492217227   -0.017177068430781935
-0.13245069565477594   -0.0261680492217227   -0.017177068430781935
0.0765009825801934   0.037635802770640624   0.01827287360476601
0.0765009825801934   0.037635802770640624   0.01827287360476601
0.0765009825801934   0.037635802770640624   0.01827287360476601
0.0765009825801934   0.037635802770640624   0.01827287360476601
-0.022972177951738615   0.012310713173606387   0.003162787534957953
-0.022972177951738615   0.012310713173606387   0.003162787534957953
-0.022972177951738615   0.012310713173606387   0.003162787534957953
-0.022972177951738615   0.012310713173606387   0.003162787534957953
0.06706537185458461   0.01576391876314852   -0.00703329601578637
0.06706537185458461   0.01576391876314852   -0.00703329601578637
0.06706537185458461   0.01576391876314852   -0.00703329601578637
0.06706537185458461   0.01576391876314852   -0.00703329601578637
-0.12353746714021076   -0.004818547425274308   0.006039572345595509
-0.12353746714021076   -0.004818547425274308   0.006039572345595509
-0.12353746714021076   -0.004818547425274308   0.006039572345595509
-0.12353746714021076   -0.004818547425274308   0.006039572345595509
-0.14290251460847847   -0.03784429643014264   -0.01346999608567532
-0.14290251460847847   -0.03784429643014264   -0.01346999608567532
-0.14290251460847847   -0.03784429643014264   -0.01346999608567532
-0.14290251460847847   -0.03784429643014264   -0.01346999608567532
0.06278848860728797   0.02450792691631027   0.01992698145623246
0.06278848860728797   0.02450792691631027   0.01992698145623246
0.06278848860728797   0.02450792691631027   0.01992698145623246
0.06278848860728797   0.02450792691631027   0.01992698145623246
-0.035898756816672706   -0.00030761002444316086   -0.002886480857517509
-0.035898756816672706   -0.00030761002444316086   -0.002886480857517509
-0.035898756816672706   -0.00030761002444316086   -0.002886480857517509
-0.035898756816672706   -0.00030761002444316086   -0.002886480857517509
0.053629528798308075   0.0032367777782369425   -0.004596668450594611
0.053629528798308075   0.0032367777782369425   -0.004596668450594611
0.053629528798308075   0.0032367777782369425   -0.004596668450594611
0.053629528798308075   0.0032367777782369425   -0.004596668450594611
-0.13442008875221964   -0.01724968124478509   0.008347518010263255
-0.13442008875221964   -0.01724968124478509   0.008347518010263255
-0.13442008875221964   -0.01724968124478509   0.008347518010263255
-0.13442008875221964   -0.01724968124478509   0.008347518010263255
-0.15327291620374348   -0.04939824519617066   -0.010120612718423416
-0.15327291620374348   -0.04939824519617066   -0.010120612718423416
-0.15327291620374348   -0.04939824519617066   -0.010120612718423416
-0.15327291620374348   -0.04939824519617066   -0.010120612718423416
0.0507818357508988   0.011648057724481015   0.02225269909955198
0.0507818357508988   0.011648057724481015   0.02225269909955198
0.0507818357508988   0.011648057724481015   0.02225269909955198
0.0507818357508988   0.011648057724481015   0.02225269909955198
-0.0470617274690013   -0.01157290251837844   -0.008589894601670851
-0.0470617274690013   -0.01157290251837844   -0.008589894601670851
-0.0470617274690013   -0.01157290251837844   -0.008589894601670851
-0.0470617274690013   -0.01157290251837844   -0.008589894601670851
-0.10662531515317296   0.04128536097927749   0.0014786897097386967
-0.10662531515317296   0.04128536097927749   0.0014786897097386967
-0.10662531515317296   0.04128536097927749   0.0014786897097386967
-0.10662531515317296   0.04128536097927749   0.0014786897097386967
-0.3045875615869123   -0.003785666805533397   -0.008409347331528264
-0.3045875615869123   -0.003785666805533397   -0.008409347331528264
-0.3045875615869123   -0.003785666805533397   -0.008409347331528264
-0.3045875615869123   -0.003785666805533397   -0.008409347331528264
-0.3140119771996761   -0.012964869811372008   -0.005043235747062865
-0.3140119771996761   -0.012964869811372008   -0.005043235747062865
-0.3140119771996761   -0.012964869811372008   -0.005043235747062865
-0.3140119771996761   -0.012964869811372008   -0.005043235747062865
-0.1176614170160469   0.024785706175908154   0.005815569365230221
-0.1176614170160469   0.024785706175908154   0.005815569365230221
-0.1176614170160469   0.024785706175908154   0.005815569365230221
-0.1176614170160469   0.024785706175908154   0.005815569365230221
-0.21021761105700165   0.012062573436682232   0.0032673797026791917
-0.21021761105700165   0.012062573436682232   0.0032673797026791917
-0.21021761105700165   0.012062573436682232   0.0032673797026791917
-0.21021761105700165   0.012062573436682232   0.0032673797026791917
-0.11711143044363209   0.028411773641576907   0.004939434761637671
-0.11711143044363209   0.028411773641576907   0.004939434761637671
-0.11711143044363209   0.028411773641576907   0.004939434761637671
-0.11711143044363209   0.028411773641576907   0.004939434761637671
-0.3150204861649009   -0.01704945966985097   -0.006001190714711453
-0.3150204861649009   -0.01704945966985097   -0.006001190714711453
-0.3150204861649009   -0.01704945966985097   -0.006001190714711453
-0.3150204861649009   -0.01704945966985097   -0.006001190714711453
-0.3244204779181954   -0.025711820783641266   -0.0016884918236066328
-0.3244204779181954   -0.025711820783641266   -0.0016884918236066328
-0.3244204779181954   -0.025711820783641266   -0.0016884918236066328
-0.3244204779181954   -0.025711820783641266   -0.0016884918236066328
-0.12869206694863194   0.011471319928705571   0.008266625854707154
-0.12869206694863194   0.011471319928705571   0.008266625854707154
-0.12869206694863194   0.011471319928705571   0.008266625854707154
-0.12869206694863194   0.011471319928705571   0.008266625854707154
-0.22107467454633864   -5.021162003217283e-05   -0.002151930313589588
-0.22107467454633864   -5.021162003217283e-05   -0.002151930313589588
-0.22107467454633864   -5.021162003217283e-05   -0.002151930313589588
-0.22107467454633864   -5.021162003217283e-05   -0.002151930313589588
-0.1279541754708284   0.015503848920866904   0.007923554251567303
-0.1279541754708284   0.015503848920866904   0.007923554251567303
-0.1279541754708284   0.015503848920866904   0.007923554251567303
-0.1279541754708284   0.015503848920866904   0.007923554251567303
-0.32580976466434425   -0.03039574504414732   -0.0039510012938450256
-0.32580976466434425   -0.03039574504414732   -0.0039510012938450256
-0.32580976466434425   -0.03039574504414732   -0.0039510012938450256
-0.32580976466434425   -0.03039574504414732   -0.0039510012938450256
-0.3346254036393109   -0.038012758701631816   0.0015630627079610548
-0.3346254036393109   -0.038012758701631816   0.0015630627079610548
-0.3346254036393109   -0.038012758701631816   0.0015630627079610548
-0.3346254036393109   -0.038012758701631816   0.0015630627079610548
-0.13953850338076496   -0.0013504709443423087   0.010503677144642749
-0.13953850338076496   -0.0013504709443423087   0.010503677144642749
-0.13953850338076496   -0.0013504709443423087   0.010503677144642749
-0.13953850338076496   -0.0013504709443423087   0.010503677144642749
-0.23250140339230688   -0.012189813378339853   -0.00803770791746489
-0.23250140339230688   -0.012189813378339853   -0.00803770791746489
-0.23250140339230688   -0.012189813378339853   -0.00803770791746489
-0.23250140339230688   -0.012189813378339853   -0.00803770791746489
-0.2892350439399232   0.05171870769226823   0.012848866405615573
-0.2892350439399232   0.05171870769226823   0.012848866405615573
-0.2892350439399232   0.05171870769226823   0.012848866405615573
-0.2892350439399232   0.05171870769226823   0.012848866405615573
-0.492632792408122   -0.014832218687077695   -0.01912903946191619
-0.492632792408122   -0.014832218687077695   -0.01912903946191619
-0.492632792408122   -0.014832218687077695   -0.01912903946191619
-0.492632792408122   -0.014832218687077695   -0.01912903946191619
-0.49356008752339214   -0.0013416300887438837   0.007806888183703172
-0.49356008752339214   -0.0013416300887438837   0.007806888183703172
-0.49356008752339214   -0.0013416300887438837   0.007806888183703172
-0.49356008752339214   -0.0013416300887438837   0.007806888183703172
-0.30905650577645516   0.012762711971660068   -0.005993460413998147
-0.30905650577645516   0.012762711971660068   -0.005993460413998147
-0.30905650577645516   0.012762711971660068   -0.005993460413998147
-0.30905650577645516   0.012762711971660068   -0.005993460413998147
-0.3940842438510915   0.012046280709868781   0.004280647230811386
-0.3940842438510915   0.012046280709868781   0.004280647230811386
-0.3940842438510915   0.012046280709868781   0.004280647230811386
-0.3940842438510915   0.012046280709868781   0.004280647230811386
-0.29930401295999887   0.039212125262658756   0.016319590377292463
-0.29930401295999887   0.039212125262658756   0.016319590377292463
-0.29930401295999887   0.039212125262658756   0.016319590377292463
-0.29930401295999887   0.039212125262658756   0.016319590377292463
-0.5041910127376743   -0.02866947577756261   -0.018019892198892454
-0.5041910127376743   -0.02866947577756261   -0.018019892198892454
-0.5041910127376743   -0.02866947577756261   -0.018019892198892454
-0.5041910127376743   -0.02866947577756261   -0.018019892198892454
-0.5063782120716467   -0.013913189741834711   0.0096107774277517
-0.5063782120716467   -0.013913189741834711   0.0096107774277517
-0.5063782120716467   -0.013913189741834711   0.0096107774277517
-0.5063782120716467   -0.013913189741834711   0.0096107774277517
-0.3195197069877859   0.0004955708250949098   -0.003392028780299282
-0.3195197069877859   0.0004955708250949098   -0.003392028780299282
-0.3195197069877859   0.0004955708250949098   -0.003392028780299282
-0.3195197069877859   0.0004955708250949098   -0.003392028780299282
-0.40329287443592315   0.0007679908744711861   -0.0013979151693223925
-0.40329287443592315   0.0007679908744711861   -0.0013979151693223925
-0.40329287443592315   0.0007679908744711861   -0.0013979151693223925
-0.40329287443592315   0.0007679908744711861   -0.0013979151693223925
-0.30950851922885814   0.027475407924216946   0.01968407291522137
-0.30950851922885814   0.027475407924216946   0.01968407291522137
-0.30950851922885814   0.027475407924216946   0.01968407291522137
-0.30950851922885814   0.027475407924216946   0.01968407291522137
-0.5169376561465067   -0.04144128315689016   -0.015658349531503878
-0.5169376561465067   -0.04144128315689016   -0.015658349531503878
-0.5169376561465067   -0.04144128315689016   -0.015658349531503878
-0.5169376561465067   -0.04144128315689016   -0.015658349531503878
-0.5174412670071319   -0.027032709015825954   0.01311680010655945
-0.5174412670071319   -0.027032709015825954   0.01311680010655945
-0.5174412670071319   -0.027032709015825954   0.01311680010655945
-0.5174412670071319   -0.027032709015825954   0.01311680010655945
-0.33011615490392804   -0.01264193498652632   -0.0012615173302376898
-0.33011615490392804   -0.01264193498652632   -0.0012615173302376898
-0.33011615490392804   -0.01264193498652632   -0.0012615173302376898
-0.33011615490392804   -0.01264193498652632   -0.0012615173302376898
-0.41704296883547204   -0.011551431348418392   -0.007598679862490881
-0.41704296883547204   -0.011551431348418392   -0.007598679862490881
-0.41704296883547204   -0.011551431348418392   -0.007598679862490881
-0.41704296883547204   -0.011551431348418392   -0.007598679862490881
-0.4711038216125867   0.050930940370900804   0.02275265545779339
-0.4711038216125867   0.050930940370900804   0.02275265545779339
-0.4711038216125867   0.050930940370900804   0.02275265545779339
-0.4711038216125867   0.050930940370900804   0.02275265545779339
-0.6638718339740671   -0.030643299867907606   -0.028907422940373576
-0.6638718339740671   -0.030643299867907606   -0.028907422940373576
-0.6638718339740671   -0.030643299867907606   -0.028907422940373576
-0.6638718339740671   -0.030643299867907606   -0.028907422940373576
-0.6686832972466819   0.008102269754691083   0.023912001772991312
-0.6686832972466819   0.008102269754691083   0.023912001772991312
-0.6686832972466819   0.008102269754691083   0.023912001772991312
-0.6686832972466819   0.008102269754691083   0.023912001772991312
-0.498648465163055   -0.0013424165232292506   -0.017634213580133097
-0.498648465163055   -0.0013424165232292506   -0.017634213580133097
-0.498648465163055   -0.0013424165232292506   -0.017634213580133097
-0.498648465163055   -0.0013424165232292506   -0.017634213580133097
-0.550806215892433   0.012120700056316575   0.013409377601547326
-0.550806215892433   0.012120700056316575   0.013409377601547326
-0.550806215892433   0.012120700056316575   0.013409377601547326
-0.550806215892433   0.012120700056316575   0.013409377601547326
-0.4801908249804584   0.046400565012723854   0.026911005796900894
-0.4801908249804584   0.046400565012723854   0.026911005796900894
-0.4801908249804584   0.046400565012723854   0.026911005796900894
-0.4801908249804584   0.046400565012723854   0.026911005796900894
-0.6880774710815226   -0.040577245433499165   -0.024379352213014953
-0.6880774710815226   -0.040577245433499165   -0.024379352213014953
-0.6880774710815226   -0.040577245433499165   -0.024379352213014953
-0.6880774710815226   -0.040577245433499165   -0.024379352213014953
-0.6886645952938688   0.0010292104646659195   0.03052560305475696
-0.6886645952938688   0.0010292104646659195   0.03052560305475696
-0.6886645952938688   0.0010292104646659195   0.03052560305475696
-0.6886645952938688   0.0010292104646659195   0.03052560305475696
-0.5101793518410425   -0.008187038580849765   -0.015121072580223525
-0.5101793518410425   -0.008187038580849765   -0.015121072580223525
-0.5101793518410425   -0.008187038580849765   -0.015121072580223525
-0.5101793518410425   -0.008187038580849765   -0.015121072580223525
-0.5764196355129257   0.0037665278014915593   0.004930098652445765
-0.5764196355129257   0.0037665278014915593   0.004930098652445765
-0.5764196355129257   0.0037665278014915593   0.004930098652445765
-0.5764196355129257   0.0037665278014915593   0.004930098652445765
-0.49094508728102176   0.040867194820076336   0.03199601681896194
-0.49094508728102176   0.040867194820076336   0.03199601681896194
-0.49094508728102176   0.040867194820076336   0.03199601681896194
-0.49094508728102176   0.040867194820076336   0.03199601681896194
-0.7087820078543478   -0.04890817093671322   -0.020124078346250917
-0.7087820078543478   -0.04890817093671322   -0.020124078346250917
-0.7087820078543478   -0.04890817093671322   -0.020124078346250917
-0.7087820078543478   -0.04890817093671322   -0.020124078346250917
-0.7162812824610599   -0.019115839716475347   0.03149595122554102
-0.7162812824610599   -0.019115839716475347   0.03149595122554102
-0.7162812824610599   -0.019115839716475347   0.03149595122554102
-0.7162812824610599   -0.019115839716475347   0.03149595122554102
-0.5220835224083278   -0.023939933135635957   -0.013187252779617267
-0.5220835224083278   -0.023939933135635957   -0.013187252779617267
-0.5220835224083278   -0.023939933135635957   -0.013187252779617267
-0.5220835224083278   -0.023939933135635957   -0.013187252779617267
-0.5846581456042156   -0.005141959957637082   -8.896731845829675e-05
-0.5846581456042156   -0.005141959957637082   -8.896731845829675e-05
-0.5846581456042156   -0.005141959957637082   -8.896731845829675e-05
-0.5846581456042156   -0.005141959957637082   -8.896731845829675e-05
0.05408976911045464   0.004440224754157236   -0.03333658263412028
0.05408976911045464   0.004440224754157236   -0.03333658263412028
0.05408976911045464   0.004440224754157236   -0.03333658263412028
0.05408976911045464   0.004440224754157236   -0.03333658263412028
-0.052228660840701234   0.024911486623443824   0.016997586918518513
-0.052228660840701234   0.024911486623443824   0.016997586918518513
-0.052228660840701234   0.024911486623443824   0.016997586918518513
-0.052228660840701234   0.024911486623443824   0.016997586918518513
-0.07940173294696928   -0.03220586856032334   -0.02687600376685932
-0.07940173294696928   -0.03220586856032334   -0.02687600376685932
-0.07940173294696928   -0.03220586856032334   -0.02687600376685932
-0.07940173294696928   -0.03220586856032334   -0.02687600376685932
0.04997329800224585   0.03563224257094337   0.02084175286835617
0.04997329800224585   0.03563224257094337   0.02084175286835617
0.04997329800224585   0.03563224257094337   0.02084175286835617
0.04997329800224585   0.03563224257094337   0.02084175286835617
-0.008175763147873452   0.00782514424932871   0.00287610147035136
-0.008175763147873452   0.00782514424932871   0.00287610147035136
-0.008175763147873452   0.00782514424932871   0.00287610147035136
-0.008175763147873452   0.00782514424932871   0.00287610147035136
0.030549045736872983   -0.010808304373079983   -0.029838961514484792
0.030549045736872983   -0.010808304373079983   -0.029838961514484792
0.030549045736872983   -0.010808304373079983   -0.029838961514484792
0.030549045736872983   -0.010808304373079983   -0.029838961514484792
-0.0611180352305871   0.013094123834709344   0.01924249242001898
-0.0611180352305871   0.013094123834709344   0.01924249242001898
-0.0611180352305871   0.013094123834709344   0.01924249242001898
-0.0611180352305871   0.013094123834709344   0.01924249242001898
-0.08837291168566279   -0.03801019929171454   -0.02280892384396265
-0.08837291168566279   -0.03801019929171454   -0.02280892384396265
-0.08837291168566279   -0.03801019929171454   -0.02280892384396265
-0.08837291168566279   -0.03801019929171454   -0.02280892384396265
0.031546659234491986   0.027760732450203725   0.028618229661058037
0.031546659234491986   0.027760732450203725   0.028618229661058037
0.031546659234491986   0.027760732450203725   0.028618229661058037
0.031546659234491986   0.027760732450203725   0.028618229661058037
-0.02265597045199833   -0.0008754588232095422   -0.0038130587931644797
-0.02265597045199833   -0.0008754588232095422   -0.0038130587931644797
-0.02265597045199833   -0.0008754588232095422   -0.0038130587931644797
-0.02265597045199833   -0.0008754588232095422   -0.0038130587931644797
0.011664374635963391   -0.018372874529061015   -0.024659586352321173
0.011664374635963391   -0.018372874529061015   -0.024659586352321173
0.011664374635963391   -0.018372874529061015   -0.024659586352321173
0.011664374635963391   -0.018372874529061015   -0.024659586352321173
-0.07007685857351816   0.006537176201165911   0.024123966223879106
-0.07007685857351816   0.006537176201165911   0.024123966223879106
-0.07007685857351816   0.006537176201165911   0.024123966223879106
-0.07007685857351816   0.006537176201165911   0.024123966223879106
-0.09658764330899097   -0.046867944447173265   -0.01892439714675683
-0.09658764330899097   -0.046867944447173265   -0.01892439714675683
-0.09658764330899097   -0.046867944447173265   -0.01892439714675683
-0.09658764330899097   -0.046867944447173265   -0.01892439714675683
0.0059542777666505555   0.011303907687091913   0.032658553794266944
0.0059542777666505555   0.011303907687091913   0.032658553794266944
0.0059542777666505555   0.011303907687091913   0.032658553794266944
0.0059542777666505555   0.011303907687091913   0.032658553794266944
-0.03834434678055328   -0.009608493981881305   -0.011552557766101668
-0.03834434678055328   -0.009608493981881305   -0.011552557766101668
-0.03834434678055328   -0.009608493981881305   -0.011552557766101668
-0.03834434678055328   -0.009608493981881305   -0.011552557766101668
-0.05990121788452525   0.01673417947095673   -0.013187891148114498
-0.05990121788452525   0.01673417947095673   -0.013187891148114498
-0.05990121788452525   0.01673417947095673   -0.013187891148114498
-0.05990121788452525   0.01673417947095673   -0.013187891148114498
-0.15916686444568964   0.0067090546482447486   0.004406380924647154
-0.15916686444568964   0.0067090546482447486   0.004406380924647154
-0.15916686444568964   0.0067090546482447486   0.004406380924647154
-0.15916686444568964   0.0067090546482447486   0.004406380924647154
-0.17321992311672382   -0.01876417469553794   -0.014006108029194279
-0.17321992311672382   -0.01876417469553794   -0.014006108029194279
-0.17321992311672382   -0.01876417469553794   -0.014006108029194279
-0.17321992311672382   -0.01876417469553794   -0.014006108029194279
-0.06164302842884101   0.01631602848938084   0.013395621774077961
-0.06164302842884101   0.01631602848938084   0.013395621774077961
-0.06164302842884101   0.01631602848938084   0.013395621774077961
-0.06164302842884101   0.01631602848938084   0.013395621774077961
-0.11326387552643302   0.004915917973180039   0.0026427551994291183
-0.11326387552643302   0.004915917973180039   0.0026427551994291183
-0.11326387552643302   0.004915917973180039   0.0026427551994291183
-0.11326387552643302   0.004915917973180039   0.0026427551994291183
-0.06922019556693683   0.00266846277904521   -0.010842648206065508
-0.06922019556693683   0.00266846277904521   -0.010842648206065508
-0.06922019556693683   0.00266846277904521   -0.010842648206065508
-0.06922019556693683   0.00266846277904521   -0.010842648206065508
-0.1665844685891859   -0.006058321595760564   0.006465311508715866
-0.1665844685891859   -0.006058321595760564   0.006465311508715866
-0.1665844685891859   -0.006058321595760564   0.006465311508715866
-0.1665844685891859   -0.006058321595760564   0.006465311508715866
-0.18021226018585654   -0.03014995259298009   -0.010361667297074805
-0.18021226018585654   -0.03014995259298009   -0.010361667297074805
-0.18021226018585654   -0.03014995259298009   -0.010361667297074805
-0.18021226018585654   -0.03014995259298009   -0.010361667297074805
-0.07244197768292499   0.0037305564295011372   0.015104990448509763
-0.07244197768292499   0.0037305564295011372   0.015104990448509763
-0.07244197768292499   0.0037305564295011372   0.015104990448509763
-0.07244197768292499   0.0037305564295011372   0.015104990448509763
-0.12209516942235694   -0.006530466910232704   -0.0031078632554432063
-0.12209516942235694   -0.006530466910232704   -0.0031078632554432063
-0.12209516942235694   -0.006530466910232704   -0.0031078632554432063
-0.12209516942235694   -0.006530466910232704   -0.0031078632554432063
-0.0797513319238973   -0.009606398622121908   -0.008104825704727824
-0.0797513319238973   -0.009606398622121908   -0.008104825704727824
-0.0797513319238973   -0.009606398622121908   -0.008104825704727824
-0.0797513319238973   -0.009606398622121908   -0.008104825704727824
-0.1739149533510071   -0.017825044947482313   0.00879995923167463
-0.1739149533510071   -0.017825044947482313   0.00879995923167463
-0.1739149533510071   -0.017825044947482313   0.00879995923167463
-0.1739149533510071   -0.017825044947482313   0.00879995923167463
-0.1872506462671869   -0.04183615619562621   -0.007135888482898419
-0.1872506462671869   -0.04183615619562621   -0.007135888482898419
-0.1872506462671869   -0.04183615619562621   -0.007135888482898419
-0.1872506462671869   -0.04183615619562621   -0.007135888482898419
-0.08147829187850417   -0.008984857303453976   0.01873927286195793
-0.08147829187850417   -0.008984857303453976   0.01873927286195793
-0.08147829187850417   -0.008984857303453976   0.01873927286195793
-0.08147829187850417   -0.008984857303453976   0.01873927286195793
-0.13089503649162237   -0.017814609948265003   -0.008946350607921993
-0.13089503649162237   -0.017814609948265003   -0.008946350607921993
-0.13089503649162237   -0.017814609948265003   -0.008946350607921993
-0.13089503649162237   -0.017814609948265003   -0.008946350607921993
-0.15620982770268277   0.027293227746002555   -0.0013926084580780686
-0.15620982770268277   0.027293227746002555   -0.0013926084580780686
-0.15620982770268277   0.027293227746002555   -0.0013926084580780686
-0.15620982770268277   0.027293227746002555   -0.0013926084580780686
-0.2650022679314985   -0.009155158214788309   -0.007534926982881086
-0.2650022679314985   -0.009155158214788309   -0.007534926982881086
-0.2650022679314985   -0.009155158214788309   -0.007534926982881086
-0.2650022679314985   -0.009155158214788309   -0.007534926982881086
-0.26781652510196624   -0.006737531926050241   -0.0016455130586424185
-0.26781652510196624   -0.006737531926050241   -0.0016455130586424185
-0.26781652510196624   -0.006737531926050241   -0.0016455130586424185
-0.26781652510196624   -0.006737531926050241   -0.0016455130586424185
-0.16589691411018018   0.0017718352049032743   0.0020729271030807545
-0.16589691411018018   0.0017718352049032743   0.0020729271030807545
-0.16589691411018018   0.0017718352049032743   0.0020729271030807545
-0.16589691411018018   0.0017718352049032743   0.0020729271030807545
-0.213279604641247   0.0030767657449247907   0.0009423114270118525
-0.213279604641247   0.0030767657449247907   0.0009423114270118525
-0.213279604641247   0.0030767657449247907   0.0009423114270118525
-0.213279604641247   0.0030767657449247907   0.0009423114270118525
-0.16327717092287333   0.014906780975333725   0.002036697269184505
-0.16327717092287333   0.014906780975333725   0.002036697269184505
-0.16327717092287333   0.014906780975333725   0.002036697269184505
-0.16327717092287333   0.014906780975333725   0.002036697269184505
-0.2713440288210642   -0.020780238228271762   -0.005240325351910456
-0.2713440288210642   -0.020780238228271762   -0.005240325351910456
-0.2713440288210642   -0.020780238228271762   -0.005240325351910456
-0.2713440288210642   -0.020780238228271762   -0.005240325351910456
-0.2743772824000974   -0.018970395768838598   0.0017432628184517202
-0.2743772824000974   -0.018970395768838598   0.0017432628184517202
-0.2743772824000974   -0.018970395768838598   0.0017432628184517202
-0.2743772824000974   -0.018970395768838598   0.0017432628184517202
-0.1733053704309654   -0.010258305479259398   0.004281134363660203
-0.1733053704309654   -0.010258305479259398   0.004281134363660203
-0.1733053704309654   -0.010258305479259398   0.004281134363660203
-0.1733053704309654   -0.010258305479259398   0.004281134363660203
-0.22038550493969433   -0.008049023075232926   -0.004337995353933031
-0.22038550493969433   -0.008049023075232926   -0.004337995353933031
-0.22038550493969433   -0.008049023075232926   -0.004337995353933031
-0.22038550493969433   -0.008049023075232926   -0.004337995353933031
-0.1706116290761743   0.0024436578866057906   0.005047877771750595
-0.1706116290761743   0.0024436578866057906   0.005047877771750595
-0.1706116290761743   0.0024436578866057906   0.005047877771750595
-0.1706116290761743   0.0024436578866057906   0.005047877771750595
-0.2781660343369951   -0.032767369716810386   -0.0034035229180650692
-0.2781660343369951   -0.032767369716810386   -0.0034035229180650692
-0.2781660343369951   -0.032767369716810386   -0.0034035229180650692
-0.2781660343369951   -0.032767369716810386   -0.0034035229180650692
-0.2807649479665433   -0.030696951124497454   0.004997720829645325
-0.2807649479665433   -0.030696951124497454   0.004997720829645325
-0.2807649479665433   -0.030696951124497454   0.004997720829645325
-0.2807649479665433   -0.030696951124497454   0.004997720829645325
-0.18042714986535113   -0.02159757632304013   0.006743013653694259
-0.18042714986535113   -0.02159757632304013   0.006743013653694259
-0.18042714986535113   -0.02159757632304013   0.006743013653694259
-0.18042714986535113   -0.02159757632304013   0.006743013653694259
-0.22803186578815782   -0.019239713395059373   -0.010076424635382896
-0.22803186578815782   -0.019239713395059373   -0.010076424635382896
-0.22803186578815782   -0.019239713395059373   -0.010076424635382896
-0.22803186578815782   -0.019239713395059373   -0.010076424635382896
-0.2516309882038807   0.0393560106118654   0.010810302828558004
-0.2516309882038807   0.0393560106118654   0.010810302828558004
-0.2516309882038807   0.0393560106118654   0.010810302828558004
-0.2516309882038807   0.0393560106118654   0.010810302828558004
-0.3667979680213691   -0.01529977191603496   -0.016873399220043998
-0.3667979680213691   -0.01529977191603496   -0.016873399220043998
-0.3667979680213691   -0.01529977191603496   -0.016873399220043998
-0.3667979680213691   -0.01529977191603496   -0.016873399220043998
-0.3619449816130129   0.005602814764641126   0.011095529387449583
-0.3619449816130129   0.005602814764641126   0.011095529387449583
-0.3619449816130129   0.005602814764641126   0.011095529387449583
-0.3619449816130129   0.005602814764641126   0.011095529387449583
-0.26866800547794073   -0.005169503346127882   -0.007470943518437367
-0.26866800547794073   -0.005169503346127882   -0.007470943518437367
-0.26866800547794073   -0.005169503346127882   -0.007470943518437367
-0.26866800547794073   -0.005169503346127882   -0.007470943518437367
-0.3111576787202856   0.006157733691794162   0.0015470310756238205
-0.3111576787202856   0.006157733691794162   0.0015470310756238205
-0.3111576787202856   0.006157733691794162   0.0015470310756238205
-0.3111576787202856   0.006157733691794162   0.0015470310756238205
-0.25788171132169946   0.027045473107285112   0.01424555080935604
-0.25788171132169946   0.027045473107285112   0.01424555080935604
-0.25788171132169946   0.027045473107285112   0.01424555080935604
-0.25788171132169946   0.027045473107285112   0.01424555080935604
-0.3740575234712985   -0.027938409390816862   -0.015925955748524474
-0.3740575234712985   -0.027938409390816862   -0.015925955748524474
-0.3740575234712985   -0.027938409390816862   -0.015925955748524474
-0.3740575234712985   -0.027938409390816862   -0.015925955748524474
-0.37072960646835323   -0.006444527575897752   0.013117378695304736
-0.37072960646835323   -0.006444527575897752   0.013117378695304736
-0.37072960646835323   -0.006444527575897752   0.013117378695304736
-0.37072960646835323   -0.006444527575897752   0.013117378695304736
-0.27517122733108007   -0.016122616830867416   -0.005074240774432762
-0.27517122733108007   -0.016122616830867416   -0.005074240774432762
-0.27517122733108007   -0.016122616830867416   -0.005074240774432762
-0.27517122733108007   -0.016122616830867416   -0.005074240774432762
-0.3171194758332936   -0.004560387239460534   -0.004176198396909921
-0.3171194758332936   -0.004560387239460534   -0.004176198396909921
-0.3171194758332936   -0.004560387239460534   -0.004176198396909921
-0.3171194758332936   -0.004560387239460534   -0.004176198396909921
-0.26426650128153184   0.015741643542411435   0.017585129100029302
-0.26426650128153184   0.015741643542411435   0.017585129100029302
-0.26426650128153184   0.015741643542411435   0.017585129100029302
-0.26426650128153184   0.015741643542411435   0.017585129100029302
-0.3826816471701842   -0.03935610260146069   -0.013731249788294937
-0.3826816471701842   -0.03935610260146069   -0.013731249788294937
-0.3826816471701842   -0.03935610260146069   -0.013731249788294937
-0.3826816471701842   -0.03935610260146069   -0.013731249788294937
-0.377868191266995   -0.018595082060350827   0.016724783663706708
-0.377868191266995   -0.018595082060350827   0.016724783663706708
-0.377868191266995   -0.018595082060350827   0.016724783663706708
-0.377868191266995   -0.018595082060350827   0.016724783663706708
-0.28170111231517136   -0.027352489556381906   -0.003027562481614548
-0.28170111231517136   -0.027352489556381906   -0.003027562481614548
-0.28170111231517136   -0.027352489556381906   -0.003027562481614548
-0.28170111231517136   -0.027352489556381906   -0.003027562481614548
-0.32611298801784566   -0.015516861660026193   -0.010051362092045484
-0.32611298801784566   -0.015516861660026193   -0.010051362092045484
-0.32611298801784566   -0.015516861660026193   -0.010051362092045484
-0.32611298801784566   -0.015516861660026193   -0.010051362092045484
-0.34754911691791907   0.042680787506359105   0.021390296874811945
-0.34754911691791907   0.042680787506359105   0.021390296874811945
-0.34754911691791907   0.042680787506359105   0.021390296874811945
-0.34754911691791907   0.042680787506359105   0.021390296874811945
-0.4485280791934193   -0.022530227978507428   -0.028102532516312152
-0.4485280791934193   -0.022530227978507428   -0.028102532516312152
-0.4485280791934193   -0.022530227978507428   -0.028102532516312152
-0.4485280791934193   -0.022530227978507428   -0.028102532516312152
-0.4489190003456764   0.016846541570885692   0.023581112073063036
-0.4489190003456764   0.016846541570885692   0.023581112073063036
-0.4489190003456764   0.016846541570885692   0.023581112073063036
-0.4489190003456764   0.016846541570885692   0.023581112073063036
-0.3712120582703675   -0.012450646873371038   -0.01718639226131108
-0.3712120582703675   -0.012450646873371038   -0.01718639226131108
-0.3712120582703675   -0.012450646873371038   -0.01718639226131108
-0.3712120582703675   -0.012450646873371038   -0.01718639226131108
-0.3876641965176549   0.010032309152861102   0.007590456163460699
-0.3876641965176549   0.010032309152861102   0.007590456163460699
-0.3876641965176549   0.010032309152861102   0.007590456163460699
-0.3876641965176549   0.010032309152861102   0.007590456163460699
-0.35296452140115503   0.03636778665621053   0.025232858555165834
-0.35296452140115503   0.03636778665621053   0.025232858555165834
-0.35296452140115503   0.03636778665621053   0.025232858555165834
-0.35296452140115503   0.03636778665621053   0.025232858555165834
-0.46854770843233856   -0.033353063176142325   -0.024362823613211747
-0.46854770843233856   -0.033353063176142325   -0.024362823613211747
-0.46854770843233856   -0.033353063176142325   -0.024362823613211747
-0.46854770843233856   -0.033353063176142325   -0.024362823613211747
-0.46489289148493124   0.009967781838563367   0.030366569160715468
-0.46489289148493124   0.009967781838563367   0.030366569160715468
-0.46489289148493124   0.009967781838563367   0.030366569160715468
-0.46489289148493124   0.009967781838563367   0.030366569160715468
-0.3788224561102069   -0.018750113909768662   -0.015041283180096503
-0.3788224561102069   -0.018750113909768662   -0.015041283180096503
-0.3788224561102069   -0.018750113909768662   -0.015041283180096503
-0.3788224561102069   -0.018750113909768662   -0.015041283180096503
-0.4067186549240794   0.0016798852965837635   -0.0003770284804890424
-0.4067186549240794   0.0016798852965837635   -0.0003770284804890424
-0.4067186549240794   0.0016798852965837635   -0.0003770284804890424
-0.4067186549240794   0.0016798852965837635   -0.0003770284804890424
-0.3598239505934315   0.03095706856960219   0.030244061924409833
-0.3598239505934315   0.03095706856960219   0.030244061924409833
-0.3598239505934315   0.03095706856960219   0.030244061924409833
-0.3598239505934315   0.03095706856960219   0.030244061924409833
-0.48529428635498373   -0.04114228999408072   -0.02053033335689532
-0.48529428635498373   -0.04114228999408072   -0.02053033335689532
-0.48529428635498373   -0.04114228999408072   -0.02053033335689532
-0.48529428635498373   -0.04114228999408072   -0.02053033335689532
-0.4884535518298963   -0.008158165682114457   0.032091613909558725
-0.4884535518298963   -0.008158165682114457   0.032091613909558725
-0.4884535518298963   -0.008158165682114457   0.032091613909558725
-0.4884535518298963   -0.008158165682114457   0.032091613909558725
-0.38646690729648636   -0.0318723310423647   -0.012991547501736173
-0.38646690729648636   -0.0318723310423647   -0.012991547501736173
-0.38646690729648636   -0.0318723310423647   -0.012991547501736173
-0.38646690729648636   -0.0318723310423647   -0.012991547501736173
-0.41397269236917383   -0.006614758228911402   -0.006011965510504223
-0.41397269236917383   -0.006614758228911402   -0.006011965510504223
-0.41397269236917383   -0.006614758228911402   -0.006011965510504223
-0.41397269236917383   -0.006614758228911402   -0.006011965510504223
-0.18411531678281803   -0.011964422572137805   -0.03549530311727284
-0.18411531678281803   -0.011964422572137805   -0.03549530311727284
-0.18411531678281803   -0.011964422572137805   -0.03549530311727284
-0.18411531678281803   -0.011964422572137805   -0.03549530311727284
-0.18448940534153035   0.0270346272073219   0.01593137030728826
-0.18448940534153035   0.0270346272073219   0.01593137030728826
-0.18448940534153035   0.0270346272073219   0.01593137030728826
-0.18448940534153035   0.0270346272073219   0.01593137030728826
-0.20796911079051852   -0.02494911441719529   -0.024122623279572767
-0.20796911079051852   -0.02494911441719529   -0.024122623279572767
-0.20796911079051852   -0.02494911441719529   -0.024122623279572767
-0.20796911079051852   -0.02494911441719529   -0.024122623279572767
-0.1880852399935314   0.014533041189603552   0.023839279357653724
-0.1880852399935314   0.014533041189603552   0.023839279357653724
-0.1880852399935314   0.014533041189603552   0.023839279357653724
-0.1880852399935314   0.014533041189603552   0.023839279357653724
-0.18155767146432328   0.0046512511731486225   0.01625584861776492
-0.18155767146432328   0.0046512511731486225   0.01625584861776492
-0.18155767146432328   0.0046512511731486225   0.01625584861776492
-0.18155767146432328   0.0046512511731486225   0.01625584861776492
-0.20689245352527527   -0.025868339775436785   -0.029795407336023476
-0.20689245352527527   -0.025868339775436785   -0.029795407336023476
-0.20689245352527527   -0.025868339775436785   -0.029795407336023476
-0.20689245352527527   -0.025868339775436785   -0.029795407336023476
-0.1914736572299582   0.013140506576661791   0.02026502352937172
-0.1914736572299582   0.013140506576661791   0.02026502352937172
-0.1914736572299582   0.013140506576661791   0.02026502352937172
-0.1914736572299582   0.013140506576661791   0.02026502352937172
-0.21510008208828957   -0.03138209384401758   -0.020449160487266898
-0.21510008208828957   -0.03138209384401758   -0.020449160487266898
-0.21510008208828957   -0.03138209384401758   -0.020449160487266898
-0.21510008208828957   -0.03138209384401758   -0.020449160487266898
-0.2062957829349948   0.005800394563996232   0.04442731082348439
-0.2062957829349948   0.005800394563996232   0.04442731082348439
-0.2062957829349948   0.005800394563996232   0.04442731082348439
-0.2062957829349948   0.005800394563996232   0.04442731082348439
-0.19827741819820546   -0.00639052358027576   0.006542376372173994
-0.19827741819820546   -0.00639052358027576   0.006542376372173994
-0.19827741819820546   -0.00639052358027576   0.006542376372173994
-0.19827741819820546   -0.00639052358027576   0.006542376372173994
-0.22789739574315362   -0.03450649684016609   -0.023273861813145443
-0.22789739574315362   -0.03450649684016609   -0.023273861813145443
-0.22789739574315362   -0.03450649684016609   -0.023273861813145443
-0.22789739574315362   -0.03450649684016609   -0.023273861813145443
-0.1990053615154643   0.003417905324811503   0.0252244432080303
-0.1990053615154643   0.003417905324811503   0.0252244432080303
-0.1990053615154643   0.003417905324811503   0.0252244432080303
-0.1990053615154643   0.003417905324811503   0.0252244432080303
-0.22095164247468232   -0.04383403362431497   -0.016125232521449904
-0.22095164247468232   -0.04383403362431497   -0.016125232521449904
-0.22095164247468232   -0.04383403362431497   -0.016125232521449904
-0.22095164247468232   -0.04383403362431497   -0.016125232521449904
-0.23457086903344343   -0.0230598388722714   0.041558604896133576
-0.23457086903344343   -0.0230598388722714   0.041558604896133576
-0.23457086903344343   -0.0230598388722714   0.041558604896133576
-0.23457086903344343   -0.0230598388722714   0.041558604896133576
-0.2129058587438223   -0.019430391120962304   -0.008903691268686419
-0.2129058587438223   -0.019430391120962304   -0.008903691268686419
-0.2129058587438223   -0.019430391120962304   -0.008903691268686419
-0.2129058587438223   -0.019430391120962304   -0.008903691268686419
-0.19783562396205145   -0.005549160464630318   -0.01821593512336636
-0.19783562396205145   -0.005549160464630318   -0.01821593512336636
-0.19783562396205145   -0.005549160464630318   -0.01821593512336636
-0.19783562396205145   -0.005549160464630318   -0.01821593512336636
-0.20220709179888366   -0.024912357190068853   -0.00107055484043065
-0.20220709179888366   -0.024912357190068853   -0.00107055484043065
-0.20220709179888366   -0.024912357190068853   -0.00107055484043065
-0.20220709179888366   -0.024912357190068853   -0.00107055484043065
-0.20379968435515755   -0.01663211025841688   -0.009188416038578753
-0.20379968435515755   -0.01663211025841688   -0.009188416038578753
-0.20379968435515755   -0.01663211025841688   -0.009188416038578753
-0.20379968435515755   -0.01663211025841688   -0.009188416038578753
-0.20491947927856635   -0.03355167517952001   -0.0002719049574873211
-0.20491947927856635   -0.03355167517952001   -0.0002719049574873211
-0.20491947927856635   -0.03355167517952001   -0.0002719049574873211
-0.20491947927856635   -0.03355167517952001   -0.0002719049574873211
-0.20047760671836598   -0.021040268337367513   -0.0006125297036612852
-0.20047760671836598   -0.021040268337367513   -0.0006125297036612852
-0.20047760671836598   -0.021040268337367513   -0.0006125297036612852
-0.20047760671836598   -0.021040268337367513   -0.0006125297036612852
-0.20494618569031497   -0.01817929146406907   -0.01577782073168228
-0.20494618569031497   -0.01817929146406907   -0.01577782073168228
-0.20494618569031497   -0.01817929146406907   -0.01577782073168228
-0.20494618569031497   -0.01817929146406907   -0.01577782073168228
-0.20507171863552495   -0.03330323466598431   0.0011225369671497643
-0.20507171863552495   -0.03330323466598431   0.0011225369671497643
-0.20507171863552495   -0.03330323466598431   0.0011225369671497643
-0.20507171863552495   -0.03330323466598431   0.0011225369671497643
-0.20732222717058488   -0.027458965349390775   -0.005962368958289877
-0.20732222717058488   -0.027458965349390775   -0.005962368958289877
-0.20732222717058488   -0.027458965349390775   -0.005962368958289877
-0.20732222717058488   -0.027458965349390775   -0.005962368958289877
-0.2125097345237101   -0.04359101938639679   0.004711502878009624
-0.2125097345237101   -0.04359101938639679   0.004711502878009624
-0.2125097345237101   -0.04359101938639679   0.004711502878009624
-0.2125097345237101   -0.04359101938639679   0.004711502878009624
-0.20521768949513797   -0.029805233222881554   -0.005651272481928524
-0.20521768949513797   -0.029805233222881554   -0.005651272481928524
-0.20521768949513797   -0.029805233222881554   -0.005651272481928524
-0.20521768949513797   -0.029805233222881554   -0.005651272481928524
-0.21302929675372134   -0.02975280917170732   -0.01172451848673613
-0.21302929675372134   -0.02975280917170732   -0.01172451848673613
-0.21302929675372134   -0.02975280917170732   -0.01172451848673613
-0.21302929675372134   -0.02975280917170732   -0.01172451848673613
-0.2084620433383212   -0.04295655396182874   0.0038361388154609533
-0.2084620433383212   -0.04295655396182874   0.0038361388154609533
-0.2084620433383212   -0.04295655396182874   0.0038361388154609533
-0.2084620433383212   -0.04295655396182874   0.0038361388154609533
-0.21049930067668474   -0.03909093112945265   -0.0027700874698549094
-0.21049930067668474   -0.03909093112945265   -0.0027700874698549094
-0.21049930067668474   -0.03909093112945265   -0.0027700874698549094
-0.21049930067668474   -0.03909093112945265   -0.0027700874698549094
-0.2183337480359211   -0.05628748232578031   0.009417688373820577
-0.2183337480359211   -0.05628748232578031   0.009417688373820577
-0.2183337480359211   -0.05628748232578031   0.009417688373820577
-0.2183337480359211   -0.05628748232578031   0.009417688373820577
-0.21167998197082571   -0.04034298337645989   -0.012038162123729473
-0.21167998197082571   -0.04034298337645989   -0.012038162123729473
-0.21167998197082571   -0.04034298337645989   -0.012038162123729473
-0.21167998197082571   -0.04034298337645989   -0.012038162123729473
-0.1966088371996984   0.005360154601028358   -0.0033517936355977815
-0.1966088371996984   0.005360154601028358   -0.0033517936355977815
-0.1966088371996984   0.005360154601028358   -0.0033517936355977815
-0.1966088371996984   0.005360154601028358   -0.0033517936355977815
-0.22386590205703574   -0.04251862398584353   -0.01076764592906952
-0.22386590205703574   -0.04251862398584353   -0.01076764592906952
-0.22386590205703574   -0.04251862398584353   -0.01076764592906952
-0.22386590205703574   -0.04251862398584353   -0.01076764592906952
-0.21483560081809694   -0.00787979160494253   0.002753479761768471
-0.21483560081809694   -0.00787979160494253   0.002753479761768471
-0.21483560081809694   -0.00787979160494253   0.002753479761768471
-0.21483560081809694   -0.00787979160494253   0.002753479761768471
-0.2090890363044672   -0.04566901145001016   -0.006598274593535595
-0.2090890363044672   -0.04566901145001016   -0.006598274593535595
-0.2090890363044672   -0.04566901145001016   -0.006598274593535595
-0.2090890363044672   -0.04566901145001016   -0.006598274593535595
-0.210951353639954   -0.023399212821869148   -0.004713629053469326
-0.210951353639954   -0.023399212821869148   -0.004713629053469326
-0.210951353639954   -0.023399212821869148   -0.004713629053469326
-0.210951353639954   -0.023399212821869148   -0.004713629053469326
-0.19972550395305574   -0.005415327534652188   -3.4296751836332406e-05
-0.19972550395305574   -0.005415327534652188   -3.4296751836332406e-05
-0.19972550395305574   -0.005415327534652188   -3.4296751836332406e-05
-0.19972550395305574   -0.005415327534652188   -3.4296751836332406e-05
-0.2253806022437235   -0.04931494459451244   -0.008536374376798406
-0.2253806022437235   -0.04931494459451244   -0.008536374376798406
-0.2253806022437235   -0.04931494459451244   -0.008536374376798406
-0.2253806022437235   -0.04931494459451244   -0.008536374376798406
-0.2173967978933323   -0.01874144182146536   0.0059568801149972855
-0.2173967978933323   -0.01874144182146536   0.0059568801149972855
-0.2173967978933323   -0.01874144182146536   0.0059568801149972855
-0.2173967978933323   -0.01874144182146536   0.0059568801149972855
-0.21238700981138614   -0.0542211443140542   -0.004524103197636464
-0.21238700981138614   -0.0542211443140542   -0.004524103197636464
-0.21238700981138614   -0.0542211443140542   -0.004524103197636464
-0.21238700981138614   -0.0542211443140542   -0.004524103197636464
-0.21366073692568147   -0.03166403336830067   -0.00903511415349232
-0.21366073692568147   -0.03166403336830067   -0.00903511415349232
-0.21366073692568147   -0.03166403336830067   -0.00903511415349232
-0.21366073692568147   -0.03166403336830067   -0.00903511415349232
-0.20329370572517244   -0.01647328735579711   0.0031945602751786966
-0.20329370572517244   -0.01647328735579711   0.0031945602751786966
-0.20329370572517244   -0.01647328735579711   0.0031945602751786966
-0.20329370572517244   -0.01647328735579711   0.0031945602751786966
-0.2278100263822862   -0.057809223182463954   -0.007041480968777473
-0.2278100263822862   -0.057809223182463954   -0.007041480968777473
-0.2278100263822862   -0.057809223182463954   -0.007041480968777473
-0.2278100263822862   -0.057809223182463954   -0.007041480968777473
-0.21950019832990103   -0.028941838647235145   0.009094750497269074
-0.21950019832990103   -0.028941838647235145   0.009094750497269074
-0.21950019832990103   -0.028941838647235145   0.009094750497269074
-0.21950019832990103   -0.028941838647235145   0.009094750497269074
-0.2148743200703455   -0.06240092485752941   -0.0013351907100840107
-0.2148743200703455   -0.06240092485752941   -0.0013351907100840107
-0.2148743200703455   -0.06240092485752941   -0.0013351907100840107
-0.2148743200703455   -0.06240092485752941   -0.0013351907100840107
-0.2168759039570227   -0.040302920329250015   -0.013781788876882002
-0.2168759039570227   -0.040302920329250015   -0.013781788876882002
-0.2168759039570227   -0.040302920329250015   -0.013781788876882002
-0.2168759039570227   -0.040302920329250015   -0.013781788876882002
-0.20669542569933017   0.022173865639253852   0.010392246234361104
-0.20669542569933017   0.022173865639253852   0.010392246234361104
-0.20669542569933017   0.022173865639253852   0.010392246234361104
-0.20669542569933017   0.022173865639253852   0.010392246234361104
-0.24554410445264716   -0.03188757066786777   -0.015060636433756991
-0.24554410445264716   -0.03188757066786777   -0.015060636433756991
-0.24554410445264716   -0.03188757066786777   -0.015060636433756991
-0.24554410445264716   -0.03188757066786777   -0.015060636433756991
-0.2324720685258536   0.006431478917111648   0.014338030845688429
-0.2324720685258536   0.006431478917111648   0.014338030845688429
-0.2324720685258536   0.006431478917111648   0.014338030845688429
-0.2324720685258536   0.006431478917111648   0.014338030845688429
-0.22268149334124165   -0.03527394589179634   -0.009081828567101357
-0.22268149334124165   -0.03527394589179634   -0.009081828567101357
-0.22268149334124165   -0.03527394589179634   -0.009081828567101357
-0.22268149334124165   -0.03527394589179634   -0.009081828567101357
-0.22680829773716626   -0.00940633888763688   -0.002813569796136131
-0.22680829773716626   -0.00940633888763688   -0.002813569796136131
-0.22680829773716626   -0.00940633888763688   -0.002813569796136131
-0.22680829773716626   -0.00940633888763688   -0.002813569796136131
-0.20888848313520667   0.011002037616968219   0.013607238954309039
-0.20888848313520667   0.011002037616968219   0.013607238954309039
-0.20888848313520667   0.011002037616968219   0.013607238954309039
-0.20888848313520667   0.011002037616968219   0.013607238954309039
-0.2478370025763053   -0.04141642843606707   -0.014638732053391354
-0.2478370025763053   -0.04141642843606707   -0.014638732053391354
-0.2478370025763053   -0.04141642843606707   -0.014638732053391354
-0.2478370025763053   -0.04141642843606707   -0.014638732053391354
-0.2368441635499259   -0.004189037809340976   0.01626659055204533
-0.2368441635499259   -0.004189037809340976   0.01626659055204533
-0.2368441635499259   -0.004189037809340976   0.01626659055204533
-0.2368441635499259   -0.004189037809340976   0.01626659055204533
-0.22492321819611474   -0.04319562881000502   -0.00722103441037517
-0.22492321819611474   -0.04319562881000502   -0.00722103441037517
-0.22492321819611474   -0.04319562881000502   -0.00722103441037517
-0.22492321819611474   -0.04319562881000502   -0.00722103441037517
-0.22905065502952904   -0.018373732903600268   -0.007884982977752872
-0.22905065502952904   -0.018373732903600268   -0.007884982977752872
-0.22905065502952904   -0.018373732903600268   -0.007884982977752872
-0.22905065502952904   -0.018373732903600268   -0.007884982977752872
-0.2112916409792279   0.001013660972666322   0.016727561891383795
-0.2112916409792279   0.001013660972666322   0.016727561891383795
-0.2112916409792279   0.001013660972666322   0.016727561891383795
-0.2112916409792279   0.001013660972666322   0.016727561891383795
-0.2518372494627976   -0.049759836287997794   -0.013128040533656186
-0.2518372494627976   -0.049759836287997794   -0.013128040533656186
-0.2518372494627976   -0.049759836287997794   -0.013128040533656186
-0.2518372494627976   -0.049759836287997794   -0.013128040533656186
-0.2397614168398161   -0.014389827713930999   0.019846051255284717
-0.2397614168398161   -0.014389827713930999   0.019846051255284717
-0.2397614168398161   -0.014389827713930999   0.019846051255284717
-0.2397614168398161   -0.014389827713930999   0.019846051255284717
-0.22686682747956038   -0.05115769778876943   -0.005522536109493405
-0.22686682747956038   -0.05115769778876943   -0.005522536109493405
-0.22686682747956038   -0.05115769778876943   -0.005522536109493405
-0.22686682747956038   -0.05115769778876943   -0.005522536109493405
-0.23293137545017015   -0.02684574460747154   -0.012806245055429464
-0.23293137545017015   -0.02684574460747154   -0.012806245055429464
-0.23293137545017015   -0.02684574460747154   -0.012806245055429464
-0.23293137545017015   -0.02684574460747154   -0.012806245055429464
-0.22563216916622592   0.03182646199690514   0.020785007333572664
-0.22563216916622592   0.03182646199690514   0.020785007333572664
-0.22563216916622592   0.03182646199690514   0.020785007333572664
-0.22563216916622592   0.03182646199690514   0.020785007333572664
-0.24265382531856747   -0.01939663477515264   -0.021776513838939734
-0.24265382531856747   -0.01939663477515264   -0.021776513838939734
-0.24265382531856747   -0.01939663477515264   -0.021776513838939734
-0.24265382531856747   -0.01939663477515264   -0.021776513838939734
-0.23738317368651163   0.022373861803975548   0.023107266541565974
-0.23738317368651163   0.022373861803975548   0.023107266541565974
-0.23738317368651163   0.022373861803975548   0.023107266541565974
-0.23738317368651163   0.022373861803975548   0.023107266541565974
-0.24419037804327481   -0.02450805067166726   -0.013313987152642516
-0.24419037804327481   -0.02450805067166726   -0.013313987152642516
-0.24419037804327481   -0.02450805067166726   -0.013313987152642516
-0.24419037804327481   -0.02450805067166726   -0.013313987152642516
-0.22934074116585393   0.00560021967511827   0.0010090345253454779
-0.22934074116585393   0.00560021967511827   0.0010090345253454779
-0.22934074116585393   0.00560021967511827   0.0010090345253454779
-0.22934074116585393   0.00560021967511827   0.0010090345253454779
-0.22688933551577273   0.02465650924371042   0.024026665569486145
-0.22688933551577273   0.02465650924371042   0.024026665569486145
-0.22688933551577273   0.02465650924371042   0.024026665569486145
-0.22688933551577273   0.02465650924371042   0.024026665569486145
-0.2559721259681805   -0.028078607865567012   -0.019385025197235617
-0.2559721259681805   -0.028078607865567012   -0.019385025197235617
-0.2559721259681805   -0.028078607865567012   -0.019385025197235617
-0.2559721259681805   -0.028078607865567012   -0.019385025197235617
-0.2478336593917954   0.016402106079122895   0.029731020045949817
-0.2478336593917954   0.016402106079122895   0.029731020045949817
-0.2478336593917954   0.016402106079122895   0.029731020045949817
-0.2478336593917954   0.016402106079122895   0.029731020045949817
-0.2475214995547679   -0.029180651266359395   -0.012128476015142338
-0.2475214995547679   -0.029180651266359395   -0.012128476015142338
-0.2475214995547679   -0.029180651266359395   -0.012128476015142338
-0.2475214995547679   -0.029180651266359395   -0.012128476015142338
-0.24061475220615466   -0.0016247600814408222   -0.005009001191529826
-0.24061475220615466   -0.0016247600814408222   -0.005009001191529826
-0.24061475220615466   -0.0016247600814408222   -0.005009001191529826
-0.24061475220615466   -0.0016247600814408222   -0.005009001191529826
-0.22953882285542807   0.019863100516874115   0.028741155698323247
-0.22953882285542807   0.019863100516874115   0.028741155698323247
-0.22953882285542807   0.019863100516874115   0.028741155698323247
-0.22953882285542807   0.019863100516874115   0.028741155698323247
-0.2674857195013661   -0.03431102911433766   -0.01781614530843543
-0.2674857195013661   -0.03431102911433766   -0.01781614530843543
-0.2674857195013661   -0.03431102911433766   -0.01781614530843543
-0.2674857195013661   -0.03431102911433766   -0.01781614530843543
-0.2661418750191223   0.0011424023909103465   0.03175708738727498
-0.2661418750191223   0.0011424023909103465   0.03175708738727498
-0.2661418750191223   0.0011424023909103465   0.03175708738727498
-0.2661418750191223   0.0011424023909103465   0.03175708738727498
-0.2505713631787867   -0.03805884344520702   -0.010534664708295945
-0.2505713631787867   -0.03805884344520702   -0.010534664708295945
-0.2505713631787867   -0.03805884344520702   -0.010534664708295945
-0.2505713631787867   -0.03805884344520702   -0.010534664708295945
-0.2459526230506584   -0.008292482635289533   -0.010415010009614404
-0.2459526230506584   -0.008292482635289533   -0.010415010009614404
-0.2459526230506584   -0.008292482635289533   -0.010415010009614404
-0.2459526230506584   -0.008292482635289533   -0.010415010009614404
-0.47637526246647416   -0.04361863016051627   -0.045449059406958814
-0.47637526246647416   -0.04361863016051627   -0.045449059406958814
-0.47637526246647416   -0.04361863016051627   -0.045449059406958814
-0.47637526246647416   -0.04361863016051627   -0.045449059406958814
-0.30327813004184406   0.025480844859434165   0.010680221952433348
-0.30327813004184406   0.025480844859434165   0.010680221952433348
-0.30327813004184406   0.025480844859434165   0.010680221952433348
-0.30327813004184406   0.025480844859434165   0.010680221952433348
-0.3185830792575489   -0.020409625539798616   -0.020376215025339546
-0.3185830792575489   -0.020409625539798616   -0.020376215025339546
-0.3185830792575489   -0.020409625539798616   -0.020376215025339546
-0.3185830792575489   -0.020409625539798616   -0.020376215025339546
-0.5070221198929421   -0.0576890191733259   0.050691141705069914
-0.5070221198929421   -0.0576890191733259   0.050691141705069914
-0.5070221198929421   -0.0576890191733259   0.050691141705069914
-0.5070221198929421   -0.0576890191733259   0.050691141705069914
-0.3688006298134084   -0.01423048919817746   0.049286114118832075
-0.3688006298134084   -0.01423048919817746   0.049286114118832075
-0.3688006298134084   -0.01423048919817746   0.049286114118832075
-0.3688006298134084   -0.01423048919817746   0.049286114118832075
-0.5251615432729734   -0.06432422850958092   -0.03337076585882665
-0.5251615432729734   -0.06432422850958092   -0.03337076585882665
-0.5251615432729734   -0.06432422850958092   -0.03337076585882665
-0.5251615432729734   -0.06432422850958092   -0.03337076585882665
-0.31321656939193643   -0.026547329717961574   0.012594038480885871
-0.31321656939193643   -0.026547329717961574   0.012594038480885871
-0.31321656939193643   -0.026547329717961574   0.012594038480885871
-0.31321656939193643   -0.026547329717961574   0.012594038480885871
-0.3236627466049896   -0.029498582778013503   -0.014700612216569509
-0.3236627466049896   -0.029498582778013503   -0.014700612216569509
-0.3236627466049896   -0.029498582778013503   -0.014700612216569509
-0.3236627466049896   -0.029498582778013503   -0.014700612216569509
-0.5234355887819209   -0.08053294820361076   0.0011015576230724525
-0.5234355887819209   -0.08053294820361076   0.0011015576230724525
-0.5234355887819209   -0.08053294820361076   0.0011015576230724525
-0.5234355887819209   -0.08053294820361076   0.0011015576230724525
-0.40871182232341485   -0.04858790425866019   0.011441148278782176
-0.40871182232341485   -0.04858790425866019   0.011441148278782176
-0.40871182232341485   -0.04858790425866019   0.011441148278782176
-0.40871182232341485   -0.04858790425866019   0.011441148278782176
-0.5274828908888004   -0.07271339117870673   -0.02695450993622478
-0.5274828908888004   -0.07271339117870673   -0.02695450993622478
-0.5274828908888004   -0.07271339117870673   -0.02695450993622478
-0.5274828908888004   -0.07271339117870673   -0.02695450993622478
-0.32346584437967324   -0.0411685396844803   -0.0020461441835228685
-0.32346584437967324   -0.0411685396844803   -0.0020461441835228685
-0.32346584437967324   -0.0411685396844803   -0.0020461441835228685
-0.32346584437967324   -0.0411685396844803   -0.0020461441835228685
-0.32405677337334343   -0.05141940079706215   -0.010753300387920111
-0.32405677337334343   -0.05141940079706215   -0.010753300387920111
-0.32405677337334343   -0.05141940079706215   -0.010753300387920111
-0.32405677337334343   -0.05141940079706215   -0.010753300387920111
-0.5362995433719224   -0.12286124561229134   0.007845135774881563
-0.5362995433719224   -0.12286124561229134   0.007845135774881563
-0.5362995433719224   -0.12286124561229134   0.007845135774881563
-0.5362995433719224   -0.12286124561229134   0.007845135774881563
-0.40848688098282676   -0.0667453877847571   0.0009239200548676711
-0.40848688098282676   -0.0667453877847571   0.0009239200548676711
-0.40848688098282676   -0.0667453877847571   0.0009239200548676711
-0.40848688098282676   -0.0667453877847571   0.0009239200548676711
-0.32746552098470794   -0.05558759136636446   -0.029188296536084443
-0.32746552098470794   -0.05558759136636446   -0.029188296536084443
-0.32746552098470794   -0.05558759136636446   -0.029188296536084443
-0.32746552098470794   -0.05558759136636446   -0.029188296536084443
-0.22587093282256063   -0.14698414778771382   -0.027508809811646245
-0.22587093282256063   -0.14698414778771382   -0.027508809811646245
-0.22587093282256063   -0.14698414778771382   -0.027508809811646245
-0.22587093282256063   -0.14698414778771382   -0.027508809811646245
-0.1983380069209183   -0.03254568021026842   -0.0018234024688774655
-0.1983380069209183   -0.03254568021026842   -0.0018234024688774655
-0.1983380069209183   -0.03254568021026842   -0.0018234024688774655
-0.1983380069209183   -0.03254568021026842   -0.0018234024688774655
-0.3484675637041559   -0.15562869087188086   -0.03457957192629202
-0.3484675637041559   -0.15562869087188086   -0.03457957192629202
-0.3484675637041559   -0.15562869087188086   -0.03457957192629202
-0.3484675637041559   -0.15562869087188086   -0.03457957192629202
-0.27186601687332684   -0.10362042027121701   -0.007951275681223197
-0.27186601687332684   -0.10362042027121701   -0.007951275681223197
-0.27186601687332684   -0.10362042027121701   -0.007951275681223197
-0.27186601687332684   -0.10362042027121701   -0.007951275681223197
-0.32730149701399014   -0.06237440300381321   -0.02200352634352956
-0.32730149701399014   -0.06237440300381321   -0.02200352634352956
-0.32730149701399014   -0.06237440300381321   -0.02200352634352956
-0.32730149701399014   -0.06237440300381321   -0.02200352634352956
-0.22082625774910827   -0.1271221522163604   -0.019688184603737224
-0.22082625774910827   -0.1271221522163604   -0.019688184603737224
-0.22082625774910827   -0.1271221522163604   -0.019688184603737224
-0.22082625774910827   -0.1271221522163604   -0.019688184603737224
-0.20074957974982585   -0.042137256949713105   0.00022016028754381412
-0.20074957974982585   -0.042137256949713105   0.00022016028754381412
-0.20074957974982585   -0.042137256949713105   0.00022016028754381412
-0.20074957974982585   -0.042137256949713105   0.00022016028754381412
-0.34986180230539776   -0.15480744278200986   -0.020387030714616054
-0.34986180230539776   -0.15480744278200986   -0.020387030714616054
-0.34986180230539776   -0.15480744278200986   -0.020387030714616054
-0.34986180230539776   -0.15480744278200986   -0.020387030714616054
-0.2689527041766323   -0.09712538788824018   -0.008449538113732747
-0.2689527041766323   -0.09712538788824018   -0.008449538113732747
-0.2689527041766323   -0.09712538788824018   -0.008449538113732747
-0.2689527041766323   -0.09712538788824018   -0.008449538113732747
-0.3324947413987187   -0.0718351292747052   -0.01652403968852378
-0.3324947413987187   -0.0718351292747052   -0.01652403968852378
-0.3324947413987187   -0.0718351292747052   -0.01652403968852378
-0.3324947413987187   -0.0718351292747052   -0.01652403968852378
-0.22087009948560798   -0.1278630292861206   -0.014656666054959432
-0.22087009948560798   -0.1278630292861206   -0.014656666054959432
-0.22087009948560798   -0.1278630292861206   -0.014656666054959432
-0.22087009948560798   -0.1278630292861206   -0.014656666054959432
-0.20084930234839327   -0.05404597010612124   0.003140803784588064
-0.20084930234839327   -0.05404597010612124   0.003140803784588064
-0.20084930234839327   -0.05404597010612124   0.003140803784588064
-0.20084930234839327   -0.05404597010612124   0.003140803784588064
-0.3491525667737523   -0.1572515728846567   -0.030400095302373958
-0.3491525667737523   -0.1572515728846567   -0.030400095302373958
-0.3491525667737523   -0.1572515728846567   -0.030400095302373958
-0.3491525667737523   -0.1572515728846567   -0.030400095302373958
-0.2731803471393448   -0.10443599040234908   -0.015713413101481964
-0.2731803471393448   -0.10443599040234908   -0.015713413101481964
-0.2731803471393448   -0.10443599040234908   -0.015713413101481964
-0.2731803471393448   -0.10443599040234908   -0.015713413101481964
-0.19864665128944914   -0.035829628861060704   -0.002541921072741973
-0.19864665128944914   -0.035829628861060704   -0.002541921072741973
-0.19864665128944914   -0.035829628861060704   -0.002541921072741973
-0.19864665128944914   -0.035829628861060704   -0.002541921072741973
-0.1674925017872997   -0.11264006855036371   -0.01944255909115032
-0.1674925017872997   -0.11264006855036371   -0.01944255909115032
-0.1674925017872997   -0.11264006855036371   -0.01944255909115032
-0.1674925017872997   -0.11264006855036371   -0.01944255909115032
-0.14438315490985018   -0.029876723534242075   0.007657283590687786
-0.14438315490985018   -0.029876723534242075   0.007657283590687786
-0.14438315490985018   -0.029876723534242075   0.007657283590687786
-0.14438315490985018   -0.029876723534242075   0.007657283590687786
-0.22019516121588326   -0.12223169018433702   -0.021423163969635537
-0.22019516121588326   -0.12223169018433702   -0.021423163969635537
-0.22019516121588326   -0.12223169018433702   -0.021423163969635537
-0.22019516121588326   -0.12223169018433702   -0.021423163969635537
-0.18188621803546068   -0.07616426548525115   -0.00895444573257881
-0.18188621803546068   -0.07616426548525115   -0.00895444573257881
-0.18188621803546068   -0.07616426548525115   -0.00895444573257881
-0.18188621803546068   -0.07616426548525115   -0.00895444573257881
-0.19988632866203138   -0.042442461066465424   0.00033176968175224243
-0.19988632866203138   -0.042442461066465424   0.00033176968175224243
-0.19988632866203138   -0.042442461066465424   0.00033176968175224243
-0.19988632866203138   -0.042442461066465424   0.00033176968175224243
-0.16587019900058345   -0.11084416418899504   -0.018810496208225464
-0.16587019900058345   -0.11084416418899504   -0.018810496208225464
-0.16587019900058345   -0.11084416418899504   -0.018810496208225464
-0.16587019900058345   -0.11084416418899504   -0.018810496208225464
-0.14457220014814054   -0.03776635703086837   0.0099350235550471
-0.14457220014814054   -0.03776635703086837   0.0099350235550471
-0.14457220014814054   -0.03776635703086837   0.0099350235550471
-0.14457220014814054   -0.03776635703086837   0.0099350235550471
-0.2210269220574104   -0.12416660098163876   -0.01913720721845337
-0.2210269220574104   -0.12416660098163876   -0.01913720721845337
-0.2210269220574104   -0.12416660098163876   -0.01913720721845337
-0.2210269220574104   -0.12416660098163876   -0.01913720721845337
-0.18167908135175181   -0.07911280074006916   -0.011623506213187203
-0.18167908135175181   -0.07911280074006916   -0.011623506213187203
-0.18167908135175181   -0.07911280074006916   -0.011623506213187203
-0.18167908135175181   -0.07911280074006916   -0.011623506213187203
-0.20171769586286892   -0.0504449969419183   0.0036873197145335353
-0.20171769586286892   -0.0504449969419183   0.0036873197145335353
-0.20171769586286892   -0.0504449969419183   0.0036873197145335353
-0.20171769586286892   -0.0504449969419183   0.0036873197145335353
-0.16453150303649713   -0.11213803776440648   -0.01548981015319761
-0.16453150303649713   -0.11213803776440648   -0.01548981015319761
-0.16453150303649713   -0.11213803776440648   -0.01548981015319761
-0.16453150303649713   -0.11213803776440648   -0.01548981015319761
-0.14302588360962215   -0.045279959353038315   0.012421200351640464
-0.14302588360962215   -0.045279959353038315   0.012421200351640464
-0.14302588360962215   -0.045279959353038315   0.012421200351640464
-0.14302588360962215   -0.045279959353038315   0.012421200351640464
-0.2185609297023021   -0.12570089737500262   -0.013762405716074715
-0.2185609297023021   -0.12570089737500262   -0.013762405716074715
-0.2185609297023021   -0.12570089737500262   -0.013762405716074715
-0.2185609297023021   -0.12570089737500262   -0.013762405716074715
-0.1812893268924752   -0.08302118030543862   -0.013497369283271414
-0.1812893268924752   -0.08302118030543862   -0.013497369283271414
-0.1812893268924752   -0.08302118030543862   -0.013497369283271414
-0.1812893268924752   -0.08302118030543862   -0.013497369283271414
-0.13932257451307448   -0.004898113039399531   0.01366512176901153
-0.13932257451307448   -0.004898113039399531   0.01366512176901153
-0.13932257451307448   -0.004898113039399531   0.01366512176901153
-0.13932257451307448   -0.004898113039399531   0.01366512176901153
-0.13260586290936832   -0.05980219277540001   -0.011718839791917653
-0.13260586290936832   -0.05980219277540001   -0.011718839791917653
-0.13260586290936832   -0.05980219277540001   -0.011718839791917653
-0.13260586290936832   -0.05980219277540001   -0.011718839791917653
-0.11447449611922479   -0.0086562717298672   0.015799545020527498
-0.11447449611922479   -0.0086562717298672   0.015799545020527498
-0.11447449611922479   -0.0086562717298672   0.015799545020527498
-0.11447449611922479   -0.0086562717298672   0.015799545020527498
-0.15537040860256945   -0.06888798471918238   -0.00826772368796815
-0.15537040860256945   -0.06888798471918238   -0.00826772368796815
-0.15537040860256945   -0.06888798471918238   -0.00826772368796815
-0.15537040860256945   -0.06888798471918238   -0.00826772368796815
-0.13588841516133932   -0.035218283084037696   -0.004866398834175139
-0.13588841516133932   -0.035218283084037696   -0.004866398834175139
-0.13588841516133932   -0.035218283084037696   -0.004866398834175139
-0.13588841516133932   -0.035218283084037696   -0.004866398834175139
-0.1395210039455101   -0.013672682769667084   0.01576399764781335
-0.1395210039455101   -0.013672682769667084   0.01576399764781335
-0.1395210039455101   -0.013672682769667084   0.01576399764781335
-0.1395210039455101   -0.013672682769667084   0.01576399764781335
-0.13158658864930495   -0.06513426155240329   -0.013282927807337195
-0.13158658864930495   -0.06513426155240329   -0.013282927807337195
-0.13158658864930495   -0.06513426155240329   -0.013282927807337195
-0.13158658864930495   -0.06513426155240329   -0.013282927807337195
-0.11477139087703658   -0.016322417988936667   0.016993192375888467
-0.11477139087703658   -0.016322417988936667   0.016993192375888467
-0.11477139087703658   -0.016322417988936667   0.016993192375888467
-0.11477139087703658   -0.016322417988936667   0.016993192375888467
-0.15546111792509176   -0.07309672933770761   -0.009179193022869712
-0.15546111792509176   -0.07309672933770761   -0.009179193022869712
-0.15546111792509176   -0.07309672933770761   -0.009179193022869712
-0.15546111792509176   -0.07309672933770761   -0.009179193022869712
-0.13541534505174027   -0.04136150667727764   -0.008273267702340888
-0.13541534505174027   -0.04136150667727764   -0.008273267702340888
-0.13541534505174027   -0.04136150667727764   -0.008273267702340888
-0.13541534505174027   -0.04136150667727764   -0.008273267702340888
-0.1396411508767888   -0.021108521573231086   0.017932434454168585
-0.1396411508767888   -0.021108521573231086   0.017932434454168585
-0.1396411508767888   -0.021108521573231086   0.017932434454168585
-0.1396411508767888   -0.021108521573231086   0.017932434454168585
-0.13135666340131524   -0.06907593122938759   -0.013179657005046096
-0.13135666340131524   -0.06907593122938759   -0.013179657005046096
-0.13135666340131524   -0.06907593122938759   -0.013179657005046096
-0.13135666340131524   -0.06907593122938759   -0.013179657005046096
-0.11393260986975702   -0.0235264334545847   0.019699567951634543
-0.11393260986975702   -0.0235264334545847   0.019699567951634543
-0.11393260986975702   -0.0235264334545847   0.019699567951634543
-0.11393260986975702   -0.0235264334545847   0.019699567951634543
-0.15316231639188116   -0.07729379803441627   -0.006247124878276521
-0.15316231639188116   -0.07729379803441627   -0.006247124878276521
-0.15316231639188116   -0.07729379803441627   -0.006247124878276521
-0.15316231639188116   -0.07729379803441627   -0.006247124878276521
-0.13515877064501783   -0.0466708131128563   -0.010661363964865295
-0.13515877064501783   -0.0466708131128563   -0.010661363964865295
-0.13515877064501783   -0.0466708131128563   -0.010661363964865295
-0.13515877064501783   -0.0466708131128563   -0.010661363964865295
-0.11091430387136833   0.015578270672175057   0.021358491950507243
-0.11091430387136833   0.015578270672175057   0.021358491950507243
-0.11091430387136833   0.015578270672175057   0.021358491950507243
-0.11091430387136833   0.015578270672175057   0.021358491950507243
-0.074883949585315   -0.019797850632227162   -0.007266028925689534
-0.074883949585315   -0.019797850632227162   -0.007266028925689534
-0.074883949585315   -0.019797850632227162   -0.007266028925689534
-0.074883949585315   -0.019797850632227162   -0.007266028925689534
-0.06569150184445346   0.018076643292508576   0.021110606469415313
-0.06569150184445346   0.018076643292508576   0.021110606469415313
-0.06569150184445346   0.018076643292508576   0.021110606469415313
-0.06569150184445346   0.018076643292508576   0.021110606469415313
-0.12266245763295432   -0.03002234508036033   -0.0037741891976269632
-0.12266245763295432   -0.03002234508036033   -0.0037741891976269632
-0.12266245763295432   -0.03002234508036033   -0.0037741891976269632
-0.12266245763295432   -0.03002234508036033   -0.0037741891976269632
-0.09220529662134294   -0.001959906351350186   -0.003790011429177947
-0.09220529662134294   -0.001959906351350186   -0.003790011429177947
-0.09220529662134294   -0.001959906351350186   -0.003790011429177947
-0.09220529662134294   -0.001959906351350186   -0.003790011429177947
-0.10927995183134115   0.00980002578938641   0.02331596894069217
-0.10927995183134115   0.00980002578938641   0.02331596894069217
-0.10927995183134115   0.00980002578938641   0.02331596894069217
-0.10927995183134115   0.00980002578938641   0.02331596894069217
-0.07921340985150443   -0.021885129782676593   -0.006537160490654341
-0.07921340985150443   -0.021885129782676593   -0.006537160490654341
-0.07921340985150443   -0.021885129782676593   -0.006537160490654341
-0.07921340985150443   -0.021885129782676593   -0.006537160490654341
-0.06870478526997287   0.014317937184095773   0.026547751952338463
-0.06870478526997287   0.014317937184095773   0.026547751952338463
-0.06870478526997287   0.014317937184095773   0.026547751952338463
-0.06870478526997287   0.014317937184095773   0.026547751952338463
-0.12225934680691056   -0.031981981778366926   -0.004787023484051136
-0.12225934680691056   -0.031981981778366926   -0.004787023484051136
-0.12225934680691056   -0.031981981778366926   -0.004787023484051136
-0.12225934680691056   -0.031981981778366926   -0.004787023484051136
-0.0951094594387851   -0.006060424743846972   -0.005441871640953397
-0.0951094594387851   -0.006060424743846972   -0.005441871640953397
-0.0951094594387851   -0.006060424743846972   -0.005441871640953397
-0.0951094594387851   -0.006060424743846972   -0.005441871640953397
-0.10824485070932797   0.006467557292381302   0.026835917933113556
-0.10824485070932797   0.006467557292381302   0.026835917933113556
-0.10824485070932797   0.006467557292381302   0.026835917933113556
-0.10824485070932797   0.006467557292381302   0.026835917933113556
-0.08367893475137633   -0.025091255270470774   -0.008913803000104624
-0.08367893475137633   -0.025091255270470774   -0.008913803000104624
-0.08367893475137633   -0.025091255270470774   -0.008913803000104624
-0.08367893475137633   -0.025091255270470774   -0.008913803000104624
-0.0785536561690666   0.003977214098515203   0.02762791600059505
-0.0785536561690666   0.003977214098515203   0.02762791600059505
-0.0785536561690666   0.003977214098515203   0.02762791600059505
-0.0785536561690666   0.003977214098515203   0.02762791600059505
-0.12072477760655323   -0.03379134215559574   -0.00399636203133542
-0.12072477760655323   -0.03379134215559574   -0.00399636203133542
-0.12072477760655323   -0.03379134215559574   -0.00399636203133542
-0.12072477760655323   -0.03379134215559574   -0.00399636203133542
-0.09656826605844203   -0.00905714927565221   -0.008060353962121037
-0.09656826605844203   -0.00905714927565221   -0.008060353962121037
-0.09656826605844203   -0.00905714927565221   -0.008060353962121037
-0.09656826605844203   -0.00905714927565221   -0.008060353962121037
-1.1304373274600161   -0.16101860230148202   -0.09465781643397556
-1.1304373274600161   -0.16101860230148202   -0.09465781643397556
-1.1304373274600161   -0.16101860230148202   -0.09465781643397556
-1.1304373274600161   -0.16101860230148202   -0.09465781643397556
-0.3934559594966152   -0.6280923668064112   -0.07391554119627045
-0.3934559594966152   -0.6280923668064112   -0.07391554119627045
-0.3934559594966152   -0.6280923668064112   -0.07391554119627045
-0.3934559594966152   -0.6280923668064112   -0.07391554119627045
-0.30281207442690994   -0.026926860000443753   0.0002918921034446159
-0.30281207442690994   -0.026926860000443753   0.0002918921034446159
-0.30281207442690994   -0.026926860000443753   0.0002918921034446159
-0.30281207442690994   -0.026926860000443753   0.0002918921034446159
-1.2094607949671987   -0.7363455281420088   -0.38916126462184153
-1.2094607949671987   -0.7363455281420088   -0.38916126462184153
-1.2094607949671987   -0.7363455281420088   -0.38916126462184153
-1.2094607949671987   -0.7363455281420088   -0.38916126462184153
-0.7400226251494819   -0.3660454761488095   -0.05337328371859562
-0.7400226251494819   -0.3660454761488095   -0.05337328371859562
-0.7400226251494819   -0.3660454761488095   -0.05337328371859562
-0.7400226251494819   -0.3660454761488095   -0.05337328371859562
-1.0505459178259111   -0.2022654070936808   -0.12866699996373943
-1.0505459178259111   -0.2022654070936808   -0.12866699996373943
-1.0505459178259111   -0.2022654070936808   -0.12866699996373943
-1.0505459178259111   -0.2022654070936808   -0.12866699996373943
-0.4252640883536648   -0.5245441178342398   -0.1143509196965305
-0.4252640883536648   -0.5245441178342398   -0.1143509196965305
-0.4252640883536648   -0.5245441178342398   -0.1143509196965305
-0.4252640883536648   -0.5245441178342398   -0.1143509196965305
-0.30924832922763373   -0.03560039304781176   0.011577073847776481
-0.30924832922763373   -0.03560039304781176   0.011577073847776481
-0.30924832922763373   -0.03560039304781176   0.011577073847776481
-0.30924832922763373   -0.03560039304781176   0.011577073847776481
-1.1319986089006382   -0.6579048645460712   -0.3579806946893419
-1.1319986089006382   -0.6579048645460712   -0.3579806946893419
-1.1319986089006382   -0.6579048645460712   -0.3579806946893419
-1.1319986089006382   -0.6579048645460712   -0.3579806946893419
-0.6971905427797864   -0.33042170004475335   0.027951041762311682
-0.6971905427797864   -0.33042170004475335   0.027951041762311682
-0.6971905427797864   -0.33042170004475335   0.027951041762311682
-0.6971905427797864   -0.33042170004475335   0.027951041762311682
-0.986576343503981   -0.19261354760255298   -0.09616068464958223
-0.986576343503981   -0.19261354760255298   -0.09616068464958223
-0.986576343503981   -0.19261354760255298   -0.09616068464958223
-0.986576343503981   -0.19261354760255298   -0.09616068464958223
-0.41411943054919775   -0.4603405459162378   -0.08803827989161564
-0.41411943054919775   -0.4603405459162378   -0.08803827989161564
-0.41411943054919775   -0.4603405459162378   -0.08803827989161564
-0.41411943054919775   -0.4603405459162378   -0.08803827989161564
-0.3561441226101748   -0.09215500728485866   -0.0187790933496988
-0.3561441226101748   -0.09215500728485866   -0.0187790933496988
-0.3561441226101748   -0.09215500728485866   -0.0187790933496988
-0.3561441226101748   -0.09215500728485866   -0.0187790933496988
-1.0318653580803496   -0.5543230869202321   -0.3172376890001164
-1.0318653580803496   -0.5543230869202321   -0.3172376890001164
-1.0318653580803496   -0.5543230869202321   -0.3172376890001164
-1.0318653580803496   -0.5543230869202321   -0.3172376890001164
-0.6460140662598824   -0.2867260335081824   0.1199175657087719
-0.6460140662598824   -0.2867260335081824   0.1199175657087719
-0.6460140662598824   -0.2867260335081824   0.1199175657087719
-0.6460140662598824   -0.2867260335081824   0.1199175657087719
-0.2895238977378531   -0.1589020822085147   -0.0234455170003582
-0.2895238977378531   -0.1589020822085147   -0.0234455170003582
-0.2895238977378531   -0.1589020822085147   -0.0234455170003582
-0.2895238977378531   -0.1589020822085147   -0.0234455170003582
-0.13490332678797154   -0.20138031115725735   -0.033381566704153876
-0.13490332678797154   -0.20138031115725735   -0.033381566704153876
-0.13490332678797154   -0.20138031115725735   -0.033381566704153876
-0.13490332678797154   -0.20138031115725735   -0.033381566704153876
-0.11834689878069335   -0.10209383144903748   0.0029740602644623935
-0.11834689878069335   -0.10209383144903748   0.0029740602644623935
-0.11834689878069335   -0.10209383144903748   0.0029740602644623935
-0.11834689878069335   -0.10209383144903748   0.0029740602644623935
-0.35585714540143826   -0.29256918146140415   0.0007088586917663384
-0.35585714540143826   -0.29256918146140415   0.0007088586917663384
-0.35585714540143826   -0.29256918146140415   0.0007088586917663384
-0.35585714540143826   -0.29256918146140415   0.0007088586917663384
-0.19067158619483104   -0.14161200143184005   0.061460133853494525
-0.19067158619483104   -0.14161200143184005   0.061460133853494525
-0.19067158619483104   -0.14161200143184005   0.061460133853494525
-0.19067158619483104   -0.14161200143184005   0.061460133853494525
-0.33011465800915707   -0.14805981042439154   -0.015088075383844143
-0.33011465800915707   -0.14805981042439154   -0.015088075383844143
-0.33011465800915707   -0.14805981042439154   -0.015088075383844143
-0.33011465800915707   -0.14805981042439154   -0.015088075383844143
-0.15424804205434417   -0.2567618583674203   -0.021863629185408788
-0.15424804205434417   -0.2567618583674203   -0.021863629185408788
-0.15424804205434417   -0.2567618583674203   -0.021863629185408788
-0.15424804205434417   -0.2567618583674203   -0.021863629185408788
-0.12812832923191758   -0.10575851637062084   0.003124128268848822
-0.12812832923191758   -0.10575851637062084   0.003124128268848822
-0.12812832923191758   -0.10575851637062084   0.003124128268848822
-0.12812832923191758   -0.10575851637062084   0.003124128268848822
-0.3736776565353884   -0.2892042883106496   -0.05696566742815709
-0.3736776565353884   -0.2892042883106496   -0.05696566742815709
-0.3736776565353884   -0.2892042883106496   -0.05696566742815709
-0.3736776565353884   -0.2892042883106496   -0.05696566742815709
-0.22794335789542092   -0.1813101730328472   0.027780564606708434
-0.22794335789542092   -0.1813101730328472   0.027780564606708434
-0.22794335789542092   -0.1813101730328472   0.027780564606708434
-0.22794335789542092   -0.1813101730328472   0.027780564606708434
-0.3410143347497794   -0.1546093437417631   -0.028244003069000607
-0.3410143347497794   -0.1546093437417631   -0.028244003069000607
-0.3410143347497794   -0.1546093437417631   -0.028244003069000607
-0.3410143347497794   -0.1546093437417631   -0.028244003069000607
-0.1598596761149662   -0.23942148603694732   -0.02186963648006779
-0.1598596761149662   -0.23942148603694732   -0.02186963648006779
-0.1598596761149662   -0.23942148603694732   -0.02186963648006779
-0.1598596761149662   -0.23942148603694732   -0.02186963648006779
-0.14330842972473054   -0.10908028298280077   0.0046122171578801205
-0.14330842972473054   -0.10908028298280077   0.0046122171578801205
-0.14330842972473054   -0.10908028298280077   0.0046122171578801205
-0.14330842972473054   -0.10908028298280077   0.0046122171578801205
-0.40009898183663956   -0.2812852631675194   -0.049423133599360174
-0.40009898183663956   -0.2812852631675194   -0.049423133599360174
-0.40009898183663956   -0.2812852631675194   -0.049423133599360174
-0.40009898183663956   -0.2812852631675194   -0.049423133599360174
-0.23890820124757076   -0.17095053202361163   0.02933707896273357
-0.23890820124757076   -0.17095053202361163   0.02933707896273357
-0.23890820124757076   -0.17095053202361163   0.02933707896273357
-0.23890820124757076   -0.17095053202361163   0.02933707896273357
-0.10555407081306196   -0.09497249177888292   0.006956893792019667
-0.10555407081306196   -0.09497249177888292   0.006956893792019667
-0.10555407081306196   -0.09497249177888292   0.006956893792019667
-0.10555407081306196   -0.09497249177888292   0.006956893792019667
-0.06533272704678832   -0.06432691786822378   -0.016372921648571816
-0.06533272704678832   -0.06432691786822378   -0.016372921648571816
-0.06533272704678832   -0.06432691786822378   -0.016372921648571816
-0.06533272704678832   -0.06432691786822378   -0.016372921648571816
-0.06306375966786694   -0.08513180882525587   0.006944841277757727
-0.06306375966786694   -0.08513180882525587   0.006944841277757727
-0.06306375966786694   -0.08513180882525587   0.006944841277757727
-0.06306375966786694   -0.08513180882525587   0.006944841277757727
-0.11740498286748594   -0.08733696327494396   -0.007073228343594019
-0.11740498286748594   -0.08733696327494396   -0.007073228343594019
-0.11740498286748594   -0.08733696327494396   -0.007073228343594019
-0.11740498286748594   -0.08733696327494396   -0.007073228343594019
-0.07408054456244076   -0.06988433656917621   0.030886869541372305
-0.07408054456244076   -0.06988433656917621   0.030886869541372305
-0.07408054456244076   -0.06988433656917621   0.030886869541372305
-0.07408054456244076   -0.06988433656917621   0.030886869541372305
-0.11613841831471947   -0.09562598548426524   0.007548616629559565
-0.11613841831471947   -0.09562598548426524   0.007548616629559565
-0.11613841831471947   -0.09562598548426524   0.007548616629559565
-0.11613841831471947   -0.09562598548426524   0.007548616629559565
-0.06540883987181631   -0.07792130226711622   -0.011991066300124907
-0.06540883987181631   -0.07792130226711622   -0.011991066300124907
-0.06540883987181631   -0.07792130226711622   -0.011991066300124907
-0.06540883987181631   -0.07792130226711622   -0.011991066300124907
-0.06395497071776021   -0.0876838466799908   0.0062046129501400794
-0.06395497071776021   -0.0876838466799908   0.0062046129501400794
-0.06395497071776021   -0.0876838466799908   0.0062046129501400794
-0.06395497071776021   -0.0876838466799908   0.0062046129501400794
-0.12494746439121354   -0.10173243493246112   0.015002371034209299
-0.12494746439121354   -0.10173243493246112   0.015002371034209299
-0.12494746439121354   -0.10173243493246112   0.015002371034209299
-0.12494746439121354   -0.10173243493246112   0.015002371034209299
-0.08086021653706163   -0.07793071185447335   0.02598033191726069
-0.08086021653706163   -0.07793071185447335   0.02598033191726069
-0.08086021653706163   -0.07793071185447335   0.02598033191726069
-0.08086021653706163   -0.07793071185447335   0.02598033191726069
-0.12540267274259193   -0.09917960900501126   0.010173503349865644
-0.12540267274259193   -0.09917960900501126   0.010173503349865644
-0.12540267274259193   -0.09917960900501126   0.010173503349865644
-0.12540267274259193   -0.09917960900501126   0.010173503349865644
-0.06897652414657164   -0.09571343438763012   -0.010873566486277674
-0.06897652414657164   -0.09571343438763012   -0.010873566486277674
-0.06897652414657164   -0.09571343438763012   -0.010873566486277674
-0.06897652414657164   -0.09571343438763012   -0.010873566486277674
-0.06500842019453529   -0.09048899118397903   0.0087446157312802
-0.06500842019453529   -0.09048899118397903   0.0087446157312802
-0.06500842019453529   -0.09048899118397903   0.0087446157312802
-0.06500842019453529   -0.09048899118397903   0.0087446157312802
-0.14662122811966014   -0.12474534010495811   0.0037132823053913667
-0.14662122811966014   -0.12474534010495811   0.0037132823053913667
-0.14662122811966014   -0.12474534010495811   0.0037132823053913667
-0.14662122811966014   -0.12474534010495811   0.0037132823053913667
-0.09061456901998402   -0.08869600613937073   0.012018231359354103
-0.09061456901998402   -0.08869600613937073   0.012018231359354103
-0.09061456901998402   -0.08869600613937073   0.012018231359354103
-0.09061456901998402   -0.08869600613937073   0.012018231359354103
-0.053090092731243696   -0.03787717030767171   0.01839050236859921
-0.053090092731243696   -0.03787717030767171   0.01839050236859921
-0.053090092731243696   -0.03787717030767171   0.01839050236859921
-0.053090092731243696   -0.03787717030767171   0.01839050236859921
-0.037830177658020686   -0.0013386122759574551   -0.0037146864870200164
-0.037830177658020686   -0.0013386122759574551   -0.0037146864870200164
-0.037830177658020686   -0.0013386122759574551   -0.0037146864870200164
-0.037830177658020686   -0.0013386122759574551   -0.0037146864870200164
-0.0358582578114091   -0.041056026944589416   0.01137991439383631
-0.0358582578114091   -0.041056026944589416   0.01137991439383631
-0.0358582578114091   -0.041056026944589416   0.01137991439383631
-0.0358582578114091   -0.041056026944589416   0.01137991439383631
-0.04957174664422493   -0.008642967029058233   -0.0020839354002260297
-0.04957174664422493   -0.008642967029058233   -0.0020839354002260297
-0.04957174664422493   -0.008642967029058233   -0.0020839354002260297
-0.04957174664422493   -0.008642967029058233   -0.0020839354002260297
-0.040734383709638895   -0.021246318720394855   0.009118971879791103
-0.040734383709638895   -0.021246318720394855   0.009118971879791103
-0.040734383709638895   -0.021246318720394855   0.009118971879791103
-0.040734383709638895   -0.021246318720394855   0.009118971879791103
-0.052592624018015816   -0.0432042841036048   0.01737299480536611
-0.052592624018015816   -0.0432042841036048   0.01737299480536611
-0.052592624018015816   -0.0432042841036048   0.01737299480536611
-0.052592624018015816   -0.0432042841036048   0.01737299480536611
-0.031941767060990306   -0.005599096493414942   -0.0044945623052442055
-0.031941767060990306   -0.005599096493414942   -0.0044945623052442055
-0.031941767060990306   -0.005599096493414942   -0.0044945623052442055
-0.031941767060990306   -0.005599096493414942   -0.0044945623052442055
-0.03302443039168748   -0.044669043745332745   0.010522547405600362
-0.03302443039168748   -0.044669043745332745   0.010522547405600362
-0.03302443039168748   -0.044669043745332745   0.010522547405600362
-0.03302443039168748   -0.044669043745332745   0.010522547405600362
-0.050145914380909914   -0.015899776080899014   0.0034658240352998175
-0.050145914380909914   -0.015899776080899014   0.0034658240352998175
-0.050145914380909914   -0.015899776080899014   0.0034658240352998175
-0.050145914380909914   -0.015899776080899014   0.0034658240352998175
-0.037577893152897134   -0.024398433390928013   0.010731951134963079
-0.037577893152897134   -0.024398433390928013   0.010731951134963079
-0.037577893152897134   -0.024398433390928013   0.010731951134963079
-0.037577893152897134   -0.024398433390928013   0.010731951134963079
-0.05304474028563683   -0.04680269293257454   0.019874611363340764
-0.05304474028563683   -0.04680269293257454   0.019874611363340764
-0.05304474028563683   -0.04680269293257454   0.019874611363340764
-0.05304474028563683   -0.04680269293257454   0.019874611363340764
-0.03045396368729005   -0.014094486093986707   -0.007199676723758505
-0.03045396368729005   -0.014094486093986707   -0.007199676723758505
-0.03045396368729005   -0.014094486093986707   -0.007199676723758505
-0.03045396368729005   -0.014094486093986707   -0.007199676723758505
-0.027901518096454428   -0.04867385597845305   0.011591787106112878
-0.027901518096454428   -0.04867385597845305   0.011591787106112878
-0.027901518096454428   -0.04867385597845305   0.011591787106112878
-0.027901518096454428   -0.04867385597845305   0.011591787106112878
-0.0544259838958628   -0.03334285200060543   0.004510658041269045
-0.0544259838958628   -0.03334285200060543   0.004510658041269045
-0.0544259838958628   -0.03334285200060543   0.004510658041269045
-0.0544259838958628   -0.03334285200060543   0.004510658041269045
-0.036403726337422164   -0.030709169441985276   0.009113590727253582
-0.036403726337422164   -0.030709169441985276   0.009113590727253582
-0.036403726337422164   -0.030709169441985276   0.009113590727253582
-0.036403726337422164   -0.030709169441985276   0.009113590727253582
-0.03441198755741417   -0.006535601744581724   0.018573253484636832
-0.03441198755741417   -0.006535601744581724   0.018573253484636832
-0.03441198755741417   -0.006535601744581724   0.018573253484636832
-0.03441198755741417   -0.006535601744581724   0.018573253484636832
-0.006473522162132808   0.0037794601928866295   -0.0003754440971581439
-0.006473522162132808   0.0037794601928866295   -0.0003754440971581439
-0.006473522162132808   0.0037794601928866295   -0.0003754440971581439
-0.006473522162132808   0.0037794601928866295   -0.0003754440971581439
0.0014893669913272295   -0.002128647304960964   0.011542475055092151
0.0014893669913272295   -0.002128647304960964   0.011542475055092151
0.0014893669913272295   -0.002128647304960964   0.011542475055092151
0.0014893669913272295   -0.002128647304960964   0.011542475055092151
-0.029642563994343455   0.0026764981947234867   -0.0012741416601483816
-0.029642563994343455   0.0026764981947234867   -0.0012741416601483816
-0.029642563994343455   0.0026764981947234867   -0.0012741416601483816
-0.029642563994343455   0.0026764981947234867   -0.0012741416601483816
-0.01752618971815818   -0.001365886577208598   -0.0013920166548065346
-0.01752618971815818   -0.001365886577208598   -0.0013920166548065346
-0.01752618971815818   -0.001365886577208598   -0.0013920166548065346
-0.01752618971815818   -0.001365886577208598   -0.0013920166548065346
-0.027323865190631545   -0.006333848868119544   0.01932969942125419
-0.027323865190631545   -0.006333848868119544   0.01932969942125419
-0.027323865190631545   -0.006333848868119544   0.01932969942125419
-0.027323865190631545   -0.006333848868119544   0.01932969942125419
0.00018787103427103094   0.007898902604538415   -0.004992554639688221
0.00018787103427103094   0.007898902604538415   -0.004992554639688221
0.00018787103427103094   0.007898902604538415   -0.004992554639688221
0.00018787103427103094   0.007898902604538415   -0.004992554639688221
0.005407182693930606   -0.0026442441524946536   0.014235135144469052
0.005407182693930606   -0.0026442441524946536   0.014235135144469052
0.005407182693930606   -0.0026442441524946536   0.014235135144469052
0.005407182693930606   -0.0026442441524946536   0.014235135144469052
-0.02619951144184445   0.001836991910179016   -0.001858893500696243
-0.02619951144184445   0.001836991910179016   -0.001858893500696243
-0.02619951144184445   0.001836991910179016   -0.001858893500696243
-0.02619951144184445   0.001836991910179016   -0.001858893500696243
-0.011736075260817581   -0.00042224252908824736   0.0017857001702655246
-0.011736075260817581   -0.00042224252908824736   0.0017857001702655246
-0.011736075260817581   -0.00042224252908824736   0.0017857001702655246
-0.011736075260817581   -0.00042224252908824736   0.0017857001702655246
-0.023457325081678942   -0.007105305578706924   0.020794335789017248
-0.023457325081678942   -0.007105305578706924   0.020794335789017248
-0.023457325081678942   -0.007105305578706924   0.020794335789017248
-0.023457325081678942   -0.007105305578706924   0.020794335789017248
0.0035614290834729933   0.007194486086099185   -0.004832363146412843
0.0035614290834729933   0.007194486086099185   -0.004832363146412843
0.0035614290834729933   0.007194486086099185   -0.004832363146412843
0.0035614290834729933   0.007194486086099185   -0.004832363146412843
0.009313031799371962   -0.004212437078453941   0.013860353948448399
0.009313031799371962   -0.004212437078453941   0.013860353948448399
0.009313031799371962   -0.004212437078453941   0.013860353948448399
0.009313031799371962   -0.004212437078453941   0.013860353948448399
-0.02058484820120176   0.00159019750972218   -0.0020889169057990214
-0.02058484820120176   0.00159019750972218   -0.0020889169057990214
-0.02058484820120176   0.00159019750972218   -0.0020889169057990214
-0.02058484820120176   0.00159019750972218   -0.0020889169057990214
-0.00660231990225116   9.837993813307719e-05   0.004530154684897267
-0.00660231990225116   9.837993813307719e-05   0.004530154684897267
-0.00660231990225116   9.837993813307719e-05   0.004530154684897267
-0.00660231990225116   9.837993813307719e-05   0.004530154684897267
              </DataArray>   
             <DataArray type="Float64" NumberOfComponents="3" Name="Displacements" format="ascii">   
0.0   0.0   0.0
-0.0031540164059561753   -0.0020743440143325166   -0.0010568747920602678
0.0   0.0   0.0
0.0   0.0   0.0
-0.0031540164059561753   -0.0020743440143325166   -0.0010568747920602678
-0.0020065307114822853   -0.0018650482074583316   -0.0007765500593144882
0.0   0.0   0.0
-0.0019665555776177544   -0.0019583454163239564   -0.0006506809899447248
0.0   0.0   0.0
0.0   0.0   0.0
-0.0019665555776177544   -0.0019583454163239564   -0.0006506809899447248
0.0   0.0   0.0
0.0   0.0   0.0
-0.0019665555776177544   -0.0019583454163239564   -0.0006506809899447248
-0.003300465792407371   -0.0022096765633147037   -0.000848670598589726
-0.0031540164059561753   -0.0020743440143325166   -0.0010568747920602678
0.0   0.0   0.0
-0.0019665555776177544   -0.0019583454163239564   -0.0006506809899447248
-0.0031540164059561753   -0.0020743440143325166   -0.0010568747920602678
0.0   0.0   0.0
0.0   0.0   0.0
-0.003300465792407371   -0.0022096765633147037   -0.000848670598589726
0.0   0.0   0.0
0.0   0.0   0.0
-0.003300465792407371   -0.0022096765633147037   -0.000848670598589726
-0.0019665555776177544   -0.0019583454163239564   -0.0006506809899447248
0.0   0.0   0.0
-0.0019717853780986004   -0.002006193713074985   -0.0005250292869006791
0.0   0.0   0.0
0.0   0.0   0.0
-0.0019717853780986004   -0.002006193713074985   -0.0005250292869006791
0.0   0.0   0.0
0.0   0.0   0.0
-0.0019717853780986004   -0.002006193713074985   -0.0005250292869006791
-0.003403170584704381   -0.0022755022313249718   -0.0006492470407497775
-0.003300465792407371   -0.0022096765633147037   -0.000848670598589726
0.0   0.0   0.0
-0.0019717853780986004   -0.002006193713074985   -0.0005250292869006791
-0.003300465792407371   -0.0022096765633147037   -0.000848670598589726
0.0   0.0   0.0
0.0   0.0   0.0
-0.003403170584704381   -0.0022755022313249718   -0.0006492470407497775
0.0   0.0   0.0
0.0   0.0   0.0
-0.003403170584704381   -0.0022755022313249718   -0.0006492470407497775
-0.0019717853780986004   -0.002006193713074985   -0.0005250292869006791
0.0   0.0   0.0
-0.0019703924798417415   -0.0020185386838447584   -0.00039514872100619177
0.0   0.0   0.0
0.0   0.0   0.0
-0.0019703924798417415   -0.0020185386838447584   -0.00039514872100619177
0.0   0.0   0.0
0.0   0.0   0.0
-0.0019703924798417415   -0.0020185386838447584   -0.00039514872100619177
-0.0036247388296652664   -0.0023254770353558726   -0.00041793186702652384
-0.003403170584704381   -0.0022755022313249718   -0.0006492470407497775
0.0   0.0   0.0
-0.0019703924798417415   -0.0020185386838447584   -0.00039514872100619177
-0.003403170584704381   -0.0022755022313249718   -0.0006492470407497775
0.0   0.0   0.0
0.0   0.0   0.0
-0.0020065307114822853   -0.0018650482074583316   -0.0007765500593144882
0.0   0.0   0.0
0.0   0.0   0.0
-0.0020065307114822853   -0.0018650482074583316   -0.0007765500593144882
-0.0009141506383382991   -0.0017883536700188522   -0.000590795620969684
0.0   0.0   0.0
-0.0008789089372207253   -0.001849041869659738   -0.00053133598268632
0.0   0.0   0.0
0.0   0.0   0.0
-0.0008789089372207253   -0.001849041869659738   -0.00053133598268632
0.0   0.0   0.0
0.0   0.0   0.0
-0.0008789089372207253   -0.001849041869659738   -0.00053133598268632
-0.0019665555776177544   -0.0019583454163239564   -0.0006506809899447248
-0.0020065307114822853   -0.0018650482074583316   -0.0007765500593144882
0.0   0.0   0.0
-0.0008789089372207253   -0.001849041869659738   -0.00053133598268632
-0.0020065307114822853   -0.0018650482074583316   -0.0007765500593144882
0.0   0.0   0.0
0.0   0.0   0.0
-0.0019665555776177544   -0.0019583454163239564   -0.0006506809899447248
0.0   0.0   0.0
0.0   0.0   0.0
-0.0019665555776177544   -0.0019583454163239564   -0.0006506809899447248
-0.0008789089372207253   -0.001849041869659738   -0.00053133598268632
0.0   0.0   0.0
-0.000858986844189596   -0.0018721869358372153   -0.000473464618305676
0.0   0.0   0.0
0.0   0.0   0.0
-0.000858986844189596   -0.0018721869358372153   -0.000473464618305676
0.0   0.0   0.0
0.0   0.0   0.0
-0.000858986844189596   -0.0018721869358372153   -0.000473464618305676
-0.0019717853780986004   -0.002006193713074985   -0.0005250292869006791
-0.0019665555776177544   -0.0019583454163239564   -0.0006506809899447248
0.0   0.0   0.0
-0.000858986844189596   -0.0018721869358372153   -0.000473464618305676
-0.0019665555776177544   -0.0019583454163239564   -0.0006506809899447248
0.0   0.0   0.0
0.0   0.0   0.0
-0.0019717853780986004   -0.002006193713074985   -0.0005250292869006791
0.0   0.0   0.0
0.0   0.0   0.0
-0.0019717853780986004   -0.002006193713074985   -0.0005250292869006791
-0.000858986844189596   -0.0018721869358372153   -0.000473464618305676
0.0   0.0   0.0
-0.0008407939779049431   -0.0018625611523144972   -0.0004136731732753857
0.0   0.0   0.0
0.0   0.0   0.0
-0.0008407939779049431   -0.0018625611523144972   -0.0004136731732753857
0.0   0.0   0.0
0.0   0.0   0.0
-0.0008407939779049431   -0.0018625611523144972   -0.0004136731732753857
-0.0019703924798417415   -0.0020185386838447584   -0.00039514872100619177
-0.0019717853780986004   -0.002006193713074985   -0.0005250292869006791
0.0   0.0   0.0
-0.0008407939779049431   -0.0018625611523144972   -0.0004136731732753857
-0.0019717853780986004   -0.002006193713074985   -0.0005250292869006791
0.0   0.0   0.0
0.0   0.0   0.0
-0.0009141506383382991   -0.0017883536700188522   -0.000590795620969684
0.0   0.0   0.0
0.0   0.0   0.0
-0.0009141506383382991   -0.0017883536700188522   -0.000590795620969684
0.00011767305670605784   -0.0017982297455756328   -0.00047252557979018543
0.0   0.0   0.0
0.00014031436866852526   -0.0018296417961912873   -0.00048066174145863696
0.0   0.0   0.0
0.0   0.0   0.0
0.00014031436866852526   -0.0018296417961912873   -0.00048066174145863696
0.0   0.0   0.0
0.0   0.0   0.0
0.00014031436866852526   -0.0018296417961912873   -0.00048066174145863696
-0.0008789089372207253   -0.001849041869659738   -0.00053133598268632
-0.0009141506383382991   -0.0017883536700188522   -0.000590795620969684
0.0   0.0   0.0
0.00014031436866852526   -0.0018296417961912873   -0.00048066174145863696
-0.0009141506383382991   -0.0017883536700188522   -0.000590795620969684
0.0   0.0   0.0
0.0   0.0   0.0
-0.0008789089372207253   -0.001849041869659738   -0.00053133598268632
0.0   0.0   0.0
0.0   0.0   0.0
-0.0008789089372207253   -0.001849041869659738   -0.00053133598268632
0.00014031436866852526   -0.0018296417961912873   -0.00048066174145863696
0.0   0.0   0.0
0.00015822612531364105   -0.001826999932961202   -0.00048804170684537887
0.0   0.0   0.0
0.0   0.0   0.0
0.00015822612531364105   -0.001826999932961202   -0.00048804170684537887
0.0   0.0   0.0
0.0   0.0   0.0
0.00015822612531364105   -0.001826999932961202   -0.00048804170684537887
-0.000858986844189596   -0.0018721869358372153   -0.000473464618305676
-0.0008789089372207253   -0.001849041869659738   -0.00053133598268632
0.0   0.0   0.0
0.00015822612531364105   -0.001826999932961202   -0.00048804170684537887
-0.0008789089372207253   -0.001849041869659738   -0.00053133598268632
0.0   0.0   0.0
0.0   0.0   0.0
-0.000858986844189596   -0.0018721869358372153   -0.000473464618305676
0.0   0.0   0.0
0.0   0.0   0.0
-0.000858986844189596   -0.0018721869358372153   -0.000473464618305676
0.00015822612531364105   -0.001826999932961202   -0.00048804170684537887
0.0   0.0   0.0
0.0001822215035707081   -0.0017875175944020206   -0.0004956636792107944
0.0   0.0   0.0
0.0   0.0   0.0
0.0001822215035707081   -0.0017875175944020206   -0.0004956636792107944
0.0   0.0   0.0
0.0   0.0   0.0
0.0001822215035707081   -0.0017875175944020206   -0.0004956636792107944
-0.0008407939779049431   -0.0018625611523144972   -0.0004136731732753857
-0.000858986844189596   -0.0018721869358372153   -0.000473464618305676
0.0   0.0   0.0
0.0001822215035707081   -0.0017875175944020206   -0.0004956636792107944
-0.000858986844189596   -0.0018721869358372153   -0.000473464618305676
0.0   0.0   0.0
0.0   0.0   0.0
0.00011767305670605784   -0.0017982297455756328   -0.00047252557979018543
0.0   0.0   0.0
0.0   0.0   0.0
0.00011767305670605784   -0.0017982297455756328   -0.00047252557979018543
0.0012379711096367446   -0.0018853515651709317   -0.00041416633371283573
0.0   0.0   0.0
0.001240550761852727   -0.0018952666367872378   -0.0004934312923752553
0.0   0.0   0.0
0.0   0.0   0.0
0.001240550761852727   -0.0018952666367872378   -0.0004934312923752553
0.0   0.0   0.0
0.0   0.0   0.0
0.001240550761852727   -0.0018952666367872378   -0.0004934312923752553
0.00014031436866852526   -0.0018296417961912873   -0.00048066174145863696
0.00011767305670605784   -0.0017982297455756328   -0.00047252557979018543
0.0   0.0   0.0
0.001240550761852727   -0.0018952666367872378   -0.0004934312923752553
0.00011767305670605784   -0.0017982297455756328   -0.00047252557979018543
0.0   0.0   0.0
0.0   0.0   0.0
0.00014031436866852526   -0.0018296417961912873   -0.00048066174145863696
0.0   0.0   0.0
0.0   0.0   0.0
0.00014031436866852526   -0.0018296417961912873   -0.00048066174145863696
0.001240550761852727   -0.0018952666367872378   -0.0004934312923752553
0.0   0.0   0.0
0.001235563701581969   -0.0018682056552209582   -0.0005695186178292877
0.0   0.0   0.0
0.0   0.0   0.0
0.001235563701581969   -0.0018682056552209582   -0.0005695186178292877
0.0   0.0   0.0
0.0   0.0   0.0
0.001235563701581969   -0.0018682056552209582   -0.0005695186178292877
0.00015822612531364105   -0.001826999932961202   -0.00048804170684537887
0.00014031436866852526   -0.0018296417961912873   -0.00048066174145863696
0.0   0.0   0.0
0.001235563701581969   -0.0018682056552209582   -0.0005695186178292877
0.00014031436866852526   -0.0018296417961912873   -0.00048066174145863696
0.0   0.0   0.0
0.0   0.0   0.0
0.00015822612531364105   -0.001826999932961202   -0.00048804170684537887
0.0   0.0   0.0
0.0   0.0   0.0
0.00015822612531364105   -0.001826999932961202   -0.00048804170684537887
0.001235563701581969   -0.0018682056552209582   -0.0005695186178292877
0.0   0.0   0.0
0.0012598061325455638   -0.0017959213949198319   -0.0006441942473678358
0.0   0.0   0.0
0.0   0.0   0.0
0.0012598061325455638   -0.0017959213949198319   -0.0006441942473678358
0.0   0.0   0.0
0.0   0.0   0.0
0.0012598061325455638   -0.0017959213949198319   -0.0006441942473678358
0.0001822215035707081   -0.0017875175944020206   -0.0004956636792107944
0.00015822612531364105   -0.001826999932961202   -0.00048804170684537887
0.0   0.0   0.0
0.0012598061325455638   -0.0017959213949198319   -0.0006441942473678358
0.00015822612531364105   -0.001826999932961202   -0.00048804170684537887
0.0   0.0   0.0
0.0   0.0   0.0
0.0012379711096367446   -0.0018853515651709317   -0.00041416633371283573
0.0   0.0   0.0
0.0   0.0   0.0
0.0012379711096367446   -0.0018853515651709317   -0.00041416633371283573
0.0027968969438168425   -0.002106357686482557   -0.00039112156651505587
0.0   0.0   0.0
0.002627229014313006   -0.00208318778315995   -0.0005709620043624786
0.0   0.0   0.0
0.0   0.0   0.0
0.002627229014313006   -0.00208318778315995   -0.0005709620043624786
0.0   0.0   0.0
0.0   0.0   0.0
0.002627229014313006   -0.00208318778315995   -0.0005709620043624786
0.001240550761852727   -0.0018952666367872378   -0.0004934312923752553
0.0012379711096367446   -0.0018853515651709317   -0.00041416633371283573
0.0   0.0   0.0
0.002627229014313006   -0.00208318778315995   -0.0005709620043624786
0.0012379711096367446   -0.0018853515651709317   -0.00041416633371283573
0.0   0.0   0.0
0.0   0.0   0.0
0.001240550761852727   -0.0018952666367872378   -0.0004934312923752553
0.0   0.0   0.0
0.0   0.0   0.0
0.001240550761852727   -0.0018952666367872378   -0.0004934312923752553
0.002627229014313006   -0.00208318778315995   -0.0005709620043624786
0.0   0.0   0.0
0.0025491356163239083   -0.0020398807431403526   -0.0007230773465480913
0.0   0.0   0.0
0.0   0.0   0.0
0.0025491356163239083   -0.0020398807431403526   -0.0007230773465480913
0.0   0.0   0.0
0.0   0.0   0.0
0.0025491356163239083   -0.0020398807431403526   -0.0007230773465480913
0.001235563701581969   -0.0018682056552209582   -0.0005695186178292877
0.001240550761852727   -0.0018952666367872378   -0.0004934312923752553
0.0   0.0   0.0
0.0025491356163239083   -0.0020398807431403526   -0.0007230773465480913
0.001240550761852727   -0.0018952666367872378   -0.0004934312923752553
0.0   0.0   0.0
0.0   0.0   0.0
0.001235563701581969   -0.0018682056552209582   -0.0005695186178292877
0.0   0.0   0.0
0.0   0.0   0.0
0.001235563701581969   -0.0018682056552209582   -0.0005695186178292877
0.0025491356163239083   -0.0020398807431403526   -0.0007230773465480913
0.0   0.0   0.0
0.0024326486301922703   -0.0019292104861686084   -0.0008841306878725857
0.0   0.0   0.0
0.0   0.0   0.0
0.0024326486301922703   -0.0019292104861686084   -0.0008841306878725857
0.0   0.0   0.0
0.0   0.0   0.0
0.0024326486301922703   -0.0019292104861686084   -0.0008841306878725857
0.0012598061325455638   -0.0017959213949198319   -0.0006441942473678358
0.001235563701581969   -0.0018682056552209582   -0.0005695186178292877
0.0   0.0   0.0
0.0024326486301922703   -0.0019292104861686084   -0.0008841306878725857
0.001235563701581969   -0.0018682056552209582   -0.0005695186178292877
0.0   0.0   0.0
-0.0031540164059561753   -0.0020743440143325166   -0.0010568747920602678
-0.005887348035789713   -0.005783136718863273   -0.0014240677240509047
-0.0020065307114822853   -0.0018650482074583316   -0.0007765500593144882
-0.003300465792407371   -0.0022096765633147037   -0.000848670598589726
-0.005887348035789713   -0.005783136718863273   -0.0014240677240509047
-0.003757497380143796   -0.005595037774400709   -0.0011725530196705026
-0.0020065307114822853   -0.0018650482074583316   -0.0007765500593144882
-0.0037614128358866776   -0.005690421522987663   -0.0010562347749998081
-0.003300465792407371   -0.0022096765633147037   -0.000848670598589726
-0.0019665555776177544   -0.0019583454163239564   -0.0006506809899447248
-0.0037614128358866776   -0.005690421522987663   -0.0010562347749998081
-0.0020065307114822853   -0.0018650482074583316   -0.0007765500593144882
-0.003300465792407371   -0.0022096765633147037   -0.000848670598589726
-0.0037614128358866776   -0.005690421522987663   -0.0010562347749998081
-0.006063041570393194   -0.005916289645182351   -0.0012352644015737352
-0.005887348035789713   -0.005783136718863273   -0.0014240677240509047
-0.003300465792407371   -0.0022096765633147037   -0.000848670598589726
-0.0037614128358866776   -0.005690421522987663   -0.0010562347749998081
-0.005887348035789713   -0.005783136718863273   -0.0014240677240509047
-0.0020065307114822853   -0.0018650482074583316   -0.0007765500593144882
-0.003300465792407371   -0.0022096765633147037   -0.000848670598589726
-0.006063041570393194   -0.005916289645182351   -0.0012352644015737352
-0.0019665555776177544   -0.0019583454163239564   -0.0006506809899447248
-0.003403170584704381   -0.0022755022313249718   -0.0006492470407497775
-0.006063041570393194   -0.005916289645182351   -0.0012352644015737352
-0.0037614128358866776   -0.005690421522987663   -0.0010562347749998081
-0.0019665555776177544   -0.0019583454163239564   -0.0006506809899447248
-0.003775663929089869   -0.005748616540064639   -0.000944491900290857
-0.003403170584704381   -0.0022755022313249718   -0.0006492470407497775
-0.0019717853780986004   -0.002006193713074985   -0.0005250292869006791
-0.003775663929089869   -0.005748616540064639   -0.000944491900290857
-0.0019665555776177544   -0.0019583454163239564   -0.0006506809899447248
-0.003403170584704381   -0.0022755022313249718   -0.0006492470407497775
-0.003775663929089869   -0.005748616540064639   -0.000944491900290857
-0.006184891070834819   -0.005991535053489508   -0.0010504409289701531
-0.006063041570393194   -0.005916289645182351   -0.0012352644015737352
-0.003403170584704381   -0.0022755022313249718   -0.0006492470407497775
-0.003775663929089869   -0.005748616540064639   -0.000944491900290857
-0.006063041570393194   -0.005916289645182351   -0.0012352644015737352
-0.0019665555776177544   -0.0019583454163239564   -0.0006506809899447248
-0.003403170584704381   -0.0022755022313249718   -0.0006492470407497775
-0.006184891070834819   -0.005991535053489508   -0.0010504409289701531
-0.0019717853780986004   -0.002006193713074985   -0.0005250292869006791
-0.0036247388296652664   -0.0023254770353558726   -0.00041793186702652384
-0.006184891070834819   -0.005991535053489508   -0.0010504409289701531
-0.003775663929089869   -0.005748616540064639   -0.000944491900290857
-0.0019717853780986004   -0.002006193713074985   -0.0005250292869006791
-0.0037638313121734746   -0.00577889616651442   -0.0008399309114269383
-0.0036247388296652664   -0.0023254770353558726   -0.00041793186702652384
-0.0019703924798417415   -0.0020185386838447584   -0.00039514872100619177
-0.0037638313121734746   -0.00577889616651442   -0.0008399309114269383
-0.0019717853780986004   -0.002006193713074985   -0.0005250292869006791
-0.0036247388296652664   -0.0023254770353558726   -0.00041793186702652384
-0.0037638313121734746   -0.00577889616651442   -0.0008399309114269383
-0.0063288883309848614   -0.00603542988178898   -0.0008823617894256724
-0.006184891070834819   -0.005991535053489508   -0.0010504409289701531
-0.0036247388296652664   -0.0023254770353558726   -0.00041793186702652384
-0.0037638313121734746   -0.00577889616651442   -0.0008399309114269383
-0.006184891070834819   -0.005991535053489508   -0.0010504409289701531
-0.0019717853780986004   -0.002006193713074985   -0.0005250292869006791
-0.0020065307114822853   -0.0018650482074583316   -0.0007765500593144882
-0.003757497380143796   -0.005595037774400709   -0.0011725530196705026
-0.0009141506383382991   -0.0017883536700188522   -0.000590795620969684
-0.0019665555776177544   -0.0019583454163239564   -0.0006506809899447248
-0.003757497380143796   -0.005595037774400709   -0.0011725530196705026
-0.0017443755607275979   -0.005507508760877708   -0.001000911518598243
-0.0009141506383382991   -0.0017883536700188522   -0.000590795620969684
-0.0017287943186547916   -0.0055681638060453955   -0.0009412552839207695
-0.0019665555776177544   -0.0019583454163239564   -0.0006506809899447248
-0.0008789089372207253   -0.001849041869659738   -0.00053133598268632
-0.0017287943186547916   -0.0055681638060453955   -0.0009412552839207695
-0.0009141506383382991   -0.0017883536700188522   -0.000590795620969684
-0.0019665555776177544   -0.0019583454163239564   -0.0006506809899447248
-0.0017287943186547916   -0.0055681638060453955   -0.0009412552839207695
-0.0037614128358866776   -0.005690421522987663   -0.0010562347749998081
-0.003757497380143796   -0.005595037774400709   -0.0011725530196705026
-0.0019665555776177544   -0.0019583454163239564   -0.0006506809899447248
-0.0017287943186547916   -0.0055681638060453955   -0.0009412552839207695
-0.003757497380143796   -0.005595037774400709   -0.0011725530196705026
-0.0009141506383382991   -0.0017883536700188522   -0.000590795620969684
-0.0019665555776177544   -0.0019583454163239564   -0.0006506809899447248
-0.0037614128358866776   -0.005690421522987663   -0.0010562347749998081
-0.0008789089372207253   -0.001849041869659738   -0.00053133598268632
-0.0019717853780986004   -0.002006193713074985   -0.0005250292869006791
-0.0037614128358866776   -0.005690421522987663   -0.0010562347749998081
-0.0017287943186547916   -0.0055681638060453955   -0.0009412552839207695
-0.0008789089372207253   -0.001849041869659738   -0.00053133598268632
-0.001714926906334337   -0.005597599890003321   -0.0008871986947766112
-0.0019717853780986004   -0.002006193713074985   -0.0005250292869006791
-0.000858986844189596   -0.0018721869358372153   -0.000473464618305676
-0.001714926906334337   -0.005597599890003321   -0.0008871986947766112
-0.0008789089372207253   -0.001849041869659738   -0.00053133598268632
-0.0019717853780986004   -0.002006193713074985   -0.0005250292869006791
-0.001714926906334337   -0.005597599890003321   -0.0008871986947766112
-0.003775663929089869   -0.005748616540064639   -0.000944491900290857
-0.0037614128358866776   -0.005690421522987663   -0.0010562347749998081
-0.0019717853780986004   -0.002006193713074985   -0.0005250292869006791
-0.001714926906334337   -0.005597599890003321   -0.0008871986947766112
-0.0037614128358866776   -0.005690421522987663   -0.0010562347749998081
-0.0008789089372207253   -0.001849041869659738   -0.00053133598268632
-0.0019717853780986004   -0.002006193713074985   -0.0005250292869006791
-0.003775663929089869   -0.005748616540064639   -0.000944491900290857
-0.000858986844189596   -0.0018721869358372153   -0.000473464618305676
-0.0019703924798417415   -0.0020185386838447584   -0.00039514872100619177
-0.003775663929089869   -0.005748616540064639   -0.000944491900290857
-0.001714926906334337   -0.005597599890003321   -0.0008871986947766112
-0.000858986844189596   -0.0018721869358372153   -0.000473464618305676
-0.0016944807343513846   -0.005596925239135391   -0.0008401632746969373
-0.0019703924798417415   -0.0020185386838447584   -0.00039514872100619177
-0.0008407939779049431   -0.0018625611523144972   -0.0004136731732753857
-0.0016944807343513846   -0.005596925239135391   -0.0008401632746969373
-0.000858986844189596   -0.0018721869358372153   -0.000473464618305676
-0.0019703924798417415   -0.0020185386838447584   -0.00039514872100619177
-0.0016944807343513846   -0.005596925239135391   -0.0008401632746969373
-0.0037638313121734746   -0.00577889616651442   -0.0008399309114269383
-0.003775663929089869   -0.005748616540064639   -0.000944491900290857
-0.0019703924798417415   -0.0020185386838447584   -0.00039514872100619177
-0.0016944807343513846   -0.005596925239135391   -0.0008401632746969373
-0.003775663929089869   -0.005748616540064639   -0.000944491900290857
-0.000858986844189596   -0.0018721869358372153   -0.000473464618305676
-0.0009141506383382991   -0.0017883536700188522   -0.000590795620969684
-0.0017443755607275979   -0.005507508760877708   -0.001000911518598243
0.00011767305670605784   -0.0017982297455756328   -0.00047252557979018543
-0.0008789089372207253   -0.001849041869659738   -0.00053133598268632
-0.0017443755607275979   -0.005507508760877708   -0.001000911518598243
0.0001965453551772529   -0.005510146744136032   -0.0008925236544943172
0.00011767305670605784   -0.0017982297455756328   -0.00047252557979018543
0.00021560438063453343   -0.005538798378007329   -0.0008884751401533195
-0.0008789089372207253   -0.001849041869659738   -0.00053133598268632
0.00014031436866852526   -0.0018296417961912873   -0.00048066174145863696
0.00021560438063453343   -0.005538798378007329   -0.0008884751401533195
0.00011767305670605784   -0.0017982297455756328   -0.00047252557979018543
-0.0008789089372207253   -0.001849041869659738   -0.00053133598268632
0.00021560438063453343   -0.005538798378007329   -0.0008884751401533195
-0.0017287943186547916   -0.0055681638060453955   -0.0009412552839207695
-0.0017443755607275979   -0.005507508760877708   -0.001000911518598243
-0.0008789089372207253   -0.001849041869659738   -0.00053133598268632
0.00021560438063453343   -0.005538798378007329   -0.0008884751401533195
-0.0017443755607275979   -0.005507508760877708   -0.001000911518598243
0.00011767305670605784   -0.0017982297455756328   -0.00047252557979018543
-0.0008789089372207253   -0.001849041869659738   -0.00053133598268632
-0.0017287943186547916   -0.0055681638060453955   -0.0009412552839207695
0.00014031436866852526   -0.0018296417961912873   -0.00048066174145863696
-0.000858986844189596   -0.0018721869358372153   -0.000473464618305676
-0.0017287943186547916   -0.0055681638060453955   -0.0009412552839207695
0.00021560438063453343   -0.005538798378007329   -0.0008884751401533195
0.00014031436866852526   -0.0018296417961912873   -0.00048066174145863696
0.00022859720625730988   -0.0055369610278636515   -0.0008907801080645667
-0.000858986844189596   -0.0018721869358372153   -0.000473464618305676
0.00015822612531364105   -0.001826999932961202   -0.00048804170684537887
0.00022859720625730988   -0.0055369610278636515   -0.0008907801080645667
0.00014031436866852526   -0.0018296417961912873   -0.00048066174145863696
-0.000858986844189596   -0.0018721869358372153   -0.000473464618305676
0.00022859720625730988   -0.0055369610278636515   -0.0008907801080645667
-0.001714926906334337   -0.005597599890003321   -0.0008871986947766112
-0.0017287943186547916   -0.0055681638060453955   -0.0009412552839207695
-0.000858986844189596   -0.0018721869358372153   -0.000473464618305676
0.00022859720625730988   -0.0055369610278636515   -0.0008907801080645667
-0.0017287943186547916   -0.0055681638060453955   -0.0009412552839207695
0.00014031436866852526   -0.0018296417961912873   -0.00048066174145863696
-0.000858986844189596   -0.0018721869358372153   -0.000473464618305676
-0.001714926906334337   -0.005597599890003321   -0.0008871986947766112
0.00015822612531364105   -0.001826999932961202   -0.00048804170684537887
-0.0008407939779049431   -0.0018625611523144972   -0.0004136731732753857
-0.001714926906334337   -0.005597599890003321   -0.0008871986947766112
0.00022859720625730988   -0.0055369610278636515   -0.0008907801080645667
0.00015822612531364105   -0.001826999932961202   -0.00048804170684537887
0.00024249693399766223   -0.005503706908539338   -0.0008995383503693414
-0.0008407939779049431   -0.0018625611523144972   -0.0004136731732753857
0.0001822215035707081   -0.0017875175944020206   -0.0004956636792107944
0.00024249693399766223   -0.005503706908539338   -0.0008995383503693414
0.00015822612531364105   -0.001826999932961202   -0.00048804170684537887
-0.0008407939779049431   -0.0018625611523144972   -0.0004136731732753857
0.00024249693399766223   -0.005503706908539338   -0.0008995383503693414
-0.0016944807343513846   -0.005596925239135391   -0.0008401632746969373
-0.001714926906334337   -0.005597599890003321   -0.0008871986947766112
-0.0008407939779049431   -0.0018625611523144972   -0.0004136731732753857
0.00024249693399766223   -0.005503706908539338   -0.0008995383503693414
-0.001714926906334337   -0.005597599890003321   -0.0008871986947766112
0.00015822612531364105   -0.001826999932961202   -0.00048804170684537887
0.00011767305670605784   -0.0017982297455756328   -0.00047252557979018543
0.0001965453551772529   -0.005510146744136032   -0.0008925236544943172
0.0012379711096367446   -0.0018853515651709317   -0.00041416633371283573
0.00014031436866852526   -0.0018296417961912873   -0.00048066174145863696
0.0001965453551772529   -0.005510146744136032   -0.0008925236544943172
0.0022536736330745293   -0.0055997074644880684   -0.0008421697179668741
0.0012379711096367446   -0.0018853515651709317   -0.00041416633371283573
0.0022647700525586104   -0.005599258867708647   -0.0008955284868665297
0.00014031436866852526   -0.0018296417961912873   -0.00048066174145863696
0.001240550761852727   -0.0018952666367872378   -0.0004934312923752553
0.0022647700525586104   -0.005599258867708647   -0.0008955284868665297
0.0012379711096367446   -0.0018853515651709317   -0.00041416633371283573
0.00014031436866852526   -0.0018296417961912873   -0.00048066174145863696
0.0022647700525586104   -0.005599258867708647   -0.0008955284868665297
0.00021560438063453343   -0.005538798378007329   -0.0008884751401533195
0.0001965453551772529   -0.005510146744136032   -0.0008925236544943172
0.00014031436866852526   -0.0018296417961912873   -0.00048066174145863696
0.0022647700525586104   -0.005599258867708647   -0.0008955284868665297
0.0001965453551772529   -0.005510146744136032   -0.0008925236544943172
0.0012379711096367446   -0.0018853515651709317   -0.00041416633371283573
0.00014031436866852526   -0.0018296417961912873   -0.00048066174145863696
0.00021560438063453343   -0.005538798378007329   -0.0008884751401533195
0.001240550761852727   -0.0018952666367872378   -0.0004934312923752553
0.00015822612531364105   -0.001826999932961202   -0.00048804170684537887
0.00021560438063453343   -0.005538798378007329   -0.0008884751401533195
0.0022647700525586104   -0.005599258867708647   -0.0008955284868665297
0.001240550761852727   -0.0018952666367872378   -0.0004934312923752553
0.0022549205424385716   -0.005568930137557877   -0.0009560750681137042
0.00015822612531364105   -0.001826999932961202   -0.00048804170684537887
0.001235563701581969   -0.0018682056552209582   -0.0005695186178292877
0.0022549205424385716   -0.005568930137557877   -0.0009560750681137042
0.001240550761852727   -0.0018952666367872378   -0.0004934312923752553
0.00015822612531364105   -0.001826999932961202   -0.00048804170684537887
0.0022549205424385716   -0.005568930137557877   -0.0009560750681137042
0.00022859720625730988   -0.0055369610278636515   -0.0008907801080645667
0.00021560438063453343   -0.005538798378007329   -0.0008884751401533195
0.00015822612531364105   -0.001826999932961202   -0.00048804170684537887
0.0022549205424385716   -0.005568930137557877   -0.0009560750681137042
0.00021560438063453343   -0.005538798378007329   -0.0008884751401533195
0.001240550761852727   -0.0018952666367872378   -0.0004934312923752553
0.00015822612531364105   -0.001826999932961202   -0.00048804170684537887
0.00022859720625730988   -0.0055369610278636515   -0.0008907801080645667
0.001235563701581969   -0.0018682056552209582   -0.0005695186178292877
0.0001822215035707081   -0.0017875175944020206   -0.0004956636792107944
0.00022859720625730988   -0.0055369610278636515   -0.0008907801080645667
0.0022549205424385716   -0.005568930137557877   -0.0009560750681137042
0.001235563701581969   -0.0018682056552209582   -0.0005695186178292877
0.0022494995788476433   -0.00550045283763673   -0.0010215672295284589
0.0001822215035707081   -0.0017875175944020206   -0.0004956636792107944
0.0012598061325455638   -0.0017959213949198319   -0.0006441942473678358
0.0022494995788476433   -0.00550045283763673   -0.0010215672295284589
0.001235563701581969   -0.0018682056552209582   -0.0005695186178292877
0.0001822215035707081   -0.0017875175944020206   -0.0004956636792107944
0.0022494995788476433   -0.00550045283763673   -0.0010215672295284589
0.00024249693399766223   -0.005503706908539338   -0.0008995383503693414
0.00022859720625730988   -0.0055369610278636515   -0.0008907801080645667
0.0001822215035707081   -0.0017875175944020206   -0.0004956636792107944
0.0022494995788476433   -0.00550045283763673   -0.0010215672295284589
0.00022859720625730988   -0.0055369610278636515   -0.0008907801080645667
0.001235563701581969   -0.0018682056552209582   -0.0005695186178292877
0.0012379711096367446   -0.0018853515651709317   -0.00041416633371283573
0.0022536736330745293   -0.0055997074644880684   -0.0008421697179668741
0.0027968969438168425   -0.002106357686482557   -0.00039112156651505587
0.001240550761852727   -0.0018952666367872378   -0.0004934312923752553
0.0022536736330745293   -0.0055997074644880684   -0.0008421697179668741
0.004736840485961716   -0.005766069544417797   -0.0008290487772047801
0.0027968969438168425   -0.002106357686482557   -0.00039112156651505587
0.004641389609858891   -0.005750082109110284   -0.0009491759015587285
0.001240550761852727   -0.0018952666367872378   -0.0004934312923752553
0.002627229014313006   -0.00208318778315995   -0.0005709620043624786
0.004641389609858891   -0.005750082109110284   -0.0009491759015587285
0.0027968969438168425   -0.002106357686482557   -0.00039112156651505587
0.001240550761852727   -0.0018952666367872378   -0.0004934312923752553
0.004641389609858891   -0.005750082109110284   -0.0009491759015587285
0.0022647700525586104   -0.005599258867708647   -0.0008955284868665297
0.0022536736330745293   -0.0055997074644880684   -0.0008421697179668741
0.001240550761852727   -0.0018952666367872378   -0.0004934312923752553
0.004641389609858891   -0.005750082109110284   -0.0009491759015587285
0.0022536736330745293   -0.0055997074644880684   -0.0008421697179668741
0.0027968969438168425   -0.002106357686482557   -0.00039112156651505587
0.001240550761852727   -0.0018952666367872378   -0.0004934312923752553
0.0022647700525586104   -0.005599258867708647   -0.0008955284868665297
0.002627229014313006   -0.00208318778315995   -0.0005709620043624786
0.001235563701581969   -0.0018682056552209582   -0.0005695186178292877
0.0022647700525586104   -0.005599258867708647   -0.0008955284868665297
0.004641389609858891   -0.005750082109110284   -0.0009491759015587285
0.002627229014313006   -0.00208318778315995   -0.0005709620043624786
0.004556008453716849   -0.005703360065714981   -0.0010844192746970562
0.001235563701581969   -0.0018682056552209582   -0.0005695186178292877
0.0025491356163239083   -0.0020398807431403526   -0.0007230773465480913
0.004556008453716849   -0.005703360065714981   -0.0010844192746970562
0.002627229014313006   -0.00208318778315995   -0.0005709620043624786
0.001235563701581969   -0.0018682056552209582   -0.0005695186178292877
0.004556008453716849   -0.005703360065714981   -0.0010844192746970562
0.0022549205424385716   -0.005568930137557877   -0.0009560750681137042
0.0022647700525586104   -0.005599258867708647   -0.0008955284868665297
0.001235563701581969   -0.0018682056552209582   -0.0005695186178292877
0.004556008453716849   -0.005703360065714981   -0.0010844192746970562
0.0022647700525586104   -0.005599258867708647   -0.0008955284868665297
0.002627229014313006   -0.00208318778315995   -0.0005709620043624786
0.001235563701581969   -0.0018682056552209582   -0.0005695186178292877
0.0022549205424385716   -0.005568930137557877   -0.0009560750681137042
0.0025491356163239083   -0.0020398807431403526   -0.0007230773465480913
0.0012598061325455638   -0.0017959213949198319   -0.0006441942473678358
0.0022549205424385716   -0.005568930137557877   -0.0009560750681137042
0.004556008453716849   -0.005703360065714981   -0.0010844192746970562
0.0025491356163239083   -0.0020398807431403526   -0.0007230773465480913
0.004427677113697303   -0.0055996141033047946   -0.0012252652765135466
0.0012598061325455638   -0.0017959213949198319   -0.0006441942473678358
0.0024326486301922703   -0.0019292104861686084   -0.0008841306878725857
0.004427677113697303   -0.0055996141033047946   -0.0012252652765135466
0.0025491356163239083   -0.0020398807431403526   -0.0007230773465480913
0.0012598061325455638   -0.0017959213949198319   -0.0006441942473678358
0.004427677113697303   -0.0055996141033047946   -0.0012252652765135466
0.0022494995788476433   -0.00550045283763673   -0.0010215672295284589
0.0022549205424385716   -0.005568930137557877   -0.0009560750681137042
0.0012598061325455638   -0.0017959213949198319   -0.0006441942473678358
0.004427677113697303   -0.0055996141033047946   -0.0012252652765135466
0.0022549205424385716   -0.005568930137557877   -0.0009560750681137042
0.0025491356163239083   -0.0020398807431403526   -0.0007230773465480913
-0.005887348035789713   -0.005783136718863273   -0.0014240677240509047
-0.00806204076247142   -0.010835925596964037   -0.0016225562648345476
-0.003757497380143796   -0.005595037774400709   -0.0011725530196705026
-0.006063041570393194   -0.005916289645182351   -0.0012352644015737352
-0.00806204076247142   -0.010835925596964037   -0.0016225562648345476
-0.005183848005277803   -0.010692337344314209   -0.0014188501511591856
-0.003757497380143796   -0.005595037774400709   -0.0011725530196705026
-0.0051945663214838554   -0.010774564544356066   -0.0013287001706391091
-0.006063041570393194   -0.005916289645182351   -0.0012352644015737352
-0.0037614128358866776   -0.005690421522987663   -0.0010562347749998081
-0.0051945663214838554   -0.010774564544356066   -0.0013287001706391091
-0.003757497380143796   -0.005595037774400709   -0.0011725530196705026
-0.006063041570393194   -0.005916289645182351   -0.0012352644015737352
-0.0051945663214838554   -0.010774564544356066   -0.0013287001706391091
-0.00820451074811861   -0.010948340093736677   -0.0014819675210001502
-0.00806204076247142   -0.010835925596964037   -0.0016225562648345476
-0.006063041570393194   -0.005916289645182351   -0.0012352644015737352
-0.0051945663214838554   -0.010774564544356066   -0.0013287001706391091
-0.00806204076247142   -0.010835925596964037   -0.0016225562648345476
-0.003757497380143796   -0.005595037774400709   -0.0011725530196705026
-0.006063041570393194   -0.005916289645182351   -0.0012352644015737352
-0.00820451074811861   -0.010948340093736677   -0.0014819675210001502
-0.0037614128358866776   -0.005690421522987663   -0.0010562347749998081
-0.006184891070834819   -0.005991535053489508   -0.0010504409289701531
-0.00820451074811861   -0.010948340093736677   -0.0014819675210001502
-0.0051945663214838554   -0.010774564544356066   -0.0013287001706391091
-0.0037614128358866776   -0.005690421522987663   -0.0010562347749998081
-0.005207266967079655   -0.010831843414943414   -0.0012450980396376563
-0.006184891070834819   -0.005991535053489508   -0.0010504409289701531
-0.003775663929089869   -0.005748616540064639   -0.000944491900290857
-0.005207266967079655   -0.010831843414943414   -0.0012450980396376563
-0.0037614128358866776   -0.005690421522987663   -0.0010562347749998081
-0.006184891070834819   -0.005991535053489508   -0.0010504409289701531
-0.005207266967079655   -0.010831843414943414   -0.0012450980396376563
-0.008294028420957432   -0.01101889512308033   -0.0013509746909622195
-0.00820451074811861   -0.010948340093736677   -0.0014819675210001502
-0.006184891070834819   -0.005991535053489508   -0.0010504409289701531
-0.005207266967079655   -0.010831843414943414   -0.0012450980396376563
-0.00820451074811861   -0.010948340093736677   -0.0014819675210001502
-0.0037614128358866776   -0.005690421522987663   -0.0010562347749998081
-0.006184891070834819   -0.005991535053489508   -0.0010504409289701531
-0.008294028420957432   -0.01101889512308033   -0.0013509746909622195
-0.003775663929089869   -0.005748616540064639   -0.000944491900290857
-0.0063288883309848614   -0.00603542988178898   -0.0008823617894256724
-0.008294028420957432   -0.01101889512308033   -0.0013509746909622195
-0.005207266967079655   -0.010831843414943414   -0.0012450980396376563
-0.003775663929089869   -0.005748616540064639   -0.000944491900290857
-0.005196820642001775   -0.010869613420295543   -0.0011666471590685216
-0.0063288883309848614   -0.00603542988178898   -0.0008823617894256724
-0.0037638313121734746   -0.00577889616651442   -0.0008399309114269383
-0.005196820642001775   -0.010869613420295543   -0.0011666471590685216
-0.003775663929089869   -0.005748616540064639   -0.000944491900290857
-0.0063288883309848614   -0.00603542988178898   -0.0008823617894256724
-0.005196820642001775   -0.010869613420295543   -0.0011666471590685216
-0.00839588087326979   -0.01106977607018766   -0.0012304757480008676
-0.008294028420957432   -0.01101889512308033   -0.0013509746909622195
-0.0063288883309848614   -0.00603542988178898   -0.0008823617894256724
-0.005196820642001775   -0.010869613420295543   -0.0011666471590685216
-0.008294028420957432   -0.01101889512308033   -0.0013509746909622195
-0.003775663929089869   -0.005748616540064639   -0.000944491900290857
-0.003757497380143796   -0.005595037774400709   -0.0011725530196705026
-0.005183848005277803   -0.010692337344314209   -0.0014188501511591856
-0.0017443755607275979   -0.005507508760877708   -0.001000911518598243
-0.0037614128358866776   -0.005690421522987663   -0.0010562347749998081
-0.005183848005277803   -0.010692337344314209   -0.0014188501511591856
-0.002471033383709547   -0.010620687481324938   -0.0012773541105773763
-0.0017443755607275979   -0.005507508760877708   -0.001000911518598243
-0.0024642032697148077   -0.01067321456165641   -0.00122634118279494
-0.0037614128358866776   -0.005690421522987663   -0.0010562347749998081
-0.0017287943186547916   -0.0055681638060453955   -0.0009412552839207695
-0.0024642032697148077   -0.01067321456165641   -0.00122634118279494
-0.0017443755607275979   -0.005507508760877708   -0.001000911518598243
-0.0037614128358866776   -0.005690421522987663   -0.0010562347749998081
-0.0024642032697148077   -0.01067321456165641   -0.00122634118279494
-0.0051945663214838554   -0.010774564544356066   -0.0013287001706391091
-0.005183848005277803   -0.010692337344314209   -0.0014188501511591856
-0.0037614128358866776   -0.005690421522987663   -0.0010562347749998081
-0.0024642032697148077   -0.01067321456165641   -0.00122634118279494
-0.005183848005277803   -0.010692337344314209   -0.0014188501511591856
-0.0017443755607275979   -0.005507508760877708   -0.001000911518598243
-0.0037614128358866776   -0.005690421522987663   -0.0010562347749998081
-0.0051945663214838554   -0.010774564544356066   -0.0013287001706391091
-0.0017287943186547916   -0.0055681638060453955   -0.0009412552839207695
-0.003775663929089869   -0.005748616540064639   -0.000944491900290857
-0.0051945663214838554   -0.010774564544356066   -0.0013287001706391091
-0.0024642032697148077   -0.01067321456165641   -0.00122634118279494
-0.0017287943186547916   -0.0055681638060453955   -0.0009412552839207695
-0.002455985037241944   -0.010704090666897169   -0.001181559246492354
-0.003775663929089869   -0.005748616540064639   -0.000944491900290857
-0.001714926906334337   -0.005597599890003321   -0.0008871986947766112
-0.002455985037241944   -0.010704090666897169   -0.001181559246492354
-0.0017287943186547916   -0.0055681638060453955   -0.0009412552839207695
-0.003775663929089869   -0.005748616540064639   -0.000944491900290857
-0.002455985037241944   -0.010704090666897169   -0.001181559246492354
-0.005207266967079655   -0.010831843414943414   -0.0012450980396376563
-0.0051945663214838554   -0.010774564544356066   -0.0013287001706391091
-0.003775663929089869   -0.005748616540064639   -0.000944491900290857
-0.002455985037241944   -0.010704090666897169   -0.001181559246492354
-0.0051945663214838554   -0.010774564544356066   -0.0013287001706391091
-0.0017287943186547916   -0.0055681638060453955   -0.0009412552839207695
-0.003775663929089869   -0.005748616540064639   -0.000944491900290857
-0.005207266967079655   -0.010831843414943414   -0.0012450980396376563
-0.001714926906334337   -0.005597599890003321   -0.0008871986947766112
-0.0037638313121734746   -0.00577889616651442   -0.0008399309114269383
-0.005207266967079655   -0.010831843414943414   -0.0012450980396376563
-0.002455985037241944   -0.010704090666897169   -0.001181559246492354
-0.001714926906334337   -0.005597599890003321   -0.0008871986947766112
-0.0024428765404273132   -0.010713757060645968   -0.001142991637847287
-0.0037638313121734746   -0.00577889616651442   -0.0008399309114269383
-0.0016944807343513846   -0.005596925239135391   -0.0008401632746969373
-0.0024428765404273132   -0.010713757060645968   -0.001142991637847287
-0.001714926906334337   -0.005597599890003321   -0.0008871986947766112
-0.0037638313121734746   -0.00577889616651442   -0.0008399309114269383
-0.0024428765404273132   -0.010713757060645968   -0.001142991637847287
-0.005196820642001775   -0.010869613420295543   -0.0011666471590685216
-0.005207266967079655   -0.010831843414943414   -0.0012450980396376563
-0.0037638313121734746   -0.00577889616651442   -0.0008399309114269383
-0.0024428765404273132   -0.010713757060645968   -0.001142991637847287
-0.005207266967079655   -0.010831843414943414   -0.0012450980396376563
-0.001714926906334337   -0.005597599890003321   -0.0008871986947766112
-0.0017443755607275979   -0.005507508760877708   -0.001000911518598243
-0.002471033383709547   -0.010620687481324938   -0.0012773541105773763
0.0001965453551772529   -0.005510146744136032   -0.0008925236544943172
-0.0017287943186547916   -0.0055681638060453955   -0.0009412552839207695
-0.002471033383709547   -0.010620687481324938   -0.0012773541105773763
0.00016183305538791852   -0.010616862568488728   -0.0011897638843359028
0.0001965453551772529   -0.005510146744136032   -0.0008925236544943172
0.00017387990209451998   -0.010640138874289346   -0.0011776825261545839
-0.0017287943186547916   -0.0055681638060453955   -0.0009412552839207695
0.00021560438063453343   -0.005538798378007329   -0.0008884751401533195
0.00017387990209451998   -0.010640138874289346   -0.0011776825261545839
0.0001965453551772529   -0.005510146744136032   -0.0008925236544943172
-0.0017287943186547916   -0.0055681638060453955   -0.0009412552839207695
0.00017387990209451998   -0.010640138874289346   -0.0011776825261545839
-0.0024642032697148077   -0.01067321456165641   -0.00122634118279494
-0.002471033383709547   -0.010620687481324938   -0.0012773541105773763
-0.0017287943186547916   -0.0055681638060453955   -0.0009412552839207695
0.00017387990209451998   -0.010640138874289346   -0.0011776825261545839
-0.002471033383709547   -0.010620687481324938   -0.0012773541105773763
0.0001965453551772529   -0.005510146744136032   -0.0008925236544943172
-0.0017287943186547916   -0.0055681638060453955   -0.0009412552839207695
-0.0024642032697148077   -0.01067321456165641   -0.00122634118279494
0.00021560438063453343   -0.005538798378007329   -0.0008884751401533195
-0.001714926906334337   -0.005597599890003321   -0.0008871986947766112
-0.0024642032697148077   -0.01067321456165641   -0.00122634118279494
0.00017387990209451998   -0.010640138874289346   -0.0011776825261545839
0.00021560438063453343   -0.005538798378007329   -0.0008884751401533195
0.00018183181432837142   -0.010641849807103287   -0.0011716716071878085
-0.001714926906334337   -0.005597599890003321   -0.0008871986947766112
0.00022859720625730988   -0.0055369610278636515   -0.0008907801080645667
0.00018183181432837142   -0.010641849807103287   -0.0011716716071878085
0.00021560438063453343   -0.005538798378007329   -0.0008884751401533195
-0.001714926906334337   -0.005597599890003321   -0.0008871986947766112
0.00018183181432837142   -0.010641849807103287   -0.0011716716071878085
-0.002455985037241944   -0.010704090666897169   -0.001181559246492354
-0.0024642032697148077   -0.01067321456165641   -0.00122634118279494
-0.001714926906334337   -0.005597599890003321   -0.0008871986947766112
0.00018183181432837142   -0.010641849807103287   -0.0011716716071878085
-0.0024642032697148077   -0.01067321456165641   -0.00122634118279494
0.00021560438063453343   -0.005538798378007329   -0.0008884751401533195
-0.001714926906334337   -0.005597599890003321   -0.0008871986947766112
-0.002455985037241944   -0.010704090666897169   -0.001181559246492354
0.00022859720625730988   -0.0055369610278636515   -0.0008907801080645667
-0.0016944807343513846   -0.005596925239135391   -0.0008401632746969373
-0.002455985037241944   -0.010704090666897169   -0.001181559246492354
0.00018183181432837142   -0.010641849807103287   -0.0011716716071878085
0.00022859720625730988   -0.0055369610278636515   -0.0008907801080645667
0.00018776869714847127   -0.010621674731461575   -0.001172097559502715
-0.0016944807343513846   -0.005596925239135391   -0.0008401632746969373
0.00024249693399766223   -0.005503706908539338   -0.0008995383503693414
0.00018776869714847127   -0.010621674731461575   -0.001172097559502715
0.00022859720625730988   -0.0055369610278636515   -0.0008907801080645667
-0.0016944807343513846   -0.005596925239135391   -0.0008401632746969373
0.00018776869714847127   -0.010621674731461575   -0.001172097559502715
-0.0024428765404273132   -0.010713757060645968   -0.001142991637847287
-0.002455985037241944   -0.010704090666897169   -0.001181559246492354
-0.0016944807343513846   -0.005596925239135391   -0.0008401632746969373
0.00018776869714847127   -0.010621674731461575   -0.001172097559502715
-0.002455985037241944   -0.010704090666897169   -0.001181559246492354
0.00022859720625730988   -0.0055369610278636515   -0.0008907801080645667
0.0001965453551772529   -0.005510146744136032   -0.0008925236544943172
0.00016183305538791852   -0.010616862568488728   -0.0011897638843359028
0.0022536736330745293   -0.0055997074644880684   -0.0008421697179668741
0.00021560438063453343   -0.005538798378007329   -0.0008884751401533195
0.00016183305538791852   -0.010616862568488728   -0.0011897638843359028
0.002907254876313619   -0.010676825104643519   -0.0011546020478528899
0.0022536736330745293   -0.0055997074644880684   -0.0008421697179668741
0.002917924055709752   -0.010673267402531349   -0.0011822554708894326
0.00021560438063453343   -0.005538798378007329   -0.0008884751401533195
0.0022647700525586104   -0.005599258867708647   -0.0008955284868665297
0.002917924055709752   -0.010673267402531349   -0.0011822554708894326
0.0022536736330745293   -0.0055997074644880684   -0.0008421697179668741
0.00021560438063453343   -0.005538798378007329   -0.0008884751401533195
0.002917924055709752   -0.010673267402531349   -0.0011822554708894326
0.00017387990209451998   -0.010640138874289346   -0.0011776825261545839
0.00016183305538791852   -0.010616862568488728   -0.0011897638843359028
0.00021560438063453343   -0.005538798378007329   -0.0008884751401533195
0.002917924055709752   -0.010673267402531349   -0.0011822554708894326
0.00016183305538791852   -0.010616862568488728   -0.0011897638843359028
0.0022536736330745293   -0.0055997074644880684   -0.0008421697179668741
0.00021560438063453343   -0.005538798378007329   -0.0008884751401533195
0.00017387990209451998   -0.010640138874289346   -0.0011776825261545839
0.0022647700525586104   -0.005599258867708647   -0.0008955284868665297
0.00022859720625730988   -0.0055369610278636515   -0.0008907801080645667
0.00017387990209451998   -0.010640138874289346   -0.0011776825261545839
0.002917924055709752   -0.010673267402531349   -0.0011822554708894326
0.0022647700525586104   -0.005599258867708647   -0.0008955284868665297
0.0029112756434759484   -0.010648629291350221   -0.00121553329004811
0.00022859720625730988   -0.0055369610278636515   -0.0008907801080645667
0.0022549205424385716   -0.005568930137557877   -0.0009560750681137042
0.0029112756434759484   -0.010648629291350221   -0.00121553329004811
0.0022647700525586104   -0.005599258867708647   -0.0008955284868665297
0.00022859720625730988   -0.0055369610278636515   -0.0008907801080645667
0.0029112756434759484   -0.010648629291350221   -0.00121553329004811
0.00018183181432837142   -0.010641849807103287   -0.0011716716071878085
0.00017387990209451998   -0.010640138874289346   -0.0011776825261545839
0.00022859720625730988   -0.0055369610278636515   -0.0008907801080645667
0.0029112756434759484   -0.010648629291350221   -0.00121553329004811
0.00017387990209451998   -0.010640138874289346   -0.0011776825261545839
0.0022647700525586104   -0.005599258867708647   -0.0008955284868665297
0.00022859720625730988   -0.0055369610278636515   -0.0008907801080645667
0.00018183181432837142   -0.010641849807103287   -0.0011716716071878085
0.0022549205424385716   -0.005568930137557877   -0.0009560750681137042
0.00024249693399766223   -0.005503706908539338   -0.0008995383503693414
0.00018183181432837142   -0.010641849807103287   -0.0011716716071878085
0.0029112756434759484   -0.010648629291350221   -0.00121553329004811
0.0022549205424385716   -0.005568930137557877   -0.0009560750681137042
0.0029009006588705762   -0.010597665915973163   -0.0012551038655389765
0.00024249693399766223   -0.005503706908539338   -0.0008995383503693414
0.0022494995788476433   -0.00550045283763673   -0.0010215672295284589
0.0029009006588705762   -0.010597665915973163   -0.0012551038655389765
0.0022549205424385716   -0.005568930137557877   -0.0009560750681137042
0.00024249693399766223   -0.005503706908539338   -0.0008995383503693414
0.0029009006588705762   -0.010597665915973163   -0.0012551038655389765
0.00018776869714847127   -0.010621674731461575   -0.001172097559502715
0.00018183181432837142   -0.010641849807103287   -0.0011716716071878085
0.00024249693399766223   -0.005503706908539338   -0.0008995383503693414
0.0029009006588705762   -0.010597665915973163   -0.0012551038655389765
0.00018183181432837142   -0.010641849807103287   -0.0011716716071878085
0.0022549205424385716   -0.005568930137557877   -0.0009560750681137042
0.0022536736330745293   -0.0055997074644880684   -0.0008421697179668741
0.002907254876313619   -0.010676825104643519   -0.0011546020478528899
0.004736840485961716   -0.005766069544417797   -0.0008290487772047801
0.0022647700525586104   -0.005599258867708647   -0.0008955284868665297
0.002907254876313619   -0.010676825104643519   -0.0011546020478528899
0.006034264230131575   -0.01078543640580966   -0.0011558567922761978
0.004736840485961716   -0.005766069544417797   -0.0008290487772047801
0.005982872501088472   -0.010766380568941459   -0.0012282858295684321
0.0022647700525586104   -0.005599258867708647   -0.0008955284868665297
0.004641389609858891   -0.005750082109110284   -0.0009491759015587285
0.005982872501088472   -0.010766380568941459   -0.0012282858295684321
0.004736840485961716   -0.005766069544417797   -0.0008290487772047801
0.0022647700525586104   -0.005599258867708647   -0.0008955284868665297
0.005982872501088472   -0.010766380568941459   -0.0012282858295684321
0.002917924055709752   -0.010673267402531349   -0.0011822554708894326
0.002907254876313619   -0.010676825104643519   -0.0011546020478528899
0.0022647700525586104   -0.005599258867708647   -0.0008955284868665297
0.005982872501088472   -0.010766380568941459   -0.0012282858295684321
0.002907254876313619   -0.010676825104643519   -0.0011546020478528899
0.004736840485961716   -0.005766069544417797   -0.0008290487772047801
0.0022647700525586104   -0.005599258867708647   -0.0008955284868665297
0.002917924055709752   -0.010673267402531349   -0.0011822554708894326
0.004641389609858891   -0.005750082109110284   -0.0009491759015587285
0.0022549205424385716   -0.005568930137557877   -0.0009560750681137042
0.002917924055709752   -0.010673267402531349   -0.0011822554708894326
0.005982872501088472   -0.010766380568941459   -0.0012282858295684321
0.004641389609858891   -0.005750082109110284   -0.0009491759015587285
0.005931417891443534   -0.010728490801827176   -0.0013108576406735835
0.0022549205424385716   -0.005568930137557877   -0.0009560750681137042
0.004556008453716849   -0.005703360065714981   -0.0010844192746970562
0.005931417891443534   -0.010728490801827176   -0.0013108576406735835
0.004641389609858891   -0.005750082109110284   -0.0009491759015587285
0.0022549205424385716   -0.005568930137557877   -0.0009560750681137042
0.005931417891443534   -0.010728490801827176   -0.0013108576406735835
0.0029112756434759484   -0.010648629291350221   -0.00121553329004811
0.002917924055709752   -0.010673267402531349   -0.0011822554708894326
0.0022549205424385716   -0.005568930137557877   -0.0009560750681137042
0.005931417891443534   -0.010728490801827176   -0.0013108576406735835
0.002917924055709752   -0.010673267402531349   -0.0011822554708894326
0.004641389609858891   -0.005750082109110284   -0.0009491759015587285
0.0022549205424385716   -0.005568930137557877   -0.0009560750681137042
0.0029112756434759484   -0.010648629291350221   -0.00121553329004811
0.004556008453716849   -0.005703360065714981   -0.0010844192746970562
0.0022494995788476433   -0.00550045283763673   -0.0010215672295284589
0.0029112756434759484   -0.010648629291350221   -0.00121553329004811
0.005931417891443534   -0.010728490801827176   -0.0013108576406735835
0.004556008453716849   -0.005703360065714981   -0.0010844192746970562
0.005839292837629063   -0.01064925242359064   -0.0014035832830595284
0.0022494995788476433   -0.00550045283763673   -0.0010215672295284589
0.004427677113697303   -0.0055996141033047946   -0.0012252652765135466
0.005839292837629063   -0.01064925242359064   -0.0014035832830595284
0.004556008453716849   -0.005703360065714981   -0.0010844192746970562
0.0022494995788476433   -0.00550045283763673   -0.0010215672295284589
0.005839292837629063   -0.01064925242359064   -0.0014035832830595284
0.0029009006588705762   -0.010597665915973163   -0.0012551038655389765
0.0029112756434759484   -0.010648629291350221   -0.00121553329004811
0.0022494995788476433   -0.00550045283763673   -0.0010215672295284589
0.005839292837629063   -0.01064925242359064   -0.0014035832830595284
0.0029112756434759484   -0.010648629291350221   -0.00121553329004811
0.004556008453716849   -0.005703360065714981   -0.0010844192746970562
-0.00806204076247142   -0.010835925596964037   -0.0016225562648345476
-0.009622501107475461   -0.016821603286435737   -0.0017311739096414608
-0.005183848005277803   -0.010692337344314209   -0.0014188501511591856
-0.00820451074811861   -0.010948340093736677   -0.0014819675210001502
-0.009622501107475461   -0.016821603286435737   -0.0017311739096414608
-0.00624726653295975   -0.016730393979361532   -0.0015653455015113226
-0.005183848005277803   -0.010692337344314209   -0.0014188501511591856
-0.006254096119215099   -0.016801023172454157   -0.001500893723065057
-0.00820451074811861   -0.010948340093736677   -0.0014819675210001502
-0.0051945663214838554   -0.010774564544356066   -0.0013287001706391091
-0.006254096119215099   -0.016801023172454157   -0.001500893723065057
-0.005183848005277803   -0.010692337344314209   -0.0014188501511591856
-0.00820451074811861   -0.010948340093736677   -0.0014819675210001502
-0.006254096119215099   -0.016801023172454157   -0.001500893723065057
-0.009718081823411797   -0.016917189488477348   -0.0016380006514461472
-0.009622501107475461   -0.016821603286435737   -0.0017311739096414608
-0.00820451074811861   -0.010948340093736677   -0.0014819675210001502
-0.006254096119215099   -0.016801023172454157   -0.001500893723065057
-0.009622501107475461   -0.016821603286435737   -0.0017311739096414608
-0.005183848005277803   -0.010692337344314209   -0.0014188501511591856
-0.00820451074811861   -0.010948340093736677   -0.0014819675210001502
-0.009718081823411797   -0.016917189488477348   -0.0016380006514461472
-0.0051945663214838554   -0.010774564544356066   -0.0013287001706391091
-0.008294028420957432   -0.01101889512308033   -0.0013509746909622195
-0.009718081823411797   -0.016917189488477348   -0.0016380006514461472
-0.006254096119215099   -0.016801023172454157   -0.001500893723065057
-0.0051945663214838554   -0.010774564544356066   -0.0013287001706391091
-0.006258749492667732   -0.01685707741505242   -0.0014428766690751306
-0.008294028420957432   -0.01101889512308033   -0.0013509746909622195
-0.005207266967079655   -0.010831843414943414   -0.0012450980396376563
-0.006258749492667732   -0.01685707741505242   -0.0014428766690751306
-0.0051945663214838554   -0.010774564544356066   -0.0013287001706391091
-0.008294028420957432   -0.01101889512308033   -0.0013509746909622195
-0.006258749492667732   -0.01685707741505242   -0.0014428766690751306
-0.0097725868600991   -0.01698489106390374   -0.0015537974463374787
-0.009718081823411797   -0.016917189488477348   -0.0016380006514461472
-0.008294028420957432   -0.01101889512308033   -0.0013509746909622195
-0.006258749492667732   -0.01685707741505242   -0.0014428766690751306
-0.009718081823411797   -0.016917189488477348   -0.0016380006514461472
-0.0051945663214838554   -0.010774564544356066   -0.0013287001706391091
-0.008294028420957432   -0.01101889512308033   -0.0013509746909622195
-0.0097725868600991   -0.01698489106390374   -0.0015537974463374787
-0.005207266967079655   -0.010831843414943414   -0.0012450980396376563
-0.00839588087326979   -0.01106977607018766   -0.0012304757480008676
-0.0097725868600991   -0.01698489106390374   -0.0015537974463374787
-0.006258749492667732   -0.01685707741505242   -0.0014428766690751306
-0.005207266967079655   -0.010831843414943414   -0.0012450980396376563
-0.006245106865782296   -0.01690321183568675   -0.0013904346197311966
-0.00839588087326979   -0.01106977607018766   -0.0012304757480008676
-0.005196820642001775   -0.010869613420295543   -0.0011666471590685216
-0.006245106865782296   -0.01690321183568675   -0.0013904346197311966
-0.005207266967079655   -0.010831843414943414   -0.0012450980396376563
-0.00839588087326979   -0.01106977607018766   -0.0012304757480008676
-0.006245106865782296   -0.01690321183568675   -0.0013904346197311966
-0.009828672766230269   -0.017045701340257444   -0.0014796345245465313
-0.0097725868600991   -0.01698489106390374   -0.0015537974463374787
-0.00839588087326979   -0.01106977607018766   -0.0012304757480008676
-0.006245106865782296   -0.01690321183568675   -0.0013904346197311966
-0.0097725868600991   -0.01698489106390374   -0.0015537974463374787
-0.005207266967079655   -0.010831843414943414   -0.0012450980396376563
-0.005183848005277803   -0.010692337344314209   -0.0014188501511591856
-0.00624726653295975   -0.016730393979361532   -0.0015653455015113226
-0.002471033383709547   -0.010620687481324938   -0.0012773541105773763
-0.0051945663214838554   -0.010774564544356066   -0.0013287001706391091
-0.00624726653295975   -0.016730393979361532   -0.0015653455015113226
-0.0030836475422499135   -0.01668314885422734   -0.0014505408763854947
-0.002471033383709547   -0.010620687481324938   -0.0012773541105773763
-0.0030771237591552363   -0.016727417026671344   -0.0014079085060486132
-0.0051945663214838554   -0.010774564544356066   -0.0013287001706391091
-0.0024642032697148077   -0.01067321456165641   -0.00122634118279494
-0.0030771237591552363   -0.016727417026671344   -0.0014079085060486132
-0.002471033383709547   -0.010620687481324938   -0.0012773541105773763
-0.0051945663214838554   -0.010774564544356066   -0.0013287001706391091
-0.0030771237591552363   -0.016727417026671344   -0.0014079085060486132
-0.006254096119215099   -0.016801023172454157   -0.001500893723065057
-0.00624726653295975   -0.016730393979361532   -0.0015653455015113226
-0.0051945663214838554   -0.010774564544356066   -0.0013287001706391091
-0.0030771237591552363   -0.016727417026671344   -0.0014079085060486132
-0.00624726653295975   -0.016730393979361532   -0.0015653455015113226
-0.002471033383709547   -0.010620687481324938   -0.0012773541105773763
-0.0051945663214838554   -0.010774564544356066   -0.0013287001706391091
-0.006254096119215099   -0.016801023172454157   -0.001500893723065057
-0.0024642032697148077   -0.01067321456165641   -0.00122634118279494
-0.005207266967079655   -0.010831843414943414   -0.0012450980396376563
-0.006254096119215099   -0.016801023172454157   -0.001500893723065057
-0.0030771237591552363   -0.016727417026671344   -0.0014079085060486132
-0.0024642032697148077   -0.01067321456165641   -0.00122634118279494
-0.003068464709303061   -0.016759465303506107   -0.001371610653956165
-0.005207266967079655   -0.010831843414943414   -0.0012450980396376563
-0.002455985037241944   -0.010704090666897169   -0.001181559246492354
-0.003068464709303061   -0.016759465303506107   -0.001371610653956165
-0.0024642032697148077   -0.01067321456165641   -0.00122634118279494
-0.005207266967079655   -0.010831843414943414   -0.0012450980396376563
-0.003068464709303061   -0.016759465303506107   -0.001371610653956165
-0.006258749492667732   -0.01685707741505242   -0.0014428766690751306
-0.006254096119215099   -0.016801023172454157   -0.001500893723065057
-0.005207266967079655   -0.010831843414943414   -0.0012450980396376563
-0.003068464709303061   -0.016759465303506107   -0.001371610653956165
-0.006254096119215099   -0.016801023172454157   -0.001500893723065057
-0.0024642032697148077   -0.01067321456165641   -0.00122634118279494
-0.005207266967079655   -0.010831843414943414   -0.0012450980396376563
-0.006258749492667732   -0.01685707741505242   -0.0014428766690751306
-0.002455985037241944   -0.010704090666897169   -0.001181559246492354
-0.005196820642001775   -0.010869613420295543   -0.0011666471590685216
-0.006258749492667732   -0.01685707741505242   -0.0014428766690751306
-0.003068464709303061   -0.016759465303506107   -0.001371610653956165
-0.002455985037241944   -0.010704090666897169   -0.001181559246492354
-0.003055864497753062   -0.016779504495843558   -0.0013417548213929844
-0.005196820642001775   -0.010869613420295543   -0.0011666471590685216
-0.0024428765404273132   -0.010713757060645968   -0.001142991637847287
-0.003055864497753062   -0.016779504495843558   -0.0013417548213929844
-0.002455985037241944   -0.010704090666897169   -0.001181559246492354
-0.005196820642001775   -0.010869613420295543   -0.0011666471590685216
-0.003055864497753062   -0.016779504495843558   -0.0013417548213929844
-0.006245106865782296   -0.01690321183568675   -0.0013904346197311966
-0.006258749492667732   -0.01685707741505242   -0.0014428766690751306
-0.005196820642001775   -0.010869613420295543   -0.0011666471590685216
-0.003055864497753062   -0.016779504495843558   -0.0013417548213929844
-0.006258749492667732   -0.01685707741505242   -0.0014428766690751306
-0.002455985037241944   -0.010704090666897169   -0.001181559246492354
-0.002471033383709547   -0.010620687481324938   -0.0012773541105773763
-0.0030836475422499135   -0.01668314885422734   -0.0014505408763854947
0.00016183305538791852   -0.010616862568488728   -0.0011897638843359028
-0.0024642032697148077   -0.01067321456165641   -0.00122634118279494
-0.0030836475422499135   -0.01668314885422734   -0.0014505408763854947
-6.103256244214795e-06   -0.016674959045300794   -0.0013838267232746315
0.00016183305538791852   -0.010616862568488728   -0.0011897638843359028
5.609990540463787e-06   -0.0166927030811313   -0.0013631915944203566
-0.0024642032697148077   -0.01067321456165641   -0.00122634118279494
0.00017387990209451998   -0.010640138874289346   -0.0011776825261545839
5.609990540463787e-06   -0.0166927030811313   -0.0013631915944203566
0.00016183305538791852   -0.010616862568488728   -0.0011897638843359028
-0.0024642032697148077   -0.01067321456165641   -0.00122634118279494
5.609990540463787e-06   -0.0166927030811313   -0.0013631915944203566
-0.0030771237591552363   -0.016727417026671344   -0.0014079085060486132
-0.0030836475422499135   -0.01668314885422734   -0.0014505408763854947
-0.0024642032697148077   -0.01067321456165641   -0.00122634118279494
5.609990540463787e-06   -0.0166927030811313   -0.0013631915944203566
-0.0030836475422499135   -0.01668314885422734   -0.0014505408763854947
0.00016183305538791852   -0.010616862568488728   -0.0011897638843359028
-0.0024642032697148077   -0.01067321456165641   -0.00122634118279494
-0.0030771237591552363   -0.016727417026671344   -0.0014079085060486132
0.00017387990209451998   -0.010640138874289346   -0.0011776825261545839
-0.002455985037241944   -0.010704090666897169   -0.001181559246492354
-0.0030771237591552363   -0.016727417026671344   -0.0014079085060486132
5.609990540463787e-06   -0.0166927030811313   -0.0013631915944203566
0.00017387990209451998   -0.010640138874289346   -0.0011776825261545839
1.4138309429940662e-05   -0.016698142111221895   -0.0013488131240537672
-0.002455985037241944   -0.010704090666897169   -0.001181559246492354
0.00018183181432837142   -0.010641849807103287   -0.0011716716071878085
1.4138309429940662e-05   -0.016698142111221895   -0.0013488131240537672
0.00017387990209451998   -0.010640138874289346   -0.0011776825261545839
-0.002455985037241944   -0.010704090666897169   -0.001181559246492354
1.4138309429940662e-05   -0.016698142111221895   -0.0013488131240537672
-0.003068464709303061   -0.016759465303506107   -0.001371610653956165
-0.0030771237591552363   -0.016727417026671344   -0.0014079085060486132
-0.002455985037241944   -0.010704090666897169   -0.001181559246492354
1.4138309429940662e-05   -0.016698142111221895   -0.0013488131240537672
-0.0030771237591552363   -0.016727417026671344   -0.0014079085060486132
0.00017387990209451998   -0.010640138874289346   -0.0011776825261545839
-0.002455985037241944   -0.010704090666897169   -0.001181559246492354
-0.003068464709303061   -0.016759465303506107   -0.001371610653956165
0.00018183181432837142   -0.010641849807103287   -0.0011716716071878085
-0.0024428765404273132   -0.010713757060645968   -0.001142991637847287
-0.003068464709303061   -0.016759465303506107   -0.001371610653956165
1.4138309429940662e-05   -0.016698142111221895   -0.0013488131240537672
0.00018183181432837142   -0.010641849807103287   -0.0011716716071878085
1.9807051825089212e-05   -0.016691106832015887   -0.0013409661348539668
-0.0024428765404273132   -0.010713757060645968   -0.001142991637847287
0.00018776869714847127   -0.010621674731461575   -0.001172097559502715
1.9807051825089212e-05   -0.016691106832015887   -0.0013409661348539668
0.00018183181432837142   -0.010641849807103287   -0.0011716716071878085
-0.0024428765404273132   -0.010713757060645968   -0.001142991637847287
1.9807051825089212e-05   -0.016691106832015887   -0.0013409661348539668
-0.003055864497753062   -0.016779504495843558   -0.0013417548213929844
-0.003068464709303061   -0.016759465303506107   -0.001371610653956165
-0.0024428765404273132   -0.010713757060645968   -0.001142991637847287
1.9807051825089212e-05   -0.016691106832015887   -0.0013409661348539668
-0.003068464709303061   -0.016759465303506107   -0.001371610653956165
0.00018183181432837142   -0.010641849807103287   -0.0011716716071878085
0.00016183305538791852   -0.010616862568488728   -0.0011897638843359028
-6.103256244214795e-06   -0.016674959045300794   -0.0013838267232746315
0.002907254876313619   -0.010676825104643519   -0.0011546020478528899
0.00017387990209451998   -0.010640138874289346   -0.0011776825261545839
-6.103256244214795e-06   -0.016674959045300794   -0.0013838267232746315
0.003177310803133644   -0.016702471407585632   -0.0013649591648398018
0.002907254876313619   -0.010676825104643519   -0.0011546020478528899
0.0031915484764264723   -0.016695212100694513   -0.0013667795596684642
0.00017387990209451998   -0.010640138874289346   -0.0011776825261545839
0.002917924055709752   -0.010673267402531349   -0.0011822554708894326
0.0031915484764264723   -0.016695212100694513   -0.0013667795596684642
0.002907254876313619   -0.010676825104643519   -0.0011546020478528899
0.00017387990209451998   -0.010640138874289346   -0.0011776825261545839
0.0031915484764264723   -0.016695212100694513   -0.0013667795596684642
5.609990540463787e-06   -0.0166927030811313   -0.0013631915944203566
-6.103256244214795e-06   -0.016674959045300794   -0.0013838267232746315
0.00017387990209451998   -0.010640138874289346   -0.0011776825261545839
0.0031915484764264723   -0.016695212100694513   -0.0013667795596684642
-6.103256244214795e-06   -0.016674959045300794   -0.0013838267232746315
0.002907254876313619   -0.010676825104643519   -0.0011546020478528899
0.00017387990209451998   -0.010640138874289346   -0.0011776825261545839
5.609990540463787e-06   -0.0166927030811313   -0.0013631915944203566
0.002917924055709752   -0.010673267402531349   -0.0011822554708894326
0.00018183181432837142   -0.010641849807103287   -0.0011716716071878085
5.609990540463787e-06   -0.0166927030811313   -0.0013631915944203566
0.0031915484764264723   -0.016695212100694513   -0.0013667795596684642
0.002917924055709752   -0.010673267402531349   -0.0011822554708894326
0.003193364522311059   -0.01667661578016967   -0.0013745179909625807
0.00018183181432837142   -0.010641849807103287   -0.0011716716071878085
0.0029112756434759484   -0.010648629291350221   -0.00121553329004811
0.003193364522311059   -0.01667661578016967   -0.0013745179909625807
0.002917924055709752   -0.010673267402531349   -0.0011822554708894326
0.00018183181432837142   -0.010641849807103287   -0.0011716716071878085
0.003193364522311059   -0.01667661578016967   -0.0013745179909625807
1.4138309429940662e-05   -0.016698142111221895   -0.0013488131240537672
5.609990540463787e-06   -0.0166927030811313   -0.0013631915944203566
0.00018183181432837142   -0.010641849807103287   -0.0011716716071878085
0.003193364522311059   -0.01667661578016967   -0.0013745179909625807
5.609990540463787e-06   -0.0166927030811313   -0.0013631915944203566
0.002917924055709752   -0.010673267402531349   -0.0011822554708894326
0.00018183181432837142   -0.010641849807103287   -0.0011716716071878085
1.4138309429940662e-05   -0.016698142111221895   -0.0013488131240537672
0.0029112756434759484   -0.010648629291350221   -0.00121553329004811
0.00018776869714847127   -0.010621674731461575   -0.001172097559502715
1.4138309429940662e-05   -0.016698142111221895   -0.0013488131240537672
0.003193364522311059   -0.01667661578016967   -0.0013745179909625807
0.0029112756434759484   -0.010648629291350221   -0.00121553329004811
0.003187145959544996   -0.016642053594377152   -0.0013884022313272561
0.00018776869714847127   -0.010621674731461575   -0.001172097559502715
0.0029009006588705762   -0.010597665915973163   -0.0012551038655389765
0.003187145959544996   -0.016642053594377152   -0.0013884022313272561
0.0029112756434759484   -0.010648629291350221   -0.00121553329004811
0.00018776869714847127   -0.010621674731461575   -0.001172097559502715
0.003187145959544996   -0.016642053594377152   -0.0013884022313272561
1.9807051825089212e-05   -0.016691106832015887   -0.0013409661348539668
1.4138309429940662e-05   -0.016698142111221895   -0.0013488131240537672
0.00018776869714847127   -0.010621674731461575   -0.001172097559502715
0.003187145959544996   -0.016642053594377152   -0.0013884022313272561
1.4138309429940662e-05   -0.016698142111221895   -0.0013488131240537672
0.0029112756434759484   -0.010648629291350221   -0.00121553329004811
0.002907254876313619   -0.010676825104643519   -0.0011546020478528899
0.003177310803133644   -0.016702471407585632   -0.0013649591648398018
0.006034264230131575   -0.01078543640580966   -0.0011558567922761978
0.002917924055709752   -0.010673267402531349   -0.0011822554708894326
0.003177310803133644   -0.016702471407585632   -0.0013649591648398018
0.006692512307537762   -0.016752911342182125   -0.0013836128857681116
0.006034264230131575   -0.01078543640580966   -0.0011558567922761978
0.006687515947573239   -0.016728690542561868   -0.001409583791008238
0.002917924055709752   -0.010673267402531349   -0.0011822554708894326
0.005982872501088472   -0.010766380568941459   -0.0012282858295684321
0.006687515947573239   -0.016728690542561868   -0.001409583791008238
0.006034264230131575   -0.01078543640580966   -0.0011558567922761978
0.002917924055709752   -0.010673267402531349   -0.0011822554708894326
0.006687515947573239   -0.016728690542561868   -0.001409583791008238
0.0031915484764264723   -0.016695212100694513   -0.0013667795596684642
0.003177310803133644   -0.016702471407585632   -0.0013649591648398018
0.002917924055709752   -0.010673267402531349   -0.0011822554708894326
0.006687515947573239   -0.016728690542561868   -0.001409583791008238
0.003177310803133644   -0.016702471407585632   -0.0013649591648398018
0.006034264230131575   -0.01078543640580966   -0.0011558567922761978
0.002917924055709752   -0.010673267402531349   -0.0011822554708894326
0.0031915484764264723   -0.016695212100694513   -0.0013667795596684642
0.005982872501088472   -0.010766380568941459   -0.0012282858295684321
0.0029112756434759484   -0.010648629291350221   -0.00121553329004811
0.0031915484764264723   -0.016695212100694513   -0.0013667795596684642
0.006687515947573239   -0.016728690542561868   -0.001409583791008238
0.005982872501088472   -0.010766380568941459   -0.0012282858295684321
0.006671808248751167   -0.016698407886923654   -0.0014451612150033922
0.0029112756434759484   -0.010648629291350221   -0.00121553329004811
0.005931417891443534   -0.010728490801827176   -0.0013108576406735835
0.006671808248751167   -0.016698407886923654   -0.0014451612150033922
0.005982872501088472   -0.010766380568941459   -0.0012282858295684321
0.0029112756434759484   -0.010648629291350221   -0.00121553329004811
0.006671808248751167   -0.016698407886923654   -0.0014451612150033922
0.003193364522311059   -0.01667661578016967   -0.0013745179909625807
0.0031915484764264723   -0.016695212100694513   -0.0013667795596684642
0.0029112756434759484   -0.010648629291350221   -0.00121553329004811
0.006671808248751167   -0.016698407886923654   -0.0014451612150033922
0.0031915484764264723   -0.016695212100694513   -0.0013667795596684642
0.005982872501088472   -0.010766380568941459   -0.0012282858295684321
0.0029112756434759484   -0.010648629291350221   -0.00121553329004811
0.003193364522311059   -0.01667661578016967   -0.0013745179909625807
0.005931417891443534   -0.010728490801827176   -0.0013108576406735835
0.0029009006588705762   -0.010597665915973163   -0.0012551038655389765
0.003193364522311059   -0.01667661578016967   -0.0013745179909625807
0.006671808248751167   -0.016698407886923654   -0.0014451612150033922
0.005931417891443534   -0.010728490801827176   -0.0013108576406735835
0.006627239447021882   -0.01664091633407376   -0.0014902753953653404
0.0029009006588705762   -0.010597665915973163   -0.0012551038655389765
0.005839292837629063   -0.01064925242359064   -0.0014035832830595284
0.006627239447021882   -0.01664091633407376   -0.0014902753953653404
0.005931417891443534   -0.010728490801827176   -0.0013108576406735835
0.0029009006588705762   -0.010597665915973163   -0.0012551038655389765
0.006627239447021882   -0.01664091633407376   -0.0014902753953653404
0.003187145959544996   -0.016642053594377152   -0.0013884022313272561
0.003193364522311059   -0.01667661578016967   -0.0013745179909625807
0.0029009006588705762   -0.010597665915973163   -0.0012551038655389765
0.006627239447021882   -0.01664091633407376   -0.0014902753953653404
0.003193364522311059   -0.01667661578016967   -0.0013745179909625807
0.005931417891443534   -0.010728490801827176   -0.0013108576406735835
-0.009622501107475461   -0.016821603286435737   -0.0017311739096414608
-0.010565002543393988   -0.023331669410340483   -0.001763713166124236
-0.00624726653295975   -0.016730393979361532   -0.0015653455015113226
-0.009718081823411797   -0.016917189488477348   -0.0016380006514461472
-0.010565002543393988   -0.023331669410340483   -0.001763713166124236
-0.0069444575904007155   -0.0232946348199356   -0.0016318544390895725
-0.00624726653295975   -0.016730393979361532   -0.0015653455015113226
-0.0069411032797474185   -0.02335478425334059   -0.001592375814142202
-0.009718081823411797   -0.016917189488477348   -0.0016380006514461472
-0.006254096119215099   -0.016801023172454157   -0.001500893723065057
-0.0069411032797474185   -0.02335478425334059   -0.001592375814142202
-0.00624726653295975   -0.016730393979361532   -0.0015653455015113226
-0.009718081823411797   -0.016917189488477348   -0.0016380006514461472
-0.0069411032797474185   -0.02335478425334059   -0.001592375814142202
-0.01060921403984139   -0.023412558444655847   -0.0017158317320278703
-0.010565002543393988   -0.023331669410340483   -0.001763713166124236
-0.009718081823411797   -0.016917189488477348   -0.0016380006514461472
-0.0069411032797474185   -0.02335478425334059   -0.001592375814142202
-0.010565002543393988   -0.023331669410340483   -0.001763713166124236
-0.00624726653295975   -0.016730393979361532   -0.0015653455015113226
-0.009718081823411797   -0.016917189488477348   -0.0016380006514461472
-0.01060921403984139   -0.023412558444655847   -0.0017158317320278703
-0.006254096119215099   -0.016801023172454157   -0.001500893723065057
-0.0097725868600991   -0.01698489106390374   -0.0015537974463374787
-0.01060921403984139   -0.023412558444655847   -0.0017158317320278703
-0.0069411032797474185   -0.02335478425334059   -0.001592375814142202
-0.006254096119215099   -0.016801023172454157   -0.001500893723065057
-0.006931200222729191   -0.023410344288747977   -0.0015594547235129761
-0.0097725868600991   -0.01698489106390374   -0.0015537974463374787
-0.006258749492667732   -0.01685707741505242   -0.0014428766690751306
-0.006931200222729191   -0.023410344288747977   -0.0015594547235129761
-0.006254096119215099   -0.016801023172454157   -0.001500893723065057
-0.0097725868600991   -0.01698489106390374   -0.0015537974463374787
-0.006931200222729191   -0.023410344288747977   -0.0015594547235129761
-0.010622806842326542   -0.0234786211127666   -0.0016773865626887369
-0.01060921403984139   -0.023412558444655847   -0.0017158317320278703
-0.0097725868600991   -0.01698489106390374   -0.0015537974463374787
-0.006931200222729191   -0.023410344288747977   -0.0015594547235129761
-0.01060921403984139   -0.023412558444655847   -0.0017158317320278703
-0.006254096119215099   -0.016801023172454157   -0.001500893723065057
-0.0097725868600991   -0.01698489106390374   -0.0015537974463374787
-0.010622806842326542   -0.0234786211127666   -0.0016773865626887369
-0.006258749492667732   -0.01685707741505242   -0.0014428766690751306
-0.009828672766230269   -0.017045701340257444   -0.0014796345245465313
-0.010622806842326542   -0.0234786211127666   -0.0016773865626887369
-0.006931200222729191   -0.023410344288747977   -0.0015594547235129761
-0.006258749492667732   -0.01685707741505242   -0.0014428766690751306
-0.006907697239410437   -0.023465556826519598   -0.0015326254994405162
-0.009828672766230269   -0.017045701340257444   -0.0014796345245465313
-0.006245106865782296   -0.01690321183568675   -0.0013904346197311966
-0.006907697239410437   -0.023465556826519598   -0.0015326254994405162
-0.006258749492667732   -0.01685707741505242   -0.0014428766690751306
-0.009828672766230269   -0.017045701340257444   -0.0014796345245465313
-0.006907697239410437   -0.023465556826519598   -0.0015326254994405162
-0.010626812300858714   -0.02355048207443575   -0.001649195060849242
-0.010622806842326542   -0.0234786211127666   -0.0016773865626887369
-0.009828672766230269   -0.017045701340257444   -0.0014796345245465313
-0.006907697239410437   -0.023465556826519598   -0.0015326254994405162
-0.010622806842326542   -0.0234786211127666   -0.0016773865626887369
-0.006258749492667732   -0.01685707741505242   -0.0014428766690751306
-0.00624726653295975   -0.016730393979361532   -0.0015653455015113226
-0.0069444575904007155   -0.0232946348199356   -0.0016318544390895725
-0.0030836475422499135   -0.01668314885422734   -0.0014505408763854947
-0.006254096119215099   -0.016801023172454157   -0.001500893723065057
-0.0069444575904007155   -0.0232946348199356   -0.0016318544390895725
-0.0035813644578376563   -0.023273243441530967   -0.0015421069729186032
-0.0030836475422499135   -0.01668314885422734   -0.0014505408763854947
-0.0035682212504272947   -0.023309598614892367   -0.0015075895899509474
-0.006254096119215099   -0.016801023172454157   -0.001500893723065057
-0.0030771237591552363   -0.016727417026671344   -0.0014079085060486132
-0.0035682212504272947   -0.023309598614892367   -0.0015075895899509474
-0.0030836475422499135   -0.01668314885422734   -0.0014505408763854947
-0.006254096119215099   -0.016801023172454157   -0.001500893723065057
-0.0035682212504272947   -0.023309598614892367   -0.0015075895899509474
-0.0069411032797474185   -0.02335478425334059   -0.001592375814142202
-0.0069444575904007155   -0.0232946348199356   -0.0016318544390895725
-0.006254096119215099   -0.016801023172454157   -0.001500893723065057
-0.0035682212504272947   -0.023309598614892367   -0.0015075895899509474
-0.0069444575904007155   -0.0232946348199356   -0.0016318544390895725
-0.0030836475422499135   -0.01668314885422734   -0.0014505408763854947
-0.006254096119215099   -0.016801023172454157   -0.001500893723065057
-0.0069411032797474185   -0.02335478425334059   -0.001592375814142202
-0.0030771237591552363   -0.016727417026671344   -0.0014079085060486132
-0.006258749492667732   -0.01685707741505242   -0.0014428766690751306
-0.0069411032797474185   -0.02335478425334059   -0.001592375814142202
-0.0035682212504272947   -0.023309598614892367   -0.0015075895899509474
-0.0030771237591552363   -0.016727417026671344   -0.0014079085060486132
-0.003552245003571341   -0.02334301361836572   -0.0014796318845602366
-0.006258749492667732   -0.01685707741505242   -0.0014428766690751306
-0.003068464709303061   -0.016759465303506107   -0.001371610653956165
-0.003552245003571341   -0.02334301361836572   -0.0014796318845602366
-0.0030771237591552363   -0.016727417026671344   -0.0014079085060486132
-0.006258749492667732   -0.01685707741505242   -0.0014428766690751306
-0.003552245003571341   -0.02334301361836572   -0.0014796318845602366
-0.006931200222729191   -0.023410344288747977   -0.0015594547235129761
-0.0069411032797474185   -0.02335478425334059   -0.001592375814142202
-0.006258749492667732   -0.01685707741505242   -0.0014428766690751306
-0.003552245003571341   -0.02334301361836572   -0.0014796318845602366
-0.0069411032797474185   -0.02335478425334059   -0.001592375814142202
-0.0030771237591552363   -0.016727417026671344   -0.0014079085060486132
-0.006258749492667732   -0.01685707741505242   -0.0014428766690751306
-0.006931200222729191   -0.023410344288747977   -0.0015594547235129761
-0.003068464709303061   -0.016759465303506107   -0.001371610653956165
-0.006245106865782296   -0.01690321183568675   -0.0013904346197311966
-0.006931200222729191   -0.023410344288747977   -0.0015594547235129761
-0.003552245003571341   -0.02334301361836572   -0.0014796318845602366
-0.003068464709303061   -0.016759465303506107   -0.001371610653956165
-0.0035331564282182083   -0.02337359953709524   -0.0014583946656163227
-0.006245106865782296   -0.01690321183568675   -0.0013904346197311966
-0.003055864497753062   -0.016779504495843558   -0.0013417548213929844
-0.0035331564282182083   -0.02337359953709524   -0.0014583946656163227
-0.003068464709303061   -0.016759465303506107   -0.001371610653956165
-0.006245106865782296   -0.01690321183568675   -0.0013904346197311966
-0.0035331564282182083   -0.02337359953709524   -0.0014583946656163227
-0.006907697239410437   -0.023465556826519598   -0.0015326254994405162
-0.006931200222729191   -0.023410344288747977   -0.0015594547235129761
-0.006245106865782296   -0.01690321183568675   -0.0013904346197311966
-0.0035331564282182083   -0.02337359953709524   -0.0014583946656163227
-0.006931200222729191   -0.023410344288747977   -0.0015594547235129761
-0.003068464709303061   -0.016759465303506107   -0.001371610653956165
-0.0030836475422499135   -0.01668314885422734   -0.0014505408763854947
-0.0035813644578376563   -0.023273243441530967   -0.0015421069729186032
-6.103256244214795e-06   -0.016674959045300794   -0.0013838267232746315
-0.0030771237591552363   -0.016727417026671344   -0.0014079085060486132
-0.0035813644578376563   -0.023273243441530967   -0.0015421069729186032
-0.0003093091349882377   -0.023260897944391724   -0.0014958493649432714
-6.103256244214795e-06   -0.016674959045300794   -0.0013838267232746315
-0.0002911564314142142   -0.023272995660348073   -0.0014666454860404003
-0.0030771237591552363   -0.016727417026671344   -0.0014079085060486132
5.609990540463787e-06   -0.0166927030811313   -0.0013631915944203566
-0.0002911564314142142   -0.023272995660348073   -0.0014666454860404003
-6.103256244214795e-06   -0.016674959045300794   -0.0013838267232746315
-0.0030771237591552363   -0.016727417026671344   -0.0014079085060486132
-0.0002911564314142142   -0.023272995660348073   -0.0014666454860404003
-0.0035682212504272947   -0.023309598614892367   -0.0015075895899509474
-0.0035813644578376563   -0.023273243441530967   -0.0015421069729186032
-0.0030771237591552363   -0.016727417026671344   -0.0014079085060486132
-0.0002911564314142142   -0.023272995660348073   -0.0014666454860404003
-0.0035813644578376563   -0.023273243441530967   -0.0015421069729186032
-6.103256244214795e-06   -0.016674959045300794   -0.0013838267232746315
-0.0030771237591552363   -0.016727417026671344   -0.0014079085060486132
-0.0035682212504272947   -0.023309598614892367   -0.0015075895899509474
5.609990540463787e-06   -0.0166927030811313   -0.0013631915944203566
-0.003068464709303061   -0.016759465303506107   -0.001371610653956165
-0.0035682212504272947   -0.023309598614892367   -0.0015075895899509474
-0.0002911564314142142   -0.023272995660348073   -0.0014666454860404003
5.609990540463787e-06   -0.0166927030811313   -0.0013631915944203566
-0.00027536191707228563   -0.02328194173279536   -0.001443947370041964
-0.003068464709303061   -0.016759465303506107   -0.001371610653956165
1.4138309429940662e-05   -0.016698142111221895   -0.0013488131240537672
-0.00027536191707228563   -0.02328194173279536   -0.001443947370041964
5.609990540463787e-06   -0.0166927030811313   -0.0013631915944203566
-0.003068464709303061   -0.016759465303506107   -0.001371610653956165
-0.00027536191707228563   -0.02328194173279536   -0.001443947370041964
-0.003552245003571341   -0.02334301361836572   -0.0014796318845602366
-0.0035682212504272947   -0.023309598614892367   -0.0015075895899509474
-0.003068464709303061   -0.016759465303506107   -0.001371610653956165
-0.00027536191707228563   -0.02328194173279536   -0.001443947370041964
-0.0035682212504272947   -0.023309598614892367   -0.0015075895899509474
5.609990540463787e-06   -0.0166927030811313   -0.0013631915944203566
-0.003068464709303061   -0.016759465303506107   -0.001371610653956165
-0.003552245003571341   -0.02334301361836572   -0.0014796318845602366
1.4138309429940662e-05   -0.016698142111221895   -0.0013488131240537672
-0.003055864497753062   -0.016779504495843558   -0.0013417548213929844
-0.003552245003571341   -0.02334301361836572   -0.0014796318845602366
-0.00027536191707228563   -0.02328194173279536   -0.001443947370041964
1.4138309429940662e-05   -0.016698142111221895   -0.0013488131240537672
-0.00026317119821950605   -0.023287688247367943   -0.0014279905128536195
-0.003055864497753062   -0.016779504495843558   -0.0013417548213929844
1.9807051825089212e-05   -0.016691106832015887   -0.0013409661348539668
-0.00026317119821950605   -0.023287688247367943   -0.0014279905128536195
1.4138309429940662e-05   -0.016698142111221895   -0.0013488131240537672
-0.003055864497753062   -0.016779504495843558   -0.0013417548213929844
-0.00026317119821950605   -0.023287688247367943   -0.0014279905128536195
-0.0035331564282182083   -0.02337359953709524   -0.0014583946656163227
-0.003552245003571341   -0.02334301361836572   -0.0014796318845602366
-0.003055864497753062   -0.016779504495843558   -0.0013417548213929844
-0.00026317119821950605   -0.023287688247367943   -0.0014279905128536195
-0.003552245003571341   -0.02334301361836572   -0.0014796318845602366
1.4138309429940662e-05   -0.016698142111221895   -0.0013488131240537672
-6.103256244214795e-06   -0.016674959045300794   -0.0013838267232746315
-0.0003093091349882377   -0.023260897944391724   -0.0014958493649432714
0.003177310803133644   -0.016702471407585632   -0.0013649591648398018
5.609990540463787e-06   -0.0166927030811313   -0.0013631915944203566
-0.0003093091349882377   -0.023260897944391724   -0.0014958493649432714
0.003062482042387558   -0.023255466774295224   -0.0014935147019965824
0.003177310803133644   -0.016702471407585632   -0.0013649591648398018
0.003086392340318115   -0.023244049727610697   -0.0014698877204888197
5.609990540463787e-06   -0.0166927030811313   -0.0013631915944203566
0.0031915484764264723   -0.016695212100694513   -0.0013667795596684642
0.003086392340318115   -0.023244049727610697   -0.0014698877204888197
0.003177310803133644   -0.016702471407585632   -0.0013649591648398018
5.609990540463787e-06   -0.0166927030811313   -0.0013631915944203566
0.003086392340318115   -0.023244049727610697   -0.0014698877204888197
-0.0002911564314142142   -0.023272995660348073   -0.0014666454860404003
-0.0003093091349882377   -0.023260897944391724   -0.0014958493649432714
5.609990540463787e-06   -0.0166927030811313   -0.0013631915944203566
0.003086392340318115   -0.023244049727610697   -0.0014698877204888197
-0.0003093091349882377   -0.023260897944391724   -0.0014958493649432714
0.003177310803133644   -0.016702471407585632   -0.0013649591648398018
5.609990540463787e-06   -0.0166927030811313   -0.0013631915944203566
-0.0002911564314142142   -0.023272995660348073   -0.0014666454860404003
0.0031915484764264723   -0.016695212100694513   -0.0013667795596684642
1.4138309429940662e-05   -0.016698142111221895   -0.0013488131240537672
-0.0002911564314142142   -0.023272995660348073   -0.0014666454860404003
0.003086392340318115   -0.023244049727610697   -0.0014698877204888197
0.0031915484764264723   -0.016695212100694513   -0.0013667795596684642
0.0031026526065109934   -0.023230853928633857   -0.0014525779466771636
1.4138309429940662e-05   -0.016698142111221895   -0.0013488131240537672
0.003193364522311059   -0.01667661578016967   -0.0013745179909625807
0.0031026526065109934   -0.023230853928633857   -0.0014525779466771636
0.0031915484764264723   -0.016695212100694513   -0.0013667795596684642
1.4138309429940662e-05   -0.016698142111221895   -0.0013488131240537672
0.0031026526065109934   -0.023230853928633857   -0.0014525779466771636
-0.00027536191707228563   -0.02328194173279536   -0.001443947370041964
-0.0002911564314142142   -0.023272995660348073   -0.0014666454860404003
1.4138309429940662e-05   -0.016698142111221895   -0.0013488131240537672
0.0031026526065109934   -0.023230853928633857   -0.0014525779466771636
-0.0002911564314142142   -0.023272995660348073   -0.0014666454860404003
0.0031915484764264723   -0.016695212100694513   -0.0013667795596684642
1.4138309429940662e-05   -0.016698142111221895   -0.0013488131240537672
-0.00027536191707228563   -0.02328194173279536   -0.001443947370041964
0.003193364522311059   -0.01667661578016967   -0.0013745179909625807
1.9807051825089212e-05   -0.016691106832015887   -0.0013409661348539668
-0.00027536191707228563   -0.02328194173279536   -0.001443947370041964
0.0031026526065109934   -0.023230853928633857   -0.0014525779466771636
0.003193364522311059   -0.01667661578016967   -0.0013745179909625807
0.003106504865304335   -0.02321158586816917   -0.0014414573836834643
1.9807051825089212e-05   -0.016691106832015887   -0.0013409661348539668
0.003187145959544996   -0.016642053594377152   -0.0013884022313272561
0.003106504865304335   -0.02321158586816917   -0.0014414573836834643
0.003193364522311059   -0.01667661578016967   -0.0013745179909625807
1.9807051825089212e-05   -0.016691106832015887   -0.0013409661348539668
0.003106504865304335   -0.02321158586816917   -0.0014414573836834643
-0.00026317119821950605   -0.023287688247367943   -0.0014279905128536195
-0.00027536191707228563   -0.02328194173279536   -0.001443947370041964
1.9807051825089212e-05   -0.016691106832015887   -0.0013409661348539668
0.003106504865304335   -0.02321158586816917   -0.0014414573836834643
-0.00027536191707228563   -0.02328194173279536   -0.001443947370041964
0.003193364522311059   -0.01667661578016967   -0.0013745179909625807
0.003177310803133644   -0.016702471407585632   -0.0013649591648398018
0.003062482042387558   -0.023255466774295224   -0.0014935147019965824
0.006692512307537762   -0.016752911342182125   -0.0013836128857681116
0.0031915484764264723   -0.016695212100694513   -0.0013667795596684642
0.003062482042387558   -0.023255466774295224   -0.0014935147019965824
0.006715956749501789   -0.023247763203270773   -0.0015308034556694489
0.006692512307537762   -0.016752911342182125   -0.0013836128857681116
0.006762537213041889   -0.023217738654606197   -0.0015112030756916578
0.0031915484764264723   -0.016695212100694513   -0.0013667795596684642
0.006687515947573239   -0.016728690542561868   -0.001409583791008238
0.006762537213041889   -0.023217738654606197   -0.0015112030756916578
0.006692512307537762   -0.016752911342182125   -0.0013836128857681116
0.0031915484764264723   -0.016695212100694513   -0.0013667795596684642
0.006762537213041889   -0.023217738654606197   -0.0015112030756916578
0.003086392340318115   -0.023244049727610697   -0.0014698877204888197
0.003062482042387558   -0.023255466774295224   -0.0014935147019965824
0.0031915484764264723   -0.016695212100694513   -0.0013667795596684642
0.006762537213041889   -0.023217738654606197   -0.0015112030756916578
0.003062482042387558   -0.023255466774295224   -0.0014935147019965824
0.006692512307537762   -0.016752911342182125   -0.0013836128857681116
0.0031915484764264723   -0.016695212100694513   -0.0013667795596684642
0.003086392340318115   -0.023244049727610697   -0.0014698877204888197
0.006687515947573239   -0.016728690542561868   -0.001409583791008238
0.003193364522311059   -0.01667661578016967   -0.0013745179909625807
0.003086392340318115   -0.023244049727610697   -0.0014698877204888197
0.006762537213041889   -0.023217738654606197   -0.0015112030756916578
0.006687515947573239   -0.016728690542561868   -0.001409583791008238
0.006787566873248736   -0.02319408916768524   -0.0015012086057547892
0.003193364522311059   -0.01667661578016967   -0.0013745179909625807
0.006671808248751167   -0.016698407886923654   -0.0014451612150033922
0.006787566873248736   -0.02319408916768524   -0.0015012086057547892
0.006687515947573239   -0.016728690542561868   -0.001409583791008238
0.003193364522311059   -0.01667661578016967   -0.0013745179909625807
0.006787566873248736   -0.02319408916768524   -0.0015012086057547892
0.0031026526065109934   -0.023230853928633857   -0.0014525779466771636
0.003086392340318115   -0.023244049727610697   -0.0014698877204888197
0.003193364522311059   -0.01667661578016967   -0.0013745179909625807
0.006787566873248736   -0.02319408916768524   -0.0015012086057547892
0.003086392340318115   -0.023244049727610697   -0.0014698877204888197
0.006687515947573239   -0.016728690542561868   -0.001409583791008238
0.003193364522311059   -0.01667661578016967   -0.0013745179909625807
0.0031026526065109934   -0.023230853928633857   -0.0014525779466771636
0.006671808248751167   -0.016698407886923654   -0.0014451612150033922
0.003187145959544996   -0.016642053594377152   -0.0013884022313272561
0.0031026526065109934   -0.023230853928633857   -0.0014525779466771636
0.006787566873248736   -0.02319408916768524   -0.0015012086057547892
0.006671808248751167   -0.016698407886923654   -0.0014451612150033922
0.006794476471989159   -0.023156334799983684   -0.0015009840494924558
0.003187145959544996   -0.016642053594377152   -0.0013884022313272561
0.006627239447021882   -0.01664091633407376   -0.0014902753953653404
0.006794476471989159   -0.023156334799983684   -0.0015009840494924558
0.006671808248751167   -0.016698407886923654   -0.0014451612150033922
0.003187145959544996   -0.016642053594377152   -0.0013884022313272561
0.006794476471989159   -0.023156334799983684   -0.0015009840494924558
0.003106504865304335   -0.02321158586816917   -0.0014414573836834643
0.0031026526065109934   -0.023230853928633857   -0.0014525779466771636
0.003187145959544996   -0.016642053594377152   -0.0013884022313272561
0.006794476471989159   -0.023156334799983684   -0.0015009840494924558
0.0031026526065109934   -0.023230853928633857   -0.0014525779466771636
0.006671808248751167   -0.016698407886923654   -0.0014451612150033922
-0.010565002543393988   -0.023331669410340483   -0.001763713166124236
-0.010891074823581511   -0.029953854740091324   -0.0017347234582365078
-0.0069444575904007155   -0.0232946348199356   -0.0016318544390895725
-0.01060921403984139   -0.023412558444655847   -0.0017158317320278703
-0.010891074823581511   -0.029953854740091324   -0.0017347234582365078
-0.0072771055215790905   -0.029971279529204767   -0.001637423124226807
-0.0069444575904007155   -0.0232946348199356   -0.0016318544390895725
-0.0072572170698442335   -0.030020772060543217   -0.001622485677988985
-0.01060921403984139   -0.023412558444655847   -0.0017158317320278703
-0.0069411032797474185   -0.02335478425334059   -0.001592375814142202
-0.0072572170698442335   -0.030020772060543217   -0.001622485677988985
-0.0069444575904007155   -0.0232946348199356   -0.0016318544390895725
-0.01060921403984139   -0.023412558444655847   -0.0017158317320278703
-0.0072572170698442335   -0.030020772060543217   -0.001622485677988985
-0.010877936591189217   -0.030020098926323235   -0.0017318431440063238
-0.010891074823581511   -0.029953854740091324   -0.0017347234582365078
-0.01060921403984139   -0.023412558444655847   -0.0017158317320278703
-0.0072572170698442335   -0.030020772060543217   -0.001622485677988985
-0.010891074823581511   -0.029953854740091324   -0.0017347234582365078
-0.0069444575904007155   -0.0232946348199356   -0.0016318544390895725
-0.01060921403984139   -0.023412558444655847   -0.0017158317320278703
-0.010877936591189217   -0.030020098926323235   -0.0017318431440063238
-0.0069411032797474185   -0.02335478425334059   -0.001592375814142202
-0.010622806842326542   -0.0234786211127666   -0.0016773865626887369
-0.010877936591189217   -0.030020098926323235   -0.0017318431440063238
-0.0072572170698442335   -0.030020772060543217   -0.001622485677988985
-0.0069411032797474185   -0.02335478425334059   -0.001592375814142202
-0.007226430647202927   -0.03007569800696726   -0.0016142887648367484
-0.010622806842326542   -0.0234786211127666   -0.0016773865626887369
-0.006931200222729191   -0.023410344288747977   -0.0015594547235129761
-0.007226430647202927   -0.03007569800696726   -0.0016142887648367484
-0.0069411032797474185   -0.02335478425334059   -0.001592375814142202
-0.010622806842326542   -0.0234786211127666   -0.0016773865626887369
-0.007226430647202927   -0.03007569800696726   -0.0016142887648367484
-0.010844178418682819   -0.03008452865638886   -0.0017390335886190318
-0.010877936591189217   -0.030020098926323235   -0.0017318431440063238
-0.010622806842326542   -0.0234786211127666   -0.0016773865626887369
-0.007226430647202927   -0.03007569800696726   -0.0016142887648367484
-0.010877936591189217   -0.030020098926323235   -0.0017318431440063238
-0.0069411032797474185   -0.02335478425334059   -0.001592375814142202
-0.010622806842326542   -0.0234786211127666   -0.0016773865626887369
-0.010844178418682819   -0.03008452865638886   -0.0017390335886190318
-0.006931200222729191   -0.023410344288747977   -0.0015594547235129761
-0.010626812300858714   -0.02355048207443575   -0.001649195060849242
-0.010844178418682819   -0.03008452865638886   -0.0017390335886190318
-0.007226430647202927   -0.03007569800696726   -0.0016142887648367484
-0.006931200222729191   -0.023410344288747977   -0.0015594547235129761
-0.007186700934561587   -0.030139845662409234   -0.0016127165247250372
-0.010626812300858714   -0.02355048207443575   -0.001649195060849242
-0.006907697239410437   -0.023465556826519598   -0.0015326254994405162
-0.007186700934561587   -0.030139845662409234   -0.0016127165247250372
-0.006931200222729191   -0.023410344288747977   -0.0015594547235129761
-0.010626812300858714   -0.02355048207443575   -0.001649195060849242
-0.007186700934561587   -0.030139845662409234   -0.0016127165247250372
-0.010789720530982424   -0.030167621414681003   -0.0017568122077051258
-0.010844178418682819   -0.03008452865638886   -0.0017390335886190318
-0.010626812300858714   -0.02355048207443575   -0.001649195060849242
-0.007186700934561587   -0.030139845662409234   -0.0016127165247250372
-0.010844178418682819   -0.03008452865638886   -0.0017390335886190318
-0.006931200222729191   -0.023410344288747977   -0.0015594547235129761
-0.0069444575904007155   -0.0232946348199356   -0.0016318544390895725
-0.0072771055215790905   -0.029971279529204767   -0.001637423124226807
-0.0035813644578376563   -0.023273243441530967   -0.0015421069729186032
-0.0069411032797474185   -0.02335478425334059   -0.001592375814142202
-0.0072771055215790905   -0.029971279529204767   -0.001637423124226807
-0.003966341104075783   -0.02997496405657315   -0.001572775652643184
-0.0035813644578376563   -0.023273243441530967   -0.0015421069729186032
-0.003939887946046866   -0.030003302285186707   -0.0015461214560890432
-0.0069411032797474185   -0.02335478425334059   -0.001592375814142202
-0.0035682212504272947   -0.023309598614892367   -0.0015075895899509474
-0.003939887946046866   -0.030003302285186707   -0.0015461214560890432
-0.0035813644578376563   -0.023273243441530967   -0.0015421069729186032
-0.0069411032797474185   -0.02335478425334059   -0.001592375814142202
-0.003939887946046866   -0.030003302285186707   -0.0015461214560890432
-0.0072572170698442335   -0.030020772060543217   -0.001622485677988985
-0.0072771055215790905   -0.029971279529204767   -0.001637423124226807
-0.0069411032797474185   -0.02335478425334059   -0.001592375814142202
-0.003939887946046866   -0.030003302285186707   -0.0015461214560890432
-0.0072771055215790905   -0.029971279529204767   -0.001637423124226807
-0.0035813644578376563   -0.023273243441530967   -0.0015421069729186032
-0.0069411032797474185   -0.02335478425334059   -0.001592375814142202
-0.0072572170698442335   -0.030020772060543217   -0.001622485677988985
-0.0035682212504272947   -0.023309598614892367   -0.0015075895899509474
-0.006931200222729191   -0.023410344288747977   -0.0015594547235129761
-0.0072572170698442335   -0.030020772060543217   -0.001622485677988985
-0.003939887946046866   -0.030003302285186707   -0.0015461214560890432
-0.0035682212504272947   -0.023309598614892367   -0.0015075895899509474
-0.003910064397498005   -0.030037843163189023   -0.001526230786664859
-0.006931200222729191   -0.023410344288747977   -0.0015594547235129761
-0.003552245003571341   -0.02334301361836572   -0.0014796318845602366
-0.003910064397498005   -0.030037843163189023   -0.001526230786664859
-0.0035682212504272947   -0.023309598614892367   -0.0015075895899509474
-0.006931200222729191   -0.023410344288747977   -0.0015594547235129761
-0.003910064397498005   -0.030037843163189023   -0.001526230786664859
-0.007226430647202927   -0.03007569800696726   -0.0016142887648367484
-0.0072572170698442335   -0.030020772060543217   -0.001622485677988985
-0.006931200222729191   -0.023410344288747977   -0.0015594547235129761
-0.003910064397498005   -0.030037843163189023   -0.001526230786664859
-0.0072572170698442335   -0.030020772060543217   -0.001622485677988985
-0.0035682212504272947   -0.023309598614892367   -0.0015075895899509474
-0.006931200222729191   -0.023410344288747977   -0.0015594547235129761
-0.007226430647202927   -0.03007569800696726   -0.0016142887648367484
-0.003552245003571341   -0.02334301361836572   -0.0014796318845602366
-0.006907697239410437   -0.023465556826519598   -0.0015326254994405162
-0.007226430647202927   -0.03007569800696726   -0.0016142887648367484
-0.003910064397498005   -0.030037843163189023   -0.001526230786664859
-0.003552245003571341   -0.02334301361836572   -0.0014796318845602366
-0.00387795139741188   -0.030078694567678227   -0.0015133264385195917
-0.006907697239410437   -0.023465556826519598   -0.0015326254994405162
-0.0035331564282182083   -0.02337359953709524   -0.0014583946656163227
-0.00387795139741188   -0.030078694567678227   -0.0015133264385195917
-0.003552245003571341   -0.02334301361836572   -0.0014796318845602366
-0.006907697239410437   -0.023465556826519598   -0.0015326254994405162
-0.00387795139741188   -0.030078694567678227   -0.0015133264385195917
-0.007186700934561587   -0.030139845662409234   -0.0016127165247250372
-0.007226430647202927   -0.03007569800696726   -0.0016142887648367484
-0.006907697239410437   -0.023465556826519598   -0.0015326254994405162
-0.00387795139741188   -0.030078694567678227   -0.0015133264385195917
-0.007226430647202927   -0.03007569800696726   -0.0016142887648367484
-0.003552245003571341   -0.02334301361836572   -0.0014796318845602366
-0.0035813644578376563   -0.023273243441530967   -0.0015421069729186032
-0.003966341104075783   -0.02997496405657315   -0.001572775652643184
-0.0003093091349882377   -0.023260897944391724   -0.0014958493649432714
-0.0035682212504272947   -0.023309598614892367   -0.0015075895899509474
-0.003966341104075783   -0.02997496405657315   -0.001572775652643184
-0.0007491567206435296   -0.02995729600053884   -0.001546539158122688
-0.0003093091349882377   -0.023260897944391724   -0.0014958493649432714
-0.0007179351653254098   -0.029963746026714682   -0.0015087526018503353
-0.0035682212504272947   -0.023309598614892367   -0.0015075895899509474
-0.0002911564314142142   -0.023272995660348073   -0.0014666454860404003
-0.0007179351653254098   -0.029963746026714682   -0.0015087526018503353
-0.0003093091349882377   -0.023260897944391724   -0.0014958493649432714
-0.0035682212504272947   -0.023309598614892367   -0.0015075895899509474
-0.0007179351653254098   -0.029963746026714682   -0.0015087526018503353
-0.003939887946046866   -0.030003302285186707   -0.0015461214560890432
-0.003966341104075783   -0.02997496405657315   -0.001572775652643184
-0.0035682212504272947   -0.023309598614892367   -0.0015075895899509474
-0.0007179351653254098   -0.029963746026714682   -0.0015087526018503353
-0.003966341104075783   -0.02997496405657315   -0.001572775652643184
-0.0003093091349882377   -0.023260897944391724   -0.0014958493649432714
-0.0035682212504272947   -0.023309598614892367   -0.0015075895899509474
-0.003939887946046866   -0.030003302285186707   -0.0015461214560890432
-0.0002911564314142142   -0.023272995660348073   -0.0014666454860404003
-0.003552245003571341   -0.02334301361836572   -0.0014796318845602366
-0.003939887946046866   -0.030003302285186707   -0.0015461214560890432
-0.0007179351653254098   -0.029963746026714682   -0.0015087526018503353
-0.0002911564314142142   -0.023272995660348073   -0.0014666454860404003
-0.0006883775127706441   -0.029975921253423236   -0.0014776846130816975
-0.003552245003571341   -0.02334301361836572   -0.0014796318845602366
-0.00027536191707228563   -0.02328194173279536   -0.001443947370041964
-0.0006883775127706441   -0.029975921253423236   -0.0014776846130816975
-0.0002911564314142142   -0.023272995660348073   -0.0014666454860404003
-0.003552245003571341   -0.02334301361836572   -0.0014796318845602366
-0.0006883775127706441   -0.029975921253423236   -0.0014776846130816975
-0.003910064397498005   -0.030037843163189023   -0.001526230786664859
-0.003939887946046866   -0.030003302285186707   -0.0015461214560890432
-0.003552245003571341   -0.02334301361836572   -0.0014796318845602366
-0.0006883775127706441   -0.029975921253423236   -0.0014776846130816975
-0.003939887946046866   -0.030003302285186707   -0.0015461214560890432
-0.0002911564314142142   -0.023272995660348073   -0.0014666454860404003
-0.003552245003571341   -0.02334301361836572   -0.0014796318845602366
-0.003910064397498005   -0.030037843163189023   -0.001526230786664859
-0.00027536191707228563   -0.02328194173279536   -0.001443947370041964
-0.0035331564282182083   -0.02337359953709524   -0.0014583946656163227
-0.003910064397498005   -0.030037843163189023   -0.001526230786664859
-0.0006883775127706441   -0.029975921253423236   -0.0014776846130816975
-0.00027536191707228563   -0.02328194173279536   -0.001443947370041964
-0.0006632108964801716   -0.029994095670753975   -0.0014535682789214566
-0.0035331564282182083   -0.02337359953709524   -0.0014583946656163227
-0.00026317119821950605   -0.023287688247367943   -0.0014279905128536195
-0.0006632108964801716   -0.029994095670753975   -0.0014535682789214566
-0.00027536191707228563   -0.02328194173279536   -0.001443947370041964
-0.0035331564282182083   -0.02337359953709524   -0.0014583946656163227
-0.0006632108964801716   -0.029994095670753975   -0.0014535682789214566
-0.00387795139741188   -0.030078694567678227   -0.0015133264385195917
-0.003910064397498005   -0.030037843163189023   -0.001526230786664859
-0.0035331564282182083   -0.02337359953709524   -0.0014583946656163227
-0.0006632108964801716   -0.029994095670753975   -0.0014535682789214566
-0.003910064397498005   -0.030037843163189023   -0.001526230786664859
-0.00027536191707228563   -0.02328194173279536   -0.001443947370041964
-0.0003093091349882377   -0.023260897944391724   -0.0014958493649432714
-0.0007491567206435296   -0.02995729600053884   -0.001546539158122688
0.003062482042387558   -0.023255466774295224   -0.0014935147019965824
-0.0002911564314142142   -0.023272995660348073   -0.0014666454860404003
-0.0007491567206435296   -0.02995729600053884   -0.001546539158122688
0.002564530063831344   -0.029918076786465613   -0.001559996769319772
0.003062482042387558   -0.023255466774295224   -0.0014935147019965824
0.002604288043187222   -0.029902552298505   -0.0015112638122606133
-0.0002911564314142142   -0.023272995660348073   -0.0014666454860404003
0.003086392340318115   -0.023244049727610697   -0.0014698877204888197
0.002604288043187222   -0.029902552298505   -0.0015112638122606133
0.003062482042387558   -0.023255466774295224   -0.0014935147019965824
-0.0002911564314142142   -0.023272995660348073   -0.0014666454860404003
0.002604288043187222   -0.029902552298505   -0.0015112638122606133
-0.0007179351653254098   -0.029963746026714682   -0.0015087526018503353
-0.0007491567206435296   -0.02995729600053884   -0.001546539158122688
-0.0002911564314142142   -0.023272995660348073   -0.0014666454860404003
0.002604288043187222   -0.029902552298505   -0.0015112638122606133
-0.0007491567206435296   -0.02995729600053884   -0.001546539158122688
0.003062482042387558   -0.023255466774295224   -0.0014935147019965824
-0.0002911564314142142   -0.023272995660348073   -0.0014666454860404003
-0.0007179351653254098   -0.029963746026714682   -0.0015087526018503353
0.003086392340318115   -0.023244049727610697   -0.0014698877204888197
-0.00027536191707228563   -0.02328194173279536   -0.001443947370041964
-0.0007179351653254098   -0.029963746026714682   -0.0015087526018503353
0.002604288043187222   -0.029902552298505   -0.0015112638122606133
0.003086392340318115   -0.023244049727610697   -0.0014698877204888197
0.002641108024823269   -0.029894470711190647   -0.0014692274802138236
-0.00027536191707228563   -0.02328194173279536   -0.001443947370041964
0.0031026526065109934   -0.023230853928633857   -0.0014525779466771636
0.002641108024823269   -0.029894470711190647   -0.0014692274802138236
0.003086392340318115   -0.023244049727610697   -0.0014698877204888197
-0.00027536191707228563   -0.02328194173279536   -0.001443947370041964
0.002641108024823269   -0.029894470711190647   -0.0014692274802138236
-0.0006883775127706441   -0.029975921253423236   -0.0014776846130816975
-0.0007179351653254098   -0.029963746026714682   -0.0015087526018503353
-0.00027536191707228563   -0.02328194173279536   -0.001443947370041964
0.002641108024823269   -0.029894470711190647   -0.0014692274802138236
-0.0007179351653254098   -0.029963746026714682   -0.0015087526018503353
0.003086392340318115   -0.023244049727610697   -0.0014698877204888197
-0.00027536191707228563   -0.02328194173279536   -0.001443947370041964
-0.0006883775127706441   -0.029975921253423236   -0.0014776846130816975
0.0031026526065109934   -0.023230853928633857   -0.0014525779466771636
-0.00026317119821950605   -0.023287688247367943   -0.0014279905128536195
-0.0006883775127706441   -0.029975921253423236   -0.0014776846130816975
0.002641108024823269   -0.029894470711190647   -0.0014692274802138236
0.0031026526065109934   -0.023230853928633857   -0.0014525779466771636
0.0026610916724651964   -0.02988996707965072   -0.0014334505477042346
-0.00026317119821950605   -0.023287688247367943   -0.0014279905128536195
0.003106504865304335   -0.02321158586816917   -0.0014414573836834643
0.0026610916724651964   -0.02988996707965072   -0.0014334505477042346
0.0031026526065109934   -0.023230853928633857   -0.0014525779466771636
-0.00026317119821950605   -0.023287688247367943   -0.0014279905128536195
0.0026610916724651964   -0.02988996707965072   -0.0014334505477042346
-0.0006632108964801716   -0.029994095670753975   -0.0014535682789214566
-0.0006883775127706441   -0.029975921253423236   -0.0014776846130816975
-0.00026317119821950605   -0.023287688247367943   -0.0014279905128536195
0.0026610916724651964   -0.02988996707965072   -0.0014334505477042346
-0.0006883775127706441   -0.029975921253423236   -0.0014776846130816975
0.0031026526065109934   -0.023230853928633857   -0.0014525779466771636
0.003062482042387558   -0.023255466774295224   -0.0014935147019965824
0.002564530063831344   -0.029918076786465613   -0.001559996769319772
0.006715956749501789   -0.023247763203270773   -0.0015308034556694489
0.003086392340318115   -0.023244049727610697   -0.0014698877204888197
0.002564530063831344   -0.029918076786465613   -0.001559996769319772
0.006111399571054372   -0.029852078897521943   -0.001615301102185245
0.006715956749501789   -0.023247763203270773   -0.0015308034556694489
0.0062147787156990875   -0.029816611629880627   -0.0015512230992975142
0.003086392340318115   -0.023244049727610697   -0.0014698877204888197
0.006762537213041889   -0.023217738654606197   -0.0015112030756916578
0.0062147787156990875   -0.029816611629880627   -0.0015512230992975142
0.006715956749501789   -0.023247763203270773   -0.0015308034556694489
0.003086392340318115   -0.023244049727610697   -0.0014698877204888197
0.0062147787156990875   -0.029816611629880627   -0.0015512230992975142
0.002604288043187222   -0.029902552298505   -0.0015112638122606133
0.002564530063831344   -0.029918076786465613   -0.001559996769319772
0.003086392340318115   -0.023244049727610697   -0.0014698877204888197
0.0062147787156990875   -0.029816611629880627   -0.0015512230992975142
0.002564530063831344   -0.029918076786465613   -0.001559996769319772
0.006715956749501789   -0.023247763203270773   -0.0015308034556694489
0.003086392340318115   -0.023244049727610697   -0.0014698877204888197
0.002604288043187222   -0.029902552298505   -0.0015112638122606133
0.006762537213041889   -0.023217738654606197   -0.0015112030756916578
0.0031026526065109934   -0.023230853928633857   -0.0014525779466771636
0.002604288043187222   -0.029902552298505   -0.0015112638122606133
0.0062147787156990875   -0.029816611629880627   -0.0015512230992975142
0.006762537213041889   -0.023217738654606197   -0.0015112030756916578
0.006286006101176662   -0.02979940071811205   -0.0014966899807856869
0.0031026526065109934   -0.023230853928633857   -0.0014525779466771636
0.006787566873248736   -0.02319408916768524   -0.0015012086057547892
0.006286006101176662   -0.02979940071811205   -0.0014966899807856869
0.006762537213041889   -0.023217738654606197   -0.0015112030756916578
0.0031026526065109934   -0.023230853928633857   -0.0014525779466771636
0.006286006101176662   -0.02979940071811205   -0.0014966899807856869
0.002641108024823269   -0.029894470711190647   -0.0014692274802138236
0.002604288043187222   -0.029902552298505   -0.0015112638122606133
0.0031026526065109934   -0.023230853928633857   -0.0014525779466771636
0.006286006101176662   -0.02979940071811205   -0.0014966899807856869
0.002604288043187222   -0.029902552298505   -0.0015112638122606133
0.006762537213041889   -0.023217738654606197   -0.0015112030756916578
0.0031026526065109934   -0.023230853928633857   -0.0014525779466771636
0.002641108024823269   -0.029894470711190647   -0.0014692274802138236
0.006787566873248736   -0.02319408916768524   -0.0015012086057547892
0.003106504865304335   -0.02321158586816917   -0.0014414573836834643
0.002641108024823269   -0.029894470711190647   -0.0014692274802138236
0.006286006101176662   -0.02979940071811205   -0.0014966899807856869
0.006787566873248736   -0.02319408916768524   -0.0015012086057547892
0.006349504436334617   -0.02978080870833631   -0.0014520999646843564
0.003106504865304335   -0.02321158586816917   -0.0014414573836834643
0.006794476471989159   -0.023156334799983684   -0.0015009840494924558
0.006349504436334617   -0.02978080870833631   -0.0014520999646843564
0.006787566873248736   -0.02319408916768524   -0.0015012086057547892
0.003106504865304335   -0.02321158586816917   -0.0014414573836834643
0.006349504436334617   -0.02978080870833631   -0.0014520999646843564
0.0026610916724651964   -0.02988996707965072   -0.0014334505477042346
0.002641108024823269   -0.029894470711190647   -0.0014692274802138236
0.003106504865304335   -0.02321158586816917   -0.0014414573836834643
0.006349504436334617   -0.02978080870833631   -0.0014520999646843564
0.002641108024823269   -0.029894470711190647   -0.0014692274802138236
0.006787566873248736   -0.02319408916768524   -0.0015012086057547892
-0.010891074823581511   -0.029953854740091324   -0.0017347234582365078
-0.010597053183575098   -0.036272784005134916   -0.0016592277992356706
-0.0072771055215790905   -0.029971279529204767   -0.001637423124226807
-0.010877936591189217   -0.030020098926323235   -0.0017318431440063238
-0.010597053183575098   -0.036272784005134916   -0.0016592277992356706
-0.00724653341641931   -0.03634551724747613   -0.0016007734843213415
-0.0072771055215790905   -0.029971279529204767   -0.001637423124226807
-0.007204007515351558   -0.036382413211302304   -0.001609679623027349
-0.010877936591189217   -0.030020098926323235   -0.0017318431440063238
-0.0072572170698442335   -0.030020772060543217   -0.001622485677988985
-0.007204007515351558   -0.036382413211302304   -0.001609679623027349
-0.0072771055215790905   -0.029971279529204767   -0.001637423124226807
-0.010877936591189217   -0.030020098926323235   -0.0017318431440063238
-0.007204007515351558   -0.036382413211302304   -0.001609679623027349
-0.010520257554163904   -0.036322609716175035   -0.001701343787008215
-0.010597053183575098   -0.036272784005134916   -0.0016592277992356706
-0.010877936591189217   -0.030020098926323235   -0.0017318431440063238
-0.007204007515351558   -0.036382413211302304   -0.001609679623027349
-0.010597053183575098   -0.036272784005134916   -0.0016592277992356706
-0.0072771055215790905   -0.029971279529204767   -0.001637423124226807
-0.010877936591189217   -0.030020098926323235   -0.0017318431440063238
-0.010520257554163904   -0.036322609716175035   -0.001701343787008215
-0.0072572170698442335   -0.030020772060543217   -0.001622485677988985
-0.010844178418682819   -0.03008452865638886   -0.0017390335886190318
-0.010520257554163904   -0.036322609716175035   -0.001701343787008215
-0.007204007515351558   -0.036382413211302304   -0.001609679623027349
-0.0072572170698442335   -0.030020772060543217   -0.001622485677988985
-0.0071465117529191016   -0.03643505312197028   -0.0016254801260795918
-0.010844178418682819   -0.03008452865638886   -0.0017390335886190318
-0.007226430647202927   -0.03007569800696726   -0.0016142887648367484
-0.0071465117529191016   -0.03643505312197028   -0.0016254801260795918
-0.0072572170698442335   -0.030020772060543217   -0.001622485677988985
-0.010844178418682819   -0.03008452865638886   -0.0017390335886190318
-0.0071465117529191016   -0.03643505312197028   -0.0016254801260795918
-0.01043277091452753   -0.036383901548691255   -0.0017542997439616926
-0.010520257554163904   -0.036322609716175035   -0.001701343787008215
-0.010844178418682819   -0.03008452865638886   -0.0017390335886190318
-0.0071465117529191016   -0.03643505312197028   -0.0016254801260795918
-0.010520257554163904   -0.036322609716175035   -0.001701343787008215
-0.0072572170698442335   -0.030020772060543217   -0.001622485677988985
-0.010844178418682819   -0.03008452865638886   -0.0017390335886190318
-0.01043277091452753   -0.036383901548691255   -0.0017542997439616926
-0.007226430647202927   -0.03007569800696726   -0.0016142887648367484
-0.010789720530982424   -0.030167621414681003   -0.0017568122077051258
-0.01043277091452753   -0.036383901548691255   -0.0017542997439616926
-0.0071465117529191016   -0.03643505312197028   -0.0016254801260795918
-0.007226430647202927   -0.03007569800696726   -0.0016142887648367484
-0.007084855616585907   -0.03650665350539145   -0.0016483726986981607
-0.010789720530982424   -0.030167621414681003   -0.0017568122077051258
-0.007186700934561587   -0.030139845662409234   -0.0016127165247250372
-0.007084855616585907   -0.03650665350539145   -0.0016483726986981607
-0.007226430647202927   -0.03007569800696726   -0.0016142887648367484
-0.010789720530982424   -0.030167621414681003   -0.0017568122077051258
-0.007084855616585907   -0.03650665350539145   -0.0016483726986981607
-0.010313764839436463   -0.03647727149021158   -0.0018183043859839837
-0.01043277091452753   -0.036383901548691255   -0.0017542997439616926
-0.010789720530982424   -0.030167621414681003   -0.0017568122077051258
-0.007084855616585907   -0.03650665350539145   -0.0016483726986981607
-0.01043277091452753   -0.036383901548691255   -0.0017542997439616926
-0.007226430647202927   -0.03007569800696726   -0.0016142887648367484
-0.0072771055215790905   -0.029971279529204767   -0.001637423124226807
-0.00724653341641931   -0.03634551724747613   -0.0016007734843213415
-0.003966341104075783   -0.02997496405657315   -0.001572775652643184
-0.0072572170698442335   -0.030020772060543217   -0.001622485677988985
-0.00724653341641931   -0.03634551724747613   -0.0016007734843213415
-0.0042422305244753065   -0.03637415573741332   -0.001563394961692936
-0.003966341104075783   -0.02997496405657315   -0.001572775652643184
-0.00419596602880812   -0.03639328990349285   -0.0015439803715141776
-0.0072572170698442335   -0.030020772060543217   -0.001622485677988985
-0.003939887946046866   -0.030003302285186707   -0.0015461214560890432
-0.00419596602880812   -0.03639328990349285   -0.0015439803715141776
-0.003966341104075783   -0.02997496405657315   -0.001572775652643184
-0.0072572170698442335   -0.030020772060543217   -0.001622485677988985
-0.00419596602880812   -0.03639328990349285   -0.0015439803715141776
-0.007204007515351558   -0.036382413211302304   -0.001609679623027349
-0.00724653341641931   -0.03634551724747613   -0.0016007734843213415
-0.0072572170698442335   -0.030020772060543217   -0.001622485677988985
-0.00419596602880812   -0.03639328990349285   -0.0015439803715141776
-0.00724653341641931   -0.03634551724747613   -0.0016007734843213415
-0.003966341104075783   -0.02997496405657315   -0.001572775652643184
-0.0072572170698442335   -0.030020772060543217   -0.001622485677988985
-0.007204007515351558   -0.036382413211302304   -0.001609679623027349
-0.003939887946046866   -0.030003302285186707   -0.0015461214560890432
-0.007226430647202927   -0.03007569800696726   -0.0016142887648367484
-0.007204007515351558   -0.036382413211302304   -0.001609679623027349
-0.00419596602880812   -0.03639328990349285   -0.0015439803715141776
-0.003939887946046866   -0.030003302285186707   -0.0015461214560890432
-0.004146216228835419   -0.03642755251496263   -0.001531375083829887
-0.007226430647202927   -0.03007569800696726   -0.0016142887648367484
-0.003910064397498005   -0.030037843163189023   -0.001526230786664859
-0.004146216228835419   -0.03642755251496263   -0.001531375083829887
-0.003939887946046866   -0.030003302285186707   -0.0015461214560890432
-0.007226430647202927   -0.03007569800696726   -0.0016142887648367484
-0.004146216228835419   -0.03642755251496263   -0.001531375083829887
-0.0071465117529191016   -0.03643505312197028   -0.0016254801260795918
-0.007204007515351558   -0.036382413211302304   -0.001609679623027349
-0.007226430647202927   -0.03007569800696726   -0.0016142887648367484
-0.004146216228835419   -0.03642755251496263   -0.001531375083829887
-0.007204007515351558   -0.036382413211302304   -0.001609679623027349
-0.003939887946046866   -0.030003302285186707   -0.0015461214560890432
-0.007226430647202927   -0.03007569800696726   -0.0016142887648367484
-0.0071465117529191016   -0.03643505312197028   -0.0016254801260795918
-0.003910064397498005   -0.030037843163189023   -0.001526230786664859
-0.007186700934561587   -0.030139845662409234   -0.0016127165247250372
-0.0071465117529191016   -0.03643505312197028   -0.0016254801260795918
-0.004146216228835419   -0.03642755251496263   -0.001531375083829887
-0.003910064397498005   -0.030037843163189023   -0.001526230786664859
-0.004095080258913479   -0.03647737227435174   -0.0015259157174590246
-0.007186700934561587   -0.030139845662409234   -0.0016127165247250372
-0.00387795139741188   -0.030078694567678227   -0.0015133264385195917
-0.004095080258913479   -0.03647737227435174   -0.0015259157174590246
-0.003910064397498005   -0.030037843163189023   -0.001526230786664859
-0.007186700934561587   -0.030139845662409234   -0.0016127165247250372
-0.004095080258913479   -0.03647737227435174   -0.0015259157174590246
-0.007084855616585907   -0.03650665350539145   -0.0016483726986981607
-0.0071465117529191016   -0.03643505312197028   -0.0016254801260795918
-0.007186700934561587   -0.030139845662409234   -0.0016127165247250372
-0.004095080258913479   -0.03647737227435174   -0.0015259157174590246
-0.0071465117529191016   -0.03643505312197028   -0.0016254801260795918
-0.003910064397498005   -0.030037843163189023   -0.001526230786664859
-0.003966341104075783   -0.02997496405657315   -0.001572775652643184
-0.0042422305244753065   -0.03637415573741332   -0.001563394961692936
-0.0007491567206435296   -0.02995729600053884   -0.001546539158122688
-0.003939887946046866   -0.030003302285186707   -0.0015461214560890432
-0.0042422305244753065   -0.03637415573741332   -0.001563394961692936
-0.0013287623276900388   -0.036351891871749385   -0.001557452179187041
-0.0007491567206435296   -0.02995729600053884   -0.001546539158122688
-0.0012775989598131053   -0.03635221126529783   -0.0015106882735586036
-0.003939887946046866   -0.030003302285186707   -0.0015461214560890432
-0.0007179351653254098   -0.029963746026714682   -0.0015087526018503353
-0.0012775989598131053   -0.03635221126529783   -0.0015106882735586036
-0.0007491567206435296   -0.02995729600053884   -0.001546539158122688
-0.003939887946046866   -0.030003302285186707   -0.0015461214560890432
-0.0012775989598131053   -0.03635221126529783   -0.0015106882735586036
-0.00419596602880812   -0.03639328990349285   -0.0015439803715141776
-0.0042422305244753065   -0.03637415573741332   -0.001563394961692936
-0.003939887946046866   -0.030003302285186707   -0.0015461214560890432
-0.0012775989598131053   -0.03635221126529783   -0.0015106882735586036
-0.0042422305244753065   -0.03637415573741332   -0.001563394961692936
-0.0007491567206435296   -0.02995729600053884   -0.001546539158122688
-0.003939887946046866   -0.030003302285186707   -0.0015461214560890432
-0.00419596602880812   -0.03639328990349285   -0.0015439803715141776
-0.0007179351653254098   -0.029963746026714682   -0.0015087526018503353
-0.003910064397498005   -0.030037843163189023   -0.001526230786664859
-0.00419596602880812   -0.03639328990349285   -0.0015439803715141776
-0.0012775989598131053   -0.03635221126529783   -0.0015106882735586036
-0.0007179351653254098   -0.029963746026714682   -0.0015087526018503353
-0.00122776442795788   -0.03636656444253004   -0.0014707529521225352
-0.003910064397498005   -0.030037843163189023   -0.001526230786664859
-0.0006883775127706441   -0.029975921253423236   -0.0014776846130816975
-0.00122776442795788   -0.03636656444253004   -0.0014707529521225352
-0.0007179351653254098   -0.029963746026714682   -0.0015087526018503353
-0.003910064397498005   -0.030037843163189023   -0.001526230786664859
-0.00122776442795788   -0.03636656444253004   -0.0014707529521225352
-0.004146216228835419   -0.03642755251496263   -0.001531375083829887
-0.00419596602880812   -0.03639328990349285   -0.0015439803715141776
-0.003910064397498005   -0.030037843163189023   -0.001526230786664859
-0.00122776442795788   -0.03636656444253004   -0.0014707529521225352
-0.00419596602880812   -0.03639328990349285   -0.0015439803715141776
-0.0007179351653254098   -0.029963746026714682   -0.0015087526018503353
-0.003910064397498005   -0.030037843163189023   -0.001526230786664859
-0.004146216228835419   -0.03642755251496263   -0.001531375083829887
-0.0006883775127706441   -0.029975921253423236   -0.0014776846130816975
-0.00387795139741188   -0.030078694567678227   -0.0015133264385195917
-0.004146216228835419   -0.03642755251496263   -0.001531375083829887
-0.00122776442795788   -0.03636656444253004   -0.0014707529521225352
-0.0006883775127706441   -0.029975921253423236   -0.0014776846130816975
-0.001183265392603249   -0.03639612949613205   -0.0014378825010640491
-0.00387795139741188   -0.030078694567678227   -0.0015133264385195917
-0.0006632108964801716   -0.029994095670753975   -0.0014535682789214566
-0.001183265392603249   -0.03639612949613205   -0.0014378825010640491
-0.0006883775127706441   -0.029975921253423236   -0.0014776846130816975
-0.00387795139741188   -0.030078694567678227   -0.0015133264385195917
-0.001183265392603249   -0.03639612949613205   -0.0014378825010640491
-0.004095080258913479   -0.03647737227435174   -0.0015259157174590246
-0.004146216228835419   -0.03642755251496263   -0.001531375083829887
-0.00387795139741188   -0.030078694567678227   -0.0015133264385195917
-0.001183265392603249   -0.03639612949613205   -0.0014378825010640491
-0.004146216228835419   -0.03642755251496263   -0.001531375083829887
-0.0006883775127706441   -0.029975921253423236   -0.0014776846130816975
-0.0007491567206435296   -0.02995729600053884   -0.001546539158122688
-0.0013287623276900388   -0.036351891871749385   -0.001557452179187041
0.002564530063831344   -0.029918076786465613   -0.001559996769319772
-0.0007179351653254098   -0.029963746026714682   -0.0015087526018503353
-0.0013287623276900388   -0.036351891871749385   -0.001557452179187041
0.0016844952799878086   -0.03628016575677662   -0.0015854082137768694
0.002564530063831344   -0.029918076786465613   -0.001559996769319772
0.0017470645510971614   -0.03626040041651934   -0.0015115401847087206
-0.0007179351653254098   -0.029963746026714682   -0.0015087526018503353
0.002604288043187222   -0.029902552298505   -0.0015112638122606133
0.0017470645510971614   -0.03626040041651934   -0.0015115401847087206
0.002564530063831344   -0.029918076786465613   -0.001559996769319772
-0.0007179351653254098   -0.029963746026714682   -0.0015087526018503353
0.0017470645510971614   -0.03626040041651934   -0.0015115401847087206
-0.0012775989598131053   -0.03635221126529783   -0.0015106882735586036
-0.0013287623276900388   -0.036351891871749385   -0.001557452179187041
-0.0007179351653254098   -0.029963746026714682   -0.0015087526018503353
0.0017470645510971614   -0.03626040041651934   -0.0015115401847087206
-0.0013287623276900388   -0.036351891871749385   -0.001557452179187041
0.002564530063831344   -0.029918076786465613   -0.001559996769319772
-0.0007179351653254098   -0.029963746026714682   -0.0015087526018503353
-0.0012775989598131053   -0.03635221126529783   -0.0015106882735586036
0.002604288043187222   -0.029902552298505   -0.0015112638122606133
-0.0006883775127706441   -0.029975921253423236   -0.0014776846130816975
-0.0012775989598131053   -0.03635221126529783   -0.0015106882735586036
0.0017470645510971614   -0.03626040041651934   -0.0015115401847087206
0.002604288043187222   -0.029902552298505   -0.0015112638122606133
0.0018112689205850567   -0.0362566742316203   -0.0014449348096074008
-0.0006883775127706441   -0.029975921253423236   -0.0014776846130816975
0.002641108024823269   -0.029894470711190647   -0.0014692274802138236
0.0018112689205850567   -0.0362566742316203   -0.0014449348096074008
0.002604288043187222   -0.029902552298505   -0.0015112638122606133
-0.0006883775127706441   -0.029975921253423236   -0.0014776846130816975
0.0018112689205850567   -0.0362566742316203   -0.0014449348096074008
-0.00122776442795788   -0.03636656444253004   -0.0014707529521225352
-0.0012775989598131053   -0.03635221126529783   -0.0015106882735586036
-0.0006883775127706441   -0.029975921253423236   -0.0014776846130816975
0.0018112689205850567   -0.0362566742316203   -0.0014449348096074008
-0.0012775989598131053   -0.03635221126529783   -0.0015106882735586036
0.002604288043187222   -0.029902552298505   -0.0015112638122606133
-0.0006883775127706441   -0.029975921253423236   -0.0014776846130816975
-0.00122776442795788   -0.03636656444253004   -0.0014707529521225352
0.002641108024823269   -0.029894470711190647   -0.0014692274802138236
-0.0006632108964801716   -0.029994095670753975   -0.0014535682789214566
-0.00122776442795788   -0.03636656444253004   -0.0014707529521225352
0.0018112689205850567   -0.0362566742316203   -0.0014449348096074008
0.002641108024823269   -0.029894470711190647   -0.0014692274802138236
0.0018540486266433024   -0.0362660375687026   -0.0013846333195325442
-0.0006632108964801716   -0.029994095670753975   -0.0014535682789214566
0.0026610916724651964   -0.02988996707965072   -0.0014334505477042346
0.0018540486266433024   -0.0362660375687026   -0.0013846333195325442
0.002641108024823269   -0.029894470711190647   -0.0014692274802138236
-0.0006632108964801716   -0.029994095670753975   -0.0014535682789214566
0.0018540486266433024   -0.0362660375687026   -0.0013846333195325442
-0.001183265392603249   -0.03639612949613205   -0.0014378825010640491
-0.00122776442795788   -0.03636656444253004   -0.0014707529521225352
-0.0006632108964801716   -0.029994095670753975   -0.0014535682789214566
0.0018540486266433024   -0.0362660375687026   -0.0013846333195325442
-0.00122776442795788   -0.03636656444253004   -0.0014707529521225352
0.002641108024823269   -0.029894470711190647   -0.0014692274802138236
0.002564530063831344   -0.029918076786465613   -0.001559996769319772
0.0016844952799878086   -0.03628016575677662   -0.0015854082137768694
0.006111399571054372   -0.029852078897521943   -0.001615301102185245
0.002604288043187222   -0.029902552298505   -0.0015112638122606133
0.0016844952799878086   -0.03628016575677662   -0.0015854082137768694
0.004888609148168253   -0.03615681353654091   -0.0016571298746272374
0.006111399571054372   -0.029852078897521943   -0.001615301102185245
0.0050551285917015305   -0.03611617449382522   -0.001549574895766823
0.002604288043187222   -0.029902552298505   -0.0015112638122606133
0.0062147787156990875   -0.029816611629880627   -0.0015512230992975142
0.0050551285917015305   -0.03611617449382522   -0.001549574895766823
0.006111399571054372   -0.029852078897521943   -0.001615301102185245
0.002604288043187222   -0.029902552298505   -0.0015112638122606133
0.0050551285917015305   -0.03611617449382522   -0.001549574895766823
0.0017470645510971614   -0.03626040041651934   -0.0015115401847087206
0.0016844952799878086   -0.03628016575677662   -0.0015854082137768694
0.002604288043187222   -0.029902552298505   -0.0015112638122606133
0.0050551285917015305   -0.03611617449382522   -0.001549574895766823
0.0016844952799878086   -0.03628016575677662   -0.0015854082137768694
0.006111399571054372   -0.029852078897521943   -0.001615301102185245
0.002604288043187222   -0.029902552298505   -0.0015112638122606133
0.0017470645510971614   -0.03626040041651934   -0.0015115401847087206
0.0062147787156990875   -0.029816611629880627   -0.0015512230992975142
0.002641108024823269   -0.029894470711190647   -0.0014692274802138236
0.0017470645510971614   -0.03626040041651934   -0.0015115401847087206
0.0050551285917015305   -0.03611617449382522   -0.001549574895766823
0.0062147787156990875   -0.029816611629880627   -0.0015512230992975142
0.005178538991021847   -0.03610496196221117   -0.0014516853040745686
0.002641108024823269   -0.029894470711190647   -0.0014692274802138236
0.006286006101176662   -0.02979940071811205   -0.0014966899807856869
0.005178538991021847   -0.03610496196221117   -0.0014516853040745686
0.0062147787156990875   -0.029816611629880627   -0.0015512230992975142
0.002641108024823269   -0.029894470711190647   -0.0014692274802138236
0.005178538991021847   -0.03610496196221117   -0.0014516853040745686
0.0018112689205850567   -0.0362566742316203   -0.0014449348096074008
0.0017470645510971614   -0.03626040041651934   -0.0015115401847087206
0.002641108024823269   -0.029894470711190647   -0.0014692274802138236
0.005178538991021847   -0.03610496196221117   -0.0014516853040745686
0.0017470645510971614   -0.03626040041651934   -0.0015115401847087206
0.0062147787156990875   -0.029816611629880627   -0.0015512230992975142
0.002641108024823269   -0.029894470711190647   -0.0014692274802138236
0.0018112689205850567   -0.0362566742316203   -0.0014449348096074008
0.006286006101176662   -0.02979940071811205   -0.0014966899807856869
0.0026610916724651964   -0.02988996707965072   -0.0014334505477042346
0.0018112689205850567   -0.0362566742316203   -0.0014449348096074008
0.005178538991021847   -0.03610496196221117   -0.0014516853040745686
0.006286006101176662   -0.02979940071811205   -0.0014966899807856869
0.0053038427671799025   -0.036104893590673856   -0.0013639066957700549
0.0026610916724651964   -0.02988996707965072   -0.0014334505477042346
0.006349504436334617   -0.02978080870833631   -0.0014520999646843564
0.0053038427671799025   -0.036104893590673856   -0.0013639066957700549
0.006286006101176662   -0.02979940071811205   -0.0014966899807856869
0.0026610916724651964   -0.02988996707965072   -0.0014334505477042346
0.0053038427671799025   -0.036104893590673856   -0.0013639066957700549
0.0018540486266433024   -0.0362660375687026   -0.0013846333195325442
0.0018112689205850567   -0.0362566742316203   -0.0014449348096074008
0.0026610916724651964   -0.02988996707965072   -0.0014334505477042346
0.0053038427671799025   -0.036104893590673856   -0.0013639066957700549
0.0018112689205850567   -0.0362566742316203   -0.0014449348096074008
0.006286006101176662   -0.02979940071811205   -0.0014966899807856869
-0.010597053183575098   -0.036272784005134916   -0.0016592277992356706
-0.00967182819282761   -0.041860502912184634   -0.0015477962763771884
-0.00724653341641931   -0.03634551724747613   -0.0016007734843213415
-0.010520257554163904   -0.036322609716175035   -0.001701343787008215
-0.00967182819282761   -0.041860502912184634   -0.0015477962763771884
-0.006852823150705391   -0.04199142821440125   -0.001538476042726566
-0.00724653341641931   -0.03634551724747613   -0.0016007734843213415
-0.0067827089067724585   -0.04201034592464612   -0.0015694767058718636
-0.010520257554163904   -0.036322609716175035   -0.001701343787008215
-0.007204007515351558   -0.036382413211302304   -0.001609679623027349
-0.0067827089067724585   -0.04201034592464612   -0.0015694767058718636
-0.00724653341641931   -0.03634551724747613   -0.0016007734843213415
-0.010520257554163904   -0.036322609716175035   -0.001701343787008215
-0.0067827089067724585   -0.04201034592464612   -0.0015694767058718636
-0.009525574916495562   -0.04188855315156806   -0.0016346828919038077
-0.00967182819282761   -0.041860502912184634   -0.0015477962763771884
-0.010520257554163904   -0.036322609716175035   -0.001701343787008215
-0.0067827089067724585   -0.04201034592464612   -0.0015694767058718636
-0.00967182819282761   -0.041860502912184634   -0.0015477962763771884
-0.00724653341641931   -0.03634551724747613   -0.0016007734843213415
-0.010520257554163904   -0.036322609716175035   -0.001701343787008215
-0.009525574916495562   -0.04188855315156806   -0.0016346828919038077
-0.007204007515351558   -0.036382413211302304   -0.001609679623027349
-0.01043277091452753   -0.036383901548691255   -0.0017542997439616926
-0.009525574916495562   -0.04188855315156806   -0.0016346828919038077
-0.0067827089067724585   -0.04201034592464612   -0.0015694767058718636
-0.007204007515351558   -0.036382413211302304   -0.001609679623027349
-0.006694634524404766   -0.0420557650173175   -0.0016074581483629955
-0.01043277091452753   -0.036383901548691255   -0.0017542997439616926
-0.0071465117529191016   -0.03643505312197028   -0.0016254801260795918
-0.006694634524404766   -0.0420557650173175   -0.0016074581483629955
-0.007204007515351558   -0.036382413211302304   -0.001609679623027349
-0.01043277091452753   -0.036383901548691255   -0.0017542997439616926
-0.006694634524404766   -0.0420557650173175   -0.0016074581483629955
-0.009379807295145492   -0.041941859875876196   -0.0017329348575362046
-0.009525574916495562   -0.04188855315156806   -0.0016346828919038077
-0.01043277091452753   -0.036383901548691255   -0.0017542997439616926
-0.006694634524404766   -0.0420557650173175   -0.0016074581483629955
-0.009525574916495562   -0.04188855315156806   -0.0016346828919038077
-0.007204007515351558   -0.036382413211302304   -0.001609679623027349
-0.01043277091452753   -0.036383901548691255   -0.0017542997439616926
-0.009379807295145492   -0.041941859875876196   -0.0017329348575362046
-0.0071465117529191016   -0.03643505312197028   -0.0016254801260795918
-0.010313764839436463   -0.03647727149021158   -0.0018183043859839837
-0.009379807295145492   -0.041941859875876196   -0.0017329348575362046
-0.006694634524404766   -0.0420557650173175   -0.0016074581483629955
-0.0071465117529191016   -0.03643505312197028   -0.0016254801260795918
-0.006607754909076317   -0.042130267203723856   -0.0016523544838809327
-0.010313764839436463   -0.03647727149021158   -0.0018183043859839837
-0.007084855616585907   -0.03650665350539145   -0.0016483726986981607
-0.006607754909076317   -0.042130267203723856   -0.0016523544838809327
-0.0071465117529191016   -0.03643505312197028   -0.0016254801260795918
-0.010313764839436463   -0.03647727149021158   -0.0018183043859839837
-0.006607754909076317   -0.042130267203723856   -0.0016523544838809327
-0.009193120909612317   -0.04204126211715274   -0.0018423517553410593
-0.009379807295145492   -0.041941859875876196   -0.0017329348575362046
-0.010313764839436463   -0.03647727149021158   -0.0018183043859839837
-0.006607754909076317   -0.042130267203723856   -0.0016523544838809327
-0.009379807295145492   -0.041941859875876196   -0.0017329348575362046
-0.0071465117529191016   -0.03643505312197028   -0.0016254801260795918
-0.00724653341641931   -0.03634551724747613   -0.0016007734843213415
-0.006852823150705391   -0.04199142821440125   -0.001538476042726566
-0.0042422305244753065   -0.03637415573741332   -0.001563394961692936
-0.007204007515351558   -0.036382413211302304   -0.001609679623027349
-0.006852823150705391   -0.04199142821440125   -0.001538476042726566
-0.004410509882162312   -0.04205253869171939   -0.0015348442395296314
-0.0042422305244753065   -0.03637415573741332   -0.001563394961692936
-0.004338614352180125   -0.04205870868259363   -0.0015209182324812218
-0.007204007515351558   -0.036382413211302304   -0.001609679623027349
-0.00419596602880812   -0.03639328990349285   -0.0015439803715141776
-0.004338614352180125   -0.04205870868259363   -0.0015209182324812218
-0.0042422305244753065   -0.03637415573741332   -0.001563394961692936
-0.007204007515351558   -0.036382413211302304   -0.001609679623027349
-0.004338614352180125   -0.04205870868259363   -0.0015209182324812218
-0.0067827089067724585   -0.04201034592464612   -0.0015694767058718636
-0.006852823150705391   -0.04199142821440125   -0.001538476042726566
-0.007204007515351558   -0.036382413211302304   -0.001609679623027349
-0.004338614352180125   -0.04205870868259363   -0.0015209182324812218
-0.006852823150705391   -0.04199142821440125   -0.001538476042726566
-0.0042422305244753065   -0.03637415573741332   -0.001563394961692936
-0.007204007515351558   -0.036382413211302304   -0.001609679623027349
-0.0067827089067724585   -0.04201034592464612   -0.0015694767058718636
-0.00419596602880812   -0.03639328990349285   -0.0015439803715141776
-0.0071465117529191016   -0.03643505312197028   -0.0016254801260795918
-0.0067827089067724585   -0.04201034592464612   -0.0015694767058718636
-0.004338614352180125   -0.04205870868259363   -0.0015209182324812218
-0.00419596602880812   -0.03639328990349285   -0.0015439803715141776
-0.004264393573689781   -0.04208855130985916   -0.0015137660949887117
-0.0071465117529191016   -0.03643505312197028   -0.0016254801260795918
-0.004146216228835419   -0.03642755251496263   -0.001531375083829887
-0.004264393573689781   -0.04208855130985916   -0.0015137660949887117
-0.00419596602880812   -0.03639328990349285   -0.0015439803715141776
-0.0071465117529191016   -0.03643505312197028   -0.0016254801260795918
-0.004264393573689781   -0.04208855130985916   -0.0015137660949887117
-0.006694634524404766   -0.0420557650173175   -0.0016074581483629955
-0.0067827089067724585   -0.04201034592464612   -0.0015694767058718636
-0.0071465117529191016   -0.03643505312197028   -0.0016254801260795918
-0.004264393573689781   -0.04208855130985916   -0.0015137660949887117
-0.0067827089067724585   -0.04201034592464612   -0.0015694767058718636
-0.00419596602880812   -0.03639328990349285   -0.0015439803715141776
-0.0071465117529191016   -0.03643505312197028   -0.0016254801260795918
-0.006694634524404766   -0.0420557650173175   -0.0016074581483629955
-0.004146216228835419   -0.03642755251496263   -0.001531375083829887
-0.007084855616585907   -0.03650665350539145   -0.0016483726986981607
-0.006694634524404766   -0.0420557650173175   -0.0016074581483629955
-0.004264393573689781   -0.04208855130985916   -0.0015137660949887117
-0.004146216228835419   -0.03642755251496263   -0.001531375083829887
-0.004190285650610703   -0.042143441180205805   -0.0015133075410283922
-0.007084855616585907   -0.03650665350539145   -0.0016483726986981607
-0.004095080258913479   -0.03647737227435174   -0.0015259157174590246
-0.004190285650610703   -0.042143441180205805   -0.0015133075410283922
-0.004146216228835419   -0.03642755251496263   -0.001531375083829887
-0.007084855616585907   -0.03650665350539145   -0.0016483726986981607
-0.004190285650610703   -0.042143441180205805   -0.0015133075410283922
-0.006607754909076317   -0.042130267203723856   -0.0016523544838809327
-0.006694634524404766   -0.0420557650173175   -0.0016074581483629955
-0.007084855616585907   -0.03650665350539145   -0.0016483726986981607
-0.004190285650610703   -0.042143441180205805   -0.0015133075410283922
-0.006694634524404766   -0.0420557650173175   -0.0016074581483629955
-0.004146216228835419   -0.03642755251496263   -0.001531375083829887
-0.0042422305244753065   -0.03637415573741332   -0.001563394961692936
-0.004410509882162312   -0.04205253869171939   -0.0015348442395296314
-0.0013287623276900388   -0.036351891871749385   -0.001557452179187041
-0.00419596602880812   -0.03639328990349285   -0.0015439803715141776
-0.004410509882162312   -0.04205253869171939   -0.0015348442395296314
-0.002049129929861998   -0.042041015173430445   -0.001552535935127998
-0.0013287623276900388   -0.036351891871749385   -0.001557452179187041
-0.001970383534622028   -0.04203285204359876   -0.0014952551679061142
-0.00419596602880812   -0.03639328990349285   -0.0015439803715141776
-0.0012775989598131053   -0.03635221126529783   -0.0015106882735586036
-0.001970383534622028   -0.04203285204359876   -0.0014952551679061142
-0.0013287623276900388   -0.036351891871749385   -0.001557452179187041
-0.00419596602880812   -0.03639328990349285   -0.0015439803715141776
-0.001970383534622028   -0.04203285204359876   -0.0014952551679061142
-0.004338614352180125   -0.04205870868259363   -0.0015209182324812218
-0.004410509882162312   -0.04205253869171939   -0.0015348442395296314
-0.00419596602880812   -0.03639328990349285   -0.0015439803715141776
-0.001970383534622028   -0.04203285204359876   -0.0014952551679061142
-0.004410509882162312   -0.04205253869171939   -0.0015348442395296314
-0.0013287623276900388   -0.036351891871749385   -0.001557452179187041
-0.00419596602880812   -0.03639328990349285   -0.0015439803715141776
-0.004338614352180125   -0.04205870868259363   -0.0015209182324812218
-0.0012775989598131053   -0.03635221126529783   -0.0015106882735586036
-0.004146216228835419   -0.03642755251496263   -0.001531375083829887
-0.004338614352180125   -0.04205870868259363   -0.0015209182324812218
-0.001970383534622028   -0.04203285204359876   -0.0014952551679061142
-0.0012775989598131053   -0.03635221126529783   -0.0015106882735586036
-0.0018939357537327208   -0.04204611928555598   -0.0014451959636726647
-0.004146216228835419   -0.03642755251496263   -0.001531375083829887
-0.00122776442795788   -0.03636656444253004   -0.0014707529521225352
-0.0018939357537327208   -0.04204611928555598   -0.0014451959636726647
-0.0012775989598131053   -0.03635221126529783   -0.0015106882735586036
-0.004146216228835419   -0.03642755251496263   -0.001531375083829887
-0.0018939357537327208   -0.04204611928555598   -0.0014451959636726647
-0.004264393573689781   -0.04208855130985916   -0.0015137660949887117
-0.004338614352180125   -0.04205870868259363   -0.0015209182324812218
-0.004146216228835419   -0.03642755251496263   -0.001531375083829887
-0.0018939357537327208   -0.04204611928555598   -0.0014451959636726647
-0.004338614352180125   -0.04205870868259363   -0.0015209182324812218
-0.0012775989598131053   -0.03635221126529783   -0.0015106882735586036
-0.004146216228835419   -0.03642755251496263   -0.001531375083829887
-0.004264393573689781   -0.04208855130985916   -0.0015137660949887117
-0.00122776442795788   -0.03636656444253004   -0.0014707529521225352
-0.004095080258913479   -0.03647737227435174   -0.0015259157174590246
-0.004264393573689781   -0.04208855130985916   -0.0015137660949887117
-0.0018939357537327208   -0.04204611928555598   -0.0014451959636726647
-0.00122776442795788   -0.03636656444253004   -0.0014707529521225352
-0.0018248461733946925   -0.042083883334534125   -0.001401736394219885
-0.004095080258913479   -0.03647737227435174   -0.0015259157174590246
-0.001183265392603249   -0.03639612949613205   -0.0014378825010640491
-0.0018248461733946925   -0.042083883334534125   -0.001401736394219885
-0.00122776442795788   -0.03636656444253004   -0.0014707529521225352
-0.004095080258913479   -0.03647737227435174   -0.0015259157174590246
-0.0018248461733946925   -0.042083883334534125   -0.001401736394219885
-0.004190285650610703   -0.042143441180205805   -0.0015133075410283922
-0.004264393573689781   -0.04208855130985916   -0.0015137660949887117
-0.004095080258913479   -0.03647737227435174   -0.0015259157174590246
-0.0018248461733946925   -0.042083883334534125   -0.001401736394219885
-0.004264393573689781   -0.04208855130985916   -0.0015137660949887117
-0.00122776442795788   -0.03636656444253004   -0.0014707529521225352
-0.0013287623276900388   -0.036351891871749385   -0.001557452179187041
-0.002049129929861998   -0.042041015173430445   -0.001552535935127998
0.0016844952799878086   -0.03628016575677662   -0.0015854082137768694
-0.0012775989598131053   -0.03635221126529783   -0.0015106882735586036
-0.002049129929861998   -0.042041015173430445   -0.001552535935127998
0.00042187926682522186   -0.04195425066986065   -0.0015953680792105307
0.0016844952799878086   -0.03628016575677662   -0.0015854082137768694
0.0005177192006826855   -0.04192791445848144   -0.0014948686416554632
-0.0012775989598131053   -0.03635221126529783   -0.0015106882735586036
0.0017470645510971614   -0.03626040041651934   -0.0015115401847087206
0.0005177192006826855   -0.04192791445848144   -0.0014948686416554632
0.0016844952799878086   -0.03628016575677662   -0.0015854082137768694
-0.0012775989598131053   -0.03635221126529783   -0.0015106882735586036
0.0005177192006826855   -0.04192791445848144   -0.0014948686416554632
-0.001970383534622028   -0.04203285204359876   -0.0014952551679061142
-0.002049129929861998   -0.042041015173430445   -0.001552535935127998
-0.0012775989598131053   -0.03635221126529783   -0.0015106882735586036
0.0005177192006826855   -0.04192791445848144   -0.0014948686416554632
-0.002049129929861998   -0.042041015173430445   -0.001552535935127998
0.0016844952799878086   -0.03628016575677662   -0.0015854082137768694
-0.0012775989598131053   -0.03635221126529783   -0.0015106882735586036
-0.001970383534622028   -0.04203285204359876   -0.0014952551679061142
0.0017470645510971614   -0.03626040041651934   -0.0015115401847087206
-0.00122776442795788   -0.03636656444253004   -0.0014707529521225352
-0.001970383534622028   -0.04203285204359876   -0.0014952551679061142
0.0005177192006826855   -0.04192791445848144   -0.0014948686416554632
0.0017470645510971614   -0.03626040041651934   -0.0015115401847087206
0.0006187931206802855   -0.041925535371027604   -0.001403517400260787
-0.00122776442795788   -0.03636656444253004   -0.0014707529521225352
0.0018112689205850567   -0.0362566742316203   -0.0014449348096074008
0.0006187931206802855   -0.041925535371027604   -0.001403517400260787
0.0017470645510971614   -0.03626040041651934   -0.0015115401847087206
-0.00122776442795788   -0.03636656444253004   -0.0014707529521225352
0.0006187931206802855   -0.041925535371027604   -0.001403517400260787
-0.0018939357537327208   -0.04204611928555598   -0.0014451959636726647
-0.001970383534622028   -0.04203285204359876   -0.0014952551679061142
-0.00122776442795788   -0.03636656444253004   -0.0014707529521225352
0.0006187931206802855   -0.041925535371027604   -0.001403517400260787
-0.001970383534622028   -0.04203285204359876   -0.0014952551679061142
0.0017470645510971614   -0.03626040041651934   -0.0015115401847087206
-0.00122776442795788   -0.03636656444253004   -0.0014707529521225352
-0.0018939357537327208   -0.04204611928555598   -0.0014451959636726647
0.0018112689205850567   -0.0362566742316203   -0.0014449348096074008
-0.001183265392603249   -0.03639612949613205   -0.0014378825010640491
-0.0018939357537327208   -0.04204611928555598   -0.0014451959636726647
0.0006187931206802855   -0.041925535371027604   -0.001403517400260787
0.0018112689205850567   -0.0362566742316203   -0.0014449348096074008
0.0006927133311658402   -0.04194601262462661   -0.0013184623546954176
-0.001183265392603249   -0.03639612949613205   -0.0014378825010640491
0.0018540486266433024   -0.0362660375687026   -0.0013846333195325442
0.0006927133311658402   -0.04194601262462661   -0.0013184623546954176
0.0018112689205850567   -0.0362566742316203   -0.0014449348096074008
-0.001183265392603249   -0.03639612949613205   -0.0014378825010640491
0.0006927133311658402   -0.04194601262462661   -0.0013184623546954176
-0.0018248461733946925   -0.042083883334534125   -0.001401736394219885
-0.0018939357537327208   -0.04204611928555598   -0.0014451959636726647
-0.001183265392603249   -0.03639612949613205   -0.0014378825010640491
0.0006927133311658402   -0.04194601262462661   -0.0013184623546954176
-0.0018939357537327208   -0.04204611928555598   -0.0014451959636726647
0.0018112689205850567   -0.0362566742316203   -0.0014449348096074008
0.0016844952799878086   -0.03628016575677662   -0.0015854082137768694
0.00042187926682522186   -0.04195425066986065   -0.0015953680792105307
0.004888609148168253   -0.03615681353654091   -0.0016571298746272374
0.0017470645510971614   -0.03626040041651934   -0.0015115401847087206
0.00042187926682522186   -0.04195425066986065   -0.0015953680792105307
0.0030543035432567074   -0.04178404955272599   -0.001686593119685189
0.004888609148168253   -0.03615681353654091   -0.0016571298746272374
0.0032976194445772235   -0.04173356293233633   -0.0015327486633738572
0.0017470645510971614   -0.03626040041651934   -0.0015115401847087206
0.0050551285917015305   -0.03611617449382522   -0.001549574895766823
0.0032976194445772235   -0.04173356293233633   -0.0015327486633738572
0.004888609148168253   -0.03615681353654091   -0.0016571298746272374
0.0017470645510971614   -0.03626040041651934   -0.0015115401847087206
0.0032976194445772235   -0.04173356293233633   -0.0015327486633738572
0.0005177192006826855   -0.04192791445848144   -0.0014948686416554632
0.00042187926682522186   -0.04195425066986065   -0.0015953680792105307
0.0017470645510971614   -0.03626040041651934   -0.0015115401847087206
0.0032976194445772235   -0.04173356293233633   -0.0015327486633738572
0.00042187926682522186   -0.04195425066986065   -0.0015953680792105307
0.004888609148168253   -0.03615681353654091   -0.0016571298746272374
0.0017470645510971614   -0.03626040041651934   -0.0015115401847087206
0.0005177192006826855   -0.04192791445848144   -0.0014948686416554632
0.0050551285917015305   -0.03611617449382522   -0.001549574895766823
0.0018112689205850567   -0.0362566742316203   -0.0014449348096074008
0.0005177192006826855   -0.04192791445848144   -0.0014948686416554632
0.0032976194445772235   -0.04173356293233633   -0.0015327486633738572
0.0050551285917015305   -0.03611617449382522   -0.001549574895766823
0.003484217393680079   -0.04172481861021361   -0.0013902512071130551
0.0018112689205850567   -0.0362566742316203   -0.0014449348096074008
0.005178538991021847   -0.03610496196221117   -0.0014516853040745686
0.003484217393680079   -0.04172481861021361   -0.0013902512071130551
0.0050551285917015305   -0.03611617449382522   -0.001549574895766823
0.0018112689205850567   -0.0362566742316203   -0.0014449348096074008
0.003484217393680079   -0.04172481861021361   -0.0013902512071130551
0.0006187931206802855   -0.041925535371027604   -0.001403517400260787
0.0005177192006826855   -0.04192791445848144   -0.0014948686416554632
0.0018112689205850567   -0.0362566742316203   -0.0014449348096074008
0.003484217393680079   -0.04172481861021361   -0.0013902512071130551
0.0005177192006826855   -0.04192791445848144   -0.0014948686416554632
0.0050551285917015305   -0.03611617449382522   -0.001549574895766823
0.0018112689205850567   -0.0362566742316203   -0.0014449348096074008
0.0006187931206802855   -0.041925535371027604   -0.001403517400260787
0.005178538991021847   -0.03610496196221117   -0.0014516853040745686
0.0018540486266433024   -0.0362660375687026   -0.0013846333195325442
0.0006187931206802855   -0.041925535371027604   -0.001403517400260787
0.003484217393680079   -0.04172481861021361   -0.0013902512071130551
0.005178538991021847   -0.03610496196221117   -0.0014516853040745686
0.0036777857466646718   -0.04173988204096562   -0.001260260586479057
0.0018540486266433024   -0.0362660375687026   -0.0013846333195325442
0.0053038427671799025   -0.036104893590673856   -0.0013639066957700549
0.0036777857466646718   -0.04173988204096562   -0.001260260586479057
0.005178538991021847   -0.03610496196221117   -0.0014516853040745686
0.0018540486266433024   -0.0362660375687026   -0.0013846333195325442
0.0036777857466646718   -0.04173988204096562   -0.001260260586479057
0.0006927133311658402   -0.04194601262462661   -0.0013184623546954176
0.0006187931206802855   -0.041925535371027604   -0.001403517400260787
0.0018540486266433024   -0.0362660375687026   -0.0013846333195325442
0.0036777857466646718   -0.04173988204096562   -0.001260260586479057
0.0006187931206802855   -0.041925535371027604   -0.001403517400260787
0.005178538991021847   -0.03610496196221117   -0.0014516853040745686
-0.00967182819282761   -0.041860502912184634   -0.0015477962763771884
-0.008105538612340934   -0.046244932759889015   -0.0014047135389755538
-0.006852823150705391   -0.04199142821440125   -0.001538476042726566
-0.009525574916495562   -0.04188855315156806   -0.0016346828919038077
-0.008105538612340934   -0.046244932759889015   -0.0014047135389755538
-0.006098762359764326   -0.04643848770501378   -0.0014627019546208722
-0.006852823150705391   -0.04199142821440125   -0.001538476042726566
-0.005998094125469377   -0.0464286264774662   -0.0015103936611148379
-0.009525574916495562   -0.04188855315156806   -0.0016346828919038077
-0.0067827089067724585   -0.04201034592464612   -0.0015694767058718636
-0.005998094125469377   -0.0464286264774662   -0.0015103936611148379
-0.006852823150705391   -0.04199142821440125   -0.001538476042726566
-0.009525574916495562   -0.04188855315156806   -0.0016346828919038077
-0.005998094125469377   -0.0464286264774662   -0.0015103936611148379
-0.0078880529731383   -0.046239555566548386   -0.00153328145832228
-0.008105538612340934   -0.046244932759889015   -0.0014047135389755538
-0.009525574916495562   -0.04188855315156806   -0.0016346828919038077
-0.005998094125469377   -0.0464286264774662   -0.0015103936611148379
-0.008105538612340934   -0.046244932759889015   -0.0014047135389755538
-0.006852823150705391   -0.04199142821440125   -0.001538476042726566
-0.009525574916495562   -0.04188855315156806   -0.0016346828919038077
-0.0078880529731383   -0.046239555566548386   -0.00153328145832228
-0.0067827089067724585   -0.04201034592464612   -0.0015694767058718636
-0.009379807295145492   -0.041941859875876196   -0.0017329348575362046
-0.0078880529731383   -0.046239555566548386   -0.00153328145832228
-0.005998094125469377   -0.0464286264774662   -0.0015103936611148379
-0.0067827089067724585   -0.04201034592464612   -0.0015694767058718636
-0.005879617008203996   -0.04645667613513398   -0.001565203355412936
-0.009379807295145492   -0.041941859875876196   -0.0017329348575362046
-0.006694634524404766   -0.0420557650173175   -0.0016074581483629955
-0.005879617008203996   -0.04645667613513398   -0.001565203355412936
-0.0067827089067724585   -0.04201034592464612   -0.0015694767058718636
-0.009379807295145492   -0.041941859875876196   -0.0017329348575362046
-0.005879617008203996   -0.04645667613513398   -0.001565203355412936
-0.007687654879281914   -0.04627418140388931   -0.0016718796406024554
-0.0078880529731383   -0.046239555566548386   -0.00153328145832228
-0.009379807295145492   -0.041941859875876196   -0.0017329348575362046
-0.005879617008203996   -0.04645667613513398   -0.001565203355412936
-0.0078880529731383   -0.046239555566548386   -0.00153328145832228
-0.0067827089067724585   -0.04201034592464612   -0.0015694767058718636
-0.009379807295145492   -0.041941859875876196   -0.0017329348575362046
-0.007687654879281914   -0.04627418140388931   -0.0016718796406024554
-0.006694634524404766   -0.0420557650173175   -0.0016074581483629955
-0.009193120909612317   -0.04204126211715274   -0.0018423517553410593
-0.007687654879281914   -0.04627418140388931   -0.0016718796406024554
-0.005879617008203996   -0.04645667613513398   -0.001565203355412936
-0.006694634524404766   -0.0420557650173175   -0.0016074581483629955
-0.00577213918986731   -0.046523287230302565   -0.0016266773392931717
-0.009193120909612317   -0.04204126211715274   -0.0018423517553410593
-0.006607754909076317   -0.042130267203723856   -0.0016523544838809327
-0.00577213918986731   -0.046523287230302565   -0.0016266773392931717
-0.006694634524404766   -0.0420557650173175   -0.0016074581483629955
-0.009193120909612317   -0.04204126211715274   -0.0018423517553410593
-0.00577213918986731   -0.046523287230302565   -0.0016266773392931717
-0.007443183399584993   -0.046366398528186734   -0.0018199258739660283
-0.007687654879281914   -0.04627418140388931   -0.0016718796406024554
-0.009193120909612317   -0.04204126211715274   -0.0018423517553410593
-0.00577213918986731   -0.046523287230302565   -0.0016266773392931717
-0.007687654879281914   -0.04627418140388931   -0.0016718796406024554
-0.006694634524404766   -0.0420557650173175   -0.0016074581483629955
-0.006852823150705391   -0.04199142821440125   -0.001538476042726566
-0.006098762359764326   -0.04643848770501378   -0.0014627019546208722
-0.004410509882162312   -0.04205253869171939   -0.0015348442395296314
-0.0067827089067724585   -0.04201034592464612   -0.0015694767058718636
-0.006098762359764326   -0.04643848770501378   -0.0014627019546208722
-0.004457493198850432   -0.046563437043139345   -0.0015081010050968697
-0.004410509882162312   -0.04205253869171939   -0.0015348442395296314
-0.004354263519206782   -0.04654752683889479   -0.0014935250562659796
-0.0067827089067724585   -0.04201034592464612   -0.0015694767058718636
-0.004338614352180125   -0.04205870868259363   -0.0015209182324812218
-0.004354263519206782   -0.04654752683889479   -0.0014935250562659796
-0.004410509882162312   -0.04205253869171939   -0.0015348442395296314
-0.0067827089067724585   -0.04201034592464612   -0.0015694767058718636
-0.004354263519206782   -0.04654752683889479   -0.0014935250562659796
-0.005998094125469377   -0.0464286264774662   -0.0015103936611148379
-0.006098762359764326   -0.04643848770501378   -0.0014627019546208722
-0.0067827089067724585   -0.04201034592464612   -0.0015694767058718636
-0.004354263519206782   -0.04654752683889479   -0.0014935250562659796
-0.006098762359764326   -0.04643848770501378   -0.0014627019546208722
-0.004410509882162312   -0.04205253869171939   -0.0015348442395296314
-0.0067827089067724585   -0.04201034592464612   -0.0015694767058718636
-0.005998094125469377   -0.0464286264774662   -0.0015103936611148379
-0.004338614352180125   -0.04205870868259363   -0.0015209182324812218
-0.006694634524404766   -0.0420557650173175   -0.0016074581483629955
-0.005998094125469377   -0.0464286264774662   -0.0015103936611148379
-0.004354263519206782   -0.04654752683889479   -0.0014935250562659796
-0.004338614352180125   -0.04205870868259363   -0.0015209182324812218
-0.004252442535668598   -0.04656436389731621   -0.001485867756158587
-0.006694634524404766   -0.0420557650173175   -0.0016074581483629955
-0.004264393573689781   -0.04208855130985916   -0.0015137660949887117
-0.004252442535668598   -0.04656436389731621   -0.001485867756158587
-0.004338614352180125   -0.04205870868259363   -0.0015209182324812218
-0.006694634524404766   -0.0420557650173175   -0.0016074581483629955
-0.004252442535668598   -0.04656436389731621   -0.001485867756158587
-0.005879617008203996   -0.04645667613513398   -0.001565203355412936
-0.005998094125469377   -0.0464286264774662   -0.0015103936611148379
-0.006694634524404766   -0.0420557650173175   -0.0016074581483629955
-0.004252442535668598   -0.04656436389731621   -0.001485867756158587
-0.005998094125469377   -0.0464286264774662   -0.0015103936611148379
-0.004338614352180125   -0.04205870868259363   -0.0015209182324812218
-0.006694634524404766   -0.0420557650173175   -0.0016074581483629955
-0.005879617008203996   -0.04645667613513398   -0.001565203355412936
-0.004264393573689781   -0.04208855130985916   -0.0015137660949887117
-0.006607754909076317   -0.042130267203723856   -0.0016523544838809327
-0.005879617008203996   -0.04645667613513398   -0.001565203355412936
-0.004252442535668598   -0.04656436389731621   -0.001485867756158587
-0.004264393573689781   -0.04208855130985916   -0.0015137660949887117
-0.004158708815245949   -0.04661501817275302   -0.0014865708193727532
-0.006607754909076317   -0.042130267203723856   -0.0016523544838809327
-0.004190285650610703   -0.042143441180205805   -0.0015133075410283922
-0.004158708815245949   -0.04661501817275302   -0.0014865708193727532
-0.004264393573689781   -0.04208855130985916   -0.0015137660949887117
-0.006607754909076317   -0.042130267203723856   -0.0016523544838809327
-0.004158708815245949   -0.04661501817275302   -0.0014865708193727532
-0.00577213918986731   -0.046523287230302565   -0.0016266773392931717
-0.005879617008203996   -0.04645667613513398   -0.001565203355412936
-0.006607754909076317   -0.042130267203723856   -0.0016523544838809327
-0.004158708815245949   -0.04661501817275302   -0.0014865708193727532
-0.005879617008203996   -0.04645667613513398   -0.001565203355412936
-0.004264393573689781   -0.04208855130985916   -0.0015137660949887117
-0.004410509882162312   -0.04205253869171939   -0.0015348442395296314
-0.004457493198850432   -0.046563437043139345   -0.0015081010050968697
-0.002049129929861998   -0.042041015173430445   -0.001552535935127998
-0.004338614352180125   -0.04205870868259363   -0.0015209182324812218
-0.004457493198850432   -0.046563437043139345   -0.0015081010050968697
-0.002885327983747271   -0.04662830085400506   -0.001561920737168059
-0.002049129929861998   -0.042041015173430445   -0.001552535935127998
-0.002768975622770196   -0.04660524242298272   -0.0014885920181096995
-0.004338614352180125   -0.04205870868259363   -0.0015209182324812218
-0.001970383534622028   -0.04203285204359876   -0.0014952551679061142
-0.002768975622770196   -0.04660524242298272   -0.0014885920181096995
-0.002049129929861998   -0.042041015173430445   -0.001552535935127998
-0.004338614352180125   -0.04205870868259363   -0.0015209182324812218
-0.002768975622770196   -0.04660524242298272   -0.0014885920181096995
-0.004354263519206782   -0.04654752683889479   -0.0014935250562659796
-0.004457493198850432   -0.046563437043139345   -0.0015081010050968697
-0.004338614352180125   -0.04205870868259363   -0.0015209182324812218
-0.002768975622770196   -0.04660524242298272   -0.0014885920181096995
-0.004457493198850432   -0.046563437043139345   -0.0015081010050968697
-0.002049129929861998   -0.042041015173430445   -0.001552535935127998
-0.004338614352180125   -0.04205870868259363   -0.0015209182324812218
-0.004354263519206782   -0.04654752683889479   -0.0014935250562659796
-0.001970383534622028   -0.04203285204359876   -0.0014952551679061142
-0.004264393573689781   -0.04208855130985916   -0.0015137660949887117
-0.004354263519206782   -0.04654752683889479   -0.0014935250562659796
-0.002768975622770196   -0.04660524242298272   -0.0014885920181096995
-0.001970383534622028   -0.04203285204359876   -0.0014952551679061142
-0.0026580276071629487   -0.046611022319407856   -0.001421397268443709
-0.004264393573689781   -0.04208855130985916   -0.0015137660949887117
-0.0018939357537327208   -0.04204611928555598   -0.0014451959636726647
-0.0026580276071629487   -0.046611022319407856   -0.001421397268443709
-0.001970383534622028   -0.04203285204359876   -0.0014952551679061142
-0.004264393573689781   -0.04208855130985916   -0.0015137660949887117
-0.0026580276071629487   -0.046611022319407856   -0.001421397268443709
-0.004252442535668598   -0.04656436389731621   -0.001485867756158587
-0.004354263519206782   -0.04654752683889479   -0.0014935250562659796
-0.004264393573689781   -0.04208855130985916   -0.0015137660949887117
-0.0026580276071629487   -0.046611022319407856   -0.001421397268443709
-0.004354263519206782   -0.04654752683889479   -0.0014935250562659796
-0.001970383534622028   -0.04203285204359876   -0.0014952551679061142
-0.004264393573689781   -0.04208855130985916   -0.0015137660949887117
-0.004252442535668598   -0.04656436389731621   -0.001485867756158587
-0.0018939357537327208   -0.04204611928555598   -0.0014451959636726647
-0.004190285650610703   -0.042143441180205805   -0.0015133075410283922
-0.004252442535668598   -0.04656436389731621   -0.001485867756158587
-0.0026580276071629487   -0.046611022319407856   -0.001421397268443709
-0.0018939357537327208   -0.04204611928555598   -0.0014451959636726647
-0.0025656860838037445   -0.04665118117422027   -0.0013641269073227397
-0.004190285650610703   -0.042143441180205805   -0.0015133075410283922
-0.0018248461733946925   -0.042083883334534125   -0.001401736394219885
-0.0025656860838037445   -0.04665118117422027   -0.0013641269073227397
-0.0018939357537327208   -0.04204611928555598   -0.0014451959636726647
-0.004190285650610703   -0.042143441180205805   -0.0015133075410283922
-0.0025656860838037445   -0.04665118117422027   -0.0013641269073227397
-0.004158708815245949   -0.04661501817275302   -0.0014865708193727532
-0.004252442535668598   -0.04656436389731621   -0.001485867756158587
-0.004190285650610703   -0.042143441180205805   -0.0015133075410283922
-0.0025656860838037445   -0.04665118117422027   -0.0013641269073227397
-0.004252442535668598   -0.04656436389731621   -0.001485867756158587
-0.0018939357537327208   -0.04204611928555598   -0.0014451959636726647
-0.002049129929861998   -0.042041015173430445   -0.001552535935127998
-0.002885327983747271   -0.04662830085400506   -0.001561920737168059
0.00042187926682522186   -0.04195425066986065   -0.0015953680792105307
-0.001970383534622028   -0.04203285204359876   -0.0014952551679061142
-0.002885327983747271   -0.04662830085400506   -0.001561920737168059
-0.0012147022551737012   -0.04661023557017283   -0.001625463042415691
0.00042187926682522186   -0.04195425066986065   -0.0015953680792105307
-0.0010653127709703341   -0.04657405844328344   -0.001495884333350691
-0.001970383534622028   -0.04203285204359876   -0.0014952551679061142
0.0005177192006826855   -0.04192791445848144   -0.0014948686416554632
-0.0010653127709703341   -0.04657405844328344   -0.001495884333350691
0.00042187926682522186   -0.04195425066986065   -0.0015953680792105307
-0.001970383534622028   -0.04203285204359876   -0.0014952551679061142
-0.0010653127709703341   -0.04657405844328344   -0.001495884333350691
-0.002768975622770196   -0.04660524242298272   -0.0014885920181096995
-0.002885327983747271   -0.04662830085400506   -0.001561920737168059
-0.001970383534622028   -0.04203285204359876   -0.0014952551679061142
-0.0010653127709703341   -0.04657405844328344   -0.001495884333350691
-0.002885327983747271   -0.04662830085400506   -0.001561920737168059
0.00042187926682522186   -0.04195425066986065   -0.0015953680792105307
-0.001970383534622028   -0.04203285204359876   -0.0014952551679061142
-0.002768975622770196   -0.04660524242298272   -0.0014885920181096995
0.0005177192006826855   -0.04192791445848144   -0.0014948686416554632
-0.0018939357537327208   -0.04204611928555598   -0.0014451959636726647
-0.002768975622770196   -0.04660524242298272   -0.0014885920181096995
-0.0010653127709703341   -0.04657405844328344   -0.001495884333350691
0.0005177192006826855   -0.04192791445848144   -0.0014948686416554632
-0.0009124170983598307   -0.04656777208132714   -0.0013728566319865959
-0.0018939357537327208   -0.04204611928555598   -0.0014451959636726647
0.0006187931206802855   -0.041925535371027604   -0.001403517400260787
-0.0009124170983598307   -0.04656777208132714   -0.0013728566319865959
0.0005177192006826855   -0.04192791445848144   -0.0014948686416554632
-0.0018939357537327208   -0.04204611928555598   -0.0014451959636726647
-0.0009124170983598307   -0.04656777208132714   -0.0013728566319865959
-0.0026580276071629487   -0.046611022319407856   -0.001421397268443709
-0.002768975622770196   -0.04660524242298272   -0.0014885920181096995
-0.0018939357537327208   -0.04204611928555598   -0.0014451959636726647
-0.0009124170983598307   -0.04656777208132714   -0.0013728566319865959
-0.002768975622770196   -0.04660524242298272   -0.0014885920181096995
0.0005177192006826855   -0.04192791445848144   -0.0014948686416554632
-0.0018939357537327208   -0.04204611928555598   -0.0014451959636726647
-0.0026580276071629487   -0.046611022319407856   -0.001421397268443709
0.0006187931206802855   -0.041925535371027604   -0.001403517400260787
-0.0018248461733946925   -0.042083883334534125   -0.001401736394219885
-0.0026580276071629487   -0.046611022319407856   -0.001421397268443709
-0.0009124170983598307   -0.04656777208132714   -0.0013728566319865959
0.0006187931206802855   -0.041925535371027604   -0.001403517400260787
-0.0007992674554714228   -0.046597746284595634   -0.0012610384737474232
-0.0018248461733946925   -0.042083883334534125   -0.001401736394219885
0.0006927133311658402   -0.04194601262462661   -0.0013184623546954176
-0.0007992674554714228   -0.046597746284595634   -0.0012610384737474232
0.0006187931206802855   -0.041925535371027604   -0.001403517400260787
-0.0018248461733946925   -0.042083883334534125   -0.001401736394219885
-0.0007992674554714228   -0.046597746284595634   -0.0012610384737474232
-0.0025656860838037445   -0.04665118117422027   -0.0013641269073227397
-0.0026580276071629487   -0.046611022319407856   -0.001421397268443709
-0.0018248461733946925   -0.042083883334534125   -0.001401736394219885
-0.0007992674554714228   -0.046597746284595634   -0.0012610384737474232
-0.0026580276071629487   -0.046611022319407856   -0.001421397268443709
0.0006187931206802855   -0.041925535371027604   -0.001403517400260787
0.00042187926682522186   -0.04195425066986065   -0.0015953680792105307
-0.0012147022551737012   -0.04661023557017283   -0.001625463042415691
0.0030543035432567074   -0.04178404955272599   -0.001686593119685189
0.0005177192006826855   -0.04192791445848144   -0.0014948686416554632
-0.0012147022551737012   -0.04661023557017283   -0.001625463042415691
0.0005810109809210913   -0.046449241386959876   -0.0017551750883330907
0.0030543035432567074   -0.04178404955272599   -0.001686593119685189
0.0009304123842338798   -0.04637067809971606   -0.0015432973388509734
0.0005177192006826855   -0.04192791445848144   -0.0014948686416554632
0.0032976194445772235   -0.04173356293233633   -0.0015327486633738572
0.0009304123842338798   -0.04637067809971606   -0.0015432973388509734
0.0030543035432567074   -0.04178404955272599   -0.001686593119685189
0.0005177192006826855   -0.04192791445848144   -0.0014948686416554632
0.0009304123842338798   -0.04637067809971606   -0.0015432973388509734
-0.0010653127709703341   -0.04657405844328344   -0.001495884333350691
-0.0012147022551737012   -0.04661023557017283   -0.001625463042415691
0.0005177192006826855   -0.04192791445848144   -0.0014948686416554632
0.0009304123842338798   -0.04637067809971606   -0.0015432973388509734
-0.0012147022551737012   -0.04661023557017283   -0.001625463042415691
0.0030543035432567074   -0.04178404955272599   -0.001686593119685189
0.0005177192006826855   -0.04192791445848144   -0.0014948686416554632
-0.0010653127709703341   -0.04657405844328344   -0.001495884333350691
0.0032976194445772235   -0.04173356293233633   -0.0015327486633738572
0.0006187931206802855   -0.041925535371027604   -0.001403517400260787
-0.0010653127709703341   -0.04657405844328344   -0.001495884333350691
0.0009304123842338798   -0.04637067809971606   -0.0015432973388509734
0.0032976194445772235   -0.04173356293233633   -0.0015327486633738572
0.0012049295891414387   -0.046354846536943495   -0.0013442541718803947
0.0006187931206802855   -0.041925535371027604   -0.001403517400260787
0.003484217393680079   -0.04172481861021361   -0.0013902512071130551
0.0012049295891414387   -0.046354846536943495   -0.0013442541718803947
0.0032976194445772235   -0.04173356293233633   -0.0015327486633738572
0.0006187931206802855   -0.041925535371027604   -0.001403517400260787
0.0012049295891414387   -0.046354846536943495   -0.0013442541718803947
-0.0009124170983598307   -0.04656777208132714   -0.0013728566319865959
-0.0010653127709703341   -0.04657405844328344   -0.001495884333350691
0.0006187931206802855   -0.041925535371027604   -0.001403517400260787
0.0012049295891414387   -0.046354846536943495   -0.0013442541718803947
-0.0010653127709703341   -0.04657405844328344   -0.001495884333350691
0.0032976194445772235   -0.04173356293233633   -0.0015327486633738572
0.0006187931206802855   -0.041925535371027604   -0.001403517400260787
-0.0009124170983598307   -0.04656777208132714   -0.0013728566319865959
0.003484217393680079   -0.04172481861021361   -0.0013902512071130551
0.0006927133311658402   -0.04194601262462661   -0.0013184623546954176
-0.0009124170983598307   -0.04656777208132714   -0.0013728566319865959
0.0012049295891414387   -0.046354846536943495   -0.0013442541718803947
0.003484217393680079   -0.04172481861021361   -0.0013902512071130551
0.0014905203849603836   -0.04636855535950903   -0.0011623483345420964
0.0006927133311658402   -0.04194601262462661   -0.0013184623546954176
0.0036777857466646718   -0.04173988204096562   -0.001260260586479057
0.0014905203849603836   -0.04636855535950903   -0.0011623483345420964
0.003484217393680079   -0.04172481861021361   -0.0013902512071130551
0.0006927133311658402   -0.04194601262462661   -0.0013184623546954176
0.0014905203849603836   -0.04636855535950903   -0.0011623483345420964
-0.0007992674554714228   -0.046597746284595634   -0.0012610384737474232
-0.0009124170983598307   -0.04656777208132714   -0.0013728566319865959
0.0006927133311658402   -0.04194601262462661   -0.0013184623546954176
0.0014905203849603836   -0.04636855535950903   -0.0011623483345420964
-0.0009124170983598307   -0.04656777208132714   -0.0013728566319865959
0.003484217393680079   -0.04172481861021361   -0.0013902512071130551
-0.008105538612340934   -0.046244932759889015   -0.0014047135389755538
-0.005955261651296278   -0.04885332298678594   -0.0012365184202141144
-0.006098762359764326   -0.04643848770501378   -0.0014627019546208722
-0.0078880529731383   -0.046239555566548386   -0.00153328145832228
-0.005955261651296278   -0.04885332298678594   -0.0012365184202141144
-0.005018712423565774   -0.04909786488439498   -0.0013831220947209926
-0.006098762359764326   -0.04643848770501378   -0.0014627019546208722
-0.004891923924714145   -0.04904979744637686   -0.0014339572262530328
-0.0078880529731383   -0.046239555566548386   -0.00153328145832228
-0.005998094125469377   -0.0464286264774662   -0.0015103936611148379
-0.004891923924714145   -0.04904979744637686   -0.0014339572262530328
-0.006098762359764326   -0.04643848770501378   -0.0014627019546208722
-0.0078880529731383   -0.046239555566548386   -0.00153328145832228
-0.004891923924714145   -0.04904979744637686   -0.0014339572262530328
-0.005684541863589393   -0.048799136423485205   -0.0013907027209712635
-0.005955261651296278   -0.04885332298678594   -0.0012365184202141144
-0.0078880529731383   -0.046239555566548386   -0.00153328145832228
-0.004891923924714145   -0.04904979744637686   -0.0014339572262530328
-0.005955261651296278   -0.04885332298678594   -0.0012365184202141144
-0.006098762359764326   -0.04643848770501378   -0.0014627019546208722
-0.0078880529731383   -0.046239555566548386   -0.00153328145832228
-0.005684541863589393   -0.048799136423485205   -0.0013907027209712635
-0.005998094125469377   -0.0464286264774662   -0.0015103936611148379
-0.007687654879281914   -0.04627418140388931   -0.0016718796406024554
-0.005684541863589393   -0.048799136423485205   -0.0013907027209712635
-0.004891923924714145   -0.04904979744637686   -0.0014339572262530328
-0.005998094125469377   -0.0464286264774662   -0.0015103936611148379
-0.004751375046646944   -0.0490525098710068   -0.0014853134199660947
-0.007687654879281914   -0.04627418140388931   -0.0016718796406024554
-0.005879617008203996   -0.04645667613513398   -0.001565203355412936
-0.004751375046646944   -0.0490525098710068   -0.0014853134199660947
-0.005998094125469377   -0.0464286264774662   -0.0015103936611148379
-0.007687654879281914   -0.04627418140388931   -0.0016718796406024554
-0.004751375046646944   -0.0490525098710068   -0.0014853134199660947
-0.005450995046522729   -0.048804151132488906   -0.0015443229168655669
-0.005684541863589393   -0.048799136423485205   -0.0013907027209712635
-0.007687654879281914   -0.04627418140388931   -0.0016718796406024554
-0.004751375046646944   -0.0490525098710068   -0.0014853134199660947
-0.005684541863589393   -0.048799136423485205   -0.0013907027209712635
-0.005998094125469377   -0.0464286264774662   -0.0015103936611148379
-0.007687654879281914   -0.04627418140388931   -0.0016718796406024554
-0.005450995046522729   -0.048804151132488906   -0.0015443229168655669
-0.005879617008203996   -0.04645667613513398   -0.001565203355412936
-0.007443183399584993   -0.046366398528186734   -0.0018199258739660283
-0.005450995046522729   -0.048804151132488906   -0.0015443229168655669
-0.004751375046646944   -0.0490525098710068   -0.0014853134199660947
-0.005879617008203996   -0.04645667613513398   -0.001565203355412936
-0.004620876789516208   -0.049106253754822235   -0.0015374049096389586
-0.007443183399584993   -0.046366398528186734   -0.0018199258739660283
-0.00577213918986731   -0.046523287230302565   -0.0016266773392931717
-0.004620876789516208   -0.049106253754822235   -0.0015374049096389586
-0.005879617008203996   -0.04645667613513398   -0.001565203355412936
-0.007443183399584993   -0.046366398528186734   -0.0018199258739660283
-0.004620876789516208   -0.049106253754822235   -0.0015374049096389586
-0.005173880263819856   -0.04887180280757023   -0.001701242595281355
-0.005450995046522729   -0.048804151132488906   -0.0015443229168655669
-0.007443183399584993   -0.046366398528186734   -0.0018199258739660283
-0.004620876789516208   -0.049106253754822235   -0.0015374049096389586
-0.005450995046522729   -0.048804151132488906   -0.0015443229168655669
-0.005879617008203996   -0.04645667613513398   -0.001565203355412936
-0.006098762359764326   -0.04643848770501378   -0.0014627019546208722
-0.005018712423565774   -0.04909786488439498   -0.0013831220947209926
-0.004457493198850432   -0.046563437043139345   -0.0015081010050968697
-0.005998094125469377   -0.0464286264774662   -0.0015103936611148379
-0.005018712423565774   -0.04909786488439498   -0.0013831220947209926
-0.0043315018089974955   -0.04934204928979022   -0.0015126042294877637
-0.004457493198850432   -0.046563437043139345   -0.0015081010050968697
-0.004197854649530635   -0.049292664567155774   -0.0014773461429972634
-0.005998094125469377   -0.0464286264774662   -0.0015103936611148379
-0.004354263519206782   -0.04654752683889479   -0.0014935250562659796
-0.004197854649530635   -0.049292664567155774   -0.0014773461429972634
-0.004457493198850432   -0.046563437043139345   -0.0015081010050968697
-0.005998094125469377   -0.0464286264774662   -0.0015103936611148379
-0.004197854649530635   -0.049292664567155774   -0.0014773461429972634
-0.004891923924714145   -0.04904979744637686   -0.0014339572262530328
-0.005018712423565774   -0.04909786488439498   -0.0013831220947209926
-0.005998094125469377   -0.0464286264774662   -0.0015103936611148379
-0.004197854649530635   -0.049292664567155774   -0.0014773461429972634
-0.005018712423565774   -0.04909786488439498   -0.0013831220947209926
-0.004457493198850432   -0.046563437043139345   -0.0015081010050968697
-0.005998094125469377   -0.0464286264774662   -0.0015103936611148379
-0.004891923924714145   -0.04904979744637686   -0.0014339572262530328
-0.004354263519206782   -0.04654752683889479   -0.0014935250562659796
-0.005879617008203996   -0.04645667613513398   -0.001565203355412936
-0.004891923924714145   -0.04904979744637686   -0.0014339572262530328
-0.004197854649530635   -0.049292664567155774   -0.0014773461429972634
-0.004354263519206782   -0.04654752683889479   -0.0014935250562659796
-0.0040685800931334675   -0.04929202990438838   -0.001441658319689511
-0.005879617008203996   -0.04645667613513398   -0.001565203355412936
-0.004252442535668598   -0.04656436389731621   -0.001485867756158587
-0.0040685800931334675   -0.04929202990438838   -0.001441658319689511
-0.004354263519206782   -0.04654752683889479   -0.0014935250562659796
-0.005879617008203996   -0.04645667613513398   -0.001565203355412936
-0.0040685800931334675   -0.04929202990438838   -0.001441658319689511
-0.004751375046646944   -0.0490525098710068   -0.0014853134199660947
-0.004891923924714145   -0.04904979744637686   -0.0014339572262530328
-0.005879617008203996   -0.04645667613513398   -0.001565203355412936
-0.0040685800931334675   -0.04929202990438838   -0.001441658319689511
-0.004891923924714145   -0.04904979744637686   -0.0014339572262530328
-0.004354263519206782   -0.04654752683889479   -0.0014935250562659796
-0.005879617008203996   -0.04645667613513398   -0.001565203355412936
-0.004751375046646944   -0.0490525098710068   -0.0014853134199660947
-0.004252442535668598   -0.04656436389731621   -0.001485867756158587
-0.00577213918986731   -0.046523287230302565   -0.0016266773392931717
-0.004751375046646944   -0.0490525098710068   -0.0014853134199660947
-0.0040685800931334675   -0.04929202990438838   -0.001441658319689511
-0.004252442535668598   -0.04656436389731621   -0.001485867756158587
-0.003933850996199216   -0.04933914326163085   -0.0014074012393313874
-0.00577213918986731   -0.046523287230302565   -0.0016266773392931717
-0.004158708815245949   -0.04661501817275302   -0.0014865708193727532
-0.003933850996199216   -0.04933914326163085   -0.0014074012393313874
-0.004252442535668598   -0.04656436389731621   -0.001485867756158587
-0.00577213918986731   -0.046523287230302565   -0.0016266773392931717
-0.003933850996199216   -0.04933914326163085   -0.0014074012393313874
-0.004620876789516208   -0.049106253754822235   -0.0015374049096389586
-0.004751375046646944   -0.0490525098710068   -0.0014853134199660947
-0.00577213918986731   -0.046523287230302565   -0.0016266773392931717
-0.003933850996199216   -0.04933914326163085   -0.0014074012393313874
-0.004751375046646944   -0.0490525098710068   -0.0014853134199660947
-0.004252442535668598   -0.04656436389731621   -0.001485867756158587
-0.004457493198850432   -0.046563437043139345   -0.0015081010050968697
-0.0043315018089974955   -0.04934204928979022   -0.0015126042294877637
-0.002885327983747271   -0.04662830085400506   -0.001561920737168059
-0.004354263519206782   -0.04654752683889479   -0.0014935250562659796
-0.0043315018089974955   -0.04934204928979022   -0.0015126042294877637
-0.0037034403601156687   -0.049635408849601825   -0.0016553714111060731
-0.002885327983747271   -0.04662830085400506   -0.001561920737168059
-0.003539683455373944   -0.0495924141467985   -0.0015292174154282415
-0.004354263519206782   -0.04654752683889479   -0.0014935250562659796
-0.002768975622770196   -0.04660524242298272   -0.0014885920181096995
-0.003539683455373944   -0.0495924141467985   -0.0015292174154282415
-0.002885327983747271   -0.04662830085400506   -0.001561920737168059
-0.004354263519206782   -0.04654752683889479   -0.0014935250562659796
-0.003539683455373944   -0.0495924141467985   -0.0015292174154282415
-0.004197854649530635   -0.049292664567155774   -0.0014773461429972634
-0.0043315018089974955   -0.04934204928979022   -0.0015126042294877637
-0.004354263519206782   -0.04654752683889479   -0.0014935250562659796
-0.003539683455373944   -0.0495924141467985   -0.0015292174154282415
-0.0043315018089974955   -0.04934204928979022   -0.0015126042294877637
-0.002885327983747271   -0.04662830085400506   -0.001561920737168059
-0.004354263519206782   -0.04654752683889479   -0.0014935250562659796
-0.004197854649530635   -0.049292664567155774   -0.0014773461429972634
-0.002768975622770196   -0.04660524242298272   -0.0014885920181096995
-0.004252442535668598   -0.04656436389731621   -0.001485867756158587
-0.004197854649530635   -0.049292664567155774   -0.0014773461429972634
-0.003539683455373944   -0.0495924141467985   -0.0015292174154282415
-0.002768975622770196   -0.04660524242298272   -0.0014885920181096995
-0.003387858927233579   -0.04959025931458749   -0.001403436392575665
-0.004252442535668598   -0.04656436389731621   -0.001485867756158587
-0.0026580276071629487   -0.046611022319407856   -0.001421397268443709
-0.003387858927233579   -0.04959025931458749   -0.001403436392575665
-0.002768975622770196   -0.04660524242298272   -0.0014885920181096995
-0.004252442535668598   -0.04656436389731621   -0.001485867756158587
-0.003387858927233579   -0.04959025931458749   -0.001403436392575665
-0.0040685800931334675   -0.04929202990438838   -0.001441658319689511
-0.004197854649530635   -0.049292664567155774   -0.0014773461429972634
-0.004252442535668598   -0.04656436389731621   -0.001485867756158587
-0.003387858927233579   -0.04959025931458749   -0.001403436392575665
-0.004197854649530635   -0.049292664567155774   -0.0014773461429972634
-0.002768975622770196   -0.04660524242298272   -0.0014885920181096995
-0.004252442535668598   -0.04656436389731621   -0.001485867756158587
-0.0040685800931334675   -0.04929202990438838   -0.001441658319689511
-0.0026580276071629487   -0.046611022319407856   -0.001421397268443709
-0.004158708815245949   -0.04661501817275302   -0.0014865708193727532
-0.0040685800931334675   -0.04929202990438838   -0.001441658319689511
-0.003387858927233579   -0.04959025931458749   -0.001403436392575665
-0.0026580276071629487   -0.046611022319407856   -0.001421397268443709
-0.003224973540488508   -0.04962677709003976   -0.0012774656658748919
-0.004158708815245949   -0.04661501817275302   -0.0014865708193727532
-0.0025656860838037445   -0.04665118117422027   -0.0013641269073227397
-0.003224973540488508   -0.04962677709003976   -0.0012774656658748919
-0.0026580276071629487   -0.046611022319407856   -0.001421397268443709
-0.004158708815245949   -0.04661501817275302   -0.0014865708193727532
-0.003224973540488508   -0.04962677709003976   -0.0012774656658748919
-0.003933850996199216   -0.04933914326163085   -0.0014074012393313874
-0.0040685800931334675   -0.04929202990438838   -0.001441658319689511
-0.004158708815245949   -0.04661501817275302   -0.0014865708193727532
-0.003224973540488508   -0.04962677709003976   -0.0012774656658748919
-0.0040685800931334675   -0.04929202990438838   -0.001441658319689511
-0.0026580276071629487   -0.046611022319407856   -0.001421397268443709
-0.002885327983747271   -0.04662830085400506   -0.001561920737168059
-0.0037034403601156687   -0.049635408849601825   -0.0016553714111060731
-0.0012147022551737012   -0.04661023557017283   -0.001625463042415691
-0.002768975622770196   -0.04660524242298272   -0.0014885920181096995
-0.0037034403601156687   -0.049635408849601825   -0.0016553714111060731
-0.0030853144170616634   -0.05   -0.0017657391237672117
-0.0012147022551737012   -0.04661023557017283   -0.001625463042415691
-0.002879155745702535   -0.05   -0.0015735908780926523
-0.002768975622770196   -0.04660524242298272   -0.0014885920181096995
-0.0010653127709703341   -0.04657405844328344   -0.001495884333350691
-0.002879155745702535   -0.05   -0.0015735908780926523
-0.0012147022551737012   -0.04661023557017283   -0.001625463042415691
-0.002768975622770196   -0.04660524242298272   -0.0014885920181096995
-0.002879155745702535   -0.05   -0.0015735908780926523
-0.003539683455373944   -0.0495924141467985   -0.0015292174154282415
-0.0037034403601156687   -0.049635408849601825   -0.0016553714111060731
-0.002768975622770196   -0.04660524242298272   -0.0014885920181096995
-0.002879155745702535   -0.05   -0.0015735908780926523
-0.0037034403601156687   -0.049635408849601825   -0.0016553714111060731
-0.0012147022551737012   -0.04661023557017283   -0.001625463042415691
-0.002768975622770196   -0.04660524242298272   -0.0014885920181096995
-0.003539683455373944   -0.0495924141467985   -0.0015292174154282415
-0.0010653127709703341   -0.04657405844328344   -0.001495884333350691
-0.0026580276071629487   -0.046611022319407856   -0.001421397268443709
-0.003539683455373944   -0.0495924141467985   -0.0015292174154282415
-0.002879155745702535   -0.05   -0.0015735908780926523
-0.0010653127709703341   -0.04657405844328344   -0.001495884333350691
-0.0026718590343374786   -0.05   -0.0013791692860898467
-0.0026580276071629487   -0.046611022319407856   -0.001421397268443709
-0.0009124170983598307   -0.04656777208132714   -0.0013728566319865959
-0.0026718590343374786   -0.05   -0.0013791692860898467
-0.0010653127709703341   -0.04657405844328344   -0.001495884333350691
-0.0026580276071629487   -0.046611022319407856   -0.001421397268443709
-0.0026718590343374786   -0.05   -0.0013791692860898467
-0.003387858927233579   -0.04959025931458749   -0.001403436392575665
-0.003539683455373944   -0.0495924141467985   -0.0015292174154282415
-0.0026580276071629487   -0.046611022319407856   -0.001421397268443709
-0.0026718590343374786   -0.05   -0.0013791692860898467
-0.003539683455373944   -0.0495924141467985   -0.0015292174154282415
-0.0010653127709703341   -0.04657405844328344   -0.001495884333350691
-0.0026580276071629487   -0.046611022319407856   -0.001421397268443709
-0.003387858927233579   -0.04959025931458749   -0.001403436392575665
-0.0009124170983598307   -0.04656777208132714   -0.0013728566319865959
-0.0025656860838037445   -0.04665118117422027   -0.0013641269073227397
-0.003387858927233579   -0.04959025931458749   -0.001403436392575665
-0.0026718590343374786   -0.05   -0.0013791692860898467
-0.0009124170983598307   -0.04656777208132714   -0.0013728566319865959
-0.002469419944932279   -0.05   -0.0011873316343708154
-0.0025656860838037445   -0.04665118117422027   -0.0013641269073227397
-0.0007992674554714228   -0.046597746284595634   -0.0012610384737474232
-0.002469419944932279   -0.05   -0.0011873316343708154
-0.0009124170983598307   -0.04656777208132714   -0.0013728566319865959
-0.0025656860838037445   -0.04665118117422027   -0.0013641269073227397
-0.002469419944932279   -0.05   -0.0011873316343708154
-0.003224973540488508   -0.04962677709003976   -0.0012774656658748919
-0.003387858927233579   -0.04959025931458749   -0.001403436392575665
-0.0025656860838037445   -0.04665118117422027   -0.0013641269073227397
-0.002469419944932279   -0.05   -0.0011873316343708154
-0.003387858927233579   -0.04959025931458749   -0.001403436392575665
-0.0009124170983598307   -0.04656777208132714   -0.0013728566319865959
-0.0012147022551737012   -0.04661023557017283   -0.001625463042415691
-0.0030853144170616634   -0.05   -0.0017657391237672117
0.0005810109809210913   -0.046449241386959876   -0.0017551750883330907
-0.0010653127709703341   -0.04657405844328344   -0.001495884333350691
-0.0030853144170616634   -0.05   -0.0017657391237672117
-0.002635208736077273   -0.05   -0.0018994003871520082
0.0005810109809210913   -0.046449241386959876   -0.0017551750883330907
-0.0022028888814792447   -0.05   -0.0016211349029915416
-0.0010653127709703341   -0.04657405844328344   -0.001495884333350691
0.0009304123842338798   -0.04637067809971606   -0.0015432973388509734
-0.0022028888814792447   -0.05   -0.0016211349029915416
0.0005810109809210913   -0.046449241386959876   -0.0017551750883330907
-0.0010653127709703341   -0.04657405844328344   -0.001495884333350691
-0.0022028888814792447   -0.05   -0.0016211349029915416
-0.002879155745702535   -0.05   -0.0015735908780926523
-0.0030853144170616634   -0.05   -0.0017657391237672117
-0.0010653127709703341   -0.04657405844328344   -0.001495884333350691
-0.0022028888814792447   -0.05   -0.0016211349029915416
-0.0030853144170616634   -0.05   -0.0017657391237672117
0.0005810109809210913   -0.046449241386959876   -0.0017551750883330907
-0.0010653127709703341   -0.04657405844328344   -0.001495884333350691
-0.002879155745702535   -0.05   -0.0015735908780926523
0.0009304123842338798   -0.04637067809971606   -0.0015432973388509734
-0.0009124170983598307   -0.04656777208132714   -0.0013728566319865959
-0.002879155745702535   -0.05   -0.0015735908780926523
-0.0022028888814792447   -0.05   -0.0016211349029915416
0.0009304123842338798   -0.04637067809971606   -0.0015432973388509734
-0.0018581330570247275   -0.05   -0.0013549553074816377
-0.0009124170983598307   -0.04656777208132714   -0.0013728566319865959
0.0012049295891414387   -0.046354846536943495   -0.0013442541718803947
-0.0018581330570247275   -0.05   -0.0013549553074816377
0.0009304123842338798   -0.04637067809971606   -0.0015432973388509734
-0.0009124170983598307   -0.04656777208132714   -0.0013728566319865959
-0.0018581330570247275   -0.05   -0.0013549553074816377
-0.0026718590343374786   -0.05   -0.0013791692860898467
-0.002879155745702535   -0.05   -0.0015735908780926523
-0.0009124170983598307   -0.04656777208132714   -0.0013728566319865959
-0.0018581330570247275   -0.05   -0.0013549553074816377
-0.002879155745702535   -0.05   -0.0015735908780926523
0.0009304123842338798   -0.04637067809971606   -0.0015432973388509734
-0.0009124170983598307   -0.04656777208132714   -0.0013728566319865959
-0.0026718590343374786   -0.05   -0.0013791692860898467
0.0012049295891414387   -0.046354846536943495   -0.0013442541718803947
-0.0007992674554714228   -0.046597746284595634   -0.0012610384737474232
-0.0026718590343374786   -0.05   -0.0013791692860898467
-0.0018581330570247275   -0.05   -0.0013549553074816377
0.0012049295891414387   -0.046354846536943495   -0.0013442541718803947
-0.0014323062221938353   -0.05   -0.0010786170416664195
-0.0007992674554714228   -0.046597746284595634   -0.0012610384737474232
0.0014905203849603836   -0.04636855535950903   -0.0011623483345420964
-0.0014323062221938353   -0.05   -0.0010786170416664195
0.0012049295891414387   -0.046354846536943495   -0.0013442541718803947
-0.0007992674554714228   -0.046597746284595634   -0.0012610384737474232
-0.0014323062221938353   -0.05   -0.0010786170416664195
-0.002469419944932279   -0.05   -0.0011873316343708154
-0.0026718590343374786   -0.05   -0.0013791692860898467
-0.0007992674554714228   -0.046597746284595634   -0.0012610384737474232
-0.0014323062221938353   -0.05   -0.0010786170416664195
-0.0026718590343374786   -0.05   -0.0013791692860898467
0.0012049295891414387   -0.046354846536943495   -0.0013442541718803947
-0.005955261651296278   -0.04885332298678594   -0.0012365184202141144
-0.0035763942395568996   -0.04899592163578842   -0.0010585903116676996
-0.005018712423565774   -0.04909786488439498   -0.0013831220947209926
-0.005684541863589393   -0.048799136423485205   -0.0013907027209712635
-0.0035763942395568996   -0.04899592163578842   -0.0010585903116676996
-0.0037855492293394064   -0.04918485960666834   -0.0012473887451972807
-0.005018712423565774   -0.04909786488439498   -0.0013831220947209926
-0.0036895649256842183   -0.04911916099546944   -0.0013165780318441323
-0.005684541863589393   -0.048799136423485205   -0.0013907027209712635
-0.004891923924714145   -0.04904979744637686   -0.0014339572262530328
-0.0036895649256842183   -0.04911916099546944   -0.0013165780318441323
-0.005018712423565774   -0.04909786488439498   -0.0013831220947209926
-0.005684541863589393   -0.048799136423485205   -0.0013907027209712635
-0.0036895649256842183   -0.04911916099546944   -0.0013165780318441323
-0.0033308135243318234   -0.048911523960587525   -0.0012206226113802637
-0.0035763942395568996   -0.04899592163578842   -0.0010585903116676996
-0.005684541863589393   -0.048799136423485205   -0.0013907027209712635
-0.0036895649256842183   -0.04911916099546944   -0.0013165780318441323
-0.0035763942395568996   -0.04899592163578842   -0.0010585903116676996
-0.005018712423565774   -0.04909786488439498   -0.0013831220947209926
-0.005684541863589393   -0.048799136423485205   -0.0013907027209712635
-0.0033308135243318234   -0.048911523960587525   -0.0012206226113802637
-0.004891923924714145   -0.04904979744637686   -0.0014339572262530328
-0.005450995046522729   -0.048804151132488906   -0.0015443229168655669
-0.0033308135243318234   -0.048911523960587525   -0.0012206226113802637
-0.0036895649256842183   -0.04911916099546944   -0.0013165780318441323
-0.004891923924714145   -0.04904979744637686   -0.0014339572262530328
-0.003576902867285167   -0.04909524861303652   -0.0013804658833149693
-0.005450995046522729   -0.048804151132488906   -0.0015443229168655669
-0.004751375046646944   -0.0490525098710068   -0.0014853134199660947
-0.003576902867285167   -0.04909524861303652   -0.0013804658833149693
-0.004891923924714145   -0.04904979744637686   -0.0014339572262530328
-0.005450995046522729   -0.048804151132488906   -0.0015443229168655669
-0.003576902867285167   -0.04909524861303652   -0.0013804658833149693
-0.0031264199512131443   -0.04888592911005701   -0.0013760791768563847
-0.0033308135243318234   -0.048911523960587525   -0.0012206226113802637
-0.005450995046522729   -0.048804151132488906   -0.0015443229168655669
-0.003576902867285167   -0.04909524861303652   -0.0013804658833149693
-0.0033308135243318234   -0.048911523960587525   -0.0012206226113802637
-0.004891923924714145   -0.04904979744637686   -0.0014339572262530328
-0.005450995046522729   -0.048804151132488906   -0.0015443229168655669
-0.0031264199512131443   -0.04888592911005701   -0.0013760791768563847
-0.004751375046646944   -0.0490525098710068   -0.0014853134199660947
-0.005173880263819856   -0.04887180280757023   -0.001701242595281355
-0.0031264199512131443   -0.04888592911005701   -0.0013760791768563847
-0.003576902867285167   -0.04909524861303652   -0.0013804658833149693
-0.004751375046646944   -0.0490525098710068   -0.0014853134199660947
-0.003480438408948689   -0.04911348356752703   -0.0014387237804819053
-0.005173880263819856   -0.04887180280757023   -0.001701242595281355
-0.004620876789516208   -0.049106253754822235   -0.0015374049096389586
-0.003480438408948689   -0.04911348356752703   -0.0014387237804819053
-0.004751375046646944   -0.0490525098710068   -0.0014853134199660947
-0.005173880263819856   -0.04887180280757023   -0.001701242595281355
-0.003480438408948689   -0.04911348356752703   -0.0014387237804819053
-0.002894990428739377   -0.04890866146728957   -0.0015242808622757736
-0.0031264199512131443   -0.04888592911005701   -0.0013760791768563847
-0.005173880263819856   -0.04887180280757023   -0.001701242595281355
-0.003480438408948689   -0.04911348356752703   -0.0014387237804819053
-0.0031264199512131443   -0.04888592911005701   -0.0013760791768563847
-0.004751375046646944   -0.0490525098710068   -0.0014853134199660947
-0.005018712423565774   -0.04909786488439498   -0.0013831220947209926
-0.0037855492293394064   -0.04918485960666834   -0.0012473887451972807
-0.0043315018089974955   -0.04934204928979022   -0.0015126042294877637
-0.004891923924714145   -0.04904979744637686   -0.0014339572262530328
-0.0037855492293394064   -0.04918485960666834   -0.0012473887451972807
-0.004071873632121844   -0.04930111162508035   -0.0013982587806136131
-0.0043315018089974955   -0.04934204928979022   -0.0015126042294877637
-0.003986973412909727   -0.04924242263075679   -0.0013999919475183472
-0.004891923924714145   -0.04904979744637686   -0.0014339572262530328
-0.004197854649530635   -0.049292664567155774   -0.0014773461429972634
-0.003986973412909727   -0.04924242263075679   -0.0013999919475183472
-0.0043315018089974955   -0.04934204928979022   -0.0015126042294877637
-0.004891923924714145   -0.04904979744637686   -0.0014339572262530328
-0.003986973412909727   -0.04924242263075679   -0.0013999919475183472
-0.0036895649256842183   -0.04911916099546944   -0.0013165780318441323
-0.0037855492293394064   -0.04918485960666834   -0.0012473887451972807
-0.004891923924714145   -0.04904979744637686   -0.0014339572262530328
-0.003986973412909727   -0.04924242263075679   -0.0013999919475183472
-0.0037855492293394064   -0.04918485960666834   -0.0012473887451972807
-0.0043315018089974955   -0.04934204928979022   -0.0015126042294877637
-0.004891923924714145   -0.04904979744637686   -0.0014339572262530328
-0.0036895649256842183   -0.04911916099546944   -0.0013165780318441323
-0.004197854649530635   -0.049292664567155774   -0.0014773461429972634
-0.004751375046646944   -0.0490525098710068   -0.0014853134199660947
-0.0036895649256842183   -0.04911916099546944   -0.0013165780318441323
-0.003986973412909727   -0.04924242263075679   -0.0013999919475183472
-0.004197854649530635   -0.049292664567155774   -0.0014773461429972634
-0.003892494408383505   -0.049221575994380505   -0.0013948526575359365
-0.004751375046646944   -0.0490525098710068   -0.0014853134199660947
-0.0040685800931334675   -0.04929202990438838   -0.001441658319689511
-0.003892494408383505   -0.049221575994380505   -0.0013948526575359365
-0.004197854649530635   -0.049292664567155774   -0.0014773461429972634
-0.004751375046646944   -0.0490525098710068   -0.0014853134199660947
-0.003892494408383505   -0.049221575994380505   -0.0013948526575359365
-0.003576902867285167   -0.04909524861303652   -0.0013804658833149693
-0.0036895649256842183   -0.04911916099546944   -0.0013165780318441323
-0.004751375046646944   -0.0490525098710068   -0.0014853134199660947
-0.003892494408383505   -0.049221575994380505   -0.0013948526575359365
-0.0036895649256842183   -0.04911916099546944   -0.0013165780318441323
-0.004197854649530635   -0.049292664567155774   -0.0014773461429972634
-0.004751375046646944   -0.0490525098710068   -0.0014853134199660947
-0.003576902867285167   -0.04909524861303652   -0.0013804658833149693
-0.0040685800931334675   -0.04929202990438838   -0.001441658319689511
-0.004620876789516208   -0.049106253754822235   -0.0015374049096389586
-0.003576902867285167   -0.04909524861303652   -0.0013804658833149693
-0.003892494408383505   -0.049221575994380505   -0.0013948526575359365
-0.0040685800931334675   -0.04929202990438838   -0.001441658319689511
-0.0037964581761937444   -0.04923687129196241   -0.0013843193500646244
-0.004620876789516208   -0.049106253754822235   -0.0015374049096389586
-0.003933850996199216   -0.04933914326163085   -0.0014074012393313874
-0.0037964581761937444   -0.04923687129196241   -0.0013843193500646244
-0.0040685800931334675   -0.04929202990438838   -0.001441658319689511
-0.004620876789516208   -0.049106253754822235   -0.0015374049096389586
-0.0037964581761937444   -0.04923687129196241   -0.0013843193500646244
-0.003480438408948689   -0.04911348356752703   -0.0014387237804819053
-0.003576902867285167   -0.04909524861303652   -0.0013804658833149693
-0.004620876789516208   -0.049106253754822235   -0.0015374049096389586
-0.0037964581761937444   -0.04923687129196241   -0.0013843193500646244
-0.003576902867285167   -0.04909524861303652   -0.0013804658833149693
-0.0040685800931334675   -0.04929202990438838   -0.001441658319689511
-0.0043315018089974955   -0.04934204928979022   -0.0015126042294877637
-0.004071873632121844   -0.04930111162508035   -0.0013982587806136131
-0.0037034403601156687   -0.049635408849601825   -0.0016553714111060731
-0.004197854649530635   -0.049292664567155774   -0.0014773461429972634
-0.004071873632121844   -0.04930111162508035   -0.0013982587806136131
-0.004379233227917169   -0.04934911195143892   -0.0015468392308800236
-0.0037034403601156687   -0.049635408849601825   -0.0016553714111060731
-0.00429128265461124   -0.04929308027364106   -0.0014837014610684387
-0.004197854649530635   -0.049292664567155774   -0.0014773461429972634
-0.003539683455373944   -0.0495924141467985   -0.0015292174154282415
-0.00429128265461124   -0.04929308027364106   -0.0014837014610684387
-0.0037034403601156687   -0.049635408849601825   -0.0016553714111060731
-0.004197854649530635   -0.049292664567155774   -0.0014773461429972634
-0.00429128265461124   -0.04929308027364106   -0.0014837014610684387
-0.003986973412909727   -0.04924242263075679   -0.0013999919475183472
-0.004071873632121844   -0.04930111162508035   -0.0013982587806136131
-0.004197854649530635   -0.049292664567155774   -0.0014773461429972634
-0.00429128265461124   -0.04929308027364106   -0.0014837014610684387
-0.004071873632121844   -0.04930111162508035   -0.0013982587806136131
-0.0037034403601156687   -0.049635408849601825   -0.0016553714111060731
-0.004197854649530635   -0.049292664567155774   -0.0014773461429972634
-0.003986973412909727   -0.04924242263075679   -0.0013999919475183472
-0.003539683455373944   -0.0495924141467985   -0.0015292174154282415
-0.0040685800931334675   -0.04929202990438838   -0.001441658319689511
-0.003986973412909727   -0.04924242263075679   -0.0013999919475183472
-0.00429128265461124   -0.04929308027364106   -0.0014837014610684387
-0.003539683455373944   -0.0495924141467985   -0.0015292174154282415
-0.00418584727867791   -0.04927550217749931   -0.001412191714717171
-0.0040685800931334675   -0.04929202990438838   -0.001441658319689511
-0.003387858927233579   -0.04959025931458749   -0.001403436392575665
-0.00418584727867791   -0.04927550217749931   -0.001412191714717171
-0.003539683455373944   -0.0495924141467985   -0.0015292174154282415
-0.0040685800931334675   -0.04929202990438838   -0.001441658319689511
-0.00418584727867791   -0.04927550217749931   -0.001412191714717171
-0.003892494408383505   -0.049221575994380505   -0.0013948526575359365
-0.003986973412909727   -0.04924242263075679   -0.0013999919475183472
-0.0040685800931334675   -0.04929202990438838   -0.001441658319689511
-0.00418584727867791   -0.04927550217749931   -0.001412191714717171
-0.003986973412909727   -0.04924242263075679   -0.0013999919475183472
-0.003539683455373944   -0.0495924141467985   -0.0015292174154282415
-0.0040685800931334675   -0.04929202990438838   -0.001441658319689511
-0.003892494408383505   -0.049221575994380505   -0.0013948526575359365
-0.003387858927233579   -0.04959025931458749   -0.001403436392575665
-0.003933850996199216   -0.04933914326163085   -0.0014074012393313874
-0.003892494408383505   -0.049221575994380505   -0.0013948526575359365
-0.00418584727867791   -0.04927550217749931   -0.001412191714717171
-0.003387858927233579   -0.04959025931458749   -0.001403436392575665
-0.004077455651842936   -0.0492904060947871   -0.001336060444607676
-0.003933850996199216   -0.04933914326163085   -0.0014074012393313874
-0.003224973540488508   -0.04962677709003976   -0.0012774656658748919
-0.004077455651842936   -0.0492904060947871   -0.001336060444607676
-0.003387858927233579   -0.04959025931458749   -0.001403436392575665
-0.003933850996199216   -0.04933914326163085   -0.0014074012393313874
-0.004077455651842936   -0.0492904060947871   -0.001336060444607676
-0.0037964581761937444   -0.04923687129196241   -0.0013843193500646244
-0.003892494408383505   -0.049221575994380505   -0.0013948526575359365
-0.003933850996199216   -0.04933914326163085   -0.0014074012393313874
-0.004077455651842936   -0.0492904060947871   -0.001336060444607676
-0.003892494408383505   -0.049221575994380505   -0.0013948526575359365
-0.003387858927233579   -0.04959025931458749   -0.001403436392575665
-0.0037034403601156687   -0.049635408849601825   -0.0016553714111060731
-0.004379233227917169   -0.04934911195143892   -0.0015468392308800236
-0.0030853144170616634   -0.05   -0.0017657391237672117
-0.003539683455373944   -0.0495924141467985   -0.0015292174154282415
-0.004379233227917169   -0.04934911195143892   -0.0015468392308800236
-0.004824645498713623   -0.04929496793779364   -0.0016882387006667097
-0.0030853144170616634   -0.05   -0.0017657391237672117
-0.00470979042931423   -0.0492419394688033   -0.0015632847336470995
-0.003539683455373944   -0.0495924141467985   -0.0015292174154282415
-0.002879155745702535   -0.05   -0.0015735908780926523
-0.00470979042931423   -0.0492419394688033   -0.0015632847336470995
-0.0030853144170616634   -0.05   -0.0017657391237672117
-0.003539683455373944   -0.0495924141467985   -0.0015292174154282415
-0.00470979042931423   -0.0492419394688033   -0.0015632847336470995
-0.00429128265461124   -0.04929308027364106   -0.0014837014610684387
-0.004379233227917169   -0.04934911195143892   -0.0015468392308800236
-0.003539683455373944   -0.0495924141467985   -0.0015292174154282415
-0.00470979042931423   -0.0492419394688033   -0.0015632847336470995
-0.004379233227917169   -0.04934911195143892   -0.0015468392308800236
-0.0030853144170616634   -0.05   -0.0017657391237672117
-0.003539683455373944   -0.0495924141467985   -0.0015292174154282415
-0.00429128265461124   -0.04929308027364106   -0.0014837014610684387
-0.002879155745702535   -0.05   -0.0015735908780926523
-0.003387858927233579   -0.04959025931458749   -0.001403436392575665
-0.00429128265461124   -0.04929308027364106   -0.0014837014610684387
-0.00470979042931423   -0.0492419394688033   -0.0015632847336470995
-0.002879155745702535   -0.05   -0.0015735908780926523
-0.0045581028137179165   -0.04923005655041362   -0.0014289865297708545
-0.003387858927233579   -0.04959025931458749   -0.001403436392575665
-0.0026718590343374786   -0.05   -0.0013791692860898467
-0.0045581028137179165   -0.04923005655041362   -0.0014289865297708545
-0.002879155745702535   -0.05   -0.0015735908780926523
-0.003387858927233579   -0.04959025931458749   -0.001403436392575665
-0.0045581028137179165   -0.04923005655041362   -0.0014289865297708545
-0.00418584727867791   -0.04927550217749931   -0.001412191714717171
-0.00429128265461124   -0.04929308027364106   -0.0014837014610684387
-0.003387858927233579   -0.04959025931458749   -0.001403436392575665
-0.0045581028137179165   -0.04923005655041362   -0.0014289865297708545
-0.00429128265461124   -0.04929308027364106   -0.0014837014610684387
-0.002879155745702535   -0.05   -0.0015735908780926523
-0.003387858927233579   -0.04959025931458749   -0.001403436392575665
-0.00418584727867791   -0.04927550217749931   -0.001412191714717171
-0.0026718590343374786   -0.05   -0.0013791692860898467
-0.003224973540488508   -0.04962677709003976   -0.0012774656658748919
-0.00418584727867791   -0.04927550217749931   -0.001412191714717171
-0.0045581028137179165   -0.04923005655041362   -0.0014289865297708545
-0.0026718590343374786   -0.05   -0.0013791692860898467
-0.00441562785219265   -0.049251429348801945   -0.0012895506791762363
-0.003224973540488508   -0.04962677709003976   -0.0012774656658748919
-0.002469419944932279   -0.05   -0.0011873316343708154
-0.00441562785219265   -0.049251429348801945   -0.0012895506791762363
-0.0026718590343374786   -0.05   -0.0013791692860898467
-0.003224973540488508   -0.04962677709003976   -0.0012774656658748919
-0.00441562785219265   -0.049251429348801945   -0.0012895506791762363
-0.004077455651842936   -0.0492904060947871   -0.001336060444607676
-0.00418584727867791   -0.04927550217749931   -0.001412191714717171
-0.003224973540488508   -0.04962677709003976   -0.0012774656658748919
-0.00441562785219265   -0.049251429348801945   -0.0012895506791762363
-0.00418584727867791   -0.04927550217749931   -0.001412191714717171
-0.0026718590343374786   -0.05   -0.0013791692860898467
-0.0030853144170616634   -0.05   -0.0017657391237672117
-0.004824645498713623   -0.04929496793779364   -0.0016882387006667097
-0.002635208736077273   -0.05   -0.0018994003871520082
-0.002879155745702535   -0.05   -0.0015735908780926523
-0.004824645498713623   -0.04929496793779364   -0.0016882387006667097
-0.005693624888111506   -0.049054016443740016   -0.0018386158187979993
-0.002635208736077273   -0.05   -0.0018994003871520082
-0.0053868295205870415   -0.04900910033884662   -0.001633642511111235
-0.002879155745702535   -0.05   -0.0015735908780926523
-0.0022028888814792447   -0.05   -0.0016211349029915416
-0.0053868295205870415   -0.04900910033884662   -0.001633642511111235
-0.002635208736077273   -0.05   -0.0018994003871520082
-0.002879155745702535   -0.05   -0.0015735908780926523
-0.0053868295205870415   -0.04900910033884662   -0.001633642511111235
-0.00470979042931423   -0.0492419394688033   -0.0015632847336470995
-0.004824645498713623   -0.04929496793779364   -0.0016882387006667097
-0.002879155745702535   -0.05   -0.0015735908780926523
-0.0053868295205870415   -0.04900910033884662   -0.001633642511111235
-0.004824645498713623   -0.04929496793779364   -0.0016882387006667097
-0.002635208736077273   -0.05   -0.0018994003871520082
-0.002879155745702535   -0.05   -0.0015735908780926523
-0.00470979042931423   -0.0492419394688033   -0.0015632847336470995
-0.0022028888814792447   -0.05   -0.0016211349029915416
-0.0026718590343374786   -0.05   -0.0013791692860898467
-0.00470979042931423   -0.0492419394688033   -0.0015632847336470995
-0.0053868295205870415   -0.04900910033884662   -0.001633642511111235
-0.0022028888814792447   -0.05   -0.0016211349029915416
-0.005105243567791022   -0.049003083697651294   -0.0014149931032314538
-0.0026718590343374786   -0.05   -0.0013791692860898467
-0.0018581330570247275   -0.05   -0.0013549553074816377
-0.005105243567791022   -0.049003083697651294   -0.0014149931032314538
-0.0022028888814792447   -0.05   -0.0016211349029915416
-0.0026718590343374786   -0.05   -0.0013791692860898467
-0.005105243567791022   -0.049003083697651294   -0.0014149931032314538
-0.0045581028137179165   -0.04923005655041362   -0.0014289865297708545
-0.00470979042931423   -0.0492419394688033   -0.0015632847336470995
-0.0026718590343374786   -0.05   -0.0013791692860898467
-0.005105243567791022   -0.049003083697651294   -0.0014149931032314538
-0.00470979042931423   -0.0492419394688033   -0.0015632847336470995
-0.0022028888814792447   -0.05   -0.0016211349029915416
-0.0026718590343374786   -0.05   -0.0013791692860898467
-0.0045581028137179165   -0.04923005655041362   -0.0014289865297708545
-0.0018581330570247275   -0.05   -0.0013549553074816377
-0.002469419944932279   -0.05   -0.0011873316343708154
-0.0045581028137179165   -0.04923005655041362   -0.0014289865297708545
-0.005105243567791022   -0.049003083697651294   -0.0014149931032314538
-0.0018581330570247275   -0.05   -0.0013549553074816377
-0.004749575433682776   -0.04906197136966406   -0.0011864362739143995
-0.002469419944932279   -0.05   -0.0011873316343708154
-0.0014323062221938353   -0.05   -0.0010786170416664195
-0.004749575433682776   -0.04906197136966406   -0.0011864362739143995
-0.0018581330570247275   -0.05   -0.0013549553074816377
-0.002469419944932279   -0.05   -0.0011873316343708154
-0.004749575433682776   -0.04906197136966406   -0.0011864362739143995
-0.00441562785219265   -0.049251429348801945   -0.0012895506791762363
-0.0045581028137179165   -0.04923005655041362   -0.0014289865297708545
-0.002469419944932279   -0.05   -0.0011873316343708154
-0.004749575433682776   -0.04906197136966406   -0.0011864362739143995
-0.0045581028137179165   -0.04923005655041362   -0.0014289865297708545
-0.0018581330570247275   -0.05   -0.0013549553074816377
-0.0035763942395568996   -0.04899592163578842   -0.0010585903116676996
-0.0014804269021651147   -0.04716246216455252   -0.0009140728521863528
-0.0037855492293394064   -0.04918485960666834   -0.0012473887451972807
-0.0033308135243318234   -0.048911523960587525   -0.0012206226113802637
-0.0014804269021651147   -0.04716246216455252   -0.0009140728521863528
-0.0027262512718914606   -0.04730536947124827   -0.0011147092440764075
-0.0037855492293394064   -0.04918485960666834   -0.0012473887451972807
-0.0026580099920975333   -0.04722584613604028   -0.0011764863680715834
-0.0033308135243318234   -0.048911523960587525   -0.0012206226113802637
-0.0036895649256842183   -0.04911916099546944   -0.0013165780318441323
-0.0026580099920975333   -0.04722584613604028   -0.0011764863680715834
-0.0037855492293394064   -0.04918485960666834   -0.0012473887451972807
-0.0033308135243318234   -0.048911523960587525   -0.0012206226113802637
-0.0026580099920975333   -0.04722584613604028   -0.0011764863680715834
-0.001284284836411481   -0.04706398690798957   -0.001054356688074252
-0.0014804269021651147   -0.04716246216455252   -0.0009140728521863528
-0.0033308135243318234   -0.048911523960587525   -0.0012206226113802637
-0.0026580099920975333   -0.04722584613604028   -0.0011764863680715834
-0.0014804269021651147   -0.04716246216455252   -0.0009140728521863528
-0.0037855492293394064   -0.04918485960666834   -0.0012473887451972807
-0.0033308135243318234   -0.048911523960587525   -0.0012206226113802637
-0.001284284836411481   -0.04706398690798957   -0.001054356688074252
-0.0036895649256842183   -0.04911916099546944   -0.0013165780318441323
-0.0031264199512131443   -0.04888592911005701   -0.0013760791768563847
-0.001284284836411481   -0.04706398690798957   -0.001054356688074252
-0.0026580099920975333   -0.04722584613604028   -0.0011764863680715834
-0.0036895649256842183   -0.04911916099546944   -0.0013165780318441323
-0.002581092372178826   -0.0471821264408139   -0.0012327431079471643
-0.0031264199512131443   -0.04888592911005701   -0.0013760791768563847
-0.003576902867285167   -0.04909524861303652   -0.0013804658833149693
-0.002581092372178826   -0.0471821264408139   -0.0012327431079471643
-0.0036895649256842183   -0.04911916099546944   -0.0013165780318441323
-0.0031264199512131443   -0.04888592911005701   -0.0013760791768563847
-0.002581092372178826   -0.0471821264408139   -0.0012327431079471643
-0.001129935199166956   -0.047017476457117326   -0.0011864607978001867
-0.001284284836411481   -0.04706398690798957   -0.001054356688074252
-0.0031264199512131443   -0.04888592911005701   -0.0013760791768563847
-0.002581092372178826   -0.0471821264408139   -0.0012327431079471643
-0.001284284836411481   -0.04706398690798957   -0.001054356688074252
-0.0036895649256842183   -0.04911916099546944   -0.0013165780318441323
-0.0031264199512131443   -0.04888592911005701   -0.0013760791768563847
-0.001129935199166956   -0.047017476457117326   -0.0011864607978001867
-0.003576902867285167   -0.04909524861303652   -0.0013804658833149693
-0.002894990428739377   -0.04890866146728957   -0.0015242808622757736
-0.001129935199166956   -0.047017476457117326   -0.0011864607978001867
-0.002581092372178826   -0.0471821264408139   -0.0012327431079471643
-0.003576902867285167   -0.04909524861303652   -0.0013804658833149693
-0.002522146210589785   -0.04717298469521004   -0.0012836589097394815
-0.002894990428739377   -0.04890866146728957   -0.0015242808622757736
-0.003480438408948689   -0.04911348356752703   -0.0014387237804819053
-0.002522146210589785   -0.04717298469521004   -0.0012836589097394815
-0.003576902867285167   -0.04909524861303652   -0.0013804658833149693
-0.002894990428739377   -0.04890866146728957   -0.0015242808622757736
-0.002522146210589785   -0.04717298469521004   -0.0012836589097394815
-0.0009611632999936379   -0.047009492841391075   -0.0013100433135173086
-0.001129935199166956   -0.047017476457117326   -0.0011864607978001867
-0.002894990428739377   -0.04890866146728957   -0.0015242808622757736
-0.002522146210589785   -0.04717298469521004   -0.0012836589097394815
-0.001129935199166956   -0.047017476457117326   -0.0011864607978001867
-0.003576902867285167   -0.04909524861303652   -0.0013804658833149693
-0.0037855492293394064   -0.04918485960666834   -0.0012473887451972807
-0.0027262512718914606   -0.04730536947124827   -0.0011147092440764075
-0.004071873632121844   -0.04930111162508035   -0.0013982587806136131
-0.0036895649256842183   -0.04911916099546944   -0.0013165780318441323
-0.0027262512718914606   -0.04730536947124827   -0.0011147092440764075
-0.00395756745681013   -0.04735565027441689   -0.0012782135292937439
-0.004071873632121844   -0.04930111162508035   -0.0013982587806136131
-0.0039002482449394665   -0.04728628538490379   -0.0012815333866464465
-0.0036895649256842183   -0.04911916099546944   -0.0013165780318441323
-0.003986973412909727   -0.04924242263075679   -0.0013999919475183472
-0.0039002482449394665   -0.04728628538490379   -0.0012815333866464465
-0.004071873632121844   -0.04930111162508035   -0.0013982587806136131
-0.0036895649256842183   -0.04911916099546944   -0.0013165780318441323
-0.0039002482449394665   -0.04728628538490379   -0.0012815333866464465
-0.0026580099920975333   -0.04722584613604028   -0.0011764863680715834
-0.0027262512718914606   -0.04730536947124827   -0.0011147092440764075
-0.0036895649256842183   -0.04911916099546944   -0.0013165780318441323
-0.0039002482449394665   -0.04728628538490379   -0.0012815333866464465
-0.0027262512718914606   -0.04730536947124827   -0.0011147092440764075
-0.004071873632121844   -0.04930111162508035   -0.0013982587806136131
-0.0036895649256842183   -0.04911916099546944   -0.0013165780318441323
-0.0026580099920975333   -0.04722584613604028   -0.0011764863680715834
-0.003986973412909727   -0.04924242263075679   -0.0013999919475183472
-0.003576902867285167   -0.04909524861303652   -0.0013804658833149693
-0.0026580099920975333   -0.04722584613604028   -0.0011764863680715834
-0.0039002482449394665   -0.04728628538490379   -0.0012815333866464465
-0.003986973412909727   -0.04924242263075679   -0.0013999919475183472
-0.0038409541396061055   -0.047249191448595705   -0.0012797393938492865
-0.003576902867285167   -0.04909524861303652   -0.0013804658833149693
-0.003892494408383505   -0.049221575994380505   -0.0013948526575359365
-0.0038409541396061055   -0.047249191448595705   -0.0012797393938492865
-0.003986973412909727   -0.04924242263075679   -0.0013999919475183472
-0.003576902867285167   -0.04909524861303652   -0.0013804658833149693
-0.0038409541396061055   -0.047249191448595705   -0.0012797393938492865
-0.002581092372178826   -0.0471821264408139   -0.0012327431079471643
-0.0026580099920975333   -0.04722584613604028   -0.0011764863680715834
-0.003576902867285167   -0.04909524861303652   -0.0013804658833149693
-0.0038409541396061055   -0.047249191448595705   -0.0012797393938492865
-0.0026580099920975333   -0.04722584613604028   -0.0011764863680715834
-0.003986973412909727   -0.04924242263075679   -0.0013999919475183472
-0.003576902867285167   -0.04909524861303652   -0.0013804658833149693
-0.002581092372178826   -0.0471821264408139   -0.0012327431079471643
-0.003892494408383505   -0.049221575994380505   -0.0013948526575359365
-0.003480438408948689   -0.04911348356752703   -0.0014387237804819053
-0.002581092372178826   -0.0471821264408139   -0.0012327431079471643
-0.0038409541396061055   -0.047249191448595705   -0.0012797393938492865
-0.003892494408383505   -0.049221575994380505   -0.0013948526575359365
-0.0037837835778480756   -0.04724283646716022   -0.0012727896987583022
-0.003480438408948689   -0.04911348356752703   -0.0014387237804819053
-0.0037964581761937444   -0.04923687129196241   -0.0013843193500646244
-0.0037837835778480756   -0.04724283646716022   -0.0012727896987583022
-0.003892494408383505   -0.049221575994380505   -0.0013948526575359365
-0.003480438408948689   -0.04911348356752703   -0.0014387237804819053
-0.0037837835778480756   -0.04724283646716022   -0.0012727896987583022
-0.002522146210589785   -0.04717298469521004   -0.0012836589097394815
-0.002581092372178826   -0.0471821264408139   -0.0012327431079471643
-0.003480438408948689   -0.04911348356752703   -0.0014387237804819053
-0.0037837835778480756   -0.04724283646716022   -0.0012727896987583022
-0.002581092372178826   -0.0471821264408139   -0.0012327431079471643
-0.003892494408383505   -0.049221575994380505   -0.0013948526575359365
-0.004071873632121844   -0.04930111162508035   -0.0013982587806136131
-0.00395756745681013   -0.04735565027441689   -0.0012782135292937439
-0.004379233227917169   -0.04934911195143892   -0.0015468392308800236
-0.003986973412909727   -0.04924242263075679   -0.0013999919475183472
-0.00395756745681013   -0.04735565027441689   -0.0012782135292937439
-0.005180594149884134   -0.04731065211528699   -0.0014312743153418982
-0.004379233227917169   -0.04934911195143892   -0.0015468392308800236
-0.0051237283593888894   -0.047249014528867914   -0.0013785282852480643
-0.003986973412909727   -0.04924242263075679   -0.0013999919475183472
-0.00429128265461124   -0.04929308027364106   -0.0014837014610684387
-0.0051237283593888894   -0.047249014528867914   -0.0013785282852480643
-0.004379233227917169   -0.04934911195143892   -0.0015468392308800236
-0.003986973412909727   -0.04924242263075679   -0.0013999919475183472
-0.0051237283593888894   -0.047249014528867914   -0.0013785282852480643
-0.0039002482449394665   -0.04728628538490379   -0.0012815333866464465
-0.00395756745681013   -0.04735565027441689   -0.0012782135292937439
-0.003986973412909727   -0.04924242263075679   -0.0013999919475183472
-0.0051237283593888894   -0.047249014528867914   -0.0013785282852480643
-0.00395756745681013   -0.04735565027441689   -0.0012782135292937439
-0.004379233227917169   -0.04934911195143892   -0.0015468392308800236
-0.003986973412909727   -0.04924242263075679   -0.0013999919475183472
-0.0039002482449394665   -0.04728628538490379   -0.0012815333866464465
-0.00429128265461124   -0.04929308027364106   -0.0014837014610684387
-0.003892494408383505   -0.049221575994380505   -0.0013948526575359365
-0.0039002482449394665   -0.04728628538490379   -0.0012815333866464465
-0.0051237283593888894   -0.047249014528867914   -0.0013785282852480643
-0.00429128265461124   -0.04929308027364106   -0.0014837014610684387
-0.005059914141701951   -0.04721911343773165   -0.001320746892616023
-0.003892494408383505   -0.049221575994380505   -0.0013948526575359365
-0.00418584727867791   -0.04927550217749931   -0.001412191714717171
-0.005059914141701951   -0.04721911343773165   -0.001320746892616023
-0.00429128265461124   -0.04929308027364106   -0.0014837014610684387
-0.003892494408383505   -0.049221575994380505   -0.0013948526575359365
-0.005059914141701951   -0.04721911343773165   -0.001320746892616023
-0.0038409541396061055   -0.047249191448595705   -0.0012797393938492865
-0.0039002482449394665   -0.04728628538490379   -0.0012815333866464465
-0.003892494408383505   -0.049221575994380505   -0.0013948526575359365
-0.005059914141701951   -0.04721911343773165   -0.001320746892616023
-0.0039002482449394665   -0.04728628538490379   -0.0012815333866464465
-0.00429128265461124   -0.04929308027364106   -0.0014837014610684387
-0.003892494408383505   -0.049221575994380505   -0.0013948526575359365
-0.0038409541396061055   -0.047249191448595705   -0.0012797393938492865
-0.00418584727867791   -0.04927550217749931   -0.001412191714717171
-0.0037964581761937444   -0.04923687129196241   -0.0013843193500646244
-0.0038409541396061055   -0.047249191448595705   -0.0012797393938492865
-0.005059914141701951   -0.04721911343773165   -0.001320746892616023
-0.00418584727867791   -0.04927550217749931   -0.001412191714717171
-0.004995865520740053   -0.04721792754792639   -0.0012573171530721637
-0.0037964581761937444   -0.04923687129196241   -0.0013843193500646244
-0.004077455651842936   -0.0492904060947871   -0.001336060444607676
-0.004995865520740053   -0.04721792754792639   -0.0012573171530721637
-0.00418584727867791   -0.04927550217749931   -0.001412191714717171
-0.0037964581761937444   -0.04923687129196241   -0.0013843193500646244
-0.004995865520740053   -0.04721792754792639   -0.0012573171530721637
-0.0037837835778480756   -0.04724283646716022   -0.0012727896987583022
-0.0038409541396061055   -0.047249191448595705   -0.0012797393938492865
-0.0037964581761937444   -0.04923687129196241   -0.0013843193500646244
-0.004995865520740053   -0.04721792754792639   -0.0012573171530721637
-0.0038409541396061055   -0.047249191448595705   -0.0012797393938492865
-0.00418584727867791   -0.04927550217749931   -0.001412191714717171
-0.004379233227917169   -0.04934911195143892   -0.0015468392308800236
-0.005180594149884134   -0.04731065211528699   -0.0014312743153418982
-0.004824645498713623   -0.04929496793779364   -0.0016882387006667097
-0.00429128265461124   -0.04929308027364106   -0.0014837014610684387
-0.005180594149884134   -0.04731065211528699   -0.0014312743153418982
-0.006523667855548316   -0.0471644690227501   -0.0015719826985537912
-0.004824645498713623   -0.04929496793779364   -0.0016882387006667097
-0.006453973292880126   -0.0471105515917494   -0.0014643877791472193
-0.00429128265461124   -0.04929308027364106   -0.0014837014610684387
-0.00470979042931423   -0.0492419394688033   -0.0015632847336470995
-0.006453973292880126   -0.0471105515917494   -0.0014643877791472193
-0.004824645498713623   -0.04929496793779364   -0.0016882387006667097
-0.00429128265461124   -0.04929308027364106   -0.0014837014610684387
-0.006453973292880126   -0.0471105515917494   -0.0014643877791472193
-0.0051237283593888894   -0.047249014528867914   -0.0013785282852480643
-0.005180594149884134   -0.04731065211528699   -0.0014312743153418982
-0.00429128265461124   -0.04929308027364106   -0.0014837014610684387
-0.006453973292880126   -0.0471105515917494   -0.0014643877791472193
-0.005180594149884134   -0.04731065211528699   -0.0014312743153418982
-0.004824645498713623   -0.04929496793779364   -0.0016882387006667097
-0.00429128265461124   -0.04929308027364106   -0.0014837014610684387
-0.0051237283593888894   -0.047249014528867914   -0.0013785282852480643
-0.00470979042931423   -0.0492419394688033   -0.0015632847336470995
-0.00418584727867791   -0.04927550217749931   -0.001412191714717171
-0.0051237283593888894   -0.047249014528867914   -0.0013785282852480643
-0.006453973292880126   -0.0471105515917494   -0.0014643877791472193
-0.00470979042931423   -0.0492419394688033   -0.0015632847336470995
-0.00635766867431822   -0.047087814891474095   -0.001352135465560497
-0.00418584727867791   -0.04927550217749931   -0.001412191714717171
-0.0045581028137179165   -0.04923005655041362   -0.0014289865297708545
-0.00635766867431822   -0.047087814891474095   -0.001352135465560497
-0.00470979042931423   -0.0492419394688033   -0.0015632847336470995
-0.00418584727867791   -0.04927550217749931   -0.001412191714717171
-0.00635766867431822   -0.047087814891474095   -0.001352135465560497
-0.005059914141701951   -0.04721911343773165   -0.001320746892616023
-0.0051237283593888894   -0.047249014528867914   -0.0013785282852480643
-0.00418584727867791   -0.04927550217749931   -0.001412191714717171
-0.00635766867431822   -0.047087814891474095   -0.001352135465560497
-0.0051237283593888894   -0.047249014528867914   -0.0013785282852480643
-0.00470979042931423   -0.0492419394688033   -0.0015632847336470995
-0.00418584727867791   -0.04927550217749931   -0.001412191714717171
-0.005059914141701951   -0.04721911343773165   -0.001320746892616023
-0.0045581028137179165   -0.04923005655041362   -0.0014289865297708545
-0.004077455651842936   -0.0492904060947871   -0.001336060444607676
-0.005059914141701951   -0.04721911343773165   -0.001320746892616023
-0.00635766867431822   -0.047087814891474095   -0.001352135465560497
-0.0045581028137179165   -0.04923005655041362   -0.0014289865297708545
-0.006273750159246037   -0.04709628801067159   -0.0012321201832436964
-0.004077455651842936   -0.0492904060947871   -0.001336060444607676
-0.00441562785219265   -0.049251429348801945   -0.0012895506791762363
-0.006273750159246037   -0.04709628801067159   -0.0012321201832436964
-0.0045581028137179165   -0.04923005655041362   -0.0014289865297708545
-0.004077455651842936   -0.0492904060947871   -0.001336060444607676
-0.006273750159246037   -0.04709628801067159   -0.0012321201832436964
-0.004995865520740053   -0.04721792754792639   -0.0012573171530721637
-0.005059914141701951   -0.04721911343773165   -0.001320746892616023
-0.004077455651842936   -0.0492904060947871   -0.001336060444607676
-0.006273750159246037   -0.04709628801067159   -0.0012321201832436964
-0.005059914141701951   -0.04721911343773165   -0.001320746892616023
-0.0045581028137179165   -0.04923005655041362   -0.0014289865297708545
-0.004824645498713623   -0.04929496793779364   -0.0016882387006667097
-0.006523667855548316   -0.0471644690227501   -0.0015719826985537912
-0.005693624888111506   -0.049054016443740016   -0.0018386158187979993
-0.00470979042931423   -0.0492419394688033   -0.0015632847336470995
-0.006523667855548316   -0.0471644690227501   -0.0015719826985537912
-0.008253097548016545   -0.04692672678363882   -0.001707383265619021
-0.005693624888111506   -0.049054016443740016   -0.0018386158187979993
-0.008027435032387707   -0.046868125322822606   -0.0015374722231333547
-0.00470979042931423   -0.0492419394688033   -0.0015632847336470995
-0.0053868295205870415   -0.04900910033884662   -0.001633642511111235
-0.008027435032387707   -0.046868125322822606   -0.0015374722231333547
-0.005693624888111506   -0.049054016443740016   -0.0018386158187979993
-0.00470979042931423   -0.0492419394688033   -0.0015632847336470995
-0.008027435032387707   -0.046868125322822606   -0.0015374722231333547
-0.006453973292880126   -0.0471105515917494   -0.0014643877791472193
-0.006523667855548316   -0.0471644690227501   -0.0015719826985537912
-0.00470979042931423   -0.0492419394688033   -0.0015632847336470995
-0.008027435032387707   -0.046868125322822606   -0.0015374722231333547
-0.006523667855548316   -0.0471644690227501   -0.0015719826985537912
-0.005693624888111506   -0.049054016443740016   -0.0018386158187979993
-0.00470979042931423   -0.0492419394688033   -0.0015632847336470995
-0.006453973292880126   -0.0471105515917494   -0.0014643877791472193
-0.0053868295205870415   -0.04900910033884662   -0.001633642511111235
-0.0045581028137179165   -0.04923005655041362   -0.0014289865297708545
-0.006453973292880126   -0.0471105515917494   -0.0014643877791472193
-0.008027435032387707   -0.046868125322822606   -0.0015374722231333547
-0.0053868295205870415   -0.04900910033884662   -0.001633642511111235
-0.007825407433604891   -0.04684709463642768   -0.0013577757589107859
-0.0045581028137179165   -0.04923005655041362   -0.0014289865297708545
-0.005105243567791022   -0.049003083697651294   -0.0014149931032314538
-0.007825407433604891   -0.04684709463642768   -0.0013577757589107859
-0.0053868295205870415   -0.04900910033884662   -0.001633642511111235
-0.0045581028137179165   -0.04923005655041362   -0.0014289865297708545
-0.007825407433604891   -0.04684709463642768   -0.0013577757589107859
-0.00635766867431822   -0.047087814891474095   -0.001352135465560497
-0.006453973292880126   -0.0471105515917494   -0.0014643877791472193
-0.0045581028137179165   -0.04923005655041362   -0.0014289865297708545
-0.007825407433604891   -0.04684709463642768   -0.0013577757589107859
-0.006453973292880126   -0.0471105515917494   -0.0014643877791472193
-0.0053868295205870415   -0.04900910033884662   -0.001633642511111235
-0.0045581028137179165   -0.04923005655041362   -0.0014289865297708545
-0.00635766867431822   -0.047087814891474095   -0.001352135465560497
-0.005105243567791022   -0.049003083697651294   -0.0014149931032314538
-0.00441562785219265   -0.049251429348801945   -0.0012895506791762363
-0.00635766867431822   -0.047087814891474095   -0.001352135465560497
-0.007825407433604891   -0.04684709463642768   -0.0013577757589107859
-0.005105243567791022   -0.049003083697651294   -0.0014149931032314538
-0.007563601230776021   -0.0468745653546442   -0.0011699916570031869
-0.00441562785219265   -0.049251429348801945   -0.0012895506791762363
-0.004749575433682776   -0.04906197136966406   -0.0011864362739143995
-0.007563601230776021   -0.0468745653546442   -0.0011699916570031869
-0.005105243567791022   -0.049003083697651294   -0.0014149931032314538
-0.00441562785219265   -0.049251429348801945   -0.0012895506791762363
-0.007563601230776021   -0.0468745653546442   -0.0011699916570031869
-0.006273750159246037   -0.04709628801067159   -0.0012321201832436964
-0.00635766867431822   -0.047087814891474095   -0.001352135465560497
-0.00441562785219265   -0.049251429348801945   -0.0012895506791762363
-0.007563601230776021   -0.0468745653546442   -0.0011699916570031869
-0.00635766867431822   -0.047087814891474095   -0.001352135465560497
-0.005105243567791022   -0.049003083697651294   -0.0014149931032314538
-0.0014804269021651147   -0.04716246216455252   -0.0009140728521863528
0.0002234340715379385   -0.04377456893057212   -0.0007555962383282991
-0.0027262512718914606   -0.04730536947124827   -0.0011147092440764075
-0.001284284836411481   -0.04706398690798957   -0.001054356688074252
0.0002234340715379385   -0.04377456893057212   -0.0007555962383282991
-0.0018832955461534216   -0.043879661363630966   -0.0009526622375501629
-0.0027262512718914606   -0.04730536947124827   -0.0011147092440764075
-0.001847023376574818   -0.043796300286119465   -0.0010017793116182411
-0.001284284836411481   -0.04706398690798957   -0.001054356688074252
-0.0026580099920975333   -0.04722584613604028   -0.0011764863680715834
-0.001847023376574818   -0.043796300286119465   -0.0010017793116182411
-0.0027262512718914606   -0.04730536947124827   -0.0011147092440764075
-0.001284284836411481   -0.04706398690798957   -0.001054356688074252
-0.001847023376574818   -0.043796300286119465   -0.0010017793116182411
0.00036081068585991133   -0.04367446195010693   -0.0008675669534137324
0.0002234340715379385   -0.04377456893057212   -0.0007555962383282991
-0.001284284836411481   -0.04706398690798957   -0.001054356688074252
-0.001847023376574818   -0.043796300286119465   -0.0010017793116182411
0.0002234340715379385   -0.04377456893057212   -0.0007555962383282991
-0.0027262512718914606   -0.04730536947124827   -0.0011147092440764075
-0.001284284836411481   -0.04706398690798957   -0.001054356688074252
0.00036081068585991133   -0.04367446195010693   -0.0008675669534137324
-0.0026580099920975333   -0.04722584613604028   -0.0011764863680715834
-0.001129935199166956   -0.047017476457117326   -0.0011864607978001867
0.00036081068585991133   -0.04367446195010693   -0.0008675669534137324
-0.001847023376574818   -0.043796300286119465   -0.0010017793116182411
-0.0026580099920975333   -0.04722584613604028   -0.0011764863680715834
-0.00180564723831893   -0.04374220201338684   -0.0010452266525459613
-0.001129935199166956   -0.047017476457117326   -0.0011864607978001867
-0.002581092372178826   -0.0471821264408139   -0.0012327431079471643
-0.00180564723831893   -0.04374220201338684   -0.0010452266525459613
-0.0026580099920975333   -0.04722584613604028   -0.0011764863680715834
-0.001129935199166956   -0.047017476457117326   -0.0011864607978001867
-0.00180564723831893   -0.04374220201338684   -0.0010452266525459613
0.00046190941180939413   -0.04361701718979889   -0.0009716015220052701
0.00036081068585991133   -0.04367446195010693   -0.0008675669534137324
-0.001129935199166956   -0.047017476457117326   -0.0011864607978001867
-0.00180564723831893   -0.04374220201338684   -0.0010452266525459613
0.00036081068585991133   -0.04367446195010693   -0.0008675669534137324
-0.0026580099920975333   -0.04722584613604028   -0.0011764863680715834
-0.001129935199166956   -0.047017476457117326   -0.0011864607978001867
0.00046190941180939413   -0.04361701718979889   -0.0009716015220052701
-0.002581092372178826   -0.0471821264408139   -0.0012327431079471643
-0.0009611632999936379   -0.047009492841391075   -0.0013100433135173086
0.00046190941180939413   -0.04361701718979889   -0.0009716015220052701
-0.00180564723831893   -0.04374220201338684   -0.0010452266525459613
-0.002581092372178826   -0.0471821264408139   -0.0012327431079471643
-0.0017809014062680375   -0.04371575362058246   -0.0010835645462971165
-0.0009611632999936379   -0.047009492841391075   -0.0013100433135173086
-0.002522146210589785   -0.04717298469521004   -0.0012836589097394815
-0.0017809014062680375   -0.04371575362058246   -0.0010835645462971165
-0.002581092372178826   -0.0471821264408139   -0.0012327431079471643
-0.0009611632999936379   -0.047009492841391075   -0.0013100433135173086
-0.0017809014062680375   -0.04371575362058246   -0.0010835645462971165
0.0005703353927278766   -0.04358930624355766   -0.0010676643775303493
0.00046190941180939413   -0.04361701718979889   -0.0009716015220052701
-0.0009611632999936379   -0.047009492841391075   -0.0013100433135173086
-0.0017809014062680375   -0.04371575362058246   -0.0010835645462971165
0.00046190941180939413   -0.04361701718979889   -0.0009716015220052701
-0.002581092372178826   -0.0471821264408139   -0.0012327431079471643
-0.0027262512718914606   -0.04730536947124827   -0.0011147092440764075
-0.0018832955461534216   -0.043879661363630966   -0.0009526622375501629
-0.00395756745681013   -0.04735565027441689   -0.0012782135292937439
-0.0026580099920975333   -0.04722584613604028   -0.0011764863680715834
-0.0018832955461534216   -0.043879661363630966   -0.0009526622375501629
-0.003922731941945307   -0.04389979787509854   -0.0011148271208519275
-0.00395756745681013   -0.04735565027441689   -0.0012782135292937439
-0.0038961208459016516   -0.04382828849961364   -0.00111603035486376
-0.0026580099920975333   -0.04722584613604028   -0.0011764863680715834
-0.0039002482449394665   -0.04728628538490379   -0.0012815333866464465
-0.0038961208459016516   -0.04382828849961364   -0.00111603035486376
-0.00395756745681013   -0.04735565027441689   -0.0012782135292937439
-0.0026580099920975333   -0.04722584613604028   -0.0011764863680715834
-0.0038961208459016516   -0.04382828849961364   -0.00111603035486376
-0.001847023376574818   -0.043796300286119465   -0.0010017793116182411
-0.0018832955461534216   -0.043879661363630966   -0.0009526622375501629
-0.0026580099920975333   -0.04722584613604028   -0.0011764863680715834
-0.0038961208459016516   -0.04382828849961364   -0.00111603035486376
-0.0018832955461534216   -0.043879661363630966   -0.0009526622375501629
-0.00395756745681013   -0.04735565027441689   -0.0012782135292937439
-0.0026580099920975333   -0.04722584613604028   -0.0011764863680715834
-0.001847023376574818   -0.043796300286119465   -0.0010017793116182411
-0.0039002482449394665   -0.04728628538490379   -0.0012815333866464465
-0.002581092372178826   -0.0471821264408139   -0.0012327431079471643
-0.001847023376574818   -0.043796300286119465   -0.0010017793116182411
-0.0038961208459016516   -0.04382828849961364   -0.00111603035486376
-0.0039002482449394665   -0.04728628538490379   -0.0012815333866464465
-0.0038687472586603423   -0.04378296562029549   -0.0011117986003377058
-0.002581092372178826   -0.0471821264408139   -0.0012327431079471643
-0.0038409541396061055   -0.047249191448595705   -0.0012797393938492865
-0.0038687472586603423   -0.04378296562029549   -0.0011117986003377058
-0.0039002482449394665   -0.04728628538490379   -0.0012815333866464465
-0.002581092372178826   -0.0471821264408139   -0.0012327431079471643
-0.0038687472586603423   -0.04378296562029549   -0.0011117986003377058
-0.00180564723831893   -0.04374220201338684   -0.0010452266525459613
-0.001847023376574818   -0.043796300286119465   -0.0010017793116182411
-0.002581092372178826   -0.0471821264408139   -0.0012327431079471643
-0.0038687472586603423   -0.04378296562029549   -0.0011117986003377058
-0.001847023376574818   -0.043796300286119465   -0.0010017793116182411
-0.0039002482449394665   -0.04728628538490379   -0.0012815333866464465
-0.002581092372178826   -0.0471821264408139   -0.0012327431079471643
-0.00180564723831893   -0.04374220201338684   -0.0010452266525459613
-0.0038409541396061055   -0.047249191448595705   -0.0012797393938492865
-0.002522146210589785   -0.04717298469521004   -0.0012836589097394815
-0.00180564723831893   -0.04374220201338684   -0.0010452266525459613
-0.0038687472586603423   -0.04378296562029549   -0.0011117986003377058
-0.0038409541396061055   -0.047249191448595705   -0.0012797393938492865
-0.0038448087185522775   -0.04376340529666432   -0.0011024981429045796
-0.002522146210589785   -0.04717298469521004   -0.0012836589097394815
-0.0037837835778480756   -0.04724283646716022   -0.0012727896987583022
-0.0038448087185522775   -0.04376340529666432   -0.0011024981429045796
-0.0038409541396061055   -0.047249191448595705   -0.0012797393938492865
-0.002522146210589785   -0.04717298469521004   -0.0012836589097394815
-0.0038448087185522775   -0.04376340529666432   -0.0011024981429045796
-0.0017809014062680375   -0.04371575362058246   -0.0010835645462971165
-0.00180564723831893   -0.04374220201338684   -0.0010452266525459613
-0.002522146210589785   -0.04717298469521004   -0.0012836589097394815
-0.0038448087185522775   -0.04376340529666432   -0.0011024981429045796
-0.00180564723831893   -0.04374220201338684   -0.0010452266525459613
-0.0038409541396061055   -0.047249191448595705   -0.0012797393938492865
-0.00395756745681013   -0.04735565027441689   -0.0012782135292937439
-0.003922731941945307   -0.04389979787509854   -0.0011148271208519275
-0.005180594149884134   -0.04731065211528699   -0.0014312743153418982
-0.0039002482449394665   -0.04728628538490379   -0.0012815333866464465
-0.003922731941945307   -0.04389979787509854   -0.0011148271208519275
-0.005930404840350725   -0.04383471266904762   -0.001261186933057969
-0.005180594149884134   -0.04731065211528699   -0.0014312743153418982
-0.005905635245322845   -0.043773032332101336   -0.0012156280701174772
-0.0039002482449394665   -0.04728628538490379   -0.0012815333866464465
-0.0051237283593888894   -0.047249014528867914   -0.0013785282852480643
-0.005905635245322845   -0.043773032332101336   -0.0012156280701174772
-0.005180594149884134   -0.04731065211528699   -0.0014312743153418982
-0.0039002482449394665   -0.04728628538490379   -0.0012815333866464465
-0.005905635245322845   -0.043773032332101336   -0.0012156280701174772
-0.0038961208459016516   -0.04382828849961364   -0.00111603035486376
-0.003922731941945307   -0.04389979787509854   -0.0011148271208519275
-0.0039002482449394665   -0.04728628538490379   -0.0012815333866464465
-0.005905635245322845   -0.043773032332101336   -0.0012156280701174772
-0.003922731941945307   -0.04389979787509854   -0.0011148271208519275
-0.005180594149884134   -0.04731065211528699   -0.0014312743153418982
-0.0039002482449394665   -0.04728628538490379   -0.0012815333866464465
-0.0038961208459016516   -0.04382828849961364   -0.00111603035486376
-0.0051237283593888894   -0.047249014528867914   -0.0013785282852480643
-0.0038409541396061055   -0.047249191448595705   -0.0012797393938492865
-0.0038961208459016516   -0.04382828849961364   -0.00111603035486376
-0.005905635245322845   -0.043773032332101336   -0.0012156280701174772
-0.0051237283593888894   -0.047249014528867914   -0.0013785282852480643
-0.0058756991130028725   -0.04373725194587139   -0.001164754586618928
-0.0038409541396061055   -0.047249191448595705   -0.0012797393938492865
-0.005059914141701951   -0.04721911343773165   -0.001320746892616023
-0.0058756991130028725   -0.04373725194587139   -0.001164754586618928
-0.0051237283593888894   -0.047249014528867914   -0.0013785282852480643
-0.0038409541396061055   -0.047249191448595705   -0.0012797393938492865
-0.0058756991130028725   -0.04373725194587139   -0.001164754586618928
-0.0038687472586603423   -0.04378296562029549   -0.0011117986003377058
-0.0038961208459016516   -0.04382828849961364   -0.00111603035486376
-0.0038409541396061055   -0.047249191448595705   -0.0012797393938492865
-0.0058756991130028725   -0.04373725194587139   -0.001164754586618928
-0.0038961208459016516   -0.04382828849961364   -0.00111603035486376
-0.0051237283593888894   -0.047249014528867914   -0.0013785282852480643
-0.0038409541396061055   -0.047249191448595705   -0.0012797393938492865
-0.0038687472586603423   -0.04378296562029549   -0.0011117986003377058
-0.005059914141701951   -0.04721911343773165   -0.001320746892616023
-0.0037837835778480756   -0.04724283646716022   -0.0012727896987583022
-0.0038687472586603423   -0.04378296562029549   -0.0011117986003377058
-0.0058756991130028725   -0.04373725194587139   -0.001164754586618928
-0.005059914141701951   -0.04721911343773165   -0.001320746892616023
-0.005846601469342971   -0.043726183502656314   -0.001108729548723564
-0.0037837835778480756   -0.04724283646716022   -0.0012727896987583022
-0.004995865520740053   -0.04721792754792639   -0.0012573171530721637
-0.005846601469342971   -0.043726183502656314   -0.001108729548723564
-0.005059914141701951   -0.04721911343773165   -0.001320746892616023
-0.0037837835778480756   -0.04724283646716022   -0.0012727896987583022
-0.005846601469342971   -0.043726183502656314   -0.001108729548723564
-0.0038448087185522775   -0.04376340529666432   -0.0011024981429045796
-0.0038687472586603423   -0.04378296562029549   -0.0011117986003377058
-0.0037837835778480756   -0.04724283646716022   -0.0012727896987583022
-0.005846601469342971   -0.043726183502656314   -0.001108729548723564
-0.0038687472586603423   -0.04378296562029549   -0.0011117986003377058
-0.005059914141701951   -0.04721911343773165   -0.001320746892616023
-0.005180594149884134   -0.04731065211528699   -0.0014312743153418982
-0.005930404840350725   -0.04383471266904762   -0.001261186933057969
-0.006523667855548316   -0.0471644690227501   -0.0015719826985537912
-0.0051237283593888894   -0.047249014528867914   -0.0013785282852480643
-0.005930404840350725   -0.04383471266904762   -0.001261186933057969
-0.008033974262257677   -0.04368667146999703   -0.001391232761649313
-0.006523667855548316   -0.0471644690227501   -0.0015719826985537912
-0.008001534033444075   -0.04363434782384172   -0.0012988393680630405
-0.0051237283593888894   -0.047249014528867914   -0.0013785282852480643
-0.006453973292880126   -0.0471105515917494   -0.0014643877791472193
-0.008001534033444075   -0.04363434782384172   -0.0012988393680630405
-0.006523667855548316   -0.0471644690227501   -0.0015719826985537912
-0.0051237283593888894   -0.047249014528867914   -0.0013785282852480643
-0.008001534033444075   -0.04363434782384172   -0.0012988393680630405
-0.005905635245322845   -0.043773032332101336   -0.0012156280701174772
-0.005930404840350725   -0.04383471266904762   -0.001261186933057969
-0.0051237283593888894   -0.047249014528867914   -0.0013785282852480643
-0.008001534033444075   -0.04363434782384172   -0.0012988393680630405
-0.005930404840350725   -0.04383471266904762   -0.001261186933057969
-0.006523667855548316   -0.0471644690227501   -0.0015719826985537912
-0.0051237283593888894   -0.047249014528867914   -0.0013785282852480643
-0.005905635245322845   -0.043773032332101336   -0.0012156280701174772
-0.006453973292880126   -0.0471105515917494   -0.0014643877791472193
-0.005059914141701951   -0.04721911343773165   -0.001320746892616023
-0.005905635245322845   -0.043773032332101336   -0.0012156280701174772
-0.008001534033444075   -0.04363434782384172   -0.0012988393680630405
-0.006453973292880126   -0.0471105515917494   -0.0014643877791472193
-0.00794649174268136   -0.04360721845591445   -0.0012019519738395766
-0.005059914141701951   -0.04721911343773165   -0.001320746892616023
-0.00635766867431822   -0.047087814891474095   -0.001352135465560497
-0.00794649174268136   -0.04360721845591445   -0.0012019519738395766
-0.006453973292880126   -0.0471105515917494   -0.0014643877791472193
-0.005059914141701951   -0.04721911343773165   -0.001320746892616023
-0.00794649174268136   -0.04360721845591445   -0.0012019519738395766
-0.0058756991130028725   -0.04373725194587139   -0.001164754586618928
-0.005905635245322845   -0.043773032332101336   -0.0012156280701174772
-0.005059914141701951   -0.04721911343773165   -0.001320746892616023
-0.00794649174268136   -0.04360721845591445   -0.0012019519738395766
-0.005905635245322845   -0.043773032332101336   -0.0012156280701174772
-0.006453973292880126   -0.0471105515917494   -0.0014643877791472193
-0.005059914141701951   -0.04721911343773165   -0.001320746892616023
-0.0058756991130028725   -0.04373725194587139   -0.001164754586618928
-0.00635766867431822   -0.047087814891474095   -0.001352135465560497
-0.004995865520740053   -0.04721792754792639   -0.0012573171530721637
-0.0058756991130028725   -0.04373725194587139   -0.001164754586618928
-0.00794649174268136   -0.04360721845591445   -0.0012019519738395766
-0.00635766867431822   -0.047087814891474095   -0.001352135465560497
-0.007901881743217766   -0.04360673778670447   -0.0010991610581534475
-0.004995865520740053   -0.04721792754792639   -0.0012573171530721637
-0.006273750159246037   -0.04709628801067159   -0.0012321201832436964
-0.007901881743217766   -0.04360673778670447   -0.0010991610581534475
-0.00635766867431822   -0.047087814891474095   -0.001352135465560497
-0.004995865520740053   -0.04721792754792639   -0.0012573171530721637
-0.007901881743217766   -0.04360673778670447   -0.0010991610581534475
-0.005846601469342971   -0.043726183502656314   -0.001108729548723564
-0.0058756991130028725   -0.04373725194587139   -0.001164754586618928
-0.004995865520740053   -0.04721792754792639   -0.0012573171530721637
-0.007901881743217766   -0.04360673778670447   -0.0010991610581534475
-0.0058756991130028725   -0.04373725194587139   -0.001164754586618928
-0.00635766867431822   -0.047087814891474095   -0.001352135465560497
-0.006523667855548316   -0.0471644690227501   -0.0015719826985537912
-0.008033974262257677   -0.04368667146999703   -0.001391232761649313
-0.008253097548016545   -0.04692672678363882   -0.001707383265619021
-0.006453973292880126   -0.0471105515917494   -0.0014643877791472193
-0.008033974262257677   -0.04368667146999703   -0.001391232761649313
-0.010487021554757186   -0.04347324245781156   -0.0015127250947484492
-0.008253097548016545   -0.04692672678363882   -0.001707383265619021
-0.010320037882949102   -0.04341856352551712   -0.001368050210822716
-0.006453973292880126   -0.0471105515917494   -0.0014643877791472193
-0.008027435032387707   -0.046868125322822606   -0.0015374722231333547
-0.010320037882949102   -0.04341856352551712   -0.001368050210822716
-0.008253097548016545   -0.04692672678363882   -0.001707383265619021
-0.006453973292880126   -0.0471105515917494   -0.0014643877791472193
-0.010320037882949102   -0.04341856352551712   -0.001368050210822716
-0.008001534033444075   -0.04363434782384172   -0.0012988393680630405
-0.008033974262257677   -0.04368667146999703   -0.001391232761649313
-0.006453973292880126   -0.0471105515917494   -0.0014643877791472193
-0.010320037882949102   -0.04341856352551712   -0.001368050210822716
-0.008033974262257677   -0.04368667146999703   -0.001391232761649313
-0.008253097548016545   -0.04692672678363882   -0.001707383265619021
-0.006453973292880126   -0.0471105515917494   -0.0014643877791472193
-0.008001534033444075   -0.04363434782384172   -0.0012988393680630405
-0.008027435032387707   -0.046868125322822606   -0.0015374722231333547
-0.00635766867431822   -0.047087814891474095   -0.001352135465560497
-0.008001534033444075   -0.04363434782384172   -0.0012988393680630405
-0.010320037882949102   -0.04341856352551712   -0.001368050210822716
-0.008027435032387707   -0.046868125322822606   -0.0015374722231333547
-0.010175266588117104   -0.04339378346410108   -0.0012159540768927719
-0.00635766867431822   -0.047087814891474095   -0.001352135465560497
-0.007825407433604891   -0.04684709463642768   -0.0013577757589107859
-0.010175266588117104   -0.04339378346410108   -0.0012159540768927719
-0.008027435032387707   -0.046868125322822606   -0.0015374722231333547
-0.00635766867431822   -0.047087814891474095   -0.001352135465560497
-0.010175266588117104   -0.04339378346410108   -0.0012159540768927719
-0.00794649174268136   -0.04360721845591445   -0.0012019519738395766
-0.008001534033444075   -0.04363434782384172   -0.0012988393680630405
-0.00635766867431822   -0.047087814891474095   -0.001352135465560497
-0.010175266588117104   -0.04339378346410108   -0.0012159540768927719
-0.008001534033444075   -0.04363434782384172   -0.0012988393680630405
-0.008027435032387707   -0.046868125322822606   -0.0015374722231333547
-0.00635766867431822   -0.047087814891474095   -0.001352135465560497
-0.00794649174268136   -0.04360721845591445   -0.0012019519738395766
-0.007825407433604891   -0.04684709463642768   -0.0013577757589107859
-0.006273750159246037   -0.04709628801067159   -0.0012321201832436964
-0.00794649174268136   -0.04360721845591445   -0.0012019519738395766
-0.010175266588117104   -0.04339378346410108   -0.0012159540768927719
-0.007825407433604891   -0.04684709463642768   -0.0013577757589107859
-0.009980288029542938   -0.04340969512943263   -0.0010574036962696476
-0.006273750159246037   -0.04709628801067159   -0.0012321201832436964
-0.007563601230776021   -0.0468745653546442   -0.0011699916570031869
-0.009980288029542938   -0.04340969512943263   -0.0010574036962696476
-0.007825407433604891   -0.04684709463642768   -0.0013577757589107859
-0.006273750159246037   -0.04709628801067159   -0.0012321201832436964
-0.009980288029542938   -0.04340969512943263   -0.0010574036962696476
-0.007901881743217766   -0.04360673778670447   -0.0010991610581534475
-0.00794649174268136   -0.04360721845591445   -0.0012019519738395766
-0.006273750159246037   -0.04709628801067159   -0.0012321201832436964
-0.009980288029542938   -0.04340969512943263   -0.0010574036962696476
-0.00794649174268136   -0.04360721845591445   -0.0012019519738395766
-0.007825407433604891   -0.04684709463642768   -0.0013577757589107859
0.0002234340715379385   -0.04377456893057212   -0.0007555962383282991
0.001520617096025697   -0.03916567104871739   -0.0005756121411392464
-0.0018832955461534216   -0.043879661363630966   -0.0009526622375501629
0.00036081068585991133   -0.04367446195010693   -0.0008675669534137324
0.001520617096025697   -0.03916567104871739   -0.0005756121411392464
-0.0012729454113834064   -0.039235398539043356   -0.0007637533308968689
-0.0018832955461534216   -0.043879661363630966   -0.0009526622375501629
-0.0012652571413538061   -0.03915247952256851   -0.0007979215685895833
0.00036081068585991133   -0.04367446195010693   -0.0008675669534137324
-0.001847023376574818   -0.043796300286119465   -0.0010017793116182411
-0.0012652571413538061   -0.03915247952256851   -0.0007979215685895833
-0.0018832955461534216   -0.043879661363630966   -0.0009526622375501629
0.00036081068585991133   -0.04367446195010693   -0.0008675669534137324
-0.0012652571413538061   -0.03915247952256851   -0.0007979215685895833
0.0016026645359970971   -0.03906794887392825   -0.0006586867588330477
0.001520617096025697   -0.03916567104871739   -0.0005756121411392464
0.00036081068585991133   -0.04367446195010693   -0.0008675669534137324
-0.0012652571413538061   -0.03915247952256851   -0.0007979215685895833
0.001520617096025697   -0.03916567104871739   -0.0005756121411392464
-0.0018832955461534216   -0.043879661363630966   -0.0009526622375501629
0.00036081068585991133   -0.04367446195010693   -0.0008675669534137324
0.0016026645359970971   -0.03906794887392825   -0.0006586867588330477
-0.001847023376574818   -0.043796300286119465   -0.0010017793116182411
0.00046190941180939413   -0.04361701718979889   -0.0009716015220052701
0.0016026645359970971   -0.03906794887392825   -0.0006586867588330477
-0.0012652571413538061   -0.03915247952256851   -0.0007979215685895833
-0.001847023376574818   -0.043796300286119465   -0.0010017793116182411
-0.0012554549321845087   -0.039092702213544675   -0.0008268959334658852
0.00046190941180939413   -0.04361701718979889   -0.0009716015220052701
-0.00180564723831893   -0.04374220201338684   -0.0010452266525459613
-0.0012554549321845087   -0.039092702213544675   -0.0008268959334658852
-0.001847023376574818   -0.043796300286119465   -0.0010017793116182411
0.00046190941180939413   -0.04361701718979889   -0.0009716015220052701
-0.0012554549321845087   -0.039092702213544675   -0.0008268959334658852
0.0016552422784152756   -0.039004231730998276   -0.0007344187307191313
0.0016026645359970971   -0.03906794887392825   -0.0006586867588330477
0.00046190941180939413   -0.04361701718979889   -0.0009716015220052701
-0.0012554549321845087   -0.039092702213544675   -0.0008268959334658852
0.0016026645359970971   -0.03906794887392825   -0.0006586867588330477
-0.001847023376574818   -0.043796300286119465   -0.0010017793116182411
0.00046190941180939413   -0.04361701718979889   -0.0009716015220052701
0.0016552422784152756   -0.039004231730998276   -0.0007344187307191313
-0.00180564723831893   -0.04374220201338684   -0.0010452266525459613
0.0005703353927278766   -0.04358930624355766   -0.0010676643775303493
0.0016552422784152756   -0.039004231730998276   -0.0007344187307191313
-0.0012554549321845087   -0.039092702213544675   -0.0008268959334658852
-0.00180564723831893   -0.04374220201338684   -0.0010452266525459613
-0.0012598770610578337   -0.039054135033111906   -0.0008510548003069546
0.0005703353927278766   -0.04358930624355766   -0.0010676643775303493
-0.0017809014062680375   -0.04371575362058246   -0.0010835645462971165
-0.0012598770610578337   -0.039054135033111906   -0.0008510548003069546
-0.00180564723831893   -0.04374220201338684   -0.0010452266525459613
0.0005703353927278766   -0.04358930624355766   -0.0010676643775303493
-0.0012598770610578337   -0.039054135033111906   -0.0008510548003069546
0.001709410971153179   -0.03896205127505972   -0.000802964697054091
0.0016552422784152756   -0.039004231730998276   -0.0007344187307191313
0.0005703353927278766   -0.04358930624355766   -0.0010676643775303493
-0.0012598770610578337   -0.039054135033111906   -0.0008510548003069546
0.0016552422784152756   -0.039004231730998276   -0.0007344187307191313
-0.00180564723831893   -0.04374220201338684   -0.0010452266525459613
-0.0018832955461534216   -0.043879661363630966   -0.0009526622375501629
-0.0012729454113834064   -0.039235398539043356   -0.0007637533308968689
-0.003922731941945307   -0.04389979787509854   -0.0011148271208519275
-0.001847023376574818   -0.043796300286119465   -0.0010017793116182411
-0.0012729454113834064   -0.039235398539043356   -0.0007637533308968689
-0.003962293839999516   -0.039235899904536894   -0.0009186538892525592
-0.003922731941945307   -0.04389979787509854   -0.0011148271208519275
-0.003962569165258066   -0.039165831165857694   -0.0009154214226070505
-0.001847023376574818   -0.043796300286119465   -0.0010017793116182411
-0.0038961208459016516   -0.04382828849961364   -0.00111603035486376
-0.003962569165258066   -0.039165831165857694   -0.0009154214226070505
-0.003922731941945307   -0.04389979787509854   -0.0011148271208519275
-0.001847023376574818   -0.043796300286119465   -0.0010017793116182411
-0.003962569165258066   -0.039165831165857694   -0.0009154214226070505
-0.0012652571413538061   -0.03915247952256851   -0.0007979215685895833
-0.0012729454113834064   -0.039235398539043356   -0.0007637533308968689
-0.001847023376574818   -0.043796300286119465   -0.0010017793116182411
-0.003962569165258066   -0.039165831165857694   -0.0009154214226070505
-0.0012729454113834064   -0.039235398539043356   -0.0007637533308968689
-0.003922731941945307   -0.04389979787509854   -0.0011148271208519275
-0.001847023376574818   -0.043796300286119465   -0.0010017793116182411
-0.0012652571413538061   -0.03915247952256851   -0.0007979215685895833
-0.0038961208459016516   -0.04382828849961364   -0.00111603035486376
-0.00180564723831893   -0.04374220201338684   -0.0010452266525459613
-0.0012652571413538061   -0.03915247952256851   -0.0007979215685895833
-0.003962569165258066   -0.039165831165857694   -0.0009154214226070505
-0.0038961208459016516   -0.04382828849961364   -0.00111603035486376
-0.003962659585024574   -0.03911615857542115   -0.0009070122225012978
-0.00180564723831893   -0.04374220201338684   -0.0010452266525459613
-0.0038687472586603423   -0.04378296562029549   -0.0011117986003377058
-0.003962659585024574   -0.03911615857542115   -0.0009070122225012978
-0.0038961208459016516   -0.04382828849961364   -0.00111603035486376
-0.00180564723831893   -0.04374220201338684   -0.0010452266525459613
-0.003962659585024574   -0.03911615857542115   -0.0009070122225012978
-0.0012554549321845087   -0.039092702213544675   -0.0008268959334658852
-0.0012652571413538061   -0.03915247952256851   -0.0007979215685895833
-0.00180564723831893   -0.04374220201338684   -0.0010452266525459613
-0.003962659585024574   -0.03911615857542115   -0.0009070122225012978
-0.0012652571413538061   -0.03915247952256851   -0.0007979215685895833
-0.0038961208459016516   -0.04382828849961364   -0.00111603035486376
-0.00180564723831893   -0.04374220201338684   -0.0010452266525459613
-0.0012554549321845087   -0.039092702213544675   -0.0008268959334658852
-0.0038687472586603423   -0.04378296562029549   -0.0011117986003377058
-0.0017809014062680375   -0.04371575362058246   -0.0010835645462971165
-0.0012554549321845087   -0.039092702213544675   -0.0008268959334658852
-0.003962659585024574   -0.03911615857542115   -0.0009070122225012978
-0.0038687472586603423   -0.04378296562029549   -0.0011117986003377058
-0.003966337444488249   -0.03908691947881694   -0.0008936988667231317
-0.0017809014062680375   -0.04371575362058246   -0.0010835645462971165
-0.0038448087185522775   -0.04376340529666432   -0.0011024981429045796
-0.003966337444488249   -0.03908691947881694   -0.0008936988667231317
-0.0038687472586603423   -0.04378296562029549   -0.0011117986003377058
-0.0017809014062680375   -0.04371575362058246   -0.0010835645462971165
-0.003966337444488249   -0.03908691947881694   -0.0008936988667231317
-0.0012598770610578337   -0.039054135033111906   -0.0008510548003069546
-0.0012554549321845087   -0.039092702213544675   -0.0008268959334658852
-0.0017809014062680375   -0.04371575362058246   -0.0010835645462971165
-0.003966337444488249   -0.03908691947881694   -0.0008936988667231317
-0.0012554549321845087   -0.039092702213544675   -0.0008268959334658852
-0.0038687472586603423   -0.04378296562029549   -0.0011117986003377058
-0.003922731941945307   -0.04389979787509854   -0.0011148271208519275
-0.003962293839999516   -0.039235899904536894   -0.0009186538892525592
-0.005930404840350725   -0.04383471266904762   -0.001261186933057969
-0.0038961208459016516   -0.04382828849961364   -0.00111603035486376
-0.003962293839999516   -0.039235899904536894   -0.0009186538892525592
-0.006606237874917831   -0.03916885279972551   -0.0010542591486397224
-0.005930404840350725   -0.04383471266904762   -0.001261186933057969
-0.006608513147107359   -0.039110047983764905   -0.0010140807624471628
-0.0038961208459016516   -0.04382828849961364   -0.00111603035486376
-0.005905635245322845   -0.043773032332101336   -0.0012156280701174772
-0.006608513147107359   -0.039110047983764905   -0.0010140807624471628
-0.005930404840350725   -0.04383471266904762   -0.001261186933057969
-0.0038961208459016516   -0.04382828849961364   -0.00111603035486376
-0.006608513147107359   -0.039110047983764905   -0.0010140807624471628
-0.003962569165258066   -0.039165831165857694   -0.0009154214226070505
-0.003962293839999516   -0.039235899904536894   -0.0009186538892525592
-0.0038961208459016516   -0.04382828849961364   -0.00111603035486376
-0.006608513147107359   -0.039110047983764905   -0.0010140807624471628
-0.003962293839999516   -0.039235899904536894   -0.0009186538892525592
-0.005930404840350725   -0.04383471266904762   -0.001261186933057969
-0.0038961208459016516   -0.04382828849961364   -0.00111603035486376
-0.003962569165258066   -0.039165831165857694   -0.0009154214226070505
-0.005905635245322845   -0.043773032332101336   -0.0012156280701174772
-0.0038687472586603423   -0.04378296562029549   -0.0011117986003377058
-0.003962569165258066   -0.039165831165857694   -0.0009154214226070505
-0.006608513147107359   -0.039110047983764905   -0.0010140807624471628
-0.005905635245322845   -0.043773032332101336   -0.0012156280701174772
-0.006606289787666338   -0.03907145926418543   -0.0009688282386697941
-0.0038687472586603423   -0.04378296562029549   -0.0011117986003377058
-0.0058756991130028725   -0.04373725194587139   -0.001164754586618928
-0.006606289787666338   -0.03907145926418543   -0.0009688282386697941
-0.005905635245322845   -0.043773032332101336   -0.0012156280701174772
-0.0038687472586603423   -0.04378296562029549   -0.0011117986003377058
-0.006606289787666338   -0.03907145926418543   -0.0009688282386697941
-0.003962659585024574   -0.03911615857542115   -0.0009070122225012978
-0.003962569165258066   -0.039165831165857694   -0.0009154214226070505
-0.0038687472586603423   -0.04378296562029549   -0.0011117986003377058
-0.006606289787666338   -0.03907145926418543   -0.0009688282386697941
-0.003962569165258066   -0.039165831165857694   -0.0009154214226070505
-0.005905635245322845   -0.043773032332101336   -0.0012156280701174772
-0.0038687472586603423   -0.04378296562029549   -0.0011117986003377058
-0.003962659585024574   -0.03911615857542115   -0.0009070122225012978
-0.0058756991130028725   -0.04373725194587139   -0.001164754586618928
-0.0038448087185522775   -0.04376340529666432   -0.0011024981429045796
-0.003962659585024574   -0.03911615857542115   -0.0009070122225012978
-0.006606289787666338   -0.03907145926418543   -0.0009688282386697941
-0.0058756991130028725   -0.04373725194587139   -0.001164754586618928
-0.00660488707067045   -0.039052735719511185   -0.0009186484978968277
-0.0038448087185522775   -0.04376340529666432   -0.0011024981429045796
-0.005846601469342971   -0.043726183502656314   -0.001108729548723564
-0.00660488707067045   -0.039052735719511185   -0.0009186484978968277
-0.0058756991130028725   -0.04373725194587139   -0.001164754586618928
-0.0038448087185522775   -0.04376340529666432   -0.0011024981429045796
-0.00660488707067045   -0.039052735719511185   -0.0009186484978968277
-0.003966337444488249   -0.03908691947881694   -0.0008936988667231317
-0.003962659585024574   -0.03911615857542115   -0.0009070122225012978
-0.0038448087185522775   -0.04376340529666432   -0.0011024981429045796
-0.00660488707067045   -0.039052735719511185   -0.0009186484978968277
-0.003962659585024574   -0.03911615857542115   -0.0009070122225012978
-0.0058756991130028725   -0.04373725194587139   -0.001164754586618928
-0.005930404840350725   -0.04383471266904762   -0.001261186933057969
-0.006606237874917831   -0.03916885279972551   -0.0010542591486397224
-0.008033974262257677   -0.04368667146999703   -0.001391232761649313
-0.005905635245322845   -0.043773032332101336   -0.0012156280701174772
-0.006606237874917831   -0.03916885279972551   -0.0010542591486397224
-0.009332412852381827   -0.03903676276052862   -0.0011708631864694517
-0.008033974262257677   -0.04368667146999703   -0.001391232761649313
-0.009329085062996803   -0.038988721800205725   -0.0010932953477214961
-0.005905635245322845   -0.043773032332101336   -0.0012156280701174772
-0.008001534033444075   -0.04363434782384172   -0.0012988393680630405
-0.009329085062996803   -0.038988721800205725   -0.0010932953477214961
-0.008033974262257677   -0.04368667146999703   -0.001391232761649313
-0.005905635245322845   -0.043773032332101336   -0.0012156280701174772
-0.009329085062996803   -0.038988721800205725   -0.0010932953477214961
-0.006608513147107359   -0.039110047983764905   -0.0010140807624471628
-0.006606237874917831   -0.03916885279972551   -0.0010542591486397224
-0.005905635245322845   -0.043773032332101336   -0.0012156280701174772
-0.009329085062996803   -0.038988721800205725   -0.0010932953477214961
-0.006606237874917831   -0.03916885279972551   -0.0010542591486397224
-0.008033974262257677   -0.04368667146999703   -0.001391232761649313
-0.005905635245322845   -0.043773032332101336   -0.0012156280701174772
-0.006608513147107359   -0.039110047983764905   -0.0010140807624471628
-0.008001534033444075   -0.04363434782384172   -0.0012988393680630405
-0.0058756991130028725   -0.04373725194587139   -0.001164754586618928
-0.006608513147107359   -0.039110047983764905   -0.0010140807624471628
-0.009329085062996803   -0.038988721800205725   -0.0010932953477214961
-0.008001534033444075   -0.04363434782384172   -0.0012988393680630405
-0.009306072610274685   -0.03896018427928265   -0.0010114196615308802
-0.0058756991130028725   -0.04373725194587139   -0.001164754586618928
-0.00794649174268136   -0.04360721845591445   -0.0012019519738395766
-0.009306072610274685   -0.03896018427928265   -0.0010114196615308802
-0.008001534033444075   -0.04363434782384172   -0.0012988393680630405
-0.0058756991130028725   -0.04373725194587139   -0.001164754586618928
-0.009306072610274685   -0.03896018427928265   -0.0010114196615308802
-0.006606289787666338   -0.03907145926418543   -0.0009688282386697941
-0.006608513147107359   -0.039110047983764905   -0.0010140807624471628
-0.0058756991130028725   -0.04373725194587139   -0.001164754586618928
-0.009306072610274685   -0.03896018427928265   -0.0010114196615308802
-0.006608513147107359   -0.039110047983764905   -0.0010140807624471628
-0.008001534033444075   -0.04363434782384172   -0.0012988393680630405
-0.0058756991130028725   -0.04373725194587139   -0.001164754586618928
-0.006606289787666338   -0.03907145926418543   -0.0009688282386697941
-0.00794649174268136   -0.04360721845591445   -0.0012019519738395766
-0.005846601469342971   -0.043726183502656314   -0.001108729548723564
-0.006606289787666338   -0.03907145926418543   -0.0009688282386697941
-0.009306072610274685   -0.03896018427928265   -0.0010114196615308802
-0.00794649174268136   -0.04360721845591445   -0.0012019519738395766
-0.009290727457413363   -0.03895318560279963   -0.0009242185619766062
-0.005846601469342971   -0.043726183502656314   -0.001108729548723564
-0.007901881743217766   -0.04360673778670447   -0.0010991610581534475
-0.009290727457413363   -0.03895318560279963   -0.0009242185619766062
-0.00794649174268136   -0.04360721845591445   -0.0012019519738395766
-0.005846601469342971   -0.043726183502656314   -0.001108729548723564
-0.009290727457413363   -0.03895318560279963   -0.0009242185619766062
-0.00660488707067045   -0.039052735719511185   -0.0009186484978968277
-0.006606289787666338   -0.03907145926418543   -0.0009688282386697941
-0.005846601469342971   -0.043726183502656314   -0.001108729548723564
-0.009290727457413363   -0.03895318560279963   -0.0009242185619766062
-0.006606289787666338   -0.03907145926418543   -0.0009688282386697941
-0.00794649174268136   -0.04360721845591445   -0.0012019519738395766
-0.008033974262257677   -0.04368667146999703   -0.001391232761649313
-0.009332412852381827   -0.03903676276052862   -0.0011708631864694517
-0.010487021554757186   -0.04347324245781156   -0.0015127250947484492
-0.008001534033444075   -0.04363434782384172   -0.0012988393680630405
-0.009332412852381827   -0.03903676276052862   -0.0011708631864694517
-0.012377576288438368   -0.03885443467383897   -0.001276141277400922
-0.010487021554757186   -0.04347324245781156   -0.0015127250947484492
-0.012262956357010878   -0.038807221246875134   -0.0011573992659471572
-0.008001534033444075   -0.04363434782384172   -0.0012988393680630405
-0.010320037882949102   -0.04341856352551712   -0.001368050210822716
-0.012262956357010878   -0.038807221246875134   -0.0011573992659471572
-0.010487021554757186   -0.04347324245781156   -0.0015127250947484492
-0.008001534033444075   -0.04363434782384172   -0.0012988393680630405
-0.012262956357010878   -0.038807221246875134   -0.0011573992659471572
-0.009329085062996803   -0.038988721800205725   -0.0010932953477214961
-0.009332412852381827   -0.03903676276052862   -0.0011708631864694517
-0.008001534033444075   -0.04363434782384172   -0.0012988393680630405
-0.012262956357010878   -0.038807221246875134   -0.0011573992659471572
-0.009332412852381827   -0.03903676276052862   -0.0011708631864694517
-0.010487021554757186   -0.04347324245781156   -0.0015127250947484492
-0.008001534033444075   -0.04363434782384172   -0.0012988393680630405
-0.009329085062996803   -0.038988721800205725   -0.0010932953477214961
-0.010320037882949102   -0.04341856352551712   -0.001368050210822716
-0.00794649174268136   -0.04360721845591445   -0.0012019519738395766
-0.009329085062996803   -0.038988721800205725   -0.0010932953477214961
-0.012262956357010878   -0.038807221246875134   -0.0011573992659471572
-0.010320037882949102   -0.04341856352551712   -0.001368050210822716
-0.012165028734733794   -0.03878235439050867   -0.0010314074364737068
-0.00794649174268136   -0.04360721845591445   -0.0012019519738395766
-0.010175266588117104   -0.04339378346410108   -0.0012159540768927719
-0.012165028734733794   -0.03878235439050867   -0.0010314074364737068
-0.010320037882949102   -0.04341856352551712   -0.001368050210822716
-0.00794649174268136   -0.04360721845591445   -0.0012019519738395766
-0.012165028734733794   -0.03878235439050867   -0.0010314074364737068
-0.009306072610274685   -0.03896018427928265   -0.0010114196615308802
-0.009329085062996803   -0.038988721800205725   -0.0010932953477214961
-0.00794649174268136   -0.04360721845591445   -0.0012019519738395766
-0.012165028734733794   -0.03878235439050867   -0.0010314074364737068
-0.009329085062996803   -0.038988721800205725   -0.0010932953477214961
-0.010320037882949102   -0.04341856352551712   -0.001368050210822716
-0.00794649174268136   -0.04360721845591445   -0.0012019519738395766
-0.009306072610274685   -0.03896018427928265   -0.0010114196615308802
-0.010175266588117104   -0.04339378346410108   -0.0012159540768927719
-0.007901881743217766   -0.04360673778670447   -0.0010991610581534475
-0.009306072610274685   -0.03896018427928265   -0.0010114196615308802
-0.012165028734733794   -0.03878235439050867   -0.0010314074364737068
-0.010175266588117104   -0.04339378346410108   -0.0012159540768927719
-0.012023837263971777   -0.03879161486628523   -0.0008991638616378693
-0.007901881743217766   -0.04360673778670447   -0.0010991610581534475
-0.009980288029542938   -0.04340969512943263   -0.0010574036962696476
-0.012023837263971777   -0.03879161486628523   -0.0008991638616378693
-0.010175266588117104   -0.04339378346410108   -0.0012159540768927719
-0.007901881743217766   -0.04360673778670447   -0.0010991610581534475
-0.012023837263971777   -0.03879161486628523   -0.0008991638616378693
-0.009290727457413363   -0.03895318560279963   -0.0009242185619766062
-0.009306072610274685   -0.03896018427928265   -0.0010114196615308802
-0.007901881743217766   -0.04360673778670447   -0.0010991610581534475
-0.012023837263971777   -0.03879161486628523   -0.0008991638616378693
-0.009306072610274685   -0.03896018427928265   -0.0010114196615308802
-0.010175266588117104   -0.04339378346410108   -0.0012159540768927719
0.001520617096025697   -0.03916567104871739   -0.0005756121411392464
0.0024178472580874116   -0.0336137432889395   -0.00038360280164532876
-0.0012729454113834064   -0.039235398539043356   -0.0007637533308968689
0.0016026645359970971   -0.03906794887392825   -0.0006586867588330477
0.0024178472580874116   -0.0336137432889395   -0.00038360280164532876
-0.0009004293559211835   -0.03364832117636142   -0.0005605859046965225
-0.0012729454113834064   -0.039235398539043356   -0.0007637533308968689
-0.0009157749078382984   -0.03356744142744911   -0.0005791336715255084
0.0016026645359970971   -0.03906794887392825   -0.0006586867588330477
-0.0012652571413538061   -0.03915247952256851   -0.0007979215685895833
-0.0009157749078382984   -0.03356744142744911   -0.0005791336715255084
-0.0012729454113834064   -0.039235398539043356   -0.0007637533308968689
0.0016026645359970971   -0.03906794887392825   -0.0006586867588330477
-0.0009157749078382984   -0.03356744142744911   -0.0005791336715255084
0.0024508079715986407   -0.03351959038799388   -0.0004382855135982846
0.0024178472580874116   -0.0336137432889395   -0.00038360280164532876
0.0016026645359970971   -0.03906794887392825   -0.0006586867588330477
-0.0009157749078382984   -0.03356744142744911   -0.0005791336715255084
0.0024178472580874116   -0.0336137432889395   -0.00038360280164532876
-0.0012729454113834064   -0.039235398539043356   -0.0007637533308968689
0.0016026645359970971   -0.03906794887392825   -0.0006586867588330477
0.0024508079715986407   -0.03351959038799388   -0.0004382855135982846
-0.0012652571413538061   -0.03915247952256851   -0.0007979215685895833
0.0016552422784152756   -0.039004231730998276   -0.0007344187307191313
0.0024508079715986407   -0.03351959038799388   -0.0004382855135982846
-0.0009157749078382984   -0.03356744142744911   -0.0005791336715255084
-0.0012652571413538061   -0.03915247952256851   -0.0007979215685895833
-0.000931870537562096   -0.03350376251124255   -0.0005930318777324184
0.0016552422784152756   -0.039004231730998276   -0.0007344187307191313
-0.0012554549321845087   -0.039092702213544675   -0.0008268959334658852
-0.000931870537562096   -0.03350376251124255   -0.0005930318777324184
-0.0012652571413538061   -0.03915247952256851   -0.0007979215685895833
0.0016552422784152756   -0.039004231730998276   -0.0007344187307191313
-0.000931870537562096   -0.03350376251124255   -0.0005930318777324184
0.002461219910176376   -0.03345135926727863   -0.000486105559416174
0.0024508079715986407   -0.03351959038799388   -0.0004382855135982846
0.0016552422784152756   -0.039004231730998276   -0.0007344187307191313
-0.000931870537562096   -0.03350376251124255   -0.0005930318777324184
0.0024508079715986407   -0.03351959038799388   -0.0004382855135982846
-0.0012652571413538061   -0.03915247952256851   -0.0007979215685895833
0.0016552422784152756   -0.039004231730998276   -0.0007344187307191313
0.002461219910176376   -0.03345135926727863   -0.000486105559416174
-0.0012554549321845087   -0.039092702213544675   -0.0008268959334658852
0.001709410971153179   -0.03896205127505972   -0.000802964697054091
0.002461219910176376   -0.03345135926727863   -0.000486105559416174
-0.000931870537562096   -0.03350376251124255   -0.0005930318777324184
-0.0012554549321845087   -0.039092702213544675   -0.0008268959334658852
-0.0009595190287075434   -0.033455262117485896   -0.0006024370189373086
0.001709410971153179   -0.03896205127505972   -0.000802964697054091
-0.0012598770610578337   -0.039054135033111906   -0.0008510548003069546
-0.0009595190287075434   -0.033455262117485896   -0.0006024370189373086
-0.0012554549321845087   -0.039092702213544675   -0.0008268959334658852
0.001709410971153179   -0.03896205127505972   -0.000802964697054091
-0.0009595190287075434   -0.033455262117485896   -0.0006024370189373086
0.0024675157349275047   -0.03339689605369118   -0.0005273893293978035
0.002461219910176376   -0.03345135926727863   -0.000486105559416174
0.001709410971153179   -0.03896205127505972   -0.000802964697054091
-0.0009595190287075434   -0.033455262117485896   -0.0006024370189373086
0.002461219910176376   -0.03345135926727863   -0.000486105559416174
-0.0012554549321845087   -0.039092702213544675   -0.0008268959334658852
-0.0012729454113834064   -0.039235398539043356   -0.0007637533308968689
-0.0009004293559211835   -0.03364832117636142   -0.0005605859046965225
-0.003962293839999516   -0.039235899904536894   -0.0009186538892525592
-0.0012652571413538061   -0.03915247952256851   -0.0007979215685895833
-0.0009004293559211835   -0.03364832117636142   -0.0005605859046965225
-0.004081907979600088   -0.03363093095967832   -0.000706010335212708
-0.003962293839999516   -0.039235899904536894   -0.0009186538892525592
-0.004103360190515899   -0.033563458208090036   -0.0006974433855398472
-0.0012652571413538061   -0.03915247952256851   -0.0007979215685895833
-0.003962569165258066   -0.039165831165857694   -0.0009154214226070505
-0.004103360190515899   -0.033563458208090036   -0.0006974433855398472
-0.003962293839999516   -0.039235899904536894   -0.0009186538892525592
-0.0012652571413538061   -0.03915247952256851   -0.0007979215685895833
-0.004103360190515899   -0.033563458208090036   -0.0006974433855398472
-0.0009157749078382984   -0.03356744142744911   -0.0005791336715255084
-0.0009004293559211835   -0.03364832117636142   -0.0005605859046965225
-0.0012652571413538061   -0.03915247952256851   -0.0007979215685895833
-0.004103360190515899   -0.033563458208090036   -0.0006974433855398472
-0.0009004293559211835   -0.03364832117636142   -0.0005605859046965225
-0.003962293839999516   -0.039235899904536894   -0.0009186538892525592
-0.0012652571413538061   -0.03915247952256851   -0.0007979215685895833
-0.0009157749078382984   -0.03356744142744911   -0.0005791336715255084
-0.003962569165258066   -0.039165831165857694   -0.0009154214226070505
-0.0012554549321845087   -0.039092702213544675   -0.0008268959334658852
-0.0009157749078382984   -0.03356744142744911   -0.0005791336715255084
-0.004103360190515899   -0.033563458208090036   -0.0006974433855398472
-0.003962569165258066   -0.039165831165857694   -0.0009154214226070505
-0.004125108591406411   -0.03351072695748775   -0.0006840868683890528
-0.0012554549321845087   -0.039092702213544675   -0.0008268959334658852
-0.003962659585024574   -0.03911615857542115   -0.0009070122225012978
-0.004125108591406411   -0.03351072695748775   -0.0006840868683890528
-0.003962569165258066   -0.039165831165857694   -0.0009154214226070505
-0.0012554549321845087   -0.039092702213544675   -0.0008268959334658852
-0.004125108591406411   -0.03351072695748775   -0.0006840868683890528
-0.000931870537562096   -0.03350376251124255   -0.0005930318777324184
-0.0009157749078382984   -0.03356744142744911   -0.0005791336715255084
-0.0012554549321845087   -0.039092702213544675   -0.0008268959334658852
-0.004125108591406411   -0.03351072695748775   -0.0006840868683890528
-0.0009157749078382984   -0.03356744142744911   -0.0005791336715255084
-0.003962569165258066   -0.039165831165857694   -0.0009154214226070505
-0.0012554549321845087   -0.039092702213544675   -0.0008268959334658852
-0.000931870537562096   -0.03350376251124255   -0.0005930318777324184
-0.003962659585024574   -0.03911615857542115   -0.0009070122225012978
-0.0012598770610578337   -0.039054135033111906   -0.0008510548003069546
-0.000931870537562096   -0.03350376251124255   -0.0005930318777324184
-0.004125108591406411   -0.03351072695748775   -0.0006840868683890528
-0.003962659585024574   -0.03911615857542115   -0.0009070122225012978
-0.004150267150399802   -0.03347298601085522   -0.0006661754316625749
-0.0012598770610578337   -0.039054135033111906   -0.0008510548003069546
-0.003966337444488249   -0.03908691947881694   -0.0008936988667231317
-0.004150267150399802   -0.03347298601085522   -0.0006661754316625749
-0.003962659585024574   -0.03911615857542115   -0.0009070122225012978
-0.0012598770610578337   -0.039054135033111906   -0.0008510548003069546
-0.004150267150399802   -0.03347298601085522   -0.0006661754316625749
-0.0009595190287075434   -0.033455262117485896   -0.0006024370189373086
-0.000931870537562096   -0.03350376251124255   -0.0005930318777324184
-0.0012598770610578337   -0.039054135033111906   -0.0008510548003069546
-0.004150267150399802   -0.03347298601085522   -0.0006661754316625749
-0.000931870537562096   -0.03350376251124255   -0.0005930318777324184
-0.003962659585024574   -0.03911615857542115   -0.0009070122225012978
-0.003962293839999516   -0.039235899904536894   -0.0009186538892525592
-0.004081907979600088   -0.03363093095967832   -0.000706010335212708
-0.006606237874917831   -0.03916885279972551   -0.0010542591486397224
-0.003962569165258066   -0.039165831165857694   -0.0009154214226070505
-0.004081907979600088   -0.03363093095967832   -0.000706010335212708
-0.007209779215718336   -0.03356487298858153   -0.0008302973333360125
-0.006606237874917831   -0.03916885279972551   -0.0010542591486397224
-0.007232960617430585   -0.03350955767157628   -0.0007947542628677282
-0.003962569165258066   -0.039165831165857694   -0.0009154214226070505
-0.006608513147107359   -0.039110047983764905   -0.0010140807624471628
-0.007232960617430585   -0.03350955767157628   -0.0007947542628677282
-0.006606237874917831   -0.03916885279972551   -0.0010542591486397224
-0.003962569165258066   -0.039165831165857694   -0.0009154214226070505
-0.007232960617430585   -0.03350955767157628   -0.0007947542628677282
-0.004103360190515899   -0.033563458208090036   -0.0006974433855398472
-0.004081907979600088   -0.03363093095967832   -0.000706010335212708
-0.003962569165258066   -0.039165831165857694   -0.0009154214226070505
-0.007232960617430585   -0.03350955767157628   -0.0007947542628677282
-0.004081907979600088   -0.03363093095967832   -0.000706010335212708
-0.006606237874917831   -0.03916885279972551   -0.0010542591486397224
-0.003962569165258066   -0.039165831165857694   -0.0009154214226070505
-0.004103360190515899   -0.033563458208090036   -0.0006974433855398472
-0.006608513147107359   -0.039110047983764905   -0.0010140807624471628
-0.003962659585024574   -0.03911615857542115   -0.0009070122225012978
-0.004103360190515899   -0.033563458208090036   -0.0006974433855398472
-0.007232960617430585   -0.03350955767157628   -0.0007947542628677282
-0.006608513147107359   -0.039110047983764905   -0.0010140807624471628
-0.0072521408289186375   -0.0334688435937089   -0.0007545081097954311
-0.003962659585024574   -0.03911615857542115   -0.0009070122225012978
-0.006606289787666338   -0.03907145926418543   -0.0009688282386697941
-0.0072521408289186375   -0.0334688435937089   -0.0007545081097954311
-0.006608513147107359   -0.039110047983764905   -0.0010140807624471628
-0.003962659585024574   -0.03911615857542115   -0.0009070122225012978
-0.0072521408289186375   -0.0334688435937089   -0.0007545081097954311
-0.004125108591406411   -0.03351072695748775   -0.0006840868683890528
-0.004103360190515899   -0.033563458208090036   -0.0006974433855398472
-0.003962659585024574   -0.03911615857542115   -0.0009070122225012978
-0.0072521408289186375   -0.0334688435937089   -0.0007545081097954311
-0.004103360190515899   -0.033563458208090036   -0.0006974433855398472
-0.006608513147107359   -0.039110047983764905   -0.0010140807624471628
-0.003962659585024574   -0.03911615857542115   -0.0009070122225012978
-0.004125108591406411   -0.03351072695748775   -0.0006840868683890528
-0.006606289787666338   -0.03907145926418543   -0.0009688282386697941
-0.003966337444488249   -0.03908691947881694   -0.0008936988667231317
-0.004125108591406411   -0.03351072695748775   -0.0006840868683890528
-0.0072521408289186375   -0.0334688435937089   -0.0007545081097954311
-0.006606289787666338   -0.03907145926418543   -0.0009688282386697941
-0.007271887157736057   -0.033442668297620624   -0.0007096961573948719
-0.003966337444488249   -0.03908691947881694   -0.0008936988667231317
-0.00660488707067045   -0.039052735719511185   -0.0009186484978968277
-0.007271887157736057   -0.033442668297620624   -0.0007096961573948719
-0.006606289787666338   -0.03907145926418543   -0.0009688282386697941
-0.003966337444488249   -0.03908691947881694   -0.0008936988667231317
-0.007271887157736057   -0.033442668297620624   -0.0007096961573948719
-0.004150267150399802   -0.03347298601085522   -0.0006661754316625749
-0.004125108591406411   -0.03351072695748775   -0.0006840868683890528
-0.003966337444488249   -0.03908691947881694   -0.0008936988667231317
-0.007271887157736057   -0.033442668297620624   -0.0007096961573948719
-0.004125108591406411   -0.03351072695748775   -0.0006840868683890528
-0.006606289787666338   -0.03907145926418543   -0.0009688282386697941
-0.006606237874917831   -0.03916885279972551   -0.0010542591486397224
-0.007209779215718336   -0.03356487298858153   -0.0008302973333360125
-0.009332412852381827   -0.03903676276052862   -0.0011708631864694517
-0.006608513147107359   -0.039110047983764905   -0.0010140807624471628
-0.007209779215718336   -0.03356487298858153   -0.0008302973333360125
-0.010412026595453988   -0.0334514497272397   -0.0009339519338429423
-0.009332412852381827   -0.03903676276052862   -0.0011708631864694517
-0.010431140083697282   -0.03340799335025558   -0.0008710619269488727
-0.006608513147107359   -0.039110047983764905   -0.0010140807624471628
-0.009329085062996803   -0.038988721800205725   -0.0010932953477214961
-0.010431140083697282   -0.03340799335025558   -0.0008710619269488727
-0.009332412852381827   -0.03903676276052862   -0.0011708631864694517
-0.006608513147107359   -0.039110047983764905   -0.0010140807624471628
-0.010431140083697282   -0.03340799335025558   -0.0008710619269488727
-0.007232960617430585   -0.03350955767157628   -0.0007947542628677282
-0.007209779215718336   -0.03356487298858153   -0.0008302973333360125
-0.006608513147107359   -0.039110047983764905   -0.0010140807624471628
-0.010431140083697282   -0.03340799335025558   -0.0008710619269488727
-0.007209779215718336   -0.03356487298858153   -0.0008302973333360125
-0.009332412852381827   -0.03903676276052862   -0.0011708631864694517
-0.006608513147107359   -0.039110047983764905   -0.0010140807624471628
-0.007232960617430585   -0.03350955767157628   -0.0007947542628677282
-0.009329085062996803   -0.038988721800205725   -0.0010932953477214961
-0.006606289787666338   -0.03907145926418543   -0.0009688282386697941
-0.007232960617430585   -0.03350955767157628   -0.0007947542628677282
-0.010431140083697282   -0.03340799335025558   -0.0008710619269488727
-0.009329085062996803   -0.038988721800205725   -0.0010932953477214961
-0.010433369223554747   -0.033378270840507186   -0.0008041190189450754
-0.006606289787666338   -0.03907145926418543   -0.0009688282386697941
-0.009306072610274685   -0.03896018427928265   -0.0010114196615308802
-0.010433369223554747   -0.033378270840507186   -0.0008041190189450754
-0.009329085062996803   -0.038988721800205725   -0.0010932953477214961
-0.006606289787666338   -0.03907145926418543   -0.0009688282386697941
-0.010433369223554747   -0.033378270840507186   -0.0008041190189450754
-0.0072521408289186375   -0.0334688435937089   -0.0007545081097954311
-0.007232960617430585   -0.03350955767157628   -0.0007947542628677282
-0.006606289787666338   -0.03907145926418543   -0.0009688282386697941
-0.010433369223554747   -0.033378270840507186   -0.0008041190189450754
-0.007232960617430585   -0.03350955767157628   -0.0007947542628677282
-0.009329085062996803   -0.038988721800205725   -0.0010932953477214961
-0.006606289787666338   -0.03907145926418543   -0.0009688282386697941
-0.0072521408289186375   -0.0334688435937089   -0.0007545081097954311
-0.009306072610274685   -0.03896018427928265   -0.0010114196615308802
-0.00660488707067045   -0.039052735719511185   -0.0009186484978968277
-0.0072521408289186375   -0.0334688435937089   -0.0007545081097954311
-0.010433369223554747   -0.033378270840507186   -0.0008041190189450754
-0.009306072610274685   -0.03896018427928265   -0.0010114196615308802
-0.010440443101072809   -0.03336440096437226   -0.0007322629557465178
-0.00660488707067045   -0.039052735719511185   -0.0009186484978968277
-0.009290727457413363   -0.03895318560279963   -0.0009242185619766062
-0.010440443101072809   -0.03336440096437226   -0.0007322629557465178
-0.009306072610274685   -0.03896018427928265   -0.0010114196615308802
-0.00660488707067045   -0.039052735719511185   -0.0009186484978968277
-0.010440443101072809   -0.03336440096437226   -0.0007322629557465178
-0.007271887157736057   -0.033442668297620624   -0.0007096961573948719
-0.0072521408289186375   -0.0334688435937089   -0.0007545081097954311
-0.00660488707067045   -0.039052735719511185   -0.0009186484978968277
-0.010440443101072809   -0.03336440096437226   -0.0007322629557465178
-0.0072521408289186375   -0.0334688435937089   -0.0007545081097954311
-0.009306072610274685   -0.03896018427928265   -0.0010114196615308802
-0.009332412852381827   -0.03903676276052862   -0.0011708631864694517
-0.010412026595453988   -0.0334514497272397   -0.0009339519338429423
-0.012377576288438368   -0.03885443467383897   -0.001276141277400922
-0.009329085062996803   -0.038988721800205725   -0.0010932953477214961
-0.010412026595453988   -0.0334514497272397   -0.0009339519338429423
-0.01390439569690861   -0.03330240254674303   -0.001022512476856198
-0.012377576288438368   -0.03885443467383897   -0.001276141277400922
-0.013836756129529053   -0.03326270374370141   -0.0009306230732805857
-0.009329085062996803   -0.038988721800205725   -0.0010932953477214961
-0.012262956357010878   -0.038807221246875134   -0.0011573992659471572
-0.013836756129529053   -0.03326270374370141   -0.0009306230732805857
-0.012377576288438368   -0.03885443467383897   -0.001276141277400922
-0.009329085062996803   -0.038988721800205725   -0.0010932953477214961
-0.013836756129529053   -0.03326270374370141   -0.0009306230732805857
-0.010431140083697282   -0.03340799335025558   -0.0008710619269488727
-0.010412026595453988   -0.0334514497272397   -0.0009339519338429423
-0.009329085062996803   -0.038988721800205725   -0.0010932953477214961
-0.013836756129529053   -0.03326270374370141   -0.0009306230732805857
-0.010412026595453988   -0.0334514497272397   -0.0009339519338429423
-0.012377576288438368   -0.03885443467383897   -0.001276141277400922
-0.009329085062996803   -0.038988721800205725   -0.0010932953477214961
-0.010431140083697282   -0.03340799335025558   -0.0008710619269488727
-0.012262956357010878   -0.038807221246875134   -0.0011573992659471572
-0.009306072610274685   -0.03896018427928265   -0.0010114196615308802
-0.010431140083697282   -0.03340799335025558   -0.0008710619269488727
-0.013836756129529053   -0.03326270374370141   -0.0009306230732805857
-0.012262956357010878   -0.038807221246875134   -0.0011573992659471572
-0.013779778952190931   -0.03323764503600631   -0.0008316521192048507
-0.009306072610274685   -0.03896018427928265   -0.0010114196615308802
-0.012165028734733794   -0.03878235439050867   -0.0010314074364737068
-0.013779778952190931   -0.03323764503600631   -0.0008316521192048507
-0.012262956357010878   -0.038807221246875134   -0.0011573992659471572
-0.009306072610274685   -0.03896018427928265   -0.0010114196615308802
-0.013779778952190931   -0.03323764503600631   -0.0008316521192048507
-0.010433369223554747   -0.033378270840507186   -0.0008041190189450754
-0.010431140083697282   -0.03340799335025558   -0.0008710619269488727
-0.009306072610274685   -0.03896018427928265   -0.0010114196615308802
-0.013779778952190931   -0.03323764503600631   -0.0008316521192048507
-0.010431140083697282   -0.03340799335025558   -0.0008710619269488727
-0.012262956357010878   -0.038807221246875134   -0.0011573992659471572
-0.009306072610274685   -0.03896018427928265   -0.0010114196615308802
-0.010433369223554747   -0.033378270840507186   -0.0008041190189450754
-0.012165028734733794   -0.03878235439050867   -0.0010314074364737068
-0.009290727457413363   -0.03895318560279963   -0.0009242185619766062
-0.010433369223554747   -0.033378270840507186   -0.0008041190189450754
-0.013779778952190931   -0.03323764503600631   -0.0008316521192048507
-0.012165028734733794   -0.03878235439050867   -0.0010314074364737068
-0.013686055808377348   -0.033239480936247914   -0.0007264840534445161
-0.009290727457413363   -0.03895318560279963   -0.0009242185619766062
-0.012023837263971777   -0.03879161486628523   -0.0008991638616378693
-0.013686055808377348   -0.033239480936247914   -0.0007264840534445161
-0.012165028734733794   -0.03878235439050867   -0.0010314074364737068
-0.009290727457413363   -0.03895318560279963   -0.0009242185619766062
-0.013686055808377348   -0.033239480936247914   -0.0007264840534445161
-0.010440443101072809   -0.03336440096437226   -0.0007322629557465178
-0.010433369223554747   -0.033378270840507186   -0.0008041190189450754
-0.009290727457413363   -0.03895318560279963   -0.0009242185619766062
-0.013686055808377348   -0.033239480936247914   -0.0007264840534445161
-0.010433369223554747   -0.033378270840507186   -0.0008041190189450754
-0.012165028734733794   -0.03878235439050867   -0.0010314074364737068
0.0024178472580874116   -0.0336137432889395   -0.00038360280164532876
0.0029198199632939786   -0.027376200615267667   -0.00019587362365436407
-0.0009004293559211835   -0.03364832117636142   -0.0005605859046965225
0.0024508079715986407   -0.03351959038799388   -0.0004382855135982846
0.0029198199632939786   -0.027376200615267667   -0.00019587362365436407
-0.0007677362730048686   -0.027375893632095697   -0.00035988669222639525
-0.0009004293559211835   -0.03364832117636142   -0.0005605859046965225
-0.0008003698772638952   -0.027297707120028786   -0.00036256895575136625
0.0024508079715986407   -0.03351959038799388   -0.0004382855135982846
-0.0009157749078382984   -0.03356744142744911   -0.0005791336715255084
-0.0008003698772638952   -0.027297707120028786   -0.00036256895575136625
-0.0009004293559211835   -0.03364832117636142   -0.0005605859046965225
0.0024508079715986407   -0.03351959038799388   -0.0004382855135982846
-0.0008003698772638952   -0.027297707120028786   -0.00036256895575136625
0.0029100056289793575   -0.027286099005663887   -0.00022240046782812301
0.0029198199632939786   -0.027376200615267667   -0.00019587362365436407
0.0024508079715986407   -0.03351959038799388   -0.0004382855135982846
-0.0008003698772638952   -0.027297707120028786   -0.00036256895575136625
0.0029198199632939786   -0.027376200615267667   -0.00019587362365436407
-0.0009004293559211835   -0.03364832117636142   -0.0005605859046965225
0.0024508079715986407   -0.03351959038799388   -0.0004382855135982846
0.0029100056289793575   -0.027286099005663887   -0.00022240046782812301
-0.0009157749078382984   -0.03356744142744911   -0.0005791336715255084
0.002461219910176376   -0.03345135926727863   -0.000486105559416174
0.0029100056289793575   -0.027286099005663887   -0.00022240046782812301
-0.0008003698772638952   -0.027297707120028786   -0.00036256895575136625
-0.0009157749078382984   -0.03356744142744911   -0.0005791336715255084
-0.0008366381931578919   -0.027230660848498775   -0.0003611156587245625
0.002461219910176376   -0.03345135926727863   -0.000486105559416174
-0.000931870537562096   -0.03350376251124255   -0.0005930318777324184
-0.0008366381931578919   -0.027230660848498775   -0.0003611156587245625
-0.0009157749078382984   -0.03356744142744911   -0.0005791336715255084
0.002461219910176376   -0.03345135926727863   -0.000486105559416174
-0.0008366381931578919   -0.027230660848498775   -0.0003611156587245625
0.0028841718461477383   -0.02721393947162338   -0.0002422986479148388
0.0029100056289793575   -0.027286099005663887   -0.00022240046782812301
0.002461219910176376   -0.03345135926727863   -0.000486105559416174
-0.0008366381931578919   -0.027230660848498775   -0.0003611156587245625
0.0029100056289793575   -0.027286099005663887   -0.00022240046782812301
-0.0009157749078382984   -0.03356744142744911   -0.0005791336715255084
0.002461219910176376   -0.03345135926727863   -0.000486105559416174
0.0028841718461477383   -0.02721393947162338   -0.0002422986479148388
-0.000931870537562096   -0.03350376251124255   -0.0005930318777324184
0.0024675157349275047   -0.03339689605369118   -0.0005273893293978035
0.0028841718461477383   -0.02721393947162338   -0.0002422986479148388
-0.0008366381931578919   -0.027230660848498775   -0.0003611156587245625
-0.000931870537562096   -0.03350376251124255   -0.0005930318777324184
-0.0008817775368593237   -0.027172997747326854   -0.0003553637621377097
0.0024675157349275047   -0.03339689605369118   -0.0005273893293978035
-0.0009595190287075434   -0.033455262117485896   -0.0006024370189373086
-0.0008817775368593237   -0.027172997747326854   -0.0003553637621377097
-0.000931870537562096   -0.03350376251124255   -0.0005930318777324184
0.0024675157349275047   -0.03339689605369118   -0.0005273893293978035
-0.0008817775368593237   -0.027172997747326854   -0.0003553637621377097
0.0028479829700857905   -0.02714780459924626   -0.00025603120761666544
0.0028841718461477383   -0.02721393947162338   -0.0002422986479148388
0.0024675157349275047   -0.03339689605369118   -0.0005273893293978035
-0.0008817775368593237   -0.027172997747326854   -0.0003553637621377097
0.0028841718461477383   -0.02721393947162338   -0.0002422986479148388
-0.000931870537562096   -0.03350376251124255   -0.0005930318777324184
-0.0009004293559211835   -0.03364832117636142   -0.0005605859046965225
-0.0007677362730048686   -0.027375893632095697   -0.00035988669222639525
-0.004081907979600088   -0.03363093095967832   -0.000706010335212708
-0.0009157749078382984   -0.03356744142744911   -0.0005791336715255084
-0.0007677362730048686   -0.027375893632095697   -0.00035988669222639525
-0.00428540290060888   -0.027342658295052426   -0.0004948908886297841
-0.004081907979600088   -0.03363093095967832   -0.000706010335212708
-0.004322055724304371   -0.027277903906388876   -0.00048052651199064514
-0.0009157749078382984   -0.03356744142744911   -0.0005791336715255084
-0.004103360190515899   -0.033563458208090036   -0.0006974433855398472
-0.004322055724304371   -0.027277903906388876   -0.00048052651199064514
-0.004081907979600088   -0.03363093095967832   -0.000706010335212708
-0.0009157749078382984   -0.03356744142744911   -0.0005791336715255084
-0.004322055724304371   -0.027277903906388876   -0.00048052651199064514
-0.0008003698772638952   -0.027297707120028786   -0.00036256895575136625
-0.0007677362730048686   -0.027375893632095697   -0.00035988669222639525
-0.0009157749078382984   -0.03356744142744911   -0.0005791336715255084
-0.004322055724304371   -0.027277903906388876   -0.00048052651199064514
-0.0007677362730048686   -0.027375893632095697   -0.00035988669222639525
-0.004081907979600088   -0.03363093095967832   -0.000706010335212708
-0.0009157749078382984   -0.03356744142744911   -0.0005791336715255084
-0.0008003698772638952   -0.027297707120028786   -0.00036256895575136625
-0.004103360190515899   -0.033563458208090036   -0.0006974433855398472
-0.000931870537562096   -0.03350376251124255   -0.0005930318777324184
-0.0008003698772638952   -0.027297707120028786   -0.00036256895575136625
-0.004322055724304371   -0.027277903906388876   -0.00048052651199064514
-0.004103360190515899   -0.033563458208090036   -0.0006974433855398472
-0.004359454273571279   -0.027222217562735237   -0.0004618511437581996
-0.000931870537562096   -0.03350376251124255   -0.0005930318777324184
-0.004125108591406411   -0.03351072695748775   -0.0006840868683890528
-0.004359454273571279   -0.027222217562735237   -0.0004618511437581996
-0.004103360190515899   -0.033563458208090036   -0.0006974433855398472
-0.000931870537562096   -0.03350376251124255   -0.0005930318777324184
-0.004359454273571279   -0.027222217562735237   -0.0004618511437581996
-0.0008366381931578919   -0.027230660848498775   -0.0003611156587245625
-0.0008003698772638952   -0.027297707120028786   -0.00036256895575136625
-0.000931870537562096   -0.03350376251124255   -0.0005930318777324184
-0.004359454273571279   -0.027222217562735237   -0.0004618511437581996
-0.0008003698772638952   -0.027297707120028786   -0.00036256895575136625
-0.004103360190515899   -0.033563458208090036   -0.0006974433855398472
-0.000931870537562096   -0.03350376251124255   -0.0005930318777324184
-0.0008366381931578919   -0.027230660848498775   -0.0003611156587245625
-0.004125108591406411   -0.03351072695748775   -0.0006840868683890528
-0.0009595190287075434   -0.033455262117485896   -0.0006024370189373086
-0.0008366381931578919   -0.027230660848498775   -0.0003611156587245625
-0.004359454273571279   -0.027222217562735237   -0.0004618511437581996
-0.004125108591406411   -0.03351072695748775   -0.0006840868683890528
-0.004400035957150376   -0.027176134336633153   -0.0004390705359786565
-0.0009595190287075434   -0.033455262117485896   -0.0006024370189373086
-0.004150267150399802   -0.03347298601085522   -0.0006661754316625749
-0.004400035957150376   -0.027176134336633153   -0.0004390705359786565
-0.004125108591406411   -0.03351072695748775   -0.0006840868683890528
-0.0009595190287075434   -0.033455262117485896   -0.0006024370189373086
-0.004400035957150376   -0.027176134336633153   -0.0004390705359786565
-0.0008817775368593237   -0.027172997747326854   -0.0003553637621377097
-0.0008366381931578919   -0.027230660848498775   -0.0003611156587245625
-0.0009595190287075434   -0.033455262117485896   -0.0006024370189373086
-0.004400035957150376   -0.027176134336633153   -0.0004390705359786565
-0.0008366381931578919   -0.027230660848498775   -0.0003611156587245625
-0.004125108591406411   -0.03351072695748775   -0.0006840868683890528
-0.004081907979600088   -0.03363093095967832   -0.000706010335212708
-0.00428540290060888   -0.027342658295052426   -0.0004948908886297841
-0.007209779215718336   -0.03356487298858153   -0.0008302973333360125
-0.004103360190515899   -0.033563458208090036   -0.0006974433855398472
-0.00428540290060888   -0.027342658295052426   -0.0004948908886297841
-0.0077436105916185135   -0.027280311600729294   -0.0006085861343608585
-0.007209779215718336   -0.03356487298858153   -0.0008302973333360125
-0.007781388808398762   -0.02722791640564039   -0.0005772167007054045
-0.004103360190515899   -0.033563458208090036   -0.0006974433855398472
-0.007232960617430585   -0.03350955767157628   -0.0007947542628677282
-0.007781388808398762   -0.02722791640564039   -0.0005772167007054045
-0.007209779215718336   -0.03356487298858153   -0.0008302973333360125
-0.004103360190515899   -0.033563458208090036   -0.0006974433855398472
-0.007781388808398762   -0.02722791640564039   -0.0005772167007054045
-0.004322055724304371   -0.027277903906388876   -0.00048052651199064514
-0.00428540290060888   -0.027342658295052426   -0.0004948908886297841
-0.004103360190515899   -0.033563458208090036   -0.0006974433855398472
-0.007781388808398762   -0.02722791640564039   -0.0005772167007054045
-0.00428540290060888   -0.027342658295052426   -0.0004948908886297841
-0.007209779215718336   -0.03356487298858153   -0.0008302973333360125
-0.004103360190515899   -0.033563458208090036   -0.0006974433855398472
-0.004322055724304371   -0.027277903906388876   -0.00048052651199064514
-0.007232960617430585   -0.03350955767157628   -0.0007947542628677282
-0.004125108591406411   -0.03351072695748775   -0.0006840868683890528
-0.004322055724304371   -0.027277903906388876   -0.00048052651199064514
-0.007781388808398762   -0.02722791640564039   -0.0005772167007054045
-0.007232960617430585   -0.03350955767157628   -0.0007947542628677282
-0.007815639796050697   -0.027184525257278533   -0.0005416379030303521
-0.004125108591406411   -0.03351072695748775   -0.0006840868683890528
-0.0072521408289186375   -0.0334688435937089   -0.0007545081097954311
-0.007815639796050697   -0.027184525257278533   -0.0005416379030303521
-0.007232960617430585   -0.03350955767157628   -0.0007947542628677282
-0.004125108591406411   -0.03351072695748775   -0.0006840868683890528
-0.007815639796050697   -0.027184525257278533   -0.0005416379030303521
-0.004359454273571279   -0.027222217562735237   -0.0004618511437581996
-0.004322055724304371   -0.027277903906388876   -0.00048052651199064514
-0.004125108591406411   -0.03351072695748775   -0.0006840868683890528
-0.007815639796050697   -0.027184525257278533   -0.0005416379030303521
-0.004322055724304371   -0.027277903906388876   -0.00048052651199064514
-0.007232960617430585   -0.03350955767157628   -0.0007947542628677282
-0.004125108591406411   -0.03351072695748775   -0.0006840868683890528
-0.004359454273571279   -0.027222217562735237   -0.0004618511437581996
-0.0072521408289186375   -0.0334688435937089   -0.0007545081097954311
-0.004150267150399802   -0.03347298601085522   -0.0006661754316625749
-0.004359454273571279   -0.027222217562735237   -0.0004618511437581996
-0.007815639796050697   -0.027184525257278533   -0.0005416379030303521
-0.0072521408289186375   -0.0334688435937089   -0.0007545081097954311
-0.007850218366995025   -0.027150208724297943   -0.0005020088684909803
-0.004150267150399802   -0.03347298601085522   -0.0006661754316625749
-0.007271887157736057   -0.033442668297620624   -0.0007096961573948719
-0.007850218366995025   -0.027150208724297943   -0.0005020088684909803
-0.0072521408289186375   -0.0334688435937089   -0.0007545081097954311
-0.004150267150399802   -0.03347298601085522   -0.0006661754316625749
-0.007850218366995025   -0.027150208724297943   -0.0005020088684909803
-0.004400035957150376   -0.027176134336633153   -0.0004390705359786565
-0.004359454273571279   -0.027222217562735237   -0.0004618511437581996
-0.004150267150399802   -0.03347298601085522   -0.0006661754316625749
-0.007850218366995025   -0.027150208724297943   -0.0005020088684909803
-0.004359454273571279   -0.027222217562735237   -0.0004618511437581996
-0.0072521408289186375   -0.0334688435937089   -0.0007545081097954311
-0.007209779215718336   -0.03356487298858153   -0.0008302973333360125
-0.0077436105916185135   -0.027280311600729294   -0.0006085861343608585
-0.010412026595453988   -0.0334514497272397   -0.0009339519338429423
-0.007232960617430585   -0.03350955767157628   -0.0007947542628677282
-0.0077436105916185135   -0.027280311600729294   -0.0006085861343608585
-0.01127040210919661   -0.0271875340590117   -0.000701251109834902
-0.010412026595453988   -0.0334514497272397   -0.0009339519338429423
-0.01130543891610432   -0.027147591983156555   -0.0006527446535586217
-0.007232960617430585   -0.03350955767157628   -0.0007947542628677282
-0.010431140083697282   -0.03340799335025558   -0.0008710619269488727
-0.01130543891610432   -0.027147591983156555   -0.0006527446535586217
-0.010412026595453988   -0.0334514497272397   -0.0009339519338429423
-0.007232960617430585   -0.03350955767157628   -0.0007947542628677282
-0.01130543891610432   -0.027147591983156555   -0.0006527446535586217
-0.007781388808398762   -0.02722791640564039   -0.0005772167007054045
-0.0077436105916185135   -0.027280311600729294   -0.0006085861343608585
-0.007232960617430585   -0.03350955767157628   -0.0007947542628677282
-0.01130543891610432   -0.027147591983156555   -0.0006527446535586217
-0.0077436105916185135   -0.027280311600729294   -0.0006085861343608585
-0.010412026595453988   -0.0334514497272397   -0.0009339519338429423
-0.007232960617430585   -0.03350955767157628   -0.0007947542628677282
-0.007781388808398762   -0.02722791640564039   -0.0005772167007054045
-0.010431140083697282   -0.03340799335025558   -0.0008710619269488727
-0.0072521408289186375   -0.0334688435937089   -0.0007545081097954311
-0.007781388808398762   -0.02722791640564039   -0.0005772167007054045
-0.01130543891610432   -0.027147591983156555   -0.0006527446535586217
-0.010431140083697282   -0.03340799335025558   -0.0008710619269488727
-0.011326510088588015   -0.02711553806507495   -0.0006005937669248438
-0.0072521408289186375   -0.0334688435937089   -0.0007545081097954311
-0.010433369223554747   -0.033378270840507186   -0.0008041190189450754
-0.011326510088588015   -0.02711553806507495   -0.0006005937669248438
-0.010431140083697282   -0.03340799335025558   -0.0008710619269488727
-0.0072521408289186375   -0.0334688435937089   -0.0007545081097954311
-0.011326510088588015   -0.02711553806507495   -0.0006005937669248438
-0.007815639796050697   -0.027184525257278533   -0.0005416379030303521
-0.007781388808398762   -0.02722791640564039   -0.0005772167007054045
-0.0072521408289186375   -0.0334688435937089   -0.0007545081097954311
-0.011326510088588015   -0.02711553806507495   -0.0006005937669248438
-0.007781388808398762   -0.02722791640564039   -0.0005772167007054045
-0.010431140083697282   -0.03340799335025558   -0.0008710619269488727
-0.0072521408289186375   -0.0334688435937089   -0.0007545081097954311
-0.007815639796050697   -0.027184525257278533   -0.0005416379030303521
-0.010433369223554747   -0.033378270840507186   -0.0008041190189450754
-0.007271887157736057   -0.033442668297620624   -0.0007096961573948719
-0.007815639796050697   -0.027184525257278533   -0.0005416379030303521
-0.011326510088588015   -0.02711553806507495   -0.0006005937669248438
-0.010433369223554747   -0.033378270840507186   -0.0008041190189450754
-0.011349733004297681   -0.027093353318509632   -0.0005440463945283917
-0.007271887157736057   -0.033442668297620624   -0.0007096961573948719
-0.010440443101072809   -0.03336440096437226   -0.0007322629557465178
-0.011349733004297681   -0.027093353318509632   -0.0005440463945283917
-0.010433369223554747   -0.033378270840507186   -0.0008041190189450754
-0.007271887157736057   -0.033442668297620624   -0.0007096961573948719
-0.011349733004297681   -0.027093353318509632   -0.0005440463945283917
-0.007850218366995025   -0.027150208724297943   -0.0005020088684909803
-0.007815639796050697   -0.027184525257278533   -0.0005416379030303521
-0.007271887157736057   -0.033442668297620624   -0.0007096961573948719
-0.011349733004297681   -0.027093353318509632   -0.0005440463945283917
-0.007815639796050697   -0.027184525257278533   -0.0005416379030303521
-0.010433369223554747   -0.033378270840507186   -0.0008041190189450754
-0.010412026595453988   -0.0334514497272397   -0.0009339519338429423
-0.01127040210919661   -0.0271875340590117   -0.000701251109834902
-0.01390439569690861   -0.03330240254674303   -0.001022512476856198
-0.010431140083697282   -0.03340799335025558   -0.0008710619269488727
-0.01127040210919661   -0.0271875340590117   -0.000701251109834902
-0.015056271473255623   -0.027073139128077094   -0.0007747880215151835
-0.01390439569690861   -0.03330240254674303   -0.001022512476856198
-0.01502948784605241   -0.02703955581436637   -0.0007100085139604006
-0.010431140083697282   -0.03340799335025558   -0.0008710619269488727
-0.013836756129529053   -0.03326270374370141   -0.0009306230732805857
-0.01502948784605241   -0.02703955581436637   -0.0007100085139604006
-0.01390439569690861   -0.03330240254674303   -0.001022512476856198
-0.010431140083697282   -0.03340799335025558   -0.0008710619269488727
-0.01502948784605241   -0.02703955581436637   -0.0007100085139604006
-0.01130543891610432   -0.027147591983156555   -0.0006527446535586217
-0.01127040210919661   -0.0271875340590117   -0.000701251109834902
-0.010431140083697282   -0.03340799335025558   -0.0008710619269488727
-0.01502948784605241   -0.02703955581436637   -0.0007100085139604006
-0.01127040210919661   -0.0271875340590117   -0.000701251109834902
-0.01390439569690861   -0.03330240254674303   -0.001022512476856198
-0.010431140083697282   -0.03340799335025558   -0.0008710619269488727
-0.01130543891610432   -0.027147591983156555   -0.0006527446535586217
-0.013836756129529053   -0.03326270374370141   -0.0009306230732805857
-0.010433369223554747   -0.033378270840507186   -0.0008041190189450754
-0.01130543891610432   -0.027147591983156555   -0.0006527446535586217
-0.01502948784605241   -0.02703955581436637   -0.0007100085139604006
-0.013836756129529053   -0.03326270374370141   -0.0009306230732805857
-0.01500765096278767   -0.027012845789841658   -0.0006385411458273092
-0.010433369223554747   -0.033378270840507186   -0.0008041190189450754
-0.013779778952190931   -0.03323764503600631   -0.0008316521192048507
-0.01500765096278767   -0.027012845789841658   -0.0006385411458273092
-0.013836756129529053   -0.03326270374370141   -0.0009306230732805857
-0.010433369223554747   -0.033378270840507186   -0.0008041190189450754
-0.01500765096278767   -0.027012845789841658   -0.0006385411458273092
-0.011326510088588015   -0.02711553806507495   -0.0006005937669248438
-0.01130543891610432   -0.027147591983156555   -0.0006527446535586217
-0.010433369223554747   -0.033378270840507186   -0.0008041190189450754
-0.01500765096278767   -0.027012845789841658   -0.0006385411458273092
-0.01130543891610432   -0.027147591983156555   -0.0006527446535586217
-0.013836756129529053   -0.03326270374370141   -0.0009306230732805857
-0.010433369223554747   -0.033378270840507186   -0.0008041190189450754
-0.011326510088588015   -0.02711553806507495   -0.0006005937669248438
-0.013779778952190931   -0.03323764503600631   -0.0008316521192048507
-0.010440443101072809   -0.03336440096437226   -0.0007322629557465178
-0.011326510088588015   -0.02711553806507495   -0.0006005937669248438
-0.01500765096278767   -0.027012845789841658   -0.0006385411458273092
-0.013779778952190931   -0.03323764503600631   -0.0008316521192048507
-0.014955945039407162   -0.02700524636949696   -0.0005611477669038927
-0.010440443101072809   -0.03336440096437226   -0.0007322629557465178
-0.013686055808377348   -0.033239480936247914   -0.0007264840534445161
-0.014955945039407162   -0.02700524636949696   -0.0005611477669038927
-0.013779778952190931   -0.03323764503600631   -0.0008316521192048507
-0.010440443101072809   -0.03336440096437226   -0.0007322629557465178
-0.014955945039407162   -0.02700524636949696   -0.0005611477669038927
-0.011349733004297681   -0.027093353318509632   -0.0005440463945283917
-0.011326510088588015   -0.02711553806507495   -0.0006005937669248438
-0.010440443101072809   -0.03336440096437226   -0.0007322629557465178
-0.014955945039407162   -0.02700524636949696   -0.0005611477669038927
-0.011326510088588015   -0.02711553806507495   -0.0006005937669248438
-0.013779778952190931   -0.03323764503600631   -0.0008316521192048507
0.0029198199632939786   -0.027376200615267667   -0.00019587362365436407
0.0030255956535527196   -0.020700751973239315   -3.155940061152223e-05
-0.0007677362730048686   -0.027375893632095697   -0.00035988669222639525
0.0029100056289793575   -0.027286099005663887   -0.00022240046782812301
0.0030255956535527196   -0.020700751973239315   -3.155940061152223e-05
-0.0008748219188513239   -0.020666874551252164   -0.00017880332304386358
-0.0007677362730048686   -0.027375893632095697   -0.00035988669222639525
-0.0009197786378319743   -0.020592119728606445   -0.00016557539503328053
0.0029100056289793575   -0.027286099005663887   -0.00022240046782812301
-0.0008003698772638952   -0.027297707120028786   -0.00036256895575136625
-0.0009197786378319743   -0.020592119728606445   -0.00016557539503328053
-0.0007677362730048686   -0.027375893632095697   -0.00035988669222639525
0.0029100056289793575   -0.027286099005663887   -0.00022240046782812301
-0.0009197786378319743   -0.020592119728606445   -0.00016557539503328053
0.002978342199499474   -0.020614878632207317   -2.936820817705914e-05
0.0030255956535527196   -0.020700751973239315   -3.155940061152223e-05
0.0029100056289793575   -0.027286099005663887   -0.00022240046782812301
-0.0009197786378319743   -0.020592119728606445   -0.00016557539503328053
0.0030255956535527196   -0.020700751973239315   -3.155940061152223e-05
-0.0007677362730048686   -0.027375893632095697   -0.00035988669222639525
0.0029100056289793575   -0.027286099005663887   -0.00022240046782812301
0.002978342199499474   -0.020614878632207317   -2.936820817705914e-05
-0.0008003698772638952   -0.027297707120028786   -0.00036256895575136625
0.0028841718461477383   -0.02721393947162338   -0.0002422986479148388
0.002978342199499474   -0.020614878632207317   -2.936820817705914e-05
-0.0009197786378319743   -0.020592119728606445   -0.00016557539503328053
-0.0008003698772638952   -0.027297707120028786   -0.00036256895575136625
-0.0009712832232966326   -0.020521743463605812   -0.00014858642289005642
0.0028841718461477383   -0.02721393947162338   -0.0002422986479148388
-0.0008366381931578919   -0.027230660848498775   -0.0003611156587245625
-0.0009712832232966326   -0.020521743463605812   -0.00014858642289005642
-0.0008003698772638952   -0.027297707120028786   -0.00036256895575136625
0.0028841718461477383   -0.02721393947162338   -0.0002422986479148388
-0.0009712832232966326   -0.020521743463605812   -0.00014858642289005642
0.002919986098466183   -0.02053841599505927   -1.9499685606906657e-05
0.002978342199499474   -0.020614878632207317   -2.936820817705914e-05
0.0028841718461477383   -0.02721393947162338   -0.0002422986479148388
-0.0009712832232966326   -0.020521743463605812   -0.00014858642289005642
0.002978342199499474   -0.020614878632207317   -2.936820817705914e-05
-0.0008003698772638952   -0.027297707120028786   -0.00036256895575136625
0.0028841718461477383   -0.02721393947162338   -0.0002422986479148388
0.002919986098466183   -0.02053841599505927   -1.9499685606906657e-05
-0.0008366381931578919   -0.027230660848498775   -0.0003611156587245625
0.0028479829700857905   -0.02714780459924626   -0.00025603120761666544
0.002919986098466183   -0.02053841599505927   -1.9499685606906657e-05
-0.0009712832232966326   -0.020521743463605812   -0.00014858642289005642
-0.0008366381931578919   -0.027230660848498775   -0.0003611156587245625
-0.0010291789060999687   -0.02045477341309838   -0.00012689507854473864
0.0028479829700857905   -0.02714780459924626   -0.00025603120761666544
-0.0008817775368593237   -0.027172997747326854   -0.0003553637621377097
-0.0010291789060999687   -0.02045477341309838   -0.00012689507854473864
-0.0008366381931578919   -0.027230660848498775   -0.0003611156587245625
0.0028479829700857905   -0.02714780459924626   -0.00025603120761666544
-0.0010291789060999687   -0.02045477341309838   -0.00012689507854473864
0.002842968456782573   -0.020458569888054116   -2.298910163138416e-06
0.002919986098466183   -0.02053841599505927   -1.9499685606906657e-05
0.0028479829700857905   -0.02714780459924626   -0.00025603120761666544
-0.0010291789060999687   -0.02045477341309838   -0.00012689507854473864
0.002919986098466183   -0.02053841599505927   -1.9499685606906657e-05
-0.0008366381931578919   -0.027230660848498775   -0.0003611156587245625
-0.0007677362730048686   -0.027375893632095697   -0.00035988669222639525
-0.0008748219188513239   -0.020666874551252164   -0.00017880332304386358
-0.00428540290060888   -0.027342658295052426   -0.0004948908886297841
-0.0008003698772638952   -0.027297707120028786   -0.00036256895575136625
-0.0008748219188513239   -0.020666874551252164   -0.00017880332304386358
-0.004570544157782498   -0.020626951069253097   -0.00030304118611308045
-0.00428540290060888   -0.027342658295052426   -0.0004948908886297841
-0.004616518386091963   -0.02056459445317853   -0.0002824888051448024
-0.0008003698772638952   -0.027297707120028786   -0.00036256895575136625
-0.004322055724304371   -0.027277903906388876   -0.00048052651199064514
-0.004616518386091963   -0.02056459445317853   -0.0002824888051448024
-0.00428540290060888   -0.027342658295052426   -0.0004948908886297841
-0.0008003698772638952   -0.027297707120028786   -0.00036256895575136625
-0.004616518386091963   -0.02056459445317853   -0.0002824888051448024
-0.0009197786378319743   -0.020592119728606445   -0.00016557539503328053
-0.0008748219188513239   -0.020666874551252164   -0.00017880332304386358
-0.0008003698772638952   -0.027297707120028786   -0.00036256895575136625
-0.004616518386091963   -0.02056459445317853   -0.0002824888051448024
-0.0008748219188513239   -0.020666874551252164   -0.00017880332304386358
-0.00428540290060888   -0.027342658295052426   -0.0004948908886297841
-0.0008003698772638952   -0.027297707120028786   -0.00036256895575136625
-0.0009197786378319743   -0.020592119728606445   -0.00016557539503328053
-0.004322055724304371   -0.027277903906388876   -0.00048052651199064514
-0.0008366381931578919   -0.027230660848498775   -0.0003611156587245625
-0.0009197786378319743   -0.020592119728606445   -0.00016557539503328053
-0.004616518386091963   -0.02056459445317853   -0.0002824888051448024
-0.004322055724304371   -0.027277903906388876   -0.00048052651199064514
-0.0046635354329490975   -0.0205056325584365   -0.0002583463613605237
-0.0008366381931578919   -0.027230660848498775   -0.0003611156587245625
-0.004359454273571279   -0.027222217562735237   -0.0004618511437581996
-0.0046635354329490975   -0.0205056325584365   -0.0002583463613605237
-0.004322055724304371   -0.027277903906388876   -0.00048052651199064514
-0.0008366381931578919   -0.027230660848498775   -0.0003611156587245625
-0.0046635354329490975   -0.0205056325584365   -0.0002583463613605237
-0.0009712832232966326   -0.020521743463605812   -0.00014858642289005642
-0.0009197786378319743   -0.020592119728606445   -0.00016557539503328053
-0.0008366381931578919   -0.027230660848498775   -0.0003611156587245625
-0.0046635354329490975   -0.0205056325584365   -0.0002583463613605237
-0.0009197786378319743   -0.020592119728606445   -0.00016557539503328053
-0.004322055724304371   -0.027277903906388876   -0.00048052651199064514
-0.0008366381931578919   -0.027230660848498775   -0.0003611156587245625
-0.0009712832232966326   -0.020521743463605812   -0.00014858642289005642
-0.004359454273571279   -0.027222217562735237   -0.0004618511437581996
-0.0008817775368593237   -0.027172997747326854   -0.0003553637621377097
-0.0009712832232966326   -0.020521743463605812   -0.00014858642289005642
-0.0046635354329490975   -0.0205056325584365   -0.0002583463613605237
-0.004359454273571279   -0.027222217562735237   -0.0004618511437581996
-0.004713562878230733   -0.020450996438010197   -0.00023057960111825483
-0.0008817775368593237   -0.027172997747326854   -0.0003553637621377097
-0.004400035957150376   -0.027176134336633153   -0.0004390705359786565
-0.004713562878230733   -0.020450996438010197   -0.00023057960111825483
-0.004359454273571279   -0.027222217562735237   -0.0004618511437581996
-0.0008817775368593237   -0.027172997747326854   -0.0003553637621377097
-0.004713562878230733   -0.020450996438010197   -0.00023057960111825483
-0.0010291789060999687   -0.02045477341309838   -0.00012689507854473864
-0.0009712832232966326   -0.020521743463605812   -0.00014858642289005642
-0.0008817775368593237   -0.027172997747326854   -0.0003553637621377097
-0.004713562878230733   -0.020450996438010197   -0.00023057960111825483
-0.0009712832232966326   -0.020521743463605812   -0.00014858642289005642
-0.004359454273571279   -0.027222217562735237   -0.0004618511437581996
-0.00428540290060888   -0.027342658295052426   -0.0004948908886297841
-0.004570544157782498   -0.020626951069253097   -0.00030304118611308045
-0.0077436105916185135   -0.027280311600729294   -0.0006085861343608585
-0.004322055724304371   -0.027277903906388876   -0.00048052651199064514
-0.004570544157782498   -0.020626951069253097   -0.00030304118611308045
-0.008205914921816332   -0.020578874446530743   -0.00040832742793784244
-0.0077436105916185135   -0.027280311600729294   -0.0006085861343608585
-0.008251600674308706   -0.020527983181864405   -0.0003804731533522262
-0.004322055724304371   -0.027277903906388876   -0.00048052651199064514
-0.007781388808398762   -0.02722791640564039   -0.0005772167007054045
-0.008251600674308706   -0.020527983181864405   -0.0003804731533522262
-0.0077436105916185135   -0.027280311600729294   -0.0006085861343608585
-0.004322055724304371   -0.027277903906388876   -0.00048052651199064514
-0.008251600674308706   -0.020527983181864405   -0.0003804731533522262
-0.004616518386091963   -0.02056459445317853   -0.0002824888051448024
-0.004570544157782498   -0.020626951069253097   -0.00030304118611308045
-0.004322055724304371   -0.027277903906388876   -0.00048052651199064514
-0.008251600674308706   -0.020527983181864405   -0.0003804731533522262
-0.004570544157782498   -0.020626951069253097   -0.00030304118611308045
-0.0077436105916185135   -0.027280311600729294   -0.0006085861343608585
-0.004322055724304371   -0.027277903906388876   -0.00048052651199064514
-0.004616518386091963   -0.02056459445317853   -0.0002824888051448024
-0.007781388808398762   -0.02722791640564039   -0.0005772167007054045
-0.004359454273571279   -0.027222217562735237   -0.0004618511437581996
-0.004616518386091963   -0.02056459445317853   -0.0002824888051448024
-0.008251600674308706   -0.020527983181864405   -0.0003804731533522262
-0.007781388808398762   -0.02722791640564039   -0.0005772167007054045
-0.008294317986527765   -0.020480671560131693   -0.0003491512875937122
-0.004359454273571279   -0.027222217562735237   -0.0004618511437581996
-0.007815639796050697   -0.027184525257278533   -0.0005416379030303521
-0.008294317986527765   -0.020480671560131693   -0.0003491512875937122
-0.007781388808398762   -0.02722791640564039   -0.0005772167007054045
-0.004359454273571279   -0.027222217562735237   -0.0004618511437581996
-0.008294317986527765   -0.020480671560131693   -0.0003491512875937122
-0.0046635354329490975   -0.0205056325584365   -0.0002583463613605237
-0.004616518386091963   -0.02056459445317853   -0.0002824888051448024
-0.004359454273571279   -0.027222217562735237   -0.0004618511437581996
-0.008294317986527765   -0.020480671560131693   -0.0003491512875937122
-0.004616518386091963   -0.02056459445317853   -0.0002824888051448024
-0.007781388808398762   -0.02722791640564039   -0.0005772167007054045
-0.004359454273571279   -0.027222217562735237   -0.0004618511437581996
-0.0046635354329490975   -0.0205056325584365   -0.0002583463613605237
-0.007815639796050697   -0.027184525257278533   -0.0005416379030303521
-0.004400035957150376   -0.027176134336633153   -0.0004390705359786565
-0.0046635354329490975   -0.0205056325584365   -0.0002583463613605237
-0.008294317986527765   -0.020480671560131693   -0.0003491512875937122
-0.007815639796050697   -0.027184525257278533   -0.0005416379030303521
-0.008337188511708052   -0.020437067903466777   -0.000314532231119804
-0.004400035957150376   -0.027176134336633153   -0.0004390705359786565
-0.007850218366995025   -0.027150208724297943   -0.0005020088684909803
-0.008337188511708052   -0.020437067903466777   -0.000314532231119804
-0.007815639796050697   -0.027184525257278533   -0.0005416379030303521
-0.004400035957150376   -0.027176134336633153   -0.0004390705359786565
-0.008337188511708052   -0.020437067903466777   -0.000314532231119804
-0.004713562878230733   -0.020450996438010197   -0.00023057960111825483
-0.0046635354329490975   -0.0205056325584365   -0.0002583463613605237
-0.004400035957150376   -0.027176134336633153   -0.0004390705359786565
-0.008337188511708052   -0.020437067903466777   -0.000314532231119804
-0.0046635354329490975   -0.0205056325584365   -0.0002583463613605237
-0.007815639796050697   -0.027184525257278533   -0.0005416379030303521
-0.0077436105916185135   -0.027280311600729294   -0.0006085861343608585
-0.008205914921816332   -0.020578874446530743   -0.00040832742793784244
-0.01127040210919661   -0.0271875340590117   -0.000701251109834902
-0.007781388808398762   -0.02722791640564039   -0.0005772167007054045
-0.008205914921816332   -0.020578874446530743   -0.00040832742793784244
-0.01190708644452197   -0.020513749533245675   -0.0004937588386013751
-0.01127040210919661   -0.0271875340590117   -0.000701251109834902
-0.011950818157170452   -0.02047491786053598   -0.00045869043532255496
-0.007781388808398762   -0.02722791640564039   -0.0005772167007054045
-0.01130543891610432   -0.027147591983156555   -0.0006527446535586217
-0.011950818157170452   -0.02047491786053598   -0.00045869043532255496
-0.01127040210919661   -0.0271875340590117   -0.000701251109834902
-0.007781388808398762   -0.02722791640564039   -0.0005772167007054045
-0.011950818157170452   -0.02047491786053598   -0.00045869043532255496
-0.008251600674308706   -0.020527983181864405   -0.0003804731533522262
-0.008205914921816332   -0.020578874446530743   -0.00040832742793784244
-0.007781388808398762   -0.02722791640564039   -0.0005772167007054045
-0.011950818157170452   -0.02047491786053598   -0.00045869043532255496
-0.008205914921816332   -0.020578874446530743   -0.00040832742793784244
-0.01127040210919661   -0.0271875340590117   -0.000701251109834902
-0.007781388808398762   -0.02722791640564039   -0.0005772167007054045
-0.008251600674308706   -0.020527983181864405   -0.0003804731533522262
-0.01130543891610432   -0.027147591983156555   -0.0006527446535586217
-0.007815639796050697   -0.027184525257278533   -0.0005416379030303521
-0.008251600674308706   -0.020527983181864405   -0.0003804731533522262
-0.011950818157170452   -0.02047491786053598   -0.00045869043532255496
-0.01130543891610432   -0.027147591983156555   -0.0006527446535586217
-0.01198386729122447   -0.020438346673074908   -0.0004207203347195522
-0.007815639796050697   -0.027184525257278533   -0.0005416379030303521
-0.011326510088588015   -0.02711553806507495   -0.0006005937669248438
-0.01198386729122447   -0.020438346673074908   -0.0004207203347195522
-0.01130543891610432   -0.027147591983156555   -0.0006527446535586217
-0.007815639796050697   -0.027184525257278533   -0.0005416379030303521
-0.01198386729122447   -0.020438346673074908   -0.0004207203347195522
-0.008294317986527765   -0.020480671560131693   -0.0003491512875937122
-0.008251600674308706   -0.020527983181864405   -0.0003804731533522262
-0.007815639796050697   -0.027184525257278533   -0.0005416379030303521
-0.01198386729122447   -0.020438346673074908   -0.0004207203347195522
-0.008251600674308706   -0.020527983181864405   -0.0003804731533522262
-0.01130543891610432   -0.027147591983156555   -0.0006527446535586217
-0.007815639796050697   -0.027184525257278533   -0.0005416379030303521
-0.008294317986527765   -0.020480671560131693   -0.0003491512875937122
-0.011326510088588015   -0.02711553806507495   -0.0006005937669248438
-0.007850218366995025   -0.027150208724297943   -0.0005020088684909803
-0.008294317986527765   -0.020480671560131693   -0.0003491512875937122
-0.01198386729122447   -0.020438346673074908   -0.0004207203347195522
-0.011326510088588015   -0.02711553806507495   -0.0006005937669248438
-0.012016683766820059   -0.02040569697194419   -0.0003790970719598148
-0.007850218366995025   -0.027150208724297943   -0.0005020088684909803
-0.011349733004297681   -0.027093353318509632   -0.0005440463945283917
-0.012016683766820059   -0.02040569697194419   -0.0003790970719598148
-0.011326510088588015   -0.02711553806507495   -0.0006005937669248438
-0.007850218366995025   -0.027150208724297943   -0.0005020088684909803
-0.012016683766820059   -0.02040569697194419   -0.0003790970719598148
-0.008337188511708052   -0.020437067903466777   -0.000314532231119804
-0.008294317986527765   -0.020480671560131693   -0.0003491512875937122
-0.007850218366995025   -0.027150208724297943   -0.0005020088684909803
-0.012016683766820059   -0.02040569697194419   -0.0003790970719598148
-0.008294317986527765   -0.020480671560131693   -0.0003491512875937122
-0.011326510088588015   -0.02711553806507495   -0.0006005937669248438
-0.01127040210919661   -0.0271875340590117   -0.000701251109834902
-0.01190708644452197   -0.020513749533245675   -0.0004937588386013751
-0.015056271473255623   -0.027073139128077094   -0.0007747880215151835
-0.01130543891610432   -0.027147591983156555   -0.0006527446535586217
-0.01190708644452197   -0.020513749533245675   -0.0004937588386013751
-0.01583083247518929   -0.020436580740634258   -0.0005568360473384051
-0.015056271473255623   -0.027073139128077094   -0.0007747880215151835
-0.015836916346183977   -0.02040577046488266   -0.0005179025202959592
-0.01130543891610432   -0.027147591983156555   -0.0006527446535586217
-0.01502948784605241   -0.02703955581436637   -0.0007100085139604006
-0.015836916346183977   -0.02040577046488266   -0.0005179025202959592
-0.015056271473255623   -0.027073139128077094   -0.0007747880215151835
-0.01130543891610432   -0.027147591983156555   -0.0006527446535586217
-0.015836916346183977   -0.02040577046488266   -0.0005179025202959592
-0.011950818157170452   -0.02047491786053598   -0.00045869043532255496
-0.01190708644452197   -0.020513749533245675   -0.0004937588386013751
-0.01130543891610432   -0.027147591983156555   -0.0006527446535586217
-0.015836916346183977   -0.02040577046488266   -0.0005179025202959592
-0.01190708644452197   -0.020513749533245675   -0.0004937588386013751
-0.015056271473255623   -0.027073139128077094   -0.0007747880215151835
-0.01130543891610432   -0.027147591983156555   -0.0006527446535586217
-0.011950818157170452   -0.02047491786053598   -0.00045869043532255496
-0.01502948784605241   -0.02703955581436637   -0.0007100085139604006
-0.011326510088588015   -0.02711553806507495   -0.0006005937669248438
-0.011950818157170452   -0.02047491786053598   -0.00045869043532255496
-0.015836916346183977   -0.02040577046488266   -0.0005179025202959592
-0.01502948784605241   -0.02703955581436637   -0.0007100085139604006
-0.015843268916294364   -0.02037471843920746   -0.00047313377429567384
-0.011326510088588015   -0.02711553806507495   -0.0006005937669248438
-0.01500765096278767   -0.027012845789841658   -0.0006385411458273092
-0.015843268916294364   -0.02037471843920746   -0.00047313377429567384
-0.01502948784605241   -0.02703955581436637   -0.0007100085139604006
-0.011326510088588015   -0.02711553806507495   -0.0006005937669248438
-0.015843268916294364   -0.02037471843920746   -0.00047313377429567384
-0.01198386729122447   -0.020438346673074908   -0.0004207203347195522
-0.011950818157170452   -0.02047491786053598   -0.00045869043532255496
-0.011326510088588015   -0.02711553806507495   -0.0006005937669248438
-0.015843268916294364   -0.02037471843920746   -0.00047313377429567384
-0.011950818157170452   -0.02047491786053598   -0.00045869043532255496
-0.01502948784605241   -0.02703955581436637   -0.0007100085139604006
-0.011326510088588015   -0.02711553806507495   -0.0006005937669248438
-0.01198386729122447   -0.020438346673074908   -0.0004207203347195522
-0.01500765096278767   -0.027012845789841658   -0.0006385411458273092
-0.011349733004297681   -0.027093353318509632   -0.0005440463945283917
-0.01198386729122447   -0.020438346673074908   -0.0004207203347195522
-0.015843268916294364   -0.02037471843920746   -0.00047313377429567384
-0.01500765096278767   -0.027012845789841658   -0.0006385411458273092
-0.015827394229293003   -0.02035479305683753   -0.00042321800167322536
-0.011349733004297681   -0.027093353318509632   -0.0005440463945283917
-0.014955945039407162   -0.02700524636949696   -0.0005611477669038927
-0.015827394229293003   -0.02035479305683753   -0.00042321800167322536
-0.01500765096278767   -0.027012845789841658   -0.0006385411458273092
-0.011349733004297681   -0.027093353318509632   -0.0005440463945283917
-0.015827394229293003   -0.02035479305683753   -0.00042321800167322536
-0.012016683766820059   -0.02040569697194419   -0.0003790970719598148
-0.01198386729122447   -0.020438346673074908   -0.0004207203347195522
-0.011349733004297681   -0.027093353318509632   -0.0005440463945283917
-0.015827394229293003   -0.02035479305683753   -0.00042321800167322536
-0.01198386729122447   -0.020438346673074908   -0.0004207203347195522
-0.01500765096278767   -0.027012845789841658   -0.0006385411458273092
0.0030255956535527196   -0.020700751973239315   -3.155940061152223e-05
0.0027170737955227973   -0.013820520962431271   8.191912642545962e-05
-0.0008748219188513239   -0.020666874551252164   -0.00017880332304386358
0.002978342199499474   -0.020614878632207317   -2.936820817705914e-05
0.0027170737955227973   -0.013820520962431271   8.191912642545962e-05
-0.0012159572630994731   -0.013756125661144165   -3.4623209043306066e-05
-0.0008748219188513239   -0.020666874551252164   -0.00017880332304386358
-0.0012698753926926897   -0.013688571087748696   -6.694866325915019e-06
0.002978342199499474   -0.020614878632207317   -2.936820817705914e-05
-0.0009197786378319743   -0.020592119728606445   -0.00016557539503328053
-0.0012698753926926897   -0.013688571087748696   -6.694866325915019e-06
-0.0008748219188513239   -0.020666874551252164   -0.00017880332304386358
0.002978342199499474   -0.020614878632207317   -2.936820817705914e-05
-0.0012698753926926897   -0.013688571087748696   -6.694866325915019e-06
0.002632476997904098   -0.013738799603632206   0.0001164007042337278
0.0027170737955227973   -0.013820520962431271   8.191912642545962e-05
0.002978342199499474   -0.020614878632207317   -2.936820817705914e-05
-0.0012698753926926897   -0.013688571087748696   -6.694866325915019e-06
0.0027170737955227973   -0.013820520962431271   8.191912642545962e-05
-0.0008748219188513239   -0.020666874551252164   -0.00017880332304386358
0.002978342199499474   -0.020614878632207317   -2.936820817705914e-05
0.002632476997904098   -0.013738799603632206   0.0001164007042337278
-0.0009197786378319743   -0.020592119728606445   -0.00016557539503328053
0.002919986098466183   -0.02053841599505927   -1.9499685606906657e-05
0.002632476997904098   -0.013738799603632206   0.0001164007042337278
-0.0012698753926926897   -0.013688571087748696   -6.694866325915019e-06
-0.0009197786378319743   -0.020592119728606445   -0.00016557539503328053
-0.0013330037731588812   -0.013617343605523314   2.6244859033349443e-05
0.002919986098466183   -0.02053841599505927   -1.9499685606906657e-05
-0.0009712832232966326   -0.020521743463605812   -0.00014858642289005642
-0.0013330037731588812   -0.013617343605523314   2.6244859033349443e-05
-0.0009197786378319743   -0.020592119728606445   -0.00016557539503328053
0.002919986098466183   -0.02053841599505927   -1.9499685606906657e-05
-0.0013330037731588812   -0.013617343605523314   2.6244859033349443e-05
0.002537757610811605   -0.013657810837664267   0.0001661806739025642
0.002632476997904098   -0.013738799603632206   0.0001164007042337278
0.002919986098466183   -0.02053841599505927   -1.9499685606906657e-05
-0.0013330037731588812   -0.013617343605523314   2.6244859033349443e-05
0.002632476997904098   -0.013738799603632206   0.0001164007042337278
-0.0009197786378319743   -0.020592119728606445   -0.00016557539503328053
0.002919986098466183   -0.02053841599505927   -1.9499685606906657e-05
0.002537757610811605   -0.013657810837664267   0.0001661806739025642
-0.0009712832232966326   -0.020521743463605812   -0.00014858642289005642
0.002842968456782573   -0.020458569888054116   -2.298910163138416e-06
0.002537757610811605   -0.013657810837664267   0.0001661806739025642
-0.0013330037731588812   -0.013617343605523314   2.6244859033349443e-05
-0.0009712832232966326   -0.020521743463605812   -0.00014858642289005642
-0.0013983658128941903   -0.013541778918194079   6.413763550340889e-05
0.002842968456782573   -0.020458569888054116   -2.298910163138416e-06
-0.0010291789060999687   -0.02045477341309838   -0.00012689507854473864
-0.0013983658128941903   -0.013541778918194079   6.413763550340889e-05
-0.0009712832232966326   -0.020521743463605812   -0.00014858642289005642
0.002842968456782573   -0.020458569888054116   -2.298910163138416e-06
-0.0013983658128941903   -0.013541778918194079   6.413763550340889e-05
0.002421995625973004   -0.01355825518740453   0.00022100090150991203
0.002537757610811605   -0.013657810837664267   0.0001661806739025642
0.002842968456782573   -0.020458569888054116   -2.298910163138416e-06
-0.0013983658128941903   -0.013541778918194079   6.413763550340889e-05
0.002537757610811605   -0.013657810837664267   0.0001661806739025642
-0.0009712832232966326   -0.020521743463605812   -0.00014858642289005642
-0.0008748219188513239   -0.020666874551252164   -0.00017880332304386358
-0.0012159572630994731   -0.013756125661144165   -3.4623209043306066e-05
-0.004570544157782498   -0.020626951069253097   -0.00030304118611308045
-0.0009197786378319743   -0.020592119728606445   -0.00016557539503328053
-0.0012159572630994731   -0.013756125661144165   -3.4623209043306066e-05
-0.004918619262716746   -0.013739436786086433   -0.00014674815462392403
-0.004570544157782498   -0.020626951069253097   -0.00030304118611308045
-0.004967464638911324   -0.013680634760892487   -0.0001206272270871985
-0.0009197786378319743   -0.020592119728606445   -0.00016557539503328053
-0.004616518386091963   -0.02056459445317853   -0.0002824888051448024
-0.004967464638911324   -0.013680634760892487   -0.0001206272270871985
-0.004570544157782498   -0.020626951069253097   -0.00030304118611308045
-0.0009197786378319743   -0.020592119728606445   -0.00016557539503328053
-0.004967464638911324   -0.013680634760892487   -0.0001206272270871985
-0.0012698753926926897   -0.013688571087748696   -6.694866325915019e-06
-0.0012159572630994731   -0.013756125661144165   -3.4623209043306066e-05
-0.0009197786378319743   -0.020592119728606445   -0.00016557539503328053
-0.004967464638911324   -0.013680634760892487   -0.0001206272270871985
-0.0012159572630994731   -0.013756125661144165   -3.4623209043306066e-05
-0.004570544157782498   -0.020626951069253097   -0.00030304118611308045
-0.0009197786378319743   -0.020592119728606445   -0.00016557539503328053
-0.0012698753926926897   -0.013688571087748696   -6.694866325915019e-06
-0.004616518386091963   -0.02056459445317853   -0.0002824888051448024
-0.0009712832232966326   -0.020521743463605812   -0.00014858642289005642
-0.0012698753926926897   -0.013688571087748696   -6.694866325915019e-06
-0.004967464638911324   -0.013680634760892487   -0.0001206272270871985
-0.004616518386091963   -0.02056459445317853   -0.0002824888051448024
-0.00501801946176367   -0.01361949700452394   -9.188898937962982e-05
-0.0009712832232966326   -0.020521743463605812   -0.00014858642289005642
-0.0046635354329490975   -0.0205056325584365   -0.0002583463613605237
-0.00501801946176367   -0.01361949700452394   -9.188898937962982e-05
-0.004616518386091963   -0.02056459445317853   -0.0002824888051448024
-0.0009712832232966326   -0.020521743463605812   -0.00014858642289005642
-0.00501801946176367   -0.01361949700452394   -9.188898937962982e-05
-0.0013330037731588812   -0.013617343605523314   2.6244859033349443e-05
-0.0012698753926926897   -0.013688571087748696   -6.694866325915019e-06
-0.0009712832232966326   -0.020521743463605812   -0.00014858642289005642
-0.00501801946176367   -0.01361949700452394   -9.188898937962982e-05
-0.0012698753926926897   -0.013688571087748696   -6.694866325915019e-06
-0.004616518386091963   -0.02056459445317853   -0.0002824888051448024
-0.0009712832232966326   -0.020521743463605812   -0.00014858642289005642
-0.0013330037731588812   -0.013617343605523314   2.6244859033349443e-05
-0.0046635354329490975   -0.0205056325584365   -0.0002583463613605237
-0.0010291789060999687   -0.02045477341309838   -0.00012689507854473864
-0.0013330037731588812   -0.013617343605523314   2.6244859033349443e-05
-0.00501801946176367   -0.01361949700452394   -9.188898937962982e-05
-0.0046635354329490975   -0.0205056325584365   -0.0002583463613605237
-0.00507067789052194   -0.013557154469847819   -6.0016281325748175e-05
-0.0010291789060999687   -0.02045477341309838   -0.00012689507854473864
-0.004713562878230733   -0.020450996438010197   -0.00023057960111825483
-0.00507067789052194   -0.013557154469847819   -6.0016281325748175e-05
-0.0046635354329490975   -0.0205056325584365   -0.0002583463613605237
-0.0010291789060999687   -0.02045477341309838   -0.00012689507854473864
-0.00507067789052194   -0.013557154469847819   -6.0016281325748175e-05
-0.0013983658128941903   -0.013541778918194079   6.413763550340889e-05
-0.0013330037731588812   -0.013617343605523314   2.6244859033349443e-05
-0.0010291789060999687   -0.02045477341309838   -0.00012689507854473864
-0.00507067789052194   -0.013557154469847819   -6.0016281325748175e-05
-0.0013330037731588812   -0.013617343605523314   2.6244859033349443e-05
-0.0046635354329490975   -0.0205056325584365   -0.0002583463613605237
-0.004570544157782498   -0.020626951069253097   -0.00030304118611308045
-0.004918619262716746   -0.013739436786086433   -0.00014674815462392403
-0.008205914921816332   -0.020578874446530743   -0.00040832742793784244
-0.004616518386091963   -0.02056459445317853   -0.0002824888051448024
-0.004918619262716746   -0.013739436786086433   -0.00014674815462392403
-0.008582608646328793   -0.013734763903812888   -0.0002479673962636752
-0.008205914921816332   -0.020578874446530743   -0.00040832742793784244
-0.008629357456021535   -0.013683318382027196   -0.00022293249680577988
-0.004616518386091963   -0.02056459445317853   -0.0002824888051448024
-0.008251600674308706   -0.020527983181864405   -0.0003804731533522262
-0.008629357456021535   -0.013683318382027196   -0.00022293249680577988
-0.008205914921816332   -0.020578874446530743   -0.00040832742793784244
-0.004616518386091963   -0.02056459445317853   -0.0002824888051448024
-0.008629357456021535   -0.013683318382027196   -0.00022293249680577988
-0.004967464638911324   -0.013680634760892487   -0.0001206272270871985
-0.004918619262716746   -0.013739436786086433   -0.00014674815462392403
-0.004616518386091963   -0.02056459445317853   -0.0002824888051448024
-0.008629357456021535   -0.013683318382027196   -0.00022293249680577988
-0.004918619262716746   -0.013739436786086433   -0.00014674815462392403
-0.008205914921816332   -0.020578874446530743   -0.00040832742793784244
-0.004616518386091963   -0.02056459445317853   -0.0002824888051448024
-0.004967464638911324   -0.013680634760892487   -0.0001206272270871985
-0.008251600674308706   -0.020527983181864405   -0.0003804731533522262
-0.0046635354329490975   -0.0205056325584365   -0.0002583463613605237
-0.004967464638911324   -0.013680634760892487   -0.0001206272270871985
-0.008629357456021535   -0.013683318382027196   -0.00022293249680577988
-0.008251600674308706   -0.020527983181864405   -0.0003804731533522262
-0.008673893756054334   -0.01363098702754046   -0.00019560461989715278
-0.0046635354329490975   -0.0205056325584365   -0.0002583463613605237
-0.008294317986527765   -0.020480671560131693   -0.0003491512875937122
-0.008673893756054334   -0.01363098702754046   -0.00019560461989715278
-0.008251600674308706   -0.020527983181864405   -0.0003804731533522262
-0.0046635354329490975   -0.0205056325584365   -0.0002583463613605237
-0.008673893756054334   -0.01363098702754046   -0.00019560461989715278
-0.00501801946176367   -0.01361949700452394   -9.188898937962982e-05
-0.004967464638911324   -0.013680634760892487   -0.0001206272270871985
-0.0046635354329490975   -0.0205056325584365   -0.0002583463613605237
-0.008673893756054334   -0.01363098702754046   -0.00019560461989715278
-0.004967464638911324   -0.013680634760892487   -0.0001206272270871985
-0.008251600674308706   -0.020527983181864405   -0.0003804731533522262
-0.0046635354329490975   -0.0205056325584365   -0.0002583463613605237
-0.00501801946176367   -0.01361949700452394   -9.188898937962982e-05
-0.008294317986527765   -0.020480671560131693   -0.0003491512875937122
-0.004713562878230733   -0.020450996438010197   -0.00023057960111825483
-0.00501801946176367   -0.01361949700452394   -9.188898937962982e-05
-0.008673893756054334   -0.01363098702754046   -0.00019560461989715278
-0.008294317986527765   -0.020480671560131693   -0.0003491512875937122
-0.008717984944040044   -0.013577464387905885   -0.00016610970296890035
-0.004713562878230733   -0.020450996438010197   -0.00023057960111825483
-0.008337188511708052   -0.020437067903466777   -0.000314532231119804
-0.008717984944040044   -0.013577464387905885   -0.00016610970296890035
-0.008294317986527765   -0.020480671560131693   -0.0003491512875937122
-0.004713562878230733   -0.020450996438010197   -0.00023057960111825483
-0.008717984944040044   -0.013577464387905885   -0.00016610970296890035
-0.00507067789052194   -0.013557154469847819   -6.0016281325748175e-05
-0.00501801946176367   -0.01361949700452394   -9.188898937962982e-05
-0.004713562878230733   -0.020450996438010197   -0.00023057960111825483
-0.008717984944040044   -0.013577464387905885   -0.00016610970296890035
-0.00501801946176367   -0.01361949700452394   -9.188898937962982e-05
-0.008294317986527765   -0.020480671560131693   -0.0003491512875937122
-0.008205914921816332   -0.020578874446530743   -0.00040832742793784244
-0.008582608646328793   -0.013734763903812888   -0.0002479673962636752
-0.01190708644452197   -0.020513749533245675   -0.0004937588386013751
-0.008251600674308706   -0.020527983181864405   -0.0003804731533522262
-0.008582608646328793   -0.013734763903812888   -0.0002479673962636752
-0.012324320478147981   -0.013713315093732237   -0.00033272951468873513
-0.01190708644452197   -0.020513749533245675   -0.0004937588386013751
-0.012368885242821358   -0.013671574157479629   -0.0003089216827745149
-0.008251600674308706   -0.020527983181864405   -0.0003804731533522262
-0.011950818157170452   -0.02047491786053598   -0.00045869043532255496
-0.012368885242821358   -0.013671574157479629   -0.0003089216827745149
-0.01190708644452197   -0.020513749533245675   -0.0004937588386013751
-0.008251600674308706   -0.020527983181864405   -0.0003804731533522262
-0.012368885242821358   -0.013671574157479629   -0.0003089216827745149
-0.008629357456021535   -0.013683318382027196   -0.00022293249680577988
-0.008582608646328793   -0.013734763903812888   -0.0002479673962636752
-0.008251600674308706   -0.020527983181864405   -0.0003804731533522262
-0.012368885242821358   -0.013671574157479629   -0.0003089216827745149
-0.008582608646328793   -0.013734763903812888   -0.0002479673962636752
-0.01190708644452197   -0.020513749533245675   -0.0004937588386013751
-0.008251600674308706   -0.020527983181864405   -0.0003804731533522262
-0.008629357456021535   -0.013683318382027196   -0.00022293249680577988
-0.011950818157170452   -0.02047491786053598   -0.00045869043532255496
-0.008294317986527765   -0.020480671560131693   -0.0003491512875937122
-0.008629357456021535   -0.013683318382027196   -0.00022293249680577988
-0.012368885242821358   -0.013671574157479629   -0.0003089216827745149
-0.011950818157170452   -0.02047491786053598   -0.00045869043532255496
-0.012406587563483246   -0.013627559584030256   -0.0002834729465265272
-0.008294317986527765   -0.020480671560131693   -0.0003491512875937122
-0.01198386729122447   -0.020438346673074908   -0.0004207203347195522
-0.012406587563483246   -0.013627559584030256   -0.0002834729465265272
-0.011950818157170452   -0.02047491786053598   -0.00045869043532255496
-0.008294317986527765   -0.020480671560131693   -0.0003491512875937122
-0.012406587563483246   -0.013627559584030256   -0.0002834729465265272
-0.008673893756054334   -0.01363098702754046   -0.00019560461989715278
-0.008629357456021535   -0.013683318382027196   -0.00022293249680577988
-0.008294317986527765   -0.020480671560131693   -0.0003491512875937122
-0.012406587563483246   -0.013627559584030256   -0.0002834729465265272
-0.008629357456021535   -0.013683318382027196   -0.00022293249680577988
-0.011950818157170452   -0.02047491786053598   -0.00045869043532255496
-0.008294317986527765   -0.020480671560131693   -0.0003491512875937122
-0.008673893756054334   -0.01363098702754046   -0.00019560461989715278
-0.01198386729122447   -0.020438346673074908   -0.0004207203347195522
-0.008337188511708052   -0.020437067903466777   -0.000314532231119804
-0.008673893756054334   -0.01363098702754046   -0.00019560461989715278
-0.012406587563483246   -0.013627559584030256   -0.0002834729465265272
-0.01198386729122447   -0.020438346673074908   -0.0004207203347195522
-0.012442218504537526   -0.01358242533321079   -0.00025568061636368686
-0.008337188511708052   -0.020437067903466777   -0.000314532231119804
-0.012016683766820059   -0.02040569697194419   -0.0003790970719598148
-0.012442218504537526   -0.01358242533321079   -0.00025568061636368686
-0.01198386729122447   -0.020438346673074908   -0.0004207203347195522
-0.008337188511708052   -0.020437067903466777   -0.000314532231119804
-0.012442218504537526   -0.01358242533321079   -0.00025568061636368686
-0.008717984944040044   -0.013577464387905885   -0.00016610970296890035
-0.008673893756054334   -0.01363098702754046   -0.00019560461989715278
-0.008337188511708052   -0.020437067903466777   -0.000314532231119804
-0.012442218504537526   -0.01358242533321079   -0.00025568061636368686
-0.008673893756054334   -0.01363098702754046   -0.00019560461989715278
-0.01198386729122447   -0.020438346673074908   -0.0004207203347195522
-0.01190708644452197   -0.020513749533245675   -0.0004937588386013751
-0.012324320478147981   -0.013713315093732237   -0.00033272951468873513
-0.01583083247518929   -0.020436580740634258   -0.0005568360473384051
-0.011950818157170452   -0.02047491786053598   -0.00045869043532255496
-0.012324320478147981   -0.013713315093732237   -0.00033272951468873513
-0.016245000665287786   -0.013677813927948123   -0.0003950207689500614
-0.01583083247518929   -0.020436580740634258   -0.0005568360473384051
-0.016272392316776945   -0.013642959858150106   -0.0003769797924012956
-0.011950818157170452   -0.02047491786053598   -0.00045869043532255496
-0.015836916346183977   -0.02040577046488266   -0.0005179025202959592
-0.016272392316776945   -0.013642959858150106   -0.0003769797924012956
-0.01583083247518929   -0.020436580740634258   -0.0005568360473384051
-0.011950818157170452   -0.02047491786053598   -0.00045869043532255496
-0.016272392316776945   -0.013642959858150106   -0.0003769797924012956
-0.012368885242821358   -0.013671574157479629   -0.0003089216827745149
-0.012324320478147981   -0.013713315093732237   -0.00033272951468873513
-0.011950818157170452   -0.02047491786053598   -0.00045869043532255496
-0.016272392316776945   -0.013642959858150106   -0.0003769797924012956
-0.012324320478147981   -0.013713315093732237   -0.00033272951468873513
-0.01583083247518929   -0.020436580740634258   -0.0005568360473384051
-0.011950818157170452   -0.02047491786053598   -0.00045869043532255496
-0.012368885242821358   -0.013671574157479629   -0.0003089216827745149
-0.015836916346183977   -0.02040577046488266   -0.0005179025202959592
-0.01198386729122447   -0.020438346673074908   -0.0004207203347195522
-0.012368885242821358   -0.013671574157479629   -0.0003089216827745149
-0.016272392316776945   -0.013642959858150106   -0.0003769797924012956
-0.015836916346183977   -0.02040577046488266   -0.0005179025202959592
-0.01629743903045834   -0.013603443671824294   -0.00035493908476318386
-0.01198386729122447   -0.020438346673074908   -0.0004207203347195522
-0.015843268916294364   -0.02037471843920746   -0.00047313377429567384
-0.01629743903045834   -0.013603443671824294   -0.00035493908476318386
-0.015836916346183977   -0.02040577046488266   -0.0005179025202959592
-0.01198386729122447   -0.020438346673074908   -0.0004207203347195522
-0.01629743903045834   -0.013603443671824294   -0.00035493908476318386
-0.012406587563483246   -0.013627559584030256   -0.0002834729465265272
-0.012368885242821358   -0.013671574157479629   -0.0003089216827745149
-0.01198386729122447   -0.020438346673074908   -0.0004207203347195522
-0.01629743903045834   -0.013603443671824294   -0.00035493908476318386
-0.012368885242821358   -0.013671574157479629   -0.0003089216827745149
-0.015836916346183977   -0.02040577046488266   -0.0005179025202959592
-0.01198386729122447   -0.020438346673074908   -0.0004207203347195522
-0.012406587563483246   -0.013627559584030256   -0.0002834729465265272
-0.015843268916294364   -0.02037471843920746   -0.00047313377429567384
-0.012016683766820059   -0.02040569697194419   -0.0003790970719598148
-0.012406587563483246   -0.013627559584030256   -0.0002834729465265272
-0.01629743903045834   -0.013603443671824294   -0.00035493908476318386
-0.015843268916294364   -0.02037471843920746   -0.00047313377429567384
-0.016309234817587632   -0.013567412228476997   -0.00032988419405958824
-0.012016683766820059   -0.02040569697194419   -0.0003790970719598148
-0.015827394229293003   -0.02035479305683753   -0.00042321800167322536
-0.016309234817587632   -0.013567412228476997   -0.00032988419405958824
-0.015843268916294364   -0.02037471843920746   -0.00047313377429567384
-0.012016683766820059   -0.02040569697194419   -0.0003790970719598148
-0.016309234817587632   -0.013567412228476997   -0.00032988419405958824
-0.012442218504537526   -0.01358242533321079   -0.00025568061636368686
-0.012406587563483246   -0.013627559584030256   -0.0002834729465265272
-0.012016683766820059   -0.02040569697194419   -0.0003790970719598148
-0.016309234817587632   -0.013567412228476997   -0.00032988419405958824
-0.012406587563483246   -0.013627559584030256   -0.0002834729465265272
-0.015843268916294364   -0.02037471843920746   -0.00047313377429567384
0.0027170737955227973   -0.013820520962431271   8.191912642545962e-05
0.0019068940701641752   -0.006946649301131065   8.839155782827388e-05
-0.0012159572630994731   -0.013756125661144165   -3.4623209043306066e-05
0.002632476997904098   -0.013738799603632206   0.0001164007042337278
0.0019068940701641752   -0.006946649301131065   8.839155782827388e-05
-0.0017645621101033925   -0.00685760291263921   4.6640316431913286e-05
-0.0012159572630994731   -0.013756125661144165   -3.4623209043306066e-05
-0.0018183310660929053   -0.006824010705228853   8.565072808616266e-05
0.002632476997904098   -0.013738799603632206   0.0001164007042337278
-0.0012698753926926897   -0.013688571087748696   -6.694866325915019e-06
-0.0018183310660929053   -0.006824010705228853   8.565072808616266e-05
-0.0012159572630994731   -0.013756125661144165   -3.4623209043306066e-05
0.002632476997904098   -0.013738799603632206   0.0001164007042337278
-0.0018183310660929053   -0.006824010705228853   8.565072808616266e-05
0.0017391509477286701   -0.00685960488522629   0.0001847598555422455
0.0019068940701641752   -0.006946649301131065   8.839155782827388e-05
0.002632476997904098   -0.013738799603632206   0.0001164007042337278
-0.0018183310660929053   -0.006824010705228853   8.565072808616266e-05
0.0019068940701641752   -0.006946649301131065   8.839155782827388e-05
-0.0012159572630994731   -0.013756125661144165   -3.4623209043306066e-05
0.002632476997904098   -0.013738799603632206   0.0001164007042337278
0.0017391509477286701   -0.00685960488522629   0.0001847598555422455
-0.0012698753926926897   -0.013688571087748696   -6.694866325915019e-06
0.002537757610811605   -0.013657810837664267   0.0001661806739025642
0.0017391509477286701   -0.00685960488522629   0.0001847598555422455
-0.0018183310660929053   -0.006824010705228853   8.565072808616266e-05
-0.0012698753926926897   -0.013688571087748696   -6.694866325915019e-06
-0.0018892279915441695   -0.0067634038636571895   0.00013308701683932263
0.002537757610811605   -0.013657810837664267   0.0001661806739025642
-0.0013330037731588812   -0.013617343605523314   2.6244859033349443e-05
-0.0018892279915441695   -0.0067634038636571895   0.00013308701683932263
-0.0012698753926926897   -0.013688571087748696   -6.694866325915019e-06
0.002537757610811605   -0.013657810837664267   0.0001661806739025642
-0.0018892279915441695   -0.0067634038636571895   0.00013308701683932263
0.0016410273799532763   -0.006788775444605768   0.00025654740855766305
0.0017391509477286701   -0.00685960488522629   0.0001847598555422455
0.002537757610811605   -0.013657810837664267   0.0001661806739025642
-0.0018892279915441695   -0.0067634038636571895   0.00013308701683932263
0.0017391509477286701   -0.00685960488522629   0.0001847598555422455
-0.0012698753926926897   -0.013688571087748696   -6.694866325915019e-06
0.002537757610811605   -0.013657810837664267   0.0001661806739025642
0.0016410273799532763   -0.006788775444605768   0.00025654740855766305
-0.0013330037731588812   -0.013617343605523314   2.6244859033349443e-05
0.002421995625973004   -0.01355825518740453   0.00022100090150991203
0.0016410273799532763   -0.006788775444605768   0.00025654740855766305
-0.0018892279915441695   -0.0067634038636571895   0.00013308701683932263
-0.0013330037731588812   -0.013617343605523314   2.6244859033349443e-05
-0.001948935129389503   -0.006698378465919841   0.00017483067563161238
0.002421995625973004   -0.01355825518740453   0.00022100090150991203
-0.0013983658128941903   -0.013541778918194079   6.413763550340889e-05
-0.001948935129389503   -0.006698378465919841   0.00017483067563161238
-0.0013330037731588812   -0.013617343605523314   2.6244859033349443e-05
0.002421995625973004   -0.01355825518740453   0.00022100090150991203
-0.001948935129389503   -0.006698378465919841   0.00017483067563161238
0.0015151116658944854   -0.006680176666528092   0.00033880729876480353
0.0016410273799532763   -0.006788775444605768   0.00025654740855766305
0.002421995625973004   -0.01355825518740453   0.00022100090150991203
-0.001948935129389503   -0.006698378465919841   0.00017483067563161238
0.0016410273799532763   -0.006788775444605768   0.00025654740855766305
-0.0013330037731588812   -0.013617343605523314   2.6244859033349443e-05
-0.0012159572630994731   -0.013756125661144165   -3.4623209043306066e-05
-0.0017645621101033925   -0.00685760291263921   4.6640316431913286e-05
-0.004918619262716746   -0.013739436786086433   -0.00014674815462392403
-0.0012698753926926897   -0.013688571087748696   -6.694866325915019e-06
-0.0017645621101033925   -0.00685760291263921   4.6640316431913286e-05
-0.005256026226149058   -0.006959696410088898   -4.204087693973382e-05
-0.004918619262716746   -0.013739436786086433   -0.00014674815462392403
-0.005305740593655297   -0.0069077767091996565   -1.4324618806395418e-05
-0.0012698753926926897   -0.013688571087748696   -6.694866325915019e-06
-0.004967464638911324   -0.013680634760892487   -0.0001206272270871985
-0.005305740593655297   -0.0069077767091996565   -1.4324618806395418e-05
-0.004918619262716746   -0.013739436786086433   -0.00014674815462392403
-0.0012698753926926897   -0.013688571087748696   -6.694866325915019e-06
-0.005305740593655297   -0.0069077767091996565   -1.4324618806395418e-05
-0.0018183310660929053   -0.006824010705228853   8.565072808616266e-05
-0.0017645621101033925   -0.00685760291263921   4.6640316431913286e-05
-0.0012698753926926897   -0.013688571087748696   -6.694866325915019e-06
-0.005305740593655297   -0.0069077767091996565   -1.4324618806395418e-05
-0.0017645621101033925   -0.00685760291263921   4.6640316431913286e-05
-0.004918619262716746   -0.013739436786086433   -0.00014674815462392403
-0.0012698753926926897   -0.013688571087748696   -6.694866325915019e-06
-0.0018183310660929053   -0.006824010705228853   8.565072808616266e-05
-0.004967464638911324   -0.013680634760892487   -0.0001206272270871985
-0.0013330037731588812   -0.013617343605523314   2.6244859033349443e-05
-0.0018183310660929053   -0.006824010705228853   8.565072808616266e-05
-0.005305740593655297   -0.0069077767091996565   -1.4324618806395418e-05
-0.004967464638911324   -0.013680634760892487   -0.0001206272270871985
-0.005357889003137155   -0.006849012707662144   1.5063777771553079e-05
-0.0013330037731588812   -0.013617343605523314   2.6244859033349443e-05
-0.00501801946176367   -0.01361949700452394   -9.188898937962982e-05
-0.005357889003137155   -0.006849012707662144   1.5063777771553079e-05
-0.004967464638911324   -0.013680634760892487   -0.0001206272270871985
-0.0013330037731588812   -0.013617343605523314   2.6244859033349443e-05
-0.005357889003137155   -0.006849012707662144   1.5063777771553079e-05
-0.0018892279915441695   -0.0067634038636571895   0.00013308701683932263
-0.0018183310660929053   -0.006824010705228853   8.565072808616266e-05
-0.0013330037731588812   -0.013617343605523314   2.6244859033349443e-05
-0.005357889003137155   -0.006849012707662144   1.5063777771553079e-05
-0.0018183310660929053   -0.006824010705228853   8.565072808616266e-05
-0.004967464638911324   -0.013680634760892487   -0.0001206272270871985
-0.0013330037731588812   -0.013617343605523314   2.6244859033349443e-05
-0.0018892279915441695   -0.0067634038636571895   0.00013308701683932263
-0.00501801946176367   -0.01361949700452394   -9.188898937962982e-05
-0.0013983658128941903   -0.013541778918194079   6.413763550340889e-05
-0.0018892279915441695   -0.0067634038636571895   0.00013308701683932263
-0.005357889003137155   -0.006849012707662144   1.5063777771553079e-05
-0.00501801946176367   -0.01361949700452394   -9.188898937962982e-05
-0.005407547623886051   -0.006784605717300864   4.750780586306446e-05
-0.0013983658128941903   -0.013541778918194079   6.413763550340889e-05
-0.00507067789052194   -0.013557154469847819   -6.0016281325748175e-05
-0.005407547623886051   -0.006784605717300864   4.750780586306446e-05
-0.00501801946176367   -0.01361949700452394   -9.188898937962982e-05
-0.0013983658128941903   -0.013541778918194079   6.413763550340889e-05
-0.005407547623886051   -0.006784605717300864   4.750780586306446e-05
-0.001948935129389503   -0.006698378465919841   0.00017483067563161238
-0.0018892279915441695   -0.0067634038636571895   0.00013308701683932263
-0.0013983658128941903   -0.013541778918194079   6.413763550340889e-05
-0.005407547623886051   -0.006784605717300864   4.750780586306446e-05
-0.0018892279915441695   -0.0067634038636571895   0.00013308701683932263
-0.00501801946176367   -0.01361949700452394   -9.188898937962982e-05
-0.004918619262716746   -0.013739436786086433   -0.00014674815462392403
-0.005256026226149058   -0.006959696410088898   -4.204087693973382e-05
-0.008582608646328793   -0.013734763903812888   -0.0002479673962636752
-0.004967464638911324   -0.013680634760892487   -0.0001206272270871985
-0.005256026226149058   -0.006959696410088898   -4.204087693973382e-05
-0.008831859487775784   -0.007039469968083252   -0.0001406841397753714
-0.008582608646328793   -0.013734763903812888   -0.0002479673962636752
-0.00887659997708362   -0.006986124439037713   -0.00011913881882343836
-0.004967464638911324   -0.013680634760892487   -0.0001206272270871985
-0.008629357456021535   -0.013683318382027196   -0.00022293249680577988
-0.00887659997708362   -0.006986124439037713   -0.00011913881882343836
-0.008582608646328793   -0.013734763903812888   -0.0002479673962636752
-0.004967464638911324   -0.013680634760892487   -0.0001206272270871985
-0.00887659997708362   -0.006986124439037713   -0.00011913881882343836
-0.005305740593655297   -0.0069077767091996565   -1.4324618806395418e-05
-0.005256026226149058   -0.006959696410088898   -4.204087693973382e-05
-0.004967464638911324   -0.013680634760892487   -0.0001206272270871985
-0.00887659997708362   -0.006986124439037713   -0.00011913881882343836
-0.005256026226149058   -0.006959696410088898   -4.204087693973382e-05
-0.008582608646328793   -0.013734763903812888   -0.0002479673962636752
-0.004967464638911324   -0.013680634760892487   -0.0001206272270871985
-0.005305740593655297   -0.0069077767091996565   -1.4324618806395418e-05
-0.008629357456021535   -0.013683318382027196   -0.00022293249680577988
-0.00501801946176367   -0.01361949700452394   -9.188898937962982e-05
-0.005305740593655297   -0.0069077767091996565   -1.4324618806395418e-05
-0.00887659997708362   -0.006986124439037713   -0.00011913881882343836
-0.008629357456021535   -0.013683318382027196   -0.00022293249680577988
-0.00891948727805606   -0.006929719889775006   -9.762387392962785e-05
-0.00501801946176367   -0.01361949700452394   -9.188898937962982e-05
-0.008673893756054334   -0.01363098702754046   -0.00019560461989715278
-0.00891948727805606   -0.006929719889775006   -9.762387392962785e-05
-0.008629357456021535   -0.013683318382027196   -0.00022293249680577988
-0.00501801946176367   -0.01361949700452394   -9.188898937962982e-05
-0.00891948727805606   -0.006929719889775006   -9.762387392962785e-05
-0.005357889003137155   -0.006849012707662144   1.5063777771553079e-05
-0.005305740593655297   -0.0069077767091996565   -1.4324618806395418e-05
-0.00501801946176367   -0.01361949700452394   -9.188898937962982e-05
-0.00891948727805606   -0.006929719889775006   -9.762387392962785e-05
-0.005305740593655297   -0.0069077767091996565   -1.4324618806395418e-05
-0.008629357456021535   -0.013683318382027196   -0.00022293249680577988
-0.00501801946176367   -0.01361949700452394   -9.188898937962982e-05
-0.005357889003137155   -0.006849012707662144   1.5063777771553079e-05
-0.008673893756054334   -0.01363098702754046   -0.00019560461989715278
-0.00507067789052194   -0.013557154469847819   -6.0016281325748175e-05
-0.005357889003137155   -0.006849012707662144   1.5063777771553079e-05
-0.00891948727805606   -0.006929719889775006   -9.762387392962785e-05
-0.008673893756054334   -0.01363098702754046   -0.00019560461989715278
-0.008959069982572452   -0.006868601721143261   -7.415856297145174e-05
-0.00507067789052194   -0.013557154469847819   -6.0016281325748175e-05
-0.008717984944040044   -0.013577464387905885   -0.00016610970296890035
-0.008959069982572452   -0.006868601721143261   -7.415856297145174e-05
-0.008673893756054334   -0.01363098702754046   -0.00019560461989715278
-0.00507067789052194   -0.013557154469847819   -6.0016281325748175e-05
-0.008959069982572452   -0.006868601721143261   -7.415856297145174e-05
-0.005407547623886051   -0.006784605717300864   4.750780586306446e-05
-0.005357889003137155   -0.006849012707662144   1.5063777771553079e-05
-0.00507067789052194   -0.013557154469847819   -6.0016281325748175e-05
-0.008959069982572452   -0.006868601721143261   -7.415856297145174e-05
-0.005357889003137155   -0.006849012707662144   1.5063777771553079e-05
-0.008673893756054334   -0.01363098702754046   -0.00019560461989715278
-0.008582608646328793   -0.013734763903812888   -0.0002479673962636752
-0.008831859487775784   -0.007039469968083252   -0.0001406841397753714
-0.012324320478147981   -0.013713315093732237   -0.00033272951468873513
-0.008629357456021535   -0.013683318382027196   -0.00022293249680577988
-0.008831859487775784   -0.007039469968083252   -0.0001406841397753714
-0.012533334005349225   -0.007072265641830753   -0.00023166660507601536
-0.012324320478147981   -0.013713315093732237   -0.00033272951468873513
-0.012573661127587007   -0.007024456974296803   -0.00021590525563842055
-0.008629357456021535   -0.013683318382027196   -0.00022293249680577988
-0.012368885242821358   -0.013671574157479629   -0.0003089216827745149
-0.012573661127587007   -0.007024456974296803   -0.00021590525563842055
-0.012324320478147981   -0.013713315093732237   -0.00033272951468873513
-0.008629357456021535   -0.013683318382027196   -0.00022293249680577988
-0.012573661127587007   -0.007024456974296803   -0.00021590525563842055
-0.00887659997708362   -0.006986124439037713   -0.00011913881882343836
-0.008831859487775784   -0.007039469968083252   -0.0001406841397753714
-0.008629357456021535   -0.013683318382027196   -0.00022293249680577988
-0.012573661127587007   -0.007024456974296803   -0.00021590525563842055
-0.008831859487775784   -0.007039469968083252   -0.0001406841397753714
-0.012324320478147981   -0.013713315093732237   -0.00033272951468873513
-0.008629357456021535   -0.013683318382027196   -0.00022293249680577988
-0.00887659997708362   -0.006986124439037713   -0.00011913881882343836
-0.012368885242821358   -0.013671574157479629   -0.0003089216827745149
-0.008673893756054334   -0.01363098702754046   -0.00019560461989715278
-0.00887659997708362   -0.006986124439037713   -0.00011913881882343836
-0.012573661127587007   -0.007024456974296803   -0.00021590525563842055
-0.012368885242821358   -0.013671574157479629   -0.0003089216827745149
-0.012609600895204852   -0.0069723015157270715   -0.00020055705644348272
-0.008673893756054334   -0.01363098702754046   -0.00019560461989715278
-0.012406587563483246   -0.013627559584030256   -0.0002834729465265272
-0.012609600895204852   -0.0069723015157270715   -0.00020055705644348272
-0.012368885242821358   -0.013671574157479629   -0.0003089216827745149
-0.008673893756054334   -0.01363098702754046   -0.00019560461989715278
-0.012609600895204852   -0.0069723015157270715   -0.00020055705644348272
-0.00891948727805606   -0.006929719889775006   -9.762387392962785e-05
-0.00887659997708362   -0.006986124439037713   -0.00011913881882343836
-0.008673893756054334   -0.01363098702754046   -0.00019560461989715278
-0.012609600895204852   -0.0069723015157270715   -0.00020055705644348272
-0.00887659997708362   -0.006986124439037713   -0.00011913881882343836
-0.012368885242821358   -0.013671574157479629   -0.0003089216827745149
-0.008673893756054334   -0.01363098702754046   -0.00019560461989715278
-0.00891948727805606   -0.006929719889775006   -9.762387392962785e-05
-0.012406587563483246   -0.013627559584030256   -0.0002834729465265272
-0.008717984944040044   -0.013577464387905885   -0.00016610970296890035
-0.00891948727805606   -0.006929719889775006   -9.762387392962785e-05
-0.012609600895204852   -0.0069723015157270715   -0.00020055705644348272
-0.012406587563483246   -0.013627559584030256   -0.0002834729465265272
-0.012642160618970683   -0.006916741554832714   -0.0001847108480093871
-0.008717984944040044   -0.013577464387905885   -0.00016610970296890035
-0.012442218504537526   -0.01358242533321079   -0.00025568061636368686
-0.012642160618970683   -0.006916741554832714   -0.0001847108480093871
-0.012406587563483246   -0.013627559584030256   -0.0002834729465265272
-0.008717984944040044   -0.013577464387905885   -0.00016610970296890035
-0.012642160618970683   -0.006916741554832714   -0.0001847108480093871
-0.008959069982572452   -0.006868601721143261   -7.415856297145174e-05
-0.00891948727805606   -0.006929719889775006   -9.762387392962785e-05
-0.008717984944040044   -0.013577464387905885   -0.00016610970296890035
-0.012642160618970683   -0.006916741554832714   -0.0001847108480093871
-0.00891948727805606   -0.006929719889775006   -9.762387392962785e-05
-0.012406587563483246   -0.013627559584030256   -0.0002834729465265272
-0.012324320478147981   -0.013713315093732237   -0.00033272951468873513
-0.012533334005349225   -0.007072265641830753   -0.00023166660507601536
-0.016245000665287786   -0.013677813927948123   -0.0003950207689500614
-0.012368885242821358   -0.013671574157479629   -0.0003089216827745149
-0.012533334005349225   -0.007072265641830753   -0.00023166660507601536
-0.016367741254817346   -0.00707583580606753   -0.0003069201510790633
-0.016245000665287786   -0.013677813927948123   -0.0003950207689500614
-0.01640230212560528   -0.007029476425583988   -0.00030004716455502386
-0.012368885242821358   -0.013671574157479629   -0.0003089216827745149
-0.016272392316776945   -0.013642959858150106   -0.0003769797924012956
-0.01640230212560528   -0.007029476425583988   -0.00030004716455502386
-0.016245000665287786   -0.013677813927948123   -0.0003950207689500614
-0.012368885242821358   -0.013671574157479629   -0.0003089216827745149
-0.01640230212560528   -0.007029476425583988   -0.00030004716455502386
-0.012573661127587007   -0.007024456974296803   -0.00021590525563842055
-0.012533334005349225   -0.007072265641830753   -0.00023166660507601536
-0.012368885242821358   -0.013671574157479629   -0.0003089216827745149
-0.01640230212560528   -0.007029476425583988   -0.00030004716455502386
-0.012533334005349225   -0.007072265641830753   -0.00023166660507601536
-0.016245000665287786   -0.013677813927948123   -0.0003950207689500614
-0.012368885242821358   -0.013671574157479629   -0.0003089216827745149
-0.012573661127587007   -0.007024456974296803   -0.00021590525563842055
-0.016272392316776945   -0.013642959858150106   -0.0003769797924012956
-0.012406587563483246   -0.013627559584030256   -0.0002834729465265272
-0.012573661127587007   -0.007024456974296803   -0.00021590525563842055
-0.01640230212560528   -0.007029476425583988   -0.00030004716455502386
-0.016272392316776945   -0.013642959858150106   -0.0003769797924012956
-0.01643326574971145   -0.006979269050412769   -0.0002919891271956706
-0.012406587563483246   -0.013627559584030256   -0.0002834729465265272
-0.01629743903045834   -0.013603443671824294   -0.00035493908476318386
-0.01643326574971145   -0.006979269050412769   -0.0002919891271956706
-0.016272392316776945   -0.013642959858150106   -0.0003769797924012956
-0.012406587563483246   -0.013627559584030256   -0.0002834729465265272
-0.01643326574971145   -0.006979269050412769   -0.0002919891271956706
-0.012609600895204852   -0.0069723015157270715   -0.00020055705644348272
-0.012573661127587007   -0.007024456974296803   -0.00021590525563842055
-0.012406587563483246   -0.013627559584030256   -0.0002834729465265272
-0.01643326574971145   -0.006979269050412769   -0.0002919891271956706
-0.012573661127587007   -0.007024456974296803   -0.00021590525563842055
-0.016272392316776945   -0.013642959858150106   -0.0003769797924012956
-0.012406587563483246   -0.013627559584030256   -0.0002834729465265272
-0.012609600895204852   -0.0069723015157270715   -0.00020055705644348272
-0.01629743903045834   -0.013603443671824294   -0.00035493908476318386
-0.012442218504537526   -0.01358242533321079   -0.00025568061636368686
-0.012609600895204852   -0.0069723015157270715   -0.00020055705644348272
-0.01643326574971145   -0.006979269050412769   -0.0002919891271956706
-0.01629743903045834   -0.013603443671824294   -0.00035493908476318386
-0.016459190086472595   -0.006926120121152168   -0.0002844271513392131
-0.012442218504537526   -0.01358242533321079   -0.00025568061636368686
-0.016309234817587632   -0.013567412228476997   -0.00032988419405958824
-0.016459190086472595   -0.006926120121152168   -0.0002844271513392131
-0.01629743903045834   -0.013603443671824294   -0.00035493908476318386
-0.012442218504537526   -0.01358242533321079   -0.00025568061636368686
-0.016459190086472595   -0.006926120121152168   -0.0002844271513392131
-0.012642160618970683   -0.006916741554832714   -0.0001847108480093871
-0.012609600895204852   -0.0069723015157270715   -0.00020055705644348272
-0.012442218504537526   -0.01358242533321079   -0.00025568061636368686
-0.016459190086472595   -0.006926120121152168   -0.0002844271513392131
-0.012609600895204852   -0.0069723015157270715   -0.00020055705644348272
-0.01629743903045834   -0.013603443671824294   -0.00035493908476318386
0.0019068940701641752   -0.006946649301131065   8.839155782827388e-05
0.0   0.0   0.0
-0.0017645621101033925   -0.00685760291263921   4.6640316431913286e-05
0.0017391509477286701   -0.00685960488522629   0.0001847598555422455
0.0   0.0   0.0
-0.002211654650555828   -0.0005667329328634273   -1.7220511420231696e-05
-0.0017645621101033925   -0.00685760291263921   4.6640316431913286e-05
-0.002343923081724549   -0.00044164782638607766   5.9572258935677965e-05
0.0017391509477286701   -0.00685960488522629   0.0001847598555422455
-0.0018183310660929053   -0.006824010705228853   8.565072808616266e-05
-0.002343923081724549   -0.00044164782638607766   5.9572258935677965e-05
-0.0017645621101033925   -0.00685760291263921   4.6640316431913286e-05
0.0017391509477286701   -0.00685960488522629   0.0001847598555422455
-0.002343923081724549   -0.00044164782638607766   5.9572258935677965e-05
0.0   0.0   0.0
0.0   0.0   0.0
0.0017391509477286701   -0.00685960488522629   0.0001847598555422455
-0.002343923081724549   -0.00044164782638607766   5.9572258935677965e-05
0.0   0.0   0.0
-0.0017645621101033925   -0.00685760291263921   4.6640316431913286e-05
0.0017391509477286701   -0.00685960488522629   0.0001847598555422455
0.0   0.0   0.0
-0.0018183310660929053   -0.006824010705228853   8.565072808616266e-05
0.0016410273799532763   -0.006788775444605768   0.00025654740855766305
0.0   0.0   0.0
-0.002343923081724549   -0.00044164782638607766   5.9572258935677965e-05
-0.0018183310660929053   -0.006824010705228853   8.565072808616266e-05
-0.0024271143261512837   -0.00038152897932304704   0.00010410154135090198
0.0016410273799532763   -0.006788775444605768   0.00025654740855766305
-0.0018892279915441695   -0.0067634038636571895   0.00013308701683932263
-0.0024271143261512837   -0.00038152897932304704   0.00010410154135090198
-0.0018183310660929053   -0.006824010705228853   8.565072808616266e-05
0.0016410273799532763   -0.006788775444605768   0.00025654740855766305
-0.0024271143261512837   -0.00038152897932304704   0.00010410154135090198
0.0   0.0   0.0
0.0   0.0   0.0
0.0016410273799532763   -0.006788775444605768   0.00025654740855766305
-0.0024271143261512837   -0.00038152897932304704   0.00010410154135090198
0.0   0.0   0.0
-0.0018183310660929053   -0.006824010705228853   8.565072808616266e-05
0.0016410273799532763   -0.006788775444605768   0.00025654740855766305
0.0   0.0   0.0
-0.0018892279915441695   -0.0067634038636571895   0.00013308701683932263
0.0015151116658944854   -0.006680176666528092   0.00033880729876480353
0.0   0.0   0.0
-0.0024271143261512837   -0.00038152897932304704   0.00010410154135090198
-0.0018892279915441695   -0.0067634038636571895   0.00013308701683932263
-0.002538965699147919   -0.0003015927323365424   0.00015525213934941288
0.0015151116658944854   -0.006680176666528092   0.00033880729876480353
-0.001948935129389503   -0.006698378465919841   0.00017483067563161238
-0.002538965699147919   -0.0003015927323365424   0.00015525213934941288
-0.0018892279915441695   -0.0067634038636571895   0.00013308701683932263
0.0015151116658944854   -0.006680176666528092   0.00033880729876480353
-0.002538965699147919   -0.0003015927323365424   0.00015525213934941288
0.0   0.0   0.0
0.0   0.0   0.0
0.0015151116658944854   -0.006680176666528092   0.00033880729876480353
-0.002538965699147919   -0.0003015927323365424   0.00015525213934941288
0.0   0.0   0.0
-0.0018892279915441695   -0.0067634038636571895   0.00013308701683932263
-0.0017645621101033925   -0.00685760291263921   4.6640316431913286e-05
-0.002211654650555828   -0.0005667329328634273   -1.7220511420231696e-05
-0.005256026226149058   -0.006959696410088898   -4.204087693973382e-05
-0.0018183310660929053   -0.006824010705228853   8.565072808616266e-05
-0.002211654650555828   -0.0005667329328634273   -1.7220511420231696e-05
-0.005411416599321654   -0.0007445315185088321   -1.4194482834369837e-05
-0.005256026226149058   -0.006959696410088898   -4.204087693973382e-05
-0.005479809400269747   -0.0006764953784561865   5.75555302245696e-06
-0.0018183310660929053   -0.006824010705228853   8.565072808616266e-05
-0.005305740593655297   -0.0069077767091996565   -1.4324618806395418e-05
-0.005479809400269747   -0.0006764953784561865   5.75555302245696e-06
-0.005256026226149058   -0.006959696410088898   -4.204087693973382e-05
-0.0018183310660929053   -0.006824010705228853   8.565072808616266e-05
-0.005479809400269747   -0.0006764953784561865   5.75555302245696e-06
-0.002343923081724549   -0.00044164782638607766   5.9572258935677965e-05
-0.002211654650555828   -0.0005667329328634273   -1.7220511420231696e-05
-0.0018183310660929053   -0.006824010705228853   8.565072808616266e-05
-0.005479809400269747   -0.0006764953784561865   5.75555302245696e-06
-0.002211654650555828   -0.0005667329328634273   -1.7220511420231696e-05
-0.005256026226149058   -0.006959696410088898   -4.204087693973382e-05
-0.0018183310660929053   -0.006824010705228853   8.565072808616266e-05
-0.002343923081724549   -0.00044164782638607766   5.9572258935677965e-05
-0.005305740593655297   -0.0069077767091996565   -1.4324618806395418e-05
-0.0018892279915441695   -0.0067634038636571895   0.00013308701683932263
-0.002343923081724549   -0.00044164782638607766   5.9572258935677965e-05
-0.005479809400269747   -0.0006764953784561865   5.75555302245696e-06
-0.005305740593655297   -0.0069077767091996565   -1.4324618806395418e-05
-0.005547997574889033   -0.0005968034918862345   4.12905064376184e-05
-0.0018892279915441695   -0.0067634038636571895   0.00013308701683932263
-0.005357889003137155   -0.006849012707662144   1.5063777771553079e-05
-0.005547997574889033   -0.0005968034918862345   4.12905064376184e-05
-0.005305740593655297   -0.0069077767091996565   -1.4324618806395418e-05
-0.0018892279915441695   -0.0067634038636571895   0.00013308701683932263
-0.005547997574889033   -0.0005968034918862345   4.12905064376184e-05
-0.0024271143261512837   -0.00038152897932304704   0.00010410154135090198
-0.002343923081724549   -0.00044164782638607766   5.9572258935677965e-05
-0.0018892279915441695   -0.0067634038636571895   0.00013308701683932263
-0.005547997574889033   -0.0005968034918862345   4.12905064376184e-05
-0.002343923081724549   -0.00044164782638607766   5.9572258935677965e-05
-0.005305740593655297   -0.0069077767091996565   -1.4324618806395418e-05
-0.0018892279915441695   -0.0067634038636571895   0.00013308701683932263
-0.0024271143261512837   -0.00038152897932304704   0.00010410154135090198
-0.005357889003137155   -0.006849012707662144   1.5063777771553079e-05
-0.001948935129389503   -0.006698378465919841   0.00017483067563161238
-0.0024271143261512837   -0.00038152897932304704   0.00010410154135090198
-0.005547997574889033   -0.0005968034918862345   4.12905064376184e-05
-0.005357889003137155   -0.006849012707662144   1.5063777771553079e-05
-0.005623828218514578   -0.0005044699479693895   7.544044515982977e-05
-0.001948935129389503   -0.006698378465919841   0.00017483067563161238
-0.005407547623886051   -0.006784605717300864   4.750780586306446e-05
-0.005623828218514578   -0.0005044699479693895   7.544044515982977e-05
-0.005357889003137155   -0.006849012707662144   1.5063777771553079e-05
-0.001948935129389503   -0.006698378465919841   0.00017483067563161238
-0.005623828218514578   -0.0005044699479693895   7.544044515982977e-05
-0.002538965699147919   -0.0003015927323365424   0.00015525213934941288
-0.0024271143261512837   -0.00038152897932304704   0.00010410154135090198
-0.001948935129389503   -0.006698378465919841   0.00017483067563161238
-0.005623828218514578   -0.0005044699479693895   7.544044515982977e-05
-0.0024271143261512837   -0.00038152897932304704   0.00010410154135090198
-0.005357889003137155   -0.006849012707662144   1.5063777771553079e-05
-0.005256026226149058   -0.006959696410088898   -4.204087693973382e-05
-0.005411416599321654   -0.0007445315185088321   -1.4194482834369837e-05
-0.008831859487775784   -0.007039469968083252   -0.0001406841397753714
-0.005305740593655297   -0.0069077767091996565   -1.4324618806395418e-05
-0.005411416599321654   -0.0007445315185088321   -1.4194482834369837e-05
-0.008918772489795977   -0.0007953998451475087   -7.588928990407552e-05
-0.008831859487775784   -0.007039469968083252   -0.0001406841397753714
-0.00896039214344116   -0.0007426875915650852   -7.025972139145445e-05
-0.005305740593655297   -0.0069077767091996565   -1.4324618806395418e-05
-0.00887659997708362   -0.006986124439037713   -0.00011913881882343836
-0.00896039214344116   -0.0007426875915650852   -7.025972139145445e-05
-0.008831859487775784   -0.007039469968083252   -0.0001406841397753714
-0.005305740593655297   -0.0069077767091996565   -1.4324618806395418e-05
-0.00896039214344116   -0.0007426875915650852   -7.025972139145445e-05
-0.005479809400269747   -0.0006764953784561865   5.75555302245696e-06
-0.005411416599321654   -0.0007445315185088321   -1.4194482834369837e-05
-0.005305740593655297   -0.0069077767091996565   -1.4324618806395418e-05
-0.00896039214344116   -0.0007426875915650852   -7.025972139145445e-05
-0.005411416599321654   -0.0007445315185088321   -1.4194482834369837e-05
-0.008831859487775784   -0.007039469968083252   -0.0001406841397753714
-0.005305740593655297   -0.0069077767091996565   -1.4324618806395418e-05
-0.005479809400269747   -0.0006764953784561865   5.75555302245696e-06
-0.00887659997708362   -0.006986124439037713   -0.00011913881882343836
-0.005357889003137155   -0.006849012707662144   1.5063777771553079e-05
-0.005479809400269747   -0.0006764953784561865   5.75555302245696e-06
-0.00896039214344116   -0.0007426875915650852   -7.025972139145445e-05
-0.00887659997708362   -0.006986124439037713   -0.00011913881882343836
-0.009003690677299505   -0.0006813371487000791   -6.043936678152419e-05
-0.005357889003137155   -0.006849012707662144   1.5063777771553079e-05
-0.00891948727805606   -0.006929719889775006   -9.762387392962785e-05
-0.009003690677299505   -0.0006813371487000791   -6.043936678152419e-05
-0.00887659997708362   -0.006986124439037713   -0.00011913881882343836
-0.005357889003137155   -0.006849012707662144   1.5063777771553079e-05
-0.009003690677299505   -0.0006813371487000791   -6.043936678152419e-05
-0.005547997574889033   -0.0005968034918862345   4.12905064376184e-05
-0.005479809400269747   -0.0006764953784561865   5.75555302245696e-06
-0.005357889003137155   -0.006849012707662144   1.5063777771553079e-05
-0.009003690677299505   -0.0006813371487000791   -6.043936678152419e-05
-0.005479809400269747   -0.0006764953784561865   5.75555302245696e-06
-0.00887659997708362   -0.006986124439037713   -0.00011913881882343836
-0.005357889003137155   -0.006849012707662144   1.5063777771553079e-05
-0.005547997574889033   -0.0005968034918862345   4.12905064376184e-05
-0.00891948727805606   -0.006929719889775006   -9.762387392962785e-05
-0.005407547623886051   -0.006784605717300864   4.750780586306446e-05
-0.005547997574889033   -0.0005968034918862345   4.12905064376184e-05
-0.009003690677299505   -0.0006813371487000791   -6.043936678152419e-05
-0.00891948727805606   -0.006929719889775006   -9.762387392962785e-05
-0.009045040910318027   -0.0006064103199928215   -4.744500563867221e-05
-0.005407547623886051   -0.006784605717300864   4.750780586306446e-05
-0.008959069982572452   -0.006868601721143261   -7.415856297145174e-05
-0.009045040910318027   -0.0006064103199928215   -4.744500563867221e-05
-0.00891948727805606   -0.006929719889775006   -9.762387392962785e-05
-0.005407547623886051   -0.006784605717300864   4.750780586306446e-05
-0.009045040910318027   -0.0006064103199928215   -4.744500563867221e-05
-0.005623828218514578   -0.0005044699479693895   7.544044515982977e-05
-0.005547997574889033   -0.0005968034918862345   4.12905064376184e-05
-0.005407547623886051   -0.006784605717300864   4.750780586306446e-05
-0.009045040910318027   -0.0006064103199928215   -4.744500563867221e-05
-0.005547997574889033   -0.0005968034918862345   4.12905064376184e-05
-0.00891948727805606   -0.006929719889775006   -9.762387392962785e-05
-0.008831859487775784   -0.007039469968083252   -0.0001406841397753714
-0.008918772489795977   -0.0007953998451475087   -7.588928990407552e-05
-0.012533334005349225   -0.007072265641830753   -0.00023166660507601536
-0.00887659997708362   -0.006986124439037713   -0.00011913881882343836
-0.008918772489795977   -0.0007953998451475087   -7.588928990407552e-05
-0.012598386157125595   -0.000788010770356289   -0.0001655012026396797
-0.012533334005349225   -0.007072265641830753   -0.00023166660507601536
-0.0126265286811228   -0.0007408980127172069   -0.00016307536547844554
-0.00887659997708362   -0.006986124439037713   -0.00011913881882343836
-0.012573661127587007   -0.007024456974296803   -0.00021590525563842055
-0.0126265286811228   -0.0007408980127172069   -0.00016307536547844554
-0.012533334005349225   -0.007072265641830753   -0.00023166660507601536
-0.00887659997708362   -0.006986124439037713   -0.00011913881882343836
-0.0126265286811228   -0.0007408980127172069   -0.00016307536547844554
-0.00896039214344116   -0.0007426875915650852   -7.025972139145445e-05
-0.008918772489795977   -0.0007953998451475087   -7.588928990407552e-05
-0.00887659997708362   -0.006986124439037713   -0.00011913881882343836
-0.0126265286811228   -0.0007408980127172069   -0.00016307536547844554
-0.008918772489795977   -0.0007953998451475087   -7.588928990407552e-05
-0.012533334005349225   -0.007072265641830753   -0.00023166660507601536
-0.00887659997708362   -0.006986124439037713   -0.00011913881882343836
-0.00896039214344116   -0.0007426875915650852   -7.025972139145445e-05
-0.012573661127587007   -0.007024456974296803   -0.00021590525563842055
-0.00891948727805606   -0.006929719889775006   -9.762387392962785e-05
-0.00896039214344116   -0.0007426875915650852   -7.025972139145445e-05
-0.0126265286811228   -0.0007408980127172069   -0.00016307536547844554
-0.012573661127587007   -0.007024456974296803   -0.00021590525563842055
-0.012655882045600154   -0.0006882951960623868   -0.00016130056547512583
-0.00891948727805606   -0.006929719889775006   -9.762387392962785e-05
-0.012609600895204852   -0.0069723015157270715   -0.00020055705644348272
-0.012655882045600154   -0.0006882951960623868   -0.00016130056547512583
-0.012573661127587007   -0.007024456974296803   -0.00021590525563842055
-0.00891948727805606   -0.006929719889775006   -9.762387392962785e-05
-0.012655882045600154   -0.0006882951960623868   -0.00016130056547512583
-0.009003690677299505   -0.0006813371487000791   -6.043936678152419e-05
-0.00896039214344116   -0.0007426875915650852   -7.025972139145445e-05
-0.00891948727805606   -0.006929719889775006   -9.762387392962785e-05
-0.012655882045600154   -0.0006882951960623868   -0.00016130056547512583
-0.00896039214344116   -0.0007426875915650852   -7.025972139145445e-05
-0.012573661127587007   -0.007024456974296803   -0.00021590525563842055
-0.00891948727805606   -0.006929719889775006   -9.762387392962785e-05
-0.009003690677299505   -0.0006813371487000791   -6.043936678152419e-05
-0.012609600895204852   -0.0069723015157270715   -0.00020055705644348272
-0.008959069982572452   -0.006868601721143261   -7.415856297145174e-05
-0.009003690677299505   -0.0006813371487000791   -6.043936678152419e-05
-0.012655882045600154   -0.0006882951960623868   -0.00016130056547512583
-0.012609600895204852   -0.0069723015157270715   -0.00020055705644348272
-0.012678353382790447   -0.0006311733449006165   -0.00016029349054432675
-0.008959069982572452   -0.006868601721143261   -7.415856297145174e-05
-0.012642160618970683   -0.006916741554832714   -0.0001847108480093871
-0.012678353382790447   -0.0006311733449006165   -0.00016029349054432675
-0.012609600895204852   -0.0069723015157270715   -0.00020055705644348272
-0.008959069982572452   -0.006868601721143261   -7.415856297145174e-05
-0.012678353382790447   -0.0006311733449006165   -0.00016029349054432675
-0.009045040910318027   -0.0006064103199928215   -4.744500563867221e-05
-0.009003690677299505   -0.0006813371487000791   -6.043936678152419e-05
-0.008959069982572452   -0.006868601721143261   -7.415856297145174e-05
-0.012678353382790447   -0.0006311733449006165   -0.00016029349054432675
-0.009003690677299505   -0.0006813371487000791   -6.043936678152419e-05
-0.012609600895204852   -0.0069723015157270715   -0.00020055705644348272
-0.012533334005349225   -0.007072265641830753   -0.00023166660507601536
-0.012598386157125595   -0.000788010770356289   -0.0001655012026396797
-0.016367741254817346   -0.00707583580606753   -0.0003069201510790633
-0.012573661127587007   -0.007024456974296803   -0.00021590525563842055
-0.012598386157125595   -0.000788010770356289   -0.0001655012026396797
-0.016380381405667662   -0.0007825521978000224   -0.00025380147563518576
-0.016367741254817346   -0.00707583580606753   -0.0003069201510790633
-0.016402997176062344   -0.0007315059568949928   -0.00025370526344632174
-0.012573661127587007   -0.007024456974296803   -0.00021590525563842055
-0.01640230212560528   -0.007029476425583988   -0.00030004716455502386
-0.016402997176062344   -0.0007315059568949928   -0.00025370526344632174
-0.016367741254817346   -0.00707583580606753   -0.0003069201510790633
-0.012573661127587007   -0.007024456974296803   -0.00021590525563842055
-0.016402997176062344   -0.0007315059568949928   -0.00025370526344632174
-0.0126265286811228   -0.0007408980127172069   -0.00016307536547844554
-0.012598386157125595   -0.000788010770356289   -0.0001655012026396797
-0.012573661127587007   -0.007024456974296803   -0.00021590525563842055
-0.016402997176062344   -0.0007315059568949928   -0.00025370526344632174
-0.012598386157125595   -0.000788010770356289   -0.0001655012026396797
-0.016367741254817346   -0.00707583580606753   -0.0003069201510790633
-0.012573661127587007   -0.007024456974296803   -0.00021590525563842055
-0.0126265286811228   -0.0007408980127172069   -0.00016307536547844554
-0.01640230212560528   -0.007029476425583988   -0.00030004716455502386
-0.012609600895204852   -0.0069723015157270715   -0.00020055705644348272
-0.0126265286811228   -0.0007408980127172069   -0.00016307536547844554
-0.016402997176062344   -0.0007315059568949928   -0.00025370526344632174
-0.01640230212560528   -0.007029476425583988   -0.00030004716455502386
-0.016427808144595664   -0.0006803990763817998   -0.0002575980251468224
-0.012609600895204852   -0.0069723015157270715   -0.00020055705644348272
-0.01643326574971145   -0.006979269050412769   -0.0002919891271956706
-0.016427808144595664   -0.0006803990763817998   -0.0002575980251468224
-0.01640230212560528   -0.007029476425583988   -0.00030004716455502386
-0.012609600895204852   -0.0069723015157270715   -0.00020055705644348272
-0.016427808144595664   -0.0006803990763817998   -0.0002575980251468224
-0.012655882045600154   -0.0006882951960623868   -0.00016130056547512583
-0.0126265286811228   -0.0007408980127172069   -0.00016307536547844554
-0.012609600895204852   -0.0069723015157270715   -0.00020055705644348272
-0.016427808144595664   -0.0006803990763817998   -0.0002575980251468224
-0.0126265286811228   -0.0007408980127172069   -0.00016307536547844554
-0.01640230212560528   -0.007029476425583988   -0.00030004716455502386
-0.012609600895204852   -0.0069723015157270715   -0.00020055705644348272
-0.012655882045600154   -0.0006882951960623868   -0.00016130056547512583
-0.01643326574971145   -0.006979269050412769   -0.0002919891271956706
-0.012642160618970683   -0.006916741554832714   -0.0001847108480093871
-0.012655882045600154   -0.0006882951960623868   -0.00016130056547512583
-0.016427808144595664   -0.0006803990763817998   -0.0002575980251468224
-0.01643326574971145   -0.006979269050412769   -0.0002919891271956706
-0.01644614512459031   -0.0006246804644789321   -0.00026171083208458874
-0.012642160618970683   -0.006916741554832714   -0.0001847108480093871
-0.016459190086472595   -0.006926120121152168   -0.0002844271513392131
-0.01644614512459031   -0.0006246804644789321   -0.00026171083208458874
-0.01643326574971145   -0.006979269050412769   -0.0002919891271956706
-0.012642160618970683   -0.006916741554832714   -0.0001847108480093871
-0.01644614512459031   -0.0006246804644789321   -0.00026171083208458874
-0.012678353382790447   -0.0006311733449006165   -0.00016029349054432675
-0.012655882045600154   -0.0006882951960623868   -0.00016130056547512583
-0.012642160618970683   -0.006916741554832714   -0.0001847108480093871
-0.01644614512459031   -0.0006246804644789321   -0.00026171083208458874
-0.012655882045600154   -0.0006882951960623868   -0.00016130056547512583
-0.01643326574971145   -0.006979269050412769   -0.0002919891271956706
              </DataArray>   
          </PointData>  
       </Piece>  
   </UnstructuredGrid> 
</VTKFile> 
