<?xml version="1.0"?> 
<VTKFile type="UnstructuredGrid"> 
   <UnstructuredGrid> 
      <Piece NumberOfPoints="6000"  NumberOfCells="1500">  
          <Points>  
             <DataArray type="Float64" NumberOfComponents="3" format="ascii">   
-500.0   0.0   0.0
-450.0   0.0   0.0
-500.0   30.0   0.0
-500.0   0.0   16.666666666666668
-450.0   0.0   0.0
-450.0   30.0   0.0
-500.0   30.0   0.0
-450.0   30.0   16.666666666666668
-500.0   0.0   16.666666666666668
-500.0   30.0   16.666666666666668
-450.0   30.0   16.666666666666668
-500.0   30.0   0.0
-500.0   0.0   16.666666666666668
-450.0   30.0   16.666666666666668
-450.0   0.0   16.666666666666668
-450.0   0.0   0.0
-500.0   0.0   16.666666666666668
-450.0   30.0   16.666666666666668
-450.0   0.0   0.0
-500.0   30.0   0.0
-500.0   0.0   16.666666666666668
-450.0   0.0   16.666666666666668
-500.0   30.0   16.666666666666668
-500.0   0.0   33.333333333333336
-450.0   0.0   16.666666666666668
-450.0   30.0   16.666666666666668
-500.0   30.0   16.666666666666668
-450.0   30.0   33.333333333333336
-500.0   0.0   33.333333333333336
-500.0   30.0   33.333333333333336
-450.0   30.0   33.333333333333336
-500.0   30.0   16.666666666666668
-500.0   0.0   33.333333333333336
-450.0   30.0   33.333333333333336
-450.0   0.0   33.333333333333336
-450.0   0.0   16.666666666666668
-500.0   0.0   33.333333333333336
-450.0   30.0   33.333333333333336
-450.0   0.0   16.666666666666668
-500.0   30.0   16.666666666666668
-500.0   0.0   33.333333333333336
-450.0   0.0   33.333333333333336
-500.0   30.0   33.333333333333336
-500.0   0.0   50.0
-450.0   0.0   33.333333333333336
-450.0   30.0   33.333333333333336
-500.0   30.0   33.333333333333336
-450.0   30.0   50.0
-500.0   0.0   50.0
-500.0   30.0   50.0
-450.0   30.0   50.0
-500.0   30.0   33.333333333333336
-500.0   0.0   50.0
-450.0   30.0   50.0
-450.0   0.0   50.0
-450.0   0.0   33.333333333333336
-500.0   0.0   50.0
-450.0   30.0   50.0
-450.0   0.0   33.333333333333336
-500.0   30.0   33.333333333333336
-500.0   30.0   0.0
-450.0   30.0   0.0
-500.0   60.0   0.0
-500.0   30.0   16.666666666666668
-450.0   30.0   0.0
-450.0   60.0   0.0
-500.0   60.0   0.0
-450.0   60.0   16.666666666666668
-500.0   30.0   16.666666666666668
-500.0   60.0   16.666666666666668
-450.0   60.0   16.666666666666668
-500.0   60.0   0.0
-500.0   30.0   16.666666666666668
-450.0   60.0   16.666666666666668
-450.0   30.0   16.666666666666668
-450.0   30.0   0.0
-500.0   30.0   16.666666666666668
-450.0   60.0   16.666666666666668
-450.0   30.0   0.0
-500.0   60.0   0.0
-500.0   30.0   16.666666666666668
-450.0   30.0   16.666666666666668
-500.0   60.0   16.666666666666668
-500.0   30.0   33.333333333333336
-450.0   30.0   16.666666666666668
-450.0   60.0   16.666666666666668
-500.0   60.0   16.666666666666668
-450.0   60.0   33.333333333333336
-500.0   30.0   33.333333333333336
-500.0   60.0   33.333333333333336
-450.0   60.0   33.333333333333336
-500.0   60.0   16.666666666666668
-500.0   30.0   33.333333333333336
-450.0   60.0   33.333333333333336
-450.0   30.0   33.333333333333336
-450.0   30.0   16.666666666666668
-500.0   30.0   33.333333333333336
-450.0   60.0   33.333333333333336
-450.0   30.0   16.666666666666668
-500.0   60.0   16.666666666666668
-500.0   30.0   33.333333333333336
-450.0   30.0   33.333333333333336
-500.0   60.0   33.333333333333336
-500.0   30.0   50.0
-450.0   30.0   33.333333333333336
-450.0   60.0   33.333333333333336
-500.0   60.0   33.333333333333336
-450.0   60.0   50.0
-500.0   30.0   50.0
-500.0   60.0   50.0
-450.0   60.0   50.0
-500.0   60.0   33.333333333333336
-500.0   30.0   50.0
-450.0   60.0   50.0
-450.0   30.0   50.0
-450.0   30.0   33.333333333333336
-500.0   30.0   50.0
-450.0   60.0   50.0
-450.0   30.0   33.333333333333336
-500.0   60.0   33.333333333333336
-500.0   60.0   0.0
-450.0   60.0   0.0
-500.0   90.0   0.0
-500.0   60.0   16.666666666666668
-450.0   60.0   0.0
-450.0   90.0   0.0
-500.0   90.0   0.0
-450.0   90.0   16.666666666666668
-500.0   60.0   16.666666666666668
-500.0   90.0   16.666666666666668
-450.0   90.0   16.666666666666668
-500.0   90.0   0.0
-500.0   60.0   16.666666666666668
-450.0   90.0   16.666666666666668
-450.0   60.0   16.666666666666668
-450.0   60.0   0.0
-500.0   60.0   16.666666666666668
-450.0   90.0   16.666666666666668
-450.0   60.0   0.0
-500.0   90.0   0.0
-500.0   60.0   16.666666666666668
-450.0   60.0   16.666666666666668
-500.0   90.0   16.666666666666668
-500.0   60.0   33.333333333333336
-450.0   60.0   16.666666666666668
-450.0   90.0   16.666666666666668
-500.0   90.0   16.666666666666668
-450.0   90.0   33.333333333333336
-500.0   60.0   33.333333333333336
-500.0   90.0   33.333333333333336
-450.0   90.0   33.333333333333336
-500.0   90.0   16.666666666666668
-500.0   60.0   33.333333333333336
-450.0   90.0   33.333333333333336
-450.0   60.0   33.333333333333336
-450.0   60.0   16.666666666666668
-500.0   60.0   33.333333333333336
-450.0   90.0   33.333333333333336
-450.0   60.0   16.666666666666668
-500.0   90.0   16.666666666666668
-500.0   60.0   33.333333333333336
-450.0   60.0   33.333333333333336
-500.0   90.0   33.333333333333336
-500.0   60.0   50.0
-450.0   60.0   33.333333333333336
-450.0   90.0   33.333333333333336
-500.0   90.0   33.333333333333336
-450.0   90.0   50.0
-500.0   60.0   50.0
-500.0   90.0   50.0
-450.0   90.0   50.0
-500.0   90.0   33.333333333333336
-500.0   60.0   50.0
-450.0   90.0   50.0
-450.0   60.0   50.0
-450.0   60.0   33.333333333333336
-500.0   60.0   50.0
-450.0   90.0   50.0
-450.0   60.0   33.333333333333336
-500.0   90.0   33.333333333333336
-500.0   90.0   0.0
-450.0   90.0   0.0
-500.0   120.0   0.0
-500.0   90.0   16.666666666666668
-450.0   90.0   0.0
-450.0   120.0   0.0
-500.0   120.0   0.0
-450.0   120.0   16.666666666666668
-500.0   90.0   16.666666666666668
-500.0   120.0   16.666666666666668
-450.0   120.0   16.666666666666668
-500.0   120.0   0.0
-500.0   90.0   16.666666666666668
-450.0   120.0   16.666666666666668
-450.0   90.0   16.666666666666668
-450.0   90.0   0.0
-500.0   90.0   16.666666666666668
-450.0   120.0   16.666666666666668
-450.0   90.0   0.0
-500.0   120.0   0.0
-500.0   90.0   16.666666666666668
-450.0   90.0   16.666666666666668
-500.0   120.0   16.666666666666668
-500.0   90.0   33.333333333333336
-450.0   90.0   16.666666666666668
-450.0   120.0   16.666666666666668
-500.0   120.0   16.666666666666668
-450.0   120.0   33.333333333333336
-500.0   90.0   33.333333333333336
-500.0   120.0   33.333333333333336
-450.0   120.0   33.333333333333336
-500.0   120.0   16.666666666666668
-500.0   90.0   33.333333333333336
-450.0   120.0   33.333333333333336
-450.0   90.0   33.333333333333336
-450.0   90.0   16.666666666666668
-500.0   90.0   33.333333333333336
-450.0   120.0   33.333333333333336
-450.0   90.0   16.666666666666668
-500.0   120.0   16.666666666666668
-500.0   90.0   33.333333333333336
-450.0   90.0   33.333333333333336
-500.0   120.0   33.333333333333336
-500.0   90.0   50.0
-450.0   90.0   33.333333333333336
-450.0   120.0   33.333333333333336
-500.0   120.0   33.333333333333336
-450.0   120.0   50.0
-500.0   90.0   50.0
-500.0   120.0   50.0
-450.0   120.0   50.0
-500.0   120.0   33.333333333333336
-500.0   90.0   50.0
-450.0   120.0   50.0
-450.0   90.0   50.0
-450.0   90.0   33.333333333333336
-500.0   90.0   50.0
-450.0   120.0   50.0
-450.0   90.0   33.333333333333336
-500.0   120.0   33.333333333333336
-500.0   120.0   0.0
-450.0   120.0   0.0
-500.0   150.0   0.0
-500.0   120.0   16.666666666666668
-450.0   120.0   0.0
-450.0   150.0   0.0
-500.0   150.0   0.0
-450.0   150.0   16.666666666666668
-500.0   120.0   16.666666666666668
-500.0   150.0   16.666666666666668
-450.0   150.0   16.666666666666668
-500.0   150.0   0.0
-500.0   120.0   16.666666666666668
-450.0   150.0   16.666666666666668
-450.0   120.0   16.666666666666668
-450.0   120.0   0.0
-500.0   120.0   16.666666666666668
-450.0   150.0   16.666666666666668
-450.0   120.0   0.0
-500.0   150.0   0.0
-500.0   120.0   16.666666666666668
-450.0   120.0   16.666666666666668
-500.0   150.0   16.666666666666668
-500.0   120.0   33.333333333333336
-450.0   120.0   16.666666666666668
-450.0   150.0   16.666666666666668
-500.0   150.0   16.666666666666668
-450.0   150.0   33.333333333333336
-500.0   120.0   33.333333333333336
-500.0   150.0   33.333333333333336
-450.0   150.0   33.333333333333336
-500.0   150.0   16.666666666666668
-500.0   120.0   33.333333333333336
-450.0   150.0   33.333333333333336
-450.0   120.0   33.333333333333336
-450.0   120.0   16.666666666666668
-500.0   120.0   33.333333333333336
-450.0   150.0   33.333333333333336
-450.0   120.0   16.666666666666668
-500.0   150.0   16.666666666666668
-500.0   120.0   33.333333333333336
-450.0   120.0   33.333333333333336
-500.0   150.0   33.333333333333336
-500.0   120.0   50.0
-450.0   120.0   33.333333333333336
-450.0   150.0   33.333333333333336
-500.0   150.0   33.333333333333336
-450.0   150.0   50.0
-500.0   120.0   50.0
-500.0   150.0   50.0
-450.0   150.0   50.0
-500.0   150.0   33.333333333333336
-500.0   120.0   50.0
-450.0   150.0   50.0
-450.0   120.0   50.0
-450.0   120.0   33.333333333333336
-500.0   120.0   50.0
-450.0   150.0   50.0
-450.0   120.0   33.333333333333336
-500.0   150.0   33.333333333333336
-450.0   0.0   0.0
-400.0   0.0   0.0
-450.0   30.0   0.0
-450.0   0.0   16.666666666666668
-400.0   0.0   0.0
-400.0   30.0   0.0
-450.0   30.0   0.0
-400.0   30.0   16.666666666666668
-450.0   0.0   16.666666666666668
-450.0   30.0   16.666666666666668
-400.0   30.0   16.666666666666668
-450.0   30.0   0.0
-450.0   0.0   16.666666666666668
-400.0   30.0   16.666666666666668
-400.0   0.0   16.666666666666668
-400.0   0.0   0.0
-450.0   0.0   16.666666666666668
-400.0   30.0   16.666666666666668
-400.0   0.0   0.0
-450.0   30.0   0.0
-450.0   0.0   16.666666666666668
-400.0   0.0   16.666666666666668
-450.0   30.0   16.666666666666668
-450.0   0.0   33.333333333333336
-400.0   0.0   16.666666666666668
-400.0   30.0   16.666666666666668
-450.0   30.0   16.666666666666668
-400.0   30.0   33.333333333333336
-450.0   0.0   33.333333333333336
-450.0   30.0   33.333333333333336
-400.0   30.0   33.333333333333336
-450.0   30.0   16.666666666666668
-450.0   0.0   33.333333333333336
-400.0   30.0   33.333333333333336
-400.0   0.0   33.333333333333336
-400.0   0.0   16.666666666666668
-450.0   0.0   33.333333333333336
-400.0   30.0   33.333333333333336
-400.0   0.0   16.666666666666668
-450.0   30.0   16.666666666666668
-450.0   0.0   33.333333333333336
-400.0   0.0   33.333333333333336
-450.0   30.0   33.333333333333336
-450.0   0.0   50.0
-400.0   0.0   33.333333333333336
-400.0   30.0   33.333333333333336
-450.0   30.0   33.333333333333336
-400.0   30.0   50.0
-450.0   0.0   50.0
-450.0   30.0   50.0
-400.0   30.0   50.0
-450.0   30.0   33.333333333333336
-450.0   0.0   50.0
-400.0   30.0   50.0
-400.0   0.0   50.0
-400.0   0.0   33.333333333333336
-450.0   0.0   50.0
-400.0   30.0   50.0
-400.0   0.0   33.333333333333336
-450.0   30.0   33.333333333333336
-450.0   30.0   0.0
-400.0   30.0   0.0
-450.0   60.0   0.0
-450.0   30.0   16.666666666666668
-400.0   30.0   0.0
-400.0   60.0   0.0
-450.0   60.0   0.0
-400.0   60.0   16.666666666666668
-450.0   30.0   16.666666666666668
-450.0   60.0   16.666666666666668
-400.0   60.0   16.666666666666668
-450.0   60.0   0.0
-450.0   30.0   16.666666666666668
-400.0   60.0   16.666666666666668
-400.0   30.0   16.666666666666668
-400.0   30.0   0.0
-450.0   30.0   16.666666666666668
-400.0   60.0   16.666666666666668
-400.0   30.0   0.0
-450.0   60.0   0.0
-450.0   30.0   16.666666666666668
-400.0   30.0   16.666666666666668
-450.0   60.0   16.666666666666668
-450.0   30.0   33.333333333333336
-400.0   30.0   16.666666666666668
-400.0   60.0   16.666666666666668
-450.0   60.0   16.666666666666668
-400.0   60.0   33.333333333333336
-450.0   30.0   33.333333333333336
-450.0   60.0   33.333333333333336
-400.0   60.0   33.333333333333336
-450.0   60.0   16.666666666666668
-450.0   30.0   33.333333333333336
-400.0   60.0   33.333333333333336
-400.0   30.0   33.333333333333336
-400.0   30.0   16.666666666666668
-450.0   30.0   33.333333333333336
-400.0   60.0   33.333333333333336
-400.0   30.0   16.666666666666668
-450.0   60.0   16.666666666666668
-450.0   30.0   33.333333333333336
-400.0   30.0   33.333333333333336
-450.0   60.0   33.333333333333336
-450.0   30.0   50.0
-400.0   30.0   33.333333333333336
-400.0   60.0   33.333333333333336
-450.0   60.0   33.333333333333336
-400.0   60.0   50.0
-450.0   30.0   50.0
-450.0   60.0   50.0
-400.0   60.0   50.0
-450.0   60.0   33.333333333333336
-450.0   30.0   50.0
-400.0   60.0   50.0
-400.0   30.0   50.0
-400.0   30.0   33.333333333333336
-450.0   30.0   50.0
-400.0   60.0   50.0
-400.0   30.0   33.333333333333336
-450.0   60.0   33.333333333333336
-450.0   60.0   0.0
-400.0   60.0   0.0
-450.0   90.0   0.0
-450.0   60.0   16.666666666666668
-400.0   60.0   0.0
-400.0   90.0   0.0
-450.0   90.0   0.0
-400.0   90.0   16.666666666666668
-450.0   60.0   16.666666666666668
-450.0   90.0   16.666666666666668
-400.0   90.0   16.666666666666668
-450.0   90.0   0.0
-450.0   60.0   16.666666666666668
-400.0   90.0   16.666666666666668
-400.0   60.0   16.666666666666668
-400.0   60.0   0.0
-450.0   60.0   16.666666666666668
-400.0   90.0   16.666666666666668
-400.0   60.0   0.0
-450.0   90.0   0.0
-450.0   60.0   16.666666666666668
-400.0   60.0   16.666666666666668
-450.0   90.0   16.666666666666668
-450.0   60.0   33.333333333333336
-400.0   60.0   16.666666666666668
-400.0   90.0   16.666666666666668
-450.0   90.0   16.666666666666668
-400.0   90.0   33.333333333333336
-450.0   60.0   33.333333333333336
-450.0   90.0   33.333333333333336
-400.0   90.0   33.333333333333336
-450.0   90.0   16.666666666666668
-450.0   60.0   33.333333333333336
-400.0   90.0   33.333333333333336
-400.0   60.0   33.333333333333336
-400.0   60.0   16.666666666666668
-450.0   60.0   33.333333333333336
-400.0   90.0   33.333333333333336
-400.0   60.0   16.666666666666668
-450.0   90.0   16.666666666666668
-450.0   60.0   33.333333333333336
-400.0   60.0   33.333333333333336
-450.0   90.0   33.333333333333336
-450.0   60.0   50.0
-400.0   60.0   33.333333333333336
-400.0   90.0   33.333333333333336
-450.0   90.0   33.333333333333336
-400.0   90.0   50.0
-450.0   60.0   50.0
-450.0   90.0   50.0
-400.0   90.0   50.0
-450.0   90.0   33.333333333333336
-450.0   60.0   50.0
-400.0   90.0   50.0
-400.0   60.0   50.0
-400.0   60.0   33.333333333333336
-450.0   60.0   50.0
-400.0   90.0   50.0
-400.0   60.0   33.333333333333336
-450.0   90.0   33.333333333333336
-450.0   90.0   0.0
-400.0   90.0   0.0
-450.0   120.0   0.0
-450.0   90.0   16.666666666666668
-400.0   90.0   0.0
-400.0   120.0   0.0
-450.0   120.0   0.0
-400.0   120.0   16.666666666666668
-450.0   90.0   16.666666666666668
-450.0   120.0   16.666666666666668
-400.0   120.0   16.666666666666668
-450.0   120.0   0.0
-450.0   90.0   16.666666666666668
-400.0   120.0   16.666666666666668
-400.0   90.0   16.666666666666668
-400.0   90.0   0.0
-450.0   90.0   16.666666666666668
-400.0   120.0   16.666666666666668
-400.0   90.0   0.0
-450.0   120.0   0.0
-450.0   90.0   16.666666666666668
-400.0   90.0   16.666666666666668
-450.0   120.0   16.666666666666668
-450.0   90.0   33.333333333333336
-400.0   90.0   16.666666666666668
-400.0   120.0   16.666666666666668
-450.0   120.0   16.666666666666668
-400.0   120.0   33.333333333333336
-450.0   90.0   33.333333333333336
-450.0   120.0   33.333333333333336
-400.0   120.0   33.333333333333336
-450.0   120.0   16.666666666666668
-450.0   90.0   33.333333333333336
-400.0   120.0   33.333333333333336
-400.0   90.0   33.333333333333336
-400.0   90.0   16.666666666666668
-450.0   90.0   33.333333333333336
-400.0   120.0   33.333333333333336
-400.0   90.0   16.666666666666668
-450.0   120.0   16.666666666666668
-450.0   90.0   33.333333333333336
-400.0   90.0   33.333333333333336
-450.0   120.0   33.333333333333336
-450.0   90.0   50.0
-400.0   90.0   33.333333333333336
-400.0   120.0   33.333333333333336
-450.0   120.0   33.333333333333336
-400.0   120.0   50.0
-450.0   90.0   50.0
-450.0   120.0   50.0
-400.0   120.0   50.0
-450.0   120.0   33.333333333333336
-450.0   90.0   50.0
-400.0   120.0   50.0
-400.0   90.0   50.0
-400.0   90.0   33.333333333333336
-450.0   90.0   50.0
-400.0   120.0   50.0
-400.0   90.0   33.333333333333336
-450.0   120.0   33.333333333333336
-450.0   120.0   0.0
-400.0   120.0   0.0
-450.0   150.0   0.0
-450.0   120.0   16.666666666666668
-400.0   120.0   0.0
-400.0   150.0   0.0
-450.0   150.0   0.0
-400.0   150.0   16.666666666666668
-450.0   120.0   16.666666666666668
-450.0   150.0   16.666666666666668
-400.0   150.0   16.666666666666668
-450.0   150.0   0.0
-450.0   120.0   16.666666666666668
-400.0   150.0   16.666666666666668
-400.0   120.0   16.666666666666668
-400.0   120.0   0.0
-450.0   120.0   16.666666666666668
-400.0   150.0   16.666666666666668
-400.0   120.0   0.0
-450.0   150.0   0.0
-450.0   120.0   16.666666666666668
-400.0   120.0   16.666666666666668
-450.0   150.0   16.666666666666668
-450.0   120.0   33.333333333333336
-400.0   120.0   16.666666666666668
-400.0   150.0   16.666666666666668
-450.0   150.0   16.666666666666668
-400.0   150.0   33.333333333333336
-450.0   120.0   33.333333333333336
-450.0   150.0   33.333333333333336
-400.0   150.0   33.333333333333336
-450.0   150.0   16.666666666666668
-450.0   120.0   33.333333333333336
-400.0   150.0   33.333333333333336
-400.0   120.0   33.333333333333336
-400.0   120.0   16.666666666666668
-450.0   120.0   33.333333333333336
-400.0   150.0   33.333333333333336
-400.0   120.0   16.666666666666668
-450.0   150.0   16.666666666666668
-450.0   120.0   33.333333333333336
-400.0   120.0   33.333333333333336
-450.0   150.0   33.333333333333336
-450.0   120.0   50.0
-400.0   120.0   33.333333333333336
-400.0   150.0   33.333333333333336
-450.0   150.0   33.333333333333336
-400.0   150.0   50.0
-450.0   120.0   50.0
-450.0   150.0   50.0
-400.0   150.0   50.0
-450.0   150.0   33.333333333333336
-450.0   120.0   50.0
-400.0   150.0   50.0
-400.0   120.0   50.0
-400.0   120.0   33.333333333333336
-450.0   120.0   50.0
-400.0   150.0   50.0
-400.0   120.0   33.333333333333336
-450.0   150.0   33.333333333333336
-400.0   0.0   0.0
-350.0   0.0   0.0
-400.0   30.0   0.0
-400.0   0.0   16.666666666666668
-350.0   0.0   0.0
-350.0   30.0   0.0
-400.0   30.0   0.0
-350.0   30.0   16.666666666666668
-400.0   0.0   16.666666666666668
-400.0   30.0   16.666666666666668
-350.0   30.0   16.666666666666668
-400.0   30.0   0.0
-400.0   0.0   16.666666666666668
-350.0   30.0   16.666666666666668
-350.0   0.0   16.666666666666668
-350.0   0.0   0.0
-400.0   0.0   16.666666666666668
-350.0   30.0   16.666666666666668
-350.0   0.0   0.0
-400.0   30.0   0.0
-400.0   0.0   16.666666666666668
-350.0   0.0   16.666666666666668
-400.0   30.0   16.666666666666668
-400.0   0.0   33.333333333333336
-350.0   0.0   16.666666666666668
-350.0   30.0   16.666666666666668
-400.0   30.0   16.666666666666668
-350.0   30.0   33.333333333333336
-400.0   0.0   33.333333333333336
-400.0   30.0   33.333333333333336
-350.0   30.0   33.333333333333336
-400.0   30.0   16.666666666666668
-400.0   0.0   33.333333333333336
-350.0   30.0   33.333333333333336
-350.0   0.0   33.333333333333336
-350.0   0.0   16.666666666666668
-400.0   0.0   33.333333333333336
-350.0   30.0   33.333333333333336
-350.0   0.0   16.666666666666668
-400.0   30.0   16.666666666666668
-400.0   0.0   33.333333333333336
-350.0   0.0   33.333333333333336
-400.0   30.0   33.333333333333336
-400.0   0.0   50.0
-350.0   0.0   33.333333333333336
-350.0   30.0   33.333333333333336
-400.0   30.0   33.333333333333336
-350.0   30.0   50.0
-400.0   0.0   50.0
-400.0   30.0   50.0
-350.0   30.0   50.0
-400.0   30.0   33.333333333333336
-400.0   0.0   50.0
-350.0   30.0   50.0
-350.0   0.0   50.0
-350.0   0.0   33.333333333333336
-400.0   0.0   50.0
-350.0   30.0   50.0
-350.0   0.0   33.333333333333336
-400.0   30.0   33.333333333333336
-400.0   30.0   0.0
-350.0   30.0   0.0
-400.0   60.0   0.0
-400.0   30.0   16.666666666666668
-350.0   30.0   0.0
-350.0   60.0   0.0
-400.0   60.0   0.0
-350.0   60.0   16.666666666666668
-400.0   30.0   16.666666666666668
-400.0   60.0   16.666666666666668
-350.0   60.0   16.666666666666668
-400.0   60.0   0.0
-400.0   30.0   16.666666666666668
-350.0   60.0   16.666666666666668
-350.0   30.0   16.666666666666668
-350.0   30.0   0.0
-400.0   30.0   16.666666666666668
-350.0   60.0   16.666666666666668
-350.0   30.0   0.0
-400.0   60.0   0.0
-400.0   30.0   16.666666666666668
-350.0   30.0   16.666666666666668
-400.0   60.0   16.666666666666668
-400.0   30.0   33.333333333333336
-350.0   30.0   16.666666666666668
-350.0   60.0   16.666666666666668
-400.0   60.0   16.666666666666668
-350.0   60.0   33.333333333333336
-400.0   30.0   33.333333333333336
-400.0   60.0   33.333333333333336
-350.0   60.0   33.333333333333336
-400.0   60.0   16.666666666666668
-400.0   30.0   33.333333333333336
-350.0   60.0   33.333333333333336
-350.0   30.0   33.333333333333336
-350.0   30.0   16.666666666666668
-400.0   30.0   33.333333333333336
-350.0   60.0   33.333333333333336
-350.0   30.0   16.666666666666668
-400.0   60.0   16.666666666666668
-400.0   30.0   33.333333333333336
-350.0   30.0   33.333333333333336
-400.0   60.0   33.333333333333336
-400.0   30.0   50.0
-350.0   30.0   33.333333333333336
-350.0   60.0   33.333333333333336
-400.0   60.0   33.333333333333336
-350.0   60.0   50.0
-400.0   30.0   50.0
-400.0   60.0   50.0
-350.0   60.0   50.0
-400.0   60.0   33.333333333333336
-400.0   30.0   50.0
-350.0   60.0   50.0
-350.0   30.0   50.0
-350.0   30.0   33.333333333333336
-400.0   30.0   50.0
-350.0   60.0   50.0
-350.0   30.0   33.333333333333336
-400.0   60.0   33.333333333333336
-400.0   60.0   0.0
-350.0   60.0   0.0
-400.0   90.0   0.0
-400.0   60.0   16.666666666666668
-350.0   60.0   0.0
-350.0   90.0   0.0
-400.0   90.0   0.0
-350.0   90.0   16.666666666666668
-400.0   60.0   16.666666666666668
-400.0   90.0   16.666666666666668
-350.0   90.0   16.666666666666668
-400.0   90.0   0.0
-400.0   60.0   16.666666666666668
-350.0   90.0   16.666666666666668
-350.0   60.0   16.666666666666668
-350.0   60.0   0.0
-400.0   60.0   16.666666666666668
-350.0   90.0   16.666666666666668
-350.0   60.0   0.0
-400.0   90.0   0.0
-400.0   60.0   16.666666666666668
-350.0   60.0   16.666666666666668
-400.0   90.0   16.666666666666668
-400.0   60.0   33.333333333333336
-350.0   60.0   16.666666666666668
-350.0   90.0   16.666666666666668
-400.0   90.0   16.666666666666668
-350.0   90.0   33.333333333333336
-400.0   60.0   33.333333333333336
-400.0   90.0   33.333333333333336
-350.0   90.0   33.333333333333336
-400.0   90.0   16.666666666666668
-400.0   60.0   33.333333333333336
-350.0   90.0   33.333333333333336
-350.0   60.0   33.333333333333336
-350.0   60.0   16.666666666666668
-400.0   60.0   33.333333333333336
-350.0   90.0   33.333333333333336
-350.0   60.0   16.666666666666668
-400.0   90.0   16.666666666666668
-400.0   60.0   33.333333333333336
-350.0   60.0   33.333333333333336
-400.0   90.0   33.333333333333336
-400.0   60.0   50.0
-350.0   60.0   33.333333333333336
-350.0   90.0   33.333333333333336
-400.0   90.0   33.333333333333336
-350.0   90.0   50.0
-400.0   60.0   50.0
-400.0   90.0   50.0
-350.0   90.0   50.0
-400.0   90.0   33.333333333333336
-400.0   60.0   50.0
-350.0   90.0   50.0
-350.0   60.0   50.0
-350.0   60.0   33.333333333333336
-400.0   60.0   50.0
-350.0   90.0   50.0
-350.0   60.0   33.333333333333336
-400.0   90.0   33.333333333333336
-400.0   90.0   0.0
-350.0   90.0   0.0
-400.0   120.0   0.0
-400.0   90.0   16.666666666666668
-350.0   90.0   0.0
-350.0   120.0   0.0
-400.0   120.0   0.0
-350.0   120.0   16.666666666666668
-400.0   90.0   16.666666666666668
-400.0   120.0   16.666666666666668
-350.0   120.0   16.666666666666668
-400.0   120.0   0.0
-400.0   90.0   16.666666666666668
-350.0   120.0   16.666666666666668
-350.0   90.0   16.666666666666668
-350.0   90.0   0.0
-400.0   90.0   16.666666666666668
-350.0   120.0   16.666666666666668
-350.0   90.0   0.0
-400.0   120.0   0.0
-400.0   90.0   16.666666666666668
-350.0   90.0   16.666666666666668
-400.0   120.0   16.666666666666668
-400.0   90.0   33.333333333333336
-350.0   90.0   16.666666666666668
-350.0   120.0   16.666666666666668
-400.0   120.0   16.666666666666668
-350.0   120.0   33.333333333333336
-400.0   90.0   33.333333333333336
-400.0   120.0   33.333333333333336
-350.0   120.0   33.333333333333336
-400.0   120.0   16.666666666666668
-400.0   90.0   33.333333333333336
-350.0   120.0   33.333333333333336
-350.0   90.0   33.333333333333336
-350.0   90.0   16.666666666666668
-400.0   90.0   33.333333333333336
-350.0   120.0   33.333333333333336
-350.0   90.0   16.666666666666668
-400.0   120.0   16.666666666666668
-400.0   90.0   33.333333333333336
-350.0   90.0   33.333333333333336
-400.0   120.0   33.333333333333336
-400.0   90.0   50.0
-350.0   90.0   33.333333333333336
-350.0   120.0   33.333333333333336
-400.0   120.0   33.333333333333336
-350.0   120.0   50.0
-400.0   90.0   50.0
-400.0   120.0   50.0
-350.0   120.0   50.0
-400.0   120.0   33.333333333333336
-400.0   90.0   50.0
-350.0   120.0   50.0
-350.0   90.0   50.0
-350.0   90.0   33.333333333333336
-400.0   90.0   50.0
-350.0   120.0   50.0
-350.0   90.0   33.333333333333336
-400.0   120.0   33.333333333333336
-400.0   120.0   0.0
-350.0   120.0   0.0
-400.0   150.0   0.0
-400.0   120.0   16.666666666666668
-350.0   120.0   0.0
-350.0   150.0   0.0
-400.0   150.0   0.0
-350.0   150.0   16.666666666666668
-400.0   120.0   16.666666666666668
-400.0   150.0   16.666666666666668
-350.0   150.0   16.666666666666668
-400.0   150.0   0.0
-400.0   120.0   16.666666666666668
-350.0   150.0   16.666666666666668
-350.0   120.0   16.666666666666668
-350.0   120.0   0.0
-400.0   120.0   16.666666666666668
-350.0   150.0   16.666666666666668
-350.0   120.0   0.0
-400.0   150.0   0.0
-400.0   120.0   16.666666666666668
-350.0   120.0   16.666666666666668
-400.0   150.0   16.666666666666668
-400.0   120.0   33.333333333333336
-350.0   120.0   16.666666666666668
-350.0   150.0   16.666666666666668
-400.0   150.0   16.666666666666668
-350.0   150.0   33.333333333333336
-400.0   120.0   33.333333333333336
-400.0   150.0   33.333333333333336
-350.0   150.0   33.333333333333336
-400.0   150.0   16.666666666666668
-400.0   120.0   33.333333333333336
-350.0   150.0   33.333333333333336
-350.0   120.0   33.333333333333336
-350.0   120.0   16.666666666666668
-400.0   120.0   33.333333333333336
-350.0   150.0   33.333333333333336
-350.0   120.0   16.666666666666668
-400.0   150.0   16.666666666666668
-400.0   120.0   33.333333333333336
-350.0   120.0   33.333333333333336
-400.0   150.0   33.333333333333336
-400.0   120.0   50.0
-350.0   120.0   33.333333333333336
-350.0   150.0   33.333333333333336
-400.0   150.0   33.333333333333336
-350.0   150.0   50.0
-400.0   120.0   50.0
-400.0   150.0   50.0
-350.0   150.0   50.0
-400.0   150.0   33.333333333333336
-400.0   120.0   50.0
-350.0   150.0   50.0
-350.0   120.0   50.0
-350.0   120.0   33.333333333333336
-400.0   120.0   50.0
-350.0   150.0   50.0
-350.0   120.0   33.333333333333336
-400.0   150.0   33.333333333333336
-350.0   0.0   0.0
-300.0   0.0   0.0
-350.0   30.0   0.0
-350.0   0.0   16.666666666666668
-300.0   0.0   0.0
-300.0   30.0   0.0
-350.0   30.0   0.0
-300.0   30.0   16.666666666666668
-350.0   0.0   16.666666666666668
-350.0   30.0   16.666666666666668
-300.0   30.0   16.666666666666668
-350.0   30.0   0.0
-350.0   0.0   16.666666666666668
-300.0   30.0   16.666666666666668
-300.0   0.0   16.666666666666668
-300.0   0.0   0.0
-350.0   0.0   16.666666666666668
-300.0   30.0   16.666666666666668
-300.0   0.0   0.0
-350.0   30.0   0.0
-350.0   0.0   16.666666666666668
-300.0   0.0   16.666666666666668
-350.0   30.0   16.666666666666668
-350.0   0.0   33.333333333333336
-300.0   0.0   16.666666666666668
-300.0   30.0   16.666666666666668
-350.0   30.0   16.666666666666668
-300.0   30.0   33.333333333333336
-350.0   0.0   33.333333333333336
-350.0   30.0   33.333333333333336
-300.0   30.0   33.333333333333336
-350.0   30.0   16.666666666666668
-350.0   0.0   33.333333333333336
-300.0   30.0   33.333333333333336
-300.0   0.0   33.333333333333336
-300.0   0.0   16.666666666666668
-350.0   0.0   33.333333333333336
-300.0   30.0   33.333333333333336
-300.0   0.0   16.666666666666668
-350.0   30.0   16.666666666666668
-350.0   0.0   33.333333333333336
-300.0   0.0   33.333333333333336
-350.0   30.0   33.333333333333336
-350.0   0.0   50.0
-300.0   0.0   33.333333333333336
-300.0   30.0   33.333333333333336
-350.0   30.0   33.333333333333336
-300.0   30.0   50.0
-350.0   0.0   50.0
-350.0   30.0   50.0
-300.0   30.0   50.0
-350.0   30.0   33.333333333333336
-350.0   0.0   50.0
-300.0   30.0   50.0
-300.0   0.0   50.0
-300.0   0.0   33.333333333333336
-350.0   0.0   50.0
-300.0   30.0   50.0
-300.0   0.0   33.333333333333336
-350.0   30.0   33.333333333333336
-350.0   30.0   0.0
-300.0   30.0   0.0
-350.0   60.0   0.0
-350.0   30.0   16.666666666666668
-300.0   30.0   0.0
-300.0   60.0   0.0
-350.0   60.0   0.0
-300.0   60.0   16.666666666666668
-350.0   30.0   16.666666666666668
-350.0   60.0   16.666666666666668
-300.0   60.0   16.666666666666668
-350.0   60.0   0.0
-350.0   30.0   16.666666666666668
-300.0   60.0   16.666666666666668
-300.0   30.0   16.666666666666668
-300.0   30.0   0.0
-350.0   30.0   16.666666666666668
-300.0   60.0   16.666666666666668
-300.0   30.0   0.0
-350.0   60.0   0.0
-350.0   30.0   16.666666666666668
-300.0   30.0   16.666666666666668
-350.0   60.0   16.666666666666668
-350.0   30.0   33.333333333333336
-300.0   30.0   16.666666666666668
-300.0   60.0   16.666666666666668
-350.0   60.0   16.666666666666668
-300.0   60.0   33.333333333333336
-350.0   30.0   33.333333333333336
-350.0   60.0   33.333333333333336
-300.0   60.0   33.333333333333336
-350.0   60.0   16.666666666666668
-350.0   30.0   33.333333333333336
-300.0   60.0   33.333333333333336
-300.0   30.0   33.333333333333336
-300.0   30.0   16.666666666666668
-350.0   30.0   33.333333333333336
-300.0   60.0   33.333333333333336
-300.0   30.0   16.666666666666668
-350.0   60.0   16.666666666666668
-350.0   30.0   33.333333333333336
-300.0   30.0   33.333333333333336
-350.0   60.0   33.333333333333336
-350.0   30.0   50.0
-300.0   30.0   33.333333333333336
-300.0   60.0   33.333333333333336
-350.0   60.0   33.333333333333336
-300.0   60.0   50.0
-350.0   30.0   50.0
-350.0   60.0   50.0
-300.0   60.0   50.0
-350.0   60.0   33.333333333333336
-350.0   30.0   50.0
-300.0   60.0   50.0
-300.0   30.0   50.0
-300.0   30.0   33.333333333333336
-350.0   30.0   50.0
-300.0   60.0   50.0
-300.0   30.0   33.333333333333336
-350.0   60.0   33.333333333333336
-350.0   60.0   0.0
-300.0   60.0   0.0
-350.0   90.0   0.0
-350.0   60.0   16.666666666666668
-300.0   60.0   0.0
-300.0   90.0   0.0
-350.0   90.0   0.0
-300.0   90.0   16.666666666666668
-350.0   60.0   16.666666666666668
-350.0   90.0   16.666666666666668
-300.0   90.0   16.666666666666668
-350.0   90.0   0.0
-350.0   60.0   16.666666666666668
-300.0   90.0   16.666666666666668
-300.0   60.0   16.666666666666668
-300.0   60.0   0.0
-350.0   60.0   16.666666666666668
-300.0   90.0   16.666666666666668
-300.0   60.0   0.0
-350.0   90.0   0.0
-350.0   60.0   16.666666666666668
-300.0   60.0   16.666666666666668
-350.0   90.0   16.666666666666668
-350.0   60.0   33.333333333333336
-300.0   60.0   16.666666666666668
-300.0   90.0   16.666666666666668
-350.0   90.0   16.666666666666668
-300.0   90.0   33.333333333333336
-350.0   60.0   33.333333333333336
-350.0   90.0   33.333333333333336
-300.0   90.0   33.333333333333336
-350.0   90.0   16.666666666666668
-350.0   60.0   33.333333333333336
-300.0   90.0   33.333333333333336
-300.0   60.0   33.333333333333336
-300.0   60.0   16.666666666666668
-350.0   60.0   33.333333333333336
-300.0   90.0   33.333333333333336
-300.0   60.0   16.666666666666668
-350.0   90.0   16.666666666666668
-350.0   60.0   33.333333333333336
-300.0   60.0   33.333333333333336
-350.0   90.0   33.333333333333336
-350.0   60.0   50.0
-300.0   60.0   33.333333333333336
-300.0   90.0   33.333333333333336
-350.0   90.0   33.333333333333336
-300.0   90.0   50.0
-350.0   60.0   50.0
-350.0   90.0   50.0
-300.0   90.0   50.0
-350.0   90.0   33.333333333333336
-350.0   60.0   50.0
-300.0   90.0   50.0
-300.0   60.0   50.0
-300.0   60.0   33.333333333333336
-350.0   60.0   50.0
-300.0   90.0   50.0
-300.0   60.0   33.333333333333336
-350.0   90.0   33.333333333333336
-350.0   90.0   0.0
-300.0   90.0   0.0
-350.0   120.0   0.0
-350.0   90.0   16.666666666666668
-300.0   90.0   0.0
-300.0   120.0   0.0
-350.0   120.0   0.0
-300.0   120.0   16.666666666666668
-350.0   90.0   16.666666666666668
-350.0   120.0   16.666666666666668
-300.0   120.0   16.666666666666668
-350.0   120.0   0.0
-350.0   90.0   16.666666666666668
-300.0   120.0   16.666666666666668
-300.0   90.0   16.666666666666668
-300.0   90.0   0.0
-350.0   90.0   16.666666666666668
-300.0   120.0   16.666666666666668
-300.0   90.0   0.0
-350.0   120.0   0.0
-350.0   90.0   16.666666666666668
-300.0   90.0   16.666666666666668
-350.0   120.0   16.666666666666668
-350.0   90.0   33.333333333333336
-300.0   90.0   16.666666666666668
-300.0   120.0   16.666666666666668
-350.0   120.0   16.666666666666668
-300.0   120.0   33.333333333333336
-350.0   90.0   33.333333333333336
-350.0   120.0   33.333333333333336
-300.0   120.0   33.333333333333336
-350.0   120.0   16.666666666666668
-350.0   90.0   33.333333333333336
-300.0   120.0   33.333333333333336
-300.0   90.0   33.333333333333336
-300.0   90.0   16.666666666666668
-350.0   90.0   33.333333333333336
-300.0   120.0   33.333333333333336
-300.0   90.0   16.666666666666668
-350.0   120.0   16.666666666666668
-350.0   90.0   33.333333333333336
-300.0   90.0   33.333333333333336
-350.0   120.0   33.333333333333336
-350.0   90.0   50.0
-300.0   90.0   33.333333333333336
-300.0   120.0   33.333333333333336
-350.0   120.0   33.333333333333336
-300.0   120.0   50.0
-350.0   90.0   50.0
-350.0   120.0   50.0
-300.0   120.0   50.0
-350.0   120.0   33.333333333333336
-350.0   90.0   50.0
-300.0   120.0   50.0
-300.0   90.0   50.0
-300.0   90.0   33.333333333333336
-350.0   90.0   50.0
-300.0   120.0   50.0
-300.0   90.0   33.333333333333336
-350.0   120.0   33.333333333333336
-350.0   120.0   0.0
-300.0   120.0   0.0
-350.0   150.0   0.0
-350.0   120.0   16.666666666666668
-300.0   120.0   0.0
-300.0   150.0   0.0
-350.0   150.0   0.0
-300.0   150.0   16.666666666666668
-350.0   120.0   16.666666666666668
-350.0   150.0   16.666666666666668
-300.0   150.0   16.666666666666668
-350.0   150.0   0.0
-350.0   120.0   16.666666666666668
-300.0   150.0   16.666666666666668
-300.0   120.0   16.666666666666668
-300.0   120.0   0.0
-350.0   120.0   16.666666666666668
-300.0   150.0   16.666666666666668
-300.0   120.0   0.0
-350.0   150.0   0.0
-350.0   120.0   16.666666666666668
-300.0   120.0   16.666666666666668
-350.0   150.0   16.666666666666668
-350.0   120.0   33.333333333333336
-300.0   120.0   16.666666666666668
-300.0   150.0   16.666666666666668
-350.0   150.0   16.666666666666668
-300.0   150.0   33.333333333333336
-350.0   120.0   33.333333333333336
-350.0   150.0   33.333333333333336
-300.0   150.0   33.333333333333336
-350.0   150.0   16.666666666666668
-350.0   120.0   33.333333333333336
-300.0   150.0   33.333333333333336
-300.0   120.0   33.333333333333336
-300.0   120.0   16.666666666666668
-350.0   120.0   33.333333333333336
-300.0   150.0   33.333333333333336
-300.0   120.0   16.666666666666668
-350.0   150.0   16.666666666666668
-350.0   120.0   33.333333333333336
-300.0   120.0   33.333333333333336
-350.0   150.0   33.333333333333336
-350.0   120.0   50.0
-300.0   120.0   33.333333333333336
-300.0   150.0   33.333333333333336
-350.0   150.0   33.333333333333336
-300.0   150.0   50.0
-350.0   120.0   50.0
-350.0   150.0   50.0
-300.0   150.0   50.0
-350.0   150.0   33.333333333333336
-350.0   120.0   50.0
-300.0   150.0   50.0
-300.0   120.0   50.0
-300.0   120.0   33.333333333333336
-350.0   120.0   50.0
-300.0   150.0   50.0
-300.0   120.0   33.333333333333336
-350.0   150.0   33.333333333333336
-300.0   0.0   0.0
-250.0   0.0   0.0
-300.0   30.0   0.0
-300.0   0.0   16.666666666666668
-250.0   0.0   0.0
-250.0   30.0   0.0
-300.0   30.0   0.0
-250.0   30.0   16.666666666666668
-300.0   0.0   16.666666666666668
-300.0   30.0   16.666666666666668
-250.0   30.0   16.666666666666668
-300.0   30.0   0.0
-300.0   0.0   16.666666666666668
-250.0   30.0   16.666666666666668
-250.0   0.0   16.666666666666668
-250.0   0.0   0.0
-300.0   0.0   16.666666666666668
-250.0   30.0   16.666666666666668
-250.0   0.0   0.0
-300.0   30.0   0.0
-300.0   0.0   16.666666666666668
-250.0   0.0   16.666666666666668
-300.0   30.0   16.666666666666668
-300.0   0.0   33.333333333333336
-250.0   0.0   16.666666666666668
-250.0   30.0   16.666666666666668
-300.0   30.0   16.666666666666668
-250.0   30.0   33.333333333333336
-300.0   0.0   33.333333333333336
-300.0   30.0   33.333333333333336
-250.0   30.0   33.333333333333336
-300.0   30.0   16.666666666666668
-300.0   0.0   33.333333333333336
-250.0   30.0   33.333333333333336
-250.0   0.0   33.333333333333336
-250.0   0.0   16.666666666666668
-300.0   0.0   33.333333333333336
-250.0   30.0   33.333333333333336
-250.0   0.0   16.666666666666668
-300.0   30.0   16.666666666666668
-300.0   0.0   33.333333333333336
-250.0   0.0   33.333333333333336
-300.0   30.0   33.333333333333336
-300.0   0.0   50.0
-250.0   0.0   33.333333333333336
-250.0   30.0   33.333333333333336
-300.0   30.0   33.333333333333336
-250.0   30.0   50.0
-300.0   0.0   50.0
-300.0   30.0   50.0
-250.0   30.0   50.0
-300.0   30.0   33.333333333333336
-300.0   0.0   50.0
-250.0   30.0   50.0
-250.0   0.0   50.0
-250.0   0.0   33.333333333333336
-300.0   0.0   50.0
-250.0   30.0   50.0
-250.0   0.0   33.333333333333336
-300.0   30.0   33.333333333333336
-300.0   30.0   0.0
-250.0   30.0   0.0
-300.0   60.0   0.0
-300.0   30.0   16.666666666666668
-250.0   30.0   0.0
-250.0   60.0   0.0
-300.0   60.0   0.0
-250.0   60.0   16.666666666666668
-300.0   30.0   16.666666666666668
-300.0   60.0   16.666666666666668
-250.0   60.0   16.666666666666668
-300.0   60.0   0.0
-300.0   30.0   16.666666666666668
-250.0   60.0   16.666666666666668
-250.0   30.0   16.666666666666668
-250.0   30.0   0.0
-300.0   30.0   16.666666666666668
-250.0   60.0   16.666666666666668
-250.0   30.0   0.0
-300.0   60.0   0.0
-300.0   30.0   16.666666666666668
-250.0   30.0   16.666666666666668
-300.0   60.0   16.666666666666668
-300.0   30.0   33.333333333333336
-250.0   30.0   16.666666666666668
-250.0   60.0   16.666666666666668
-300.0   60.0   16.666666666666668
-250.0   60.0   33.333333333333336
-300.0   30.0   33.333333333333336
-300.0   60.0   33.333333333333336
-250.0   60.0   33.333333333333336
-300.0   60.0   16.666666666666668
-300.0   30.0   33.333333333333336
-250.0   60.0   33.333333333333336
-250.0   30.0   33.333333333333336
-250.0   30.0   16.666666666666668
-300.0   30.0   33.333333333333336
-250.0   60.0   33.333333333333336
-250.0   30.0   16.666666666666668
-300.0   60.0   16.666666666666668
-300.0   30.0   33.333333333333336
-250.0   30.0   33.333333333333336
-300.0   60.0   33.333333333333336
-300.0   30.0   50.0
-250.0   30.0   33.333333333333336
-250.0   60.0   33.333333333333336
-300.0   60.0   33.333333333333336
-250.0   60.0   50.0
-300.0   30.0   50.0
-300.0   60.0   50.0
-250.0   60.0   50.0
-300.0   60.0   33.333333333333336
-300.0   30.0   50.0
-250.0   60.0   50.0
-250.0   30.0   50.0
-250.0   30.0   33.333333333333336
-300.0   30.0   50.0
-250.0   60.0   50.0
-250.0   30.0   33.333333333333336
-300.0   60.0   33.333333333333336
-300.0   60.0   0.0
-250.0   60.0   0.0
-300.0   90.0   0.0
-300.0   60.0   16.666666666666668
-250.0   60.0   0.0
-250.0   90.0   0.0
-300.0   90.0   0.0
-250.0   90.0   16.666666666666668
-300.0   60.0   16.666666666666668
-300.0   90.0   16.666666666666668
-250.0   90.0   16.666666666666668
-300.0   90.0   0.0
-300.0   60.0   16.666666666666668
-250.0   90.0   16.666666666666668
-250.0   60.0   16.666666666666668
-250.0   60.0   0.0
-300.0   60.0   16.666666666666668
-250.0   90.0   16.666666666666668
-250.0   60.0   0.0
-300.0   90.0   0.0
-300.0   60.0   16.666666666666668
-250.0   60.0   16.666666666666668
-300.0   90.0   16.666666666666668
-300.0   60.0   33.333333333333336
-250.0   60.0   16.666666666666668
-250.0   90.0   16.666666666666668
-300.0   90.0   16.666666666666668
-250.0   90.0   33.333333333333336
-300.0   60.0   33.333333333333336
-300.0   90.0   33.333333333333336
-250.0   90.0   33.333333333333336
-300.0   90.0   16.666666666666668
-300.0   60.0   33.333333333333336
-250.0   90.0   33.333333333333336
-250.0   60.0   33.333333333333336
-250.0   60.0   16.666666666666668
-300.0   60.0   33.333333333333336
-250.0   90.0   33.333333333333336
-250.0   60.0   16.666666666666668
-300.0   90.0   16.666666666666668
-300.0   60.0   33.333333333333336
-250.0   60.0   33.333333333333336
-300.0   90.0   33.333333333333336
-300.0   60.0   50.0
-250.0   60.0   33.333333333333336
-250.0   90.0   33.333333333333336
-300.0   90.0   33.333333333333336
-250.0   90.0   50.0
-300.0   60.0   50.0
-300.0   90.0   50.0
-250.0   90.0   50.0
-300.0   90.0   33.333333333333336
-300.0   60.0   50.0
-250.0   90.0   50.0
-250.0   60.0   50.0
-250.0   60.0   33.333333333333336
-300.0   60.0   50.0
-250.0   90.0   50.0
-250.0   60.0   33.333333333333336
-300.0   90.0   33.333333333333336
-300.0   90.0   0.0
-250.0   90.0   0.0
-300.0   120.0   0.0
-300.0   90.0   16.666666666666668
-250.0   90.0   0.0
-250.0   120.0   0.0
-300.0   120.0   0.0
-250.0   120.0   16.666666666666668
-300.0   90.0   16.666666666666668
-300.0   120.0   16.666666666666668
-250.0   120.0   16.666666666666668
-300.0   120.0   0.0
-300.0   90.0   16.666666666666668
-250.0   120.0   16.666666666666668
-250.0   90.0   16.666666666666668
-250.0   90.0   0.0
-300.0   90.0   16.666666666666668
-250.0   120.0   16.666666666666668
-250.0   90.0   0.0
-300.0   120.0   0.0
-300.0   90.0   16.666666666666668
-250.0   90.0   16.666666666666668
-300.0   120.0   16.666666666666668
-300.0   90.0   33.333333333333336
-250.0   90.0   16.666666666666668
-250.0   120.0   16.666666666666668
-300.0   120.0   16.666666666666668
-250.0   120.0   33.333333333333336
-300.0   90.0   33.333333333333336
-300.0   120.0   33.333333333333336
-250.0   120.0   33.333333333333336
-300.0   120.0   16.666666666666668
-300.0   90.0   33.333333333333336
-250.0   120.0   33.333333333333336
-250.0   90.0   33.333333333333336
-250.0   90.0   16.666666666666668
-300.0   90.0   33.333333333333336
-250.0   120.0   33.333333333333336
-250.0   90.0   16.666666666666668
-300.0   120.0   16.666666666666668
-300.0   90.0   33.333333333333336
-250.0   90.0   33.333333333333336
-300.0   120.0   33.333333333333336
-300.0   90.0   50.0
-250.0   90.0   33.333333333333336
-250.0   120.0   33.333333333333336
-300.0   120.0   33.333333333333336
-250.0   120.0   50.0
-300.0   90.0   50.0
-300.0   120.0   50.0
-250.0   120.0   50.0
-300.0   120.0   33.333333333333336
-300.0   90.0   50.0
-250.0   120.0   50.0
-250.0   90.0   50.0
-250.0   90.0   33.333333333333336
-300.0   90.0   50.0
-250.0   120.0   50.0
-250.0   90.0   33.333333333333336
-300.0   120.0   33.333333333333336
-300.0   120.0   0.0
-250.0   120.0   0.0
-300.0   150.0   0.0
-300.0   120.0   16.666666666666668
-250.0   120.0   0.0
-250.0   150.0   0.0
-300.0   150.0   0.0
-250.0   150.0   16.666666666666668
-300.0   120.0   16.666666666666668
-300.0   150.0   16.666666666666668
-250.0   150.0   16.666666666666668
-300.0   150.0   0.0
-300.0   120.0   16.666666666666668
-250.0   150.0   16.666666666666668
-250.0   120.0   16.666666666666668
-250.0   120.0   0.0
-300.0   120.0   16.666666666666668
-250.0   150.0   16.666666666666668
-250.0   120.0   0.0
-300.0   150.0   0.0
-300.0   120.0   16.666666666666668
-250.0   120.0   16.666666666666668
-300.0   150.0   16.666666666666668
-300.0   120.0   33.333333333333336
-250.0   120.0   16.666666666666668
-250.0   150.0   16.666666666666668
-300.0   150.0   16.666666666666668
-250.0   150.0   33.333333333333336
-300.0   120.0   33.333333333333336
-300.0   150.0   33.333333333333336
-250.0   150.0   33.333333333333336
-300.0   150.0   16.666666666666668
-300.0   120.0   33.333333333333336
-250.0   150.0   33.333333333333336
-250.0   120.0   33.333333333333336
-250.0   120.0   16.666666666666668
-300.0   120.0   33.333333333333336
-250.0   150.0   33.333333333333336
-250.0   120.0   16.666666666666668
-300.0   150.0   16.666666666666668
-300.0   120.0   33.333333333333336
-250.0   120.0   33.333333333333336
-300.0   150.0   33.333333333333336
-300.0   120.0   50.0
-250.0   120.0   33.333333333333336
-250.0   150.0   33.333333333333336
-300.0   150.0   33.333333333333336
-250.0   150.0   50.0
-300.0   120.0   50.0
-300.0   150.0   50.0
-250.0   150.0   50.0
-300.0   150.0   33.333333333333336
-300.0   120.0   50.0
-250.0   150.0   50.0
-250.0   120.0   50.0
-250.0   120.0   33.333333333333336
-300.0   120.0   50.0
-250.0   150.0   50.0
-250.0   120.0   33.333333333333336
-300.0   150.0   33.333333333333336
-250.0   0.0   0.0
-200.0   0.0   0.0
-250.0   30.0   0.0
-250.0   0.0   16.666666666666668
-200.0   0.0   0.0
-200.0   30.0   0.0
-250.0   30.0   0.0
-200.0   30.0   16.666666666666668
-250.0   0.0   16.666666666666668
-250.0   30.0   16.666666666666668
-200.0   30.0   16.666666666666668
-250.0   30.0   0.0
-250.0   0.0   16.666666666666668
-200.0   30.0   16.666666666666668
-200.0   0.0   16.666666666666668
-200.0   0.0   0.0
-250.0   0.0   16.666666666666668
-200.0   30.0   16.666666666666668
-200.0   0.0   0.0
-250.0   30.0   0.0
-250.0   0.0   16.666666666666668
-200.0   0.0   16.666666666666668
-250.0   30.0   16.666666666666668
-250.0   0.0   33.333333333333336
-200.0   0.0   16.666666666666668
-200.0   30.0   16.666666666666668
-250.0   30.0   16.666666666666668
-200.0   30.0   33.333333333333336
-250.0   0.0   33.333333333333336
-250.0   30.0   33.333333333333336
-200.0   30.0   33.333333333333336
-250.0   30.0   16.666666666666668
-250.0   0.0   33.333333333333336
-200.0   30.0   33.333333333333336
-200.0   0.0   33.333333333333336
-200.0   0.0   16.666666666666668
-250.0   0.0   33.333333333333336
-200.0   30.0   33.333333333333336
-200.0   0.0   16.666666666666668
-250.0   30.0   16.666666666666668
-250.0   0.0   33.333333333333336
-200.0   0.0   33.333333333333336
-250.0   30.0   33.333333333333336
-250.0   0.0   50.0
-200.0   0.0   33.333333333333336
-200.0   30.0   33.333333333333336
-250.0   30.0   33.333333333333336
-200.0   30.0   50.0
-250.0   0.0   50.0
-250.0   30.0   50.0
-200.0   30.0   50.0
-250.0   30.0   33.333333333333336
-250.0   0.0   50.0
-200.0   30.0   50.0
-200.0   0.0   50.0
-200.0   0.0   33.333333333333336
-250.0   0.0   50.0
-200.0   30.0   50.0
-200.0   0.0   33.333333333333336
-250.0   30.0   33.333333333333336
-250.0   30.0   0.0
-200.0   30.0   0.0
-250.0   60.0   0.0
-250.0   30.0   16.666666666666668
-200.0   30.0   0.0
-200.0   60.0   0.0
-250.0   60.0   0.0
-200.0   60.0   16.666666666666668
-250.0   30.0   16.666666666666668
-250.0   60.0   16.666666666666668
-200.0   60.0   16.666666666666668
-250.0   60.0   0.0
-250.0   30.0   16.666666666666668
-200.0   60.0   16.666666666666668
-200.0   30.0   16.666666666666668
-200.0   30.0   0.0
-250.0   30.0   16.666666666666668
-200.0   60.0   16.666666666666668
-200.0   30.0   0.0
-250.0   60.0   0.0
-250.0   30.0   16.666666666666668
-200.0   30.0   16.666666666666668
-250.0   60.0   16.666666666666668
-250.0   30.0   33.333333333333336
-200.0   30.0   16.666666666666668
-200.0   60.0   16.666666666666668
-250.0   60.0   16.666666666666668
-200.0   60.0   33.333333333333336
-250.0   30.0   33.333333333333336
-250.0   60.0   33.333333333333336
-200.0   60.0   33.333333333333336
-250.0   60.0   16.666666666666668
-250.0   30.0   33.333333333333336
-200.0   60.0   33.333333333333336
-200.0   30.0   33.333333333333336
-200.0   30.0   16.666666666666668
-250.0   30.0   33.333333333333336
-200.0   60.0   33.333333333333336
-200.0   30.0   16.666666666666668
-250.0   60.0   16.666666666666668
-250.0   30.0   33.333333333333336
-200.0   30.0   33.333333333333336
-250.0   60.0   33.333333333333336
-250.0   30.0   50.0
-200.0   30.0   33.333333333333336
-200.0   60.0   33.333333333333336
-250.0   60.0   33.333333333333336
-200.0   60.0   50.0
-250.0   30.0   50.0
-250.0   60.0   50.0
-200.0   60.0   50.0
-250.0   60.0   33.333333333333336
-250.0   30.0   50.0
-200.0   60.0   50.0
-200.0   30.0   50.0
-200.0   30.0   33.333333333333336
-250.0   30.0   50.0
-200.0   60.0   50.0
-200.0   30.0   33.333333333333336
-250.0   60.0   33.333333333333336
-250.0   60.0   0.0
-200.0   60.0   0.0
-250.0   90.0   0.0
-250.0   60.0   16.666666666666668
-200.0   60.0   0.0
-200.0   90.0   0.0
-250.0   90.0   0.0
-200.0   90.0   16.666666666666668
-250.0   60.0   16.666666666666668
-250.0   90.0   16.666666666666668
-200.0   90.0   16.666666666666668
-250.0   90.0   0.0
-250.0   60.0   16.666666666666668
-200.0   90.0   16.666666666666668
-200.0   60.0   16.666666666666668
-200.0   60.0   0.0
-250.0   60.0   16.666666666666668
-200.0   90.0   16.666666666666668
-200.0   60.0   0.0
-250.0   90.0   0.0
-250.0   60.0   16.666666666666668
-200.0   60.0   16.666666666666668
-250.0   90.0   16.666666666666668
-250.0   60.0   33.333333333333336
-200.0   60.0   16.666666666666668
-200.0   90.0   16.666666666666668
-250.0   90.0   16.666666666666668
-200.0   90.0   33.333333333333336
-250.0   60.0   33.333333333333336
-250.0   90.0   33.333333333333336
-200.0   90.0   33.333333333333336
-250.0   90.0   16.666666666666668
-250.0   60.0   33.333333333333336
-200.0   90.0   33.333333333333336
-200.0   60.0   33.333333333333336
-200.0   60.0   16.666666666666668
-250.0   60.0   33.333333333333336
-200.0   90.0   33.333333333333336
-200.0   60.0   16.666666666666668
-250.0   90.0   16.666666666666668
-250.0   60.0   33.333333333333336
-200.0   60.0   33.333333333333336
-250.0   90.0   33.333333333333336
-250.0   60.0   50.0
-200.0   60.0   33.333333333333336
-200.0   90.0   33.333333333333336
-250.0   90.0   33.333333333333336
-200.0   90.0   50.0
-250.0   60.0   50.0
-250.0   90.0   50.0
-200.0   90.0   50.0
-250.0   90.0   33.333333333333336
-250.0   60.0   50.0
-200.0   90.0   50.0
-200.0   60.0   50.0
-200.0   60.0   33.333333333333336
-250.0   60.0   50.0
-200.0   90.0   50.0
-200.0   60.0   33.333333333333336
-250.0   90.0   33.333333333333336
-250.0   90.0   0.0
-200.0   90.0   0.0
-250.0   120.0   0.0
-250.0   90.0   16.666666666666668
-200.0   90.0   0.0
-200.0   120.0   0.0
-250.0   120.0   0.0
-200.0   120.0   16.666666666666668
-250.0   90.0   16.666666666666668
-250.0   120.0   16.666666666666668
-200.0   120.0   16.666666666666668
-250.0   120.0   0.0
-250.0   90.0   16.666666666666668
-200.0   120.0   16.666666666666668
-200.0   90.0   16.666666666666668
-200.0   90.0   0.0
-250.0   90.0   16.666666666666668
-200.0   120.0   16.666666666666668
-200.0   90.0   0.0
-250.0   120.0   0.0
-250.0   90.0   16.666666666666668
-200.0   90.0   16.666666666666668
-250.0   120.0   16.666666666666668
-250.0   90.0   33.333333333333336
-200.0   90.0   16.666666666666668
-200.0   120.0   16.666666666666668
-250.0   120.0   16.666666666666668
-200.0   120.0   33.333333333333336
-250.0   90.0   33.333333333333336
-250.0   120.0   33.333333333333336
-200.0   120.0   33.333333333333336
-250.0   120.0   16.666666666666668
-250.0   90.0   33.333333333333336
-200.0   120.0   33.333333333333336
-200.0   90.0   33.333333333333336
-200.0   90.0   16.666666666666668
-250.0   90.0   33.333333333333336
-200.0   120.0   33.333333333333336
-200.0   90.0   16.666666666666668
-250.0   120.0   16.666666666666668
-250.0   90.0   33.333333333333336
-200.0   90.0   33.333333333333336
-250.0   120.0   33.333333333333336
-250.0   90.0   50.0
-200.0   90.0   33.333333333333336
-200.0   120.0   33.333333333333336
-250.0   120.0   33.333333333333336
-200.0   120.0   50.0
-250.0   90.0   50.0
-250.0   120.0   50.0
-200.0   120.0   50.0
-250.0   120.0   33.333333333333336
-250.0   90.0   50.0
-200.0   120.0   50.0
-200.0   90.0   50.0
-200.0   90.0   33.333333333333336
-250.0   90.0   50.0
-200.0   120.0   50.0
-200.0   90.0   33.333333333333336
-250.0   120.0   33.333333333333336
-250.0   120.0   0.0
-200.0   120.0   0.0
-250.0   150.0   0.0
-250.0   120.0   16.666666666666668
-200.0   120.0   0.0
-200.0   150.0   0.0
-250.0   150.0   0.0
-200.0   150.0   16.666666666666668
-250.0   120.0   16.666666666666668
-250.0   150.0   16.666666666666668
-200.0   150.0   16.666666666666668
-250.0   150.0   0.0
-250.0   120.0   16.666666666666668
-200.0   150.0   16.666666666666668
-200.0   120.0   16.666666666666668
-200.0   120.0   0.0
-250.0   120.0   16.666666666666668
-200.0   150.0   16.666666666666668
-200.0   120.0   0.0
-250.0   150.0   0.0
-250.0   120.0   16.666666666666668
-200.0   120.0   16.666666666666668
-250.0   150.0   16.666666666666668
-250.0   120.0   33.333333333333336
-200.0   120.0   16.666666666666668
-200.0   150.0   16.666666666666668
-250.0   150.0   16.666666666666668
-200.0   150.0   33.333333333333336
-250.0   120.0   33.333333333333336
-250.0   150.0   33.333333333333336
-200.0   150.0   33.333333333333336
-250.0   150.0   16.666666666666668
-250.0   120.0   33.333333333333336
-200.0   150.0   33.333333333333336
-200.0   120.0   33.333333333333336
-200.0   120.0   16.666666666666668
-250.0   120.0   33.333333333333336
-200.0   150.0   33.333333333333336
-200.0   120.0   16.666666666666668
-250.0   150.0   16.666666666666668
-250.0   120.0   33.333333333333336
-200.0   120.0   33.333333333333336
-250.0   150.0   33.333333333333336
-250.0   120.0   50.0
-200.0   120.0   33.333333333333336
-200.0   150.0   33.333333333333336
-250.0   150.0   33.333333333333336
-200.0   150.0   50.0
-250.0   120.0   50.0
-250.0   150.0   50.0
-200.0   150.0   50.0
-250.0   150.0   33.333333333333336
-250.0   120.0   50.0
-200.0   150.0   50.0
-200.0   120.0   50.0
-200.0   120.0   33.333333333333336
-250.0   120.0   50.0
-200.0   150.0   50.0
-200.0   120.0   33.333333333333336
-250.0   150.0   33.333333333333336
-200.0   0.0   0.0
-150.0   0.0   0.0
-200.0   30.0   0.0
-200.0   0.0   16.666666666666668
-150.0   0.0   0.0
-150.0   30.0   0.0
-200.0   30.0   0.0
-150.0   30.0   16.666666666666668
-200.0   0.0   16.666666666666668
-200.0   30.0   16.666666666666668
-150.0   30.0   16.666666666666668
-200.0   30.0   0.0
-200.0   0.0   16.666666666666668
-150.0   30.0   16.666666666666668
-150.0   0.0   16.666666666666668
-150.0   0.0   0.0
-200.0   0.0   16.666666666666668
-150.0   30.0   16.666666666666668
-150.0   0.0   0.0
-200.0   30.0   0.0
-200.0   0.0   16.666666666666668
-150.0   0.0   16.666666666666668
-200.0   30.0   16.666666666666668
-200.0   0.0   33.333333333333336
-150.0   0.0   16.666666666666668
-150.0   30.0   16.666666666666668
-200.0   30.0   16.666666666666668
-150.0   30.0   33.333333333333336
-200.0   0.0   33.333333333333336
-200.0   30.0   33.333333333333336
-150.0   30.0   33.333333333333336
-200.0   30.0   16.666666666666668
-200.0   0.0   33.333333333333336
-150.0   30.0   33.333333333333336
-150.0   0.0   33.333333333333336
-150.0   0.0   16.666666666666668
-200.0   0.0   33.333333333333336
-150.0   30.0   33.333333333333336
-150.0   0.0   16.666666666666668
-200.0   30.0   16.666666666666668
-200.0   0.0   33.333333333333336
-150.0   0.0   33.333333333333336
-200.0   30.0   33.333333333333336
-200.0   0.0   50.0
-150.0   0.0   33.333333333333336
-150.0   30.0   33.333333333333336
-200.0   30.0   33.333333333333336
-150.0   30.0   50.0
-200.0   0.0   50.0
-200.0   30.0   50.0
-150.0   30.0   50.0
-200.0   30.0   33.333333333333336
-200.0   0.0   50.0
-150.0   30.0   50.0
-150.0   0.0   50.0
-150.0   0.0   33.333333333333336
-200.0   0.0   50.0
-150.0   30.0   50.0
-150.0   0.0   33.333333333333336
-200.0   30.0   33.333333333333336
-200.0   30.0   0.0
-150.0   30.0   0.0
-200.0   60.0   0.0
-200.0   30.0   16.666666666666668
-150.0   30.0   0.0
-150.0   60.0   0.0
-200.0   60.0   0.0
-150.0   60.0   16.666666666666668
-200.0   30.0   16.666666666666668
-200.0   60.0   16.666666666666668
-150.0   60.0   16.666666666666668
-200.0   60.0   0.0
-200.0   30.0   16.666666666666668
-150.0   60.0   16.666666666666668
-150.0   30.0   16.666666666666668
-150.0   30.0   0.0
-200.0   30.0   16.666666666666668
-150.0   60.0   16.666666666666668
-150.0   30.0   0.0
-200.0   60.0   0.0
-200.0   30.0   16.666666666666668
-150.0   30.0   16.666666666666668
-200.0   60.0   16.666666666666668
-200.0   30.0   33.333333333333336
-150.0   30.0   16.666666666666668
-150.0   60.0   16.666666666666668
-200.0   60.0   16.666666666666668
-150.0   60.0   33.333333333333336
-200.0   30.0   33.333333333333336
-200.0   60.0   33.333333333333336
-150.0   60.0   33.333333333333336
-200.0   60.0   16.666666666666668
-200.0   30.0   33.333333333333336
-150.0   60.0   33.333333333333336
-150.0   30.0   33.333333333333336
-150.0   30.0   16.666666666666668
-200.0   30.0   33.333333333333336
-150.0   60.0   33.333333333333336
-150.0   30.0   16.666666666666668
-200.0   60.0   16.666666666666668
-200.0   30.0   33.333333333333336
-150.0   30.0   33.333333333333336
-200.0   60.0   33.333333333333336
-200.0   30.0   50.0
-150.0   30.0   33.333333333333336
-150.0   60.0   33.333333333333336
-200.0   60.0   33.333333333333336
-150.0   60.0   50.0
-200.0   30.0   50.0
-200.0   60.0   50.0
-150.0   60.0   50.0
-200.0   60.0   33.333333333333336
-200.0   30.0   50.0
-150.0   60.0   50.0
-150.0   30.0   50.0
-150.0   30.0   33.333333333333336
-200.0   30.0   50.0
-150.0   60.0   50.0
-150.0   30.0   33.333333333333336
-200.0   60.0   33.333333333333336
-200.0   60.0   0.0
-150.0   60.0   0.0
-200.0   90.0   0.0
-200.0   60.0   16.666666666666668
-150.0   60.0   0.0
-150.0   90.0   0.0
-200.0   90.0   0.0
-150.0   90.0   16.666666666666668
-200.0   60.0   16.666666666666668
-200.0   90.0   16.666666666666668
-150.0   90.0   16.666666666666668
-200.0   90.0   0.0
-200.0   60.0   16.666666666666668
-150.0   90.0   16.666666666666668
-150.0   60.0   16.666666666666668
-150.0   60.0   0.0
-200.0   60.0   16.666666666666668
-150.0   90.0   16.666666666666668
-150.0   60.0   0.0
-200.0   90.0   0.0
-200.0   60.0   16.666666666666668
-150.0   60.0   16.666666666666668
-200.0   90.0   16.666666666666668
-200.0   60.0   33.333333333333336
-150.0   60.0   16.666666666666668
-150.0   90.0   16.666666666666668
-200.0   90.0   16.666666666666668
-150.0   90.0   33.333333333333336
-200.0   60.0   33.333333333333336
-200.0   90.0   33.333333333333336
-150.0   90.0   33.333333333333336
-200.0   90.0   16.666666666666668
-200.0   60.0   33.333333333333336
-150.0   90.0   33.333333333333336
-150.0   60.0   33.333333333333336
-150.0   60.0   16.666666666666668
-200.0   60.0   33.333333333333336
-150.0   90.0   33.333333333333336
-150.0   60.0   16.666666666666668
-200.0   90.0   16.666666666666668
-200.0   60.0   33.333333333333336
-150.0   60.0   33.333333333333336
-200.0   90.0   33.333333333333336
-200.0   60.0   50.0
-150.0   60.0   33.333333333333336
-150.0   90.0   33.333333333333336
-200.0   90.0   33.333333333333336
-150.0   90.0   50.0
-200.0   60.0   50.0
-200.0   90.0   50.0
-150.0   90.0   50.0
-200.0   90.0   33.333333333333336
-200.0   60.0   50.0
-150.0   90.0   50.0
-150.0   60.0   50.0
-150.0   60.0   33.333333333333336
-200.0   60.0   50.0
-150.0   90.0   50.0
-150.0   60.0   33.333333333333336
-200.0   90.0   33.333333333333336
-200.0   90.0   0.0
-150.0   90.0   0.0
-200.0   120.0   0.0
-200.0   90.0   16.666666666666668
-150.0   90.0   0.0
-150.0   120.0   0.0
-200.0   120.0   0.0
-150.0   120.0   16.666666666666668
-200.0   90.0   16.666666666666668
-200.0   120.0   16.666666666666668
-150.0   120.0   16.666666666666668
-200.0   120.0   0.0
-200.0   90.0   16.666666666666668
-150.0   120.0   16.666666666666668
-150.0   90.0   16.666666666666668
-150.0   90.0   0.0
-200.0   90.0   16.666666666666668
-150.0   120.0   16.666666666666668
-150.0   90.0   0.0
-200.0   120.0   0.0
-200.0   90.0   16.666666666666668
-150.0   90.0   16.666666666666668
-200.0   120.0   16.666666666666668
-200.0   90.0   33.333333333333336
-150.0   90.0   16.666666666666668
-150.0   120.0   16.666666666666668
-200.0   120.0   16.666666666666668
-150.0   120.0   33.333333333333336
-200.0   90.0   33.333333333333336
-200.0   120.0   33.333333333333336
-150.0   120.0   33.333333333333336
-200.0   120.0   16.666666666666668
-200.0   90.0   33.333333333333336
-150.0   120.0   33.333333333333336
-150.0   90.0   33.333333333333336
-150.0   90.0   16.666666666666668
-200.0   90.0   33.333333333333336
-150.0   120.0   33.333333333333336
-150.0   90.0   16.666666666666668
-200.0   120.0   16.666666666666668
-200.0   90.0   33.333333333333336
-150.0   90.0   33.333333333333336
-200.0   120.0   33.333333333333336
-200.0   90.0   50.0
-150.0   90.0   33.333333333333336
-150.0   120.0   33.333333333333336
-200.0   120.0   33.333333333333336
-150.0   120.0   50.0
-200.0   90.0   50.0
-200.0   120.0   50.0
-150.0   120.0   50.0
-200.0   120.0   33.333333333333336
-200.0   90.0   50.0
-150.0   120.0   50.0
-150.0   90.0   50.0
-150.0   90.0   33.333333333333336
-200.0   90.0   50.0
-150.0   120.0   50.0
-150.0   90.0   33.333333333333336
-200.0   120.0   33.333333333333336
-200.0   120.0   0.0
-150.0   120.0   0.0
-200.0   150.0   0.0
-200.0   120.0   16.666666666666668
-150.0   120.0   0.0
-150.0   150.0   0.0
-200.0   150.0   0.0
-150.0   150.0   16.666666666666668
-200.0   120.0   16.666666666666668
-200.0   150.0   16.666666666666668
-150.0   150.0   16.666666666666668
-200.0   150.0   0.0
-200.0   120.0   16.666666666666668
-150.0   150.0   16.666666666666668
-150.0   120.0   16.666666666666668
-150.0   120.0   0.0
-200.0   120.0   16.666666666666668
-150.0   150.0   16.666666666666668
-150.0   120.0   0.0
-200.0   150.0   0.0
-200.0   120.0   16.666666666666668
-150.0   120.0   16.666666666666668
-200.0   150.0   16.666666666666668
-200.0   120.0   33.333333333333336
-150.0   120.0   16.666666666666668
-150.0   150.0   16.666666666666668
-200.0   150.0   16.666666666666668
-150.0   150.0   33.333333333333336
-200.0   120.0   33.333333333333336
-200.0   150.0   33.333333333333336
-150.0   150.0   33.333333333333336
-200.0   150.0   16.666666666666668
-200.0   120.0   33.333333333333336
-150.0   150.0   33.333333333333336
-150.0   120.0   33.333333333333336
-150.0   120.0   16.666666666666668
-200.0   120.0   33.333333333333336
-150.0   150.0   33.333333333333336
-150.0   120.0   16.666666666666668
-200.0   150.0   16.666666666666668
-200.0   120.0   33.333333333333336
-150.0   120.0   33.333333333333336
-200.0   150.0   33.333333333333336
-200.0   120.0   50.0
-150.0   120.0   33.333333333333336
-150.0   150.0   33.333333333333336
-200.0   150.0   33.333333333333336
-150.0   150.0   50.0
-200.0   120.0   50.0
-200.0   150.0   50.0
-150.0   150.0   50.0
-200.0   150.0   33.333333333333336
-200.0   120.0   50.0
-150.0   150.0   50.0
-150.0   120.0   50.0
-150.0   120.0   33.333333333333336
-200.0   120.0   50.0
-150.0   150.0   50.0
-150.0   120.0   33.333333333333336
-200.0   150.0   33.333333333333336
-150.0   0.0   0.0
-100.0   0.0   0.0
-150.0   30.0   0.0
-150.0   0.0   16.666666666666668
-100.0   0.0   0.0
-100.0   30.0   0.0
-150.0   30.0   0.0
-100.0   30.0   16.666666666666668
-150.0   0.0   16.666666666666668
-150.0   30.0   16.666666666666668
-100.0   30.0   16.666666666666668
-150.0   30.0   0.0
-150.0   0.0   16.666666666666668
-100.0   30.0   16.666666666666668
-100.0   0.0   16.666666666666668
-100.0   0.0   0.0
-150.0   0.0   16.666666666666668
-100.0   30.0   16.666666666666668
-100.0   0.0   0.0
-150.0   30.0   0.0
-150.0   0.0   16.666666666666668
-100.0   0.0   16.666666666666668
-150.0   30.0   16.666666666666668
-150.0   0.0   33.333333333333336
-100.0   0.0   16.666666666666668
-100.0   30.0   16.666666666666668
-150.0   30.0   16.666666666666668
-100.0   30.0   33.333333333333336
-150.0   0.0   33.333333333333336
-150.0   30.0   33.333333333333336
-100.0   30.0   33.333333333333336
-150.0   30.0   16.666666666666668
-150.0   0.0   33.333333333333336
-100.0   30.0   33.333333333333336
-100.0   0.0   33.333333333333336
-100.0   0.0   16.666666666666668
-150.0   0.0   33.333333333333336
-100.0   30.0   33.333333333333336
-100.0   0.0   16.666666666666668
-150.0   30.0   16.666666666666668
-150.0   0.0   33.333333333333336
-100.0   0.0   33.333333333333336
-150.0   30.0   33.333333333333336
-150.0   0.0   50.0
-100.0   0.0   33.333333333333336
-100.0   30.0   33.333333333333336
-150.0   30.0   33.333333333333336
-100.0   30.0   50.0
-150.0   0.0   50.0
-150.0   30.0   50.0
-100.0   30.0   50.0
-150.0   30.0   33.333333333333336
-150.0   0.0   50.0
-100.0   30.0   50.0
-100.0   0.0   50.0
-100.0   0.0   33.333333333333336
-150.0   0.0   50.0
-100.0   30.0   50.0
-100.0   0.0   33.333333333333336
-150.0   30.0   33.333333333333336
-150.0   30.0   0.0
-100.0   30.0   0.0
-150.0   60.0   0.0
-150.0   30.0   16.666666666666668
-100.0   30.0   0.0
-100.0   60.0   0.0
-150.0   60.0   0.0
-100.0   60.0   16.666666666666668
-150.0   30.0   16.666666666666668
-150.0   60.0   16.666666666666668
-100.0   60.0   16.666666666666668
-150.0   60.0   0.0
-150.0   30.0   16.666666666666668
-100.0   60.0   16.666666666666668
-100.0   30.0   16.666666666666668
-100.0   30.0   0.0
-150.0   30.0   16.666666666666668
-100.0   60.0   16.666666666666668
-100.0   30.0   0.0
-150.0   60.0   0.0
-150.0   30.0   16.666666666666668
-100.0   30.0   16.666666666666668
-150.0   60.0   16.666666666666668
-150.0   30.0   33.333333333333336
-100.0   30.0   16.666666666666668
-100.0   60.0   16.666666666666668
-150.0   60.0   16.666666666666668
-100.0   60.0   33.333333333333336
-150.0   30.0   33.333333333333336
-150.0   60.0   33.333333333333336
-100.0   60.0   33.333333333333336
-150.0   60.0   16.666666666666668
-150.0   30.0   33.333333333333336
-100.0   60.0   33.333333333333336
-100.0   30.0   33.333333333333336
-100.0   30.0   16.666666666666668
-150.0   30.0   33.333333333333336
-100.0   60.0   33.333333333333336
-100.0   30.0   16.666666666666668
-150.0   60.0   16.666666666666668
-150.0   30.0   33.333333333333336
-100.0   30.0   33.333333333333336
-150.0   60.0   33.333333333333336
-150.0   30.0   50.0
-100.0   30.0   33.333333333333336
-100.0   60.0   33.333333333333336
-150.0   60.0   33.333333333333336
-100.0   60.0   50.0
-150.0   30.0   50.0
-150.0   60.0   50.0
-100.0   60.0   50.0
-150.0   60.0   33.333333333333336
-150.0   30.0   50.0
-100.0   60.0   50.0
-100.0   30.0   50.0
-100.0   30.0   33.333333333333336
-150.0   30.0   50.0
-100.0   60.0   50.0
-100.0   30.0   33.333333333333336
-150.0   60.0   33.333333333333336
-150.0   60.0   0.0
-100.0   60.0   0.0
-150.0   90.0   0.0
-150.0   60.0   16.666666666666668
-100.0   60.0   0.0
-100.0   90.0   0.0
-150.0   90.0   0.0
-100.0   90.0   16.666666666666668
-150.0   60.0   16.666666666666668
-150.0   90.0   16.666666666666668
-100.0   90.0   16.666666666666668
-150.0   90.0   0.0
-150.0   60.0   16.666666666666668
-100.0   90.0   16.666666666666668
-100.0   60.0   16.666666666666668
-100.0   60.0   0.0
-150.0   60.0   16.666666666666668
-100.0   90.0   16.666666666666668
-100.0   60.0   0.0
-150.0   90.0   0.0
-150.0   60.0   16.666666666666668
-100.0   60.0   16.666666666666668
-150.0   90.0   16.666666666666668
-150.0   60.0   33.333333333333336
-100.0   60.0   16.666666666666668
-100.0   90.0   16.666666666666668
-150.0   90.0   16.666666666666668
-100.0   90.0   33.333333333333336
-150.0   60.0   33.333333333333336
-150.0   90.0   33.333333333333336
-100.0   90.0   33.333333333333336
-150.0   90.0   16.666666666666668
-150.0   60.0   33.333333333333336
-100.0   90.0   33.333333333333336
-100.0   60.0   33.333333333333336
-100.0   60.0   16.666666666666668
-150.0   60.0   33.333333333333336
-100.0   90.0   33.333333333333336
-100.0   60.0   16.666666666666668
-150.0   90.0   16.666666666666668
-150.0   60.0   33.333333333333336
-100.0   60.0   33.333333333333336
-150.0   90.0   33.333333333333336
-150.0   60.0   50.0
-100.0   60.0   33.333333333333336
-100.0   90.0   33.333333333333336
-150.0   90.0   33.333333333333336
-100.0   90.0   50.0
-150.0   60.0   50.0
-150.0   90.0   50.0
-100.0   90.0   50.0
-150.0   90.0   33.333333333333336
-150.0   60.0   50.0
-100.0   90.0   50.0
-100.0   60.0   50.0
-100.0   60.0   33.333333333333336
-150.0   60.0   50.0
-100.0   90.0   50.0
-100.0   60.0   33.333333333333336
-150.0   90.0   33.333333333333336
-150.0   90.0   0.0
-100.0   90.0   0.0
-150.0   120.0   0.0
-150.0   90.0   16.666666666666668
-100.0   90.0   0.0
-100.0   120.0   0.0
-150.0   120.0   0.0
-100.0   120.0   16.666666666666668
-150.0   90.0   16.666666666666668
-150.0   120.0   16.666666666666668
-100.0   120.0   16.666666666666668
-150.0   120.0   0.0
-150.0   90.0   16.666666666666668
-100.0   120.0   16.666666666666668
-100.0   90.0   16.666666666666668
-100.0   90.0   0.0
-150.0   90.0   16.666666666666668
-100.0   120.0   16.666666666666668
-100.0   90.0   0.0
-150.0   120.0   0.0
-150.0   90.0   16.666666666666668
-100.0   90.0   16.666666666666668
-150.0   120.0   16.666666666666668
-150.0   90.0   33.333333333333336
-100.0   90.0   16.666666666666668
-100.0   120.0   16.666666666666668
-150.0   120.0   16.666666666666668
-100.0   120.0   33.333333333333336
-150.0   90.0   33.333333333333336
-150.0   120.0   33.333333333333336
-100.0   120.0   33.333333333333336
-150.0   120.0   16.666666666666668
-150.0   90.0   33.333333333333336
-100.0   120.0   33.333333333333336
-100.0   90.0   33.333333333333336
-100.0   90.0   16.666666666666668
-150.0   90.0   33.333333333333336
-100.0   120.0   33.333333333333336
-100.0   90.0   16.666666666666668
-150.0   120.0   16.666666666666668
-150.0   90.0   33.333333333333336
-100.0   90.0   33.333333333333336
-150.0   120.0   33.333333333333336
-150.0   90.0   50.0
-100.0   90.0   33.333333333333336
-100.0   120.0   33.333333333333336
-150.0   120.0   33.333333333333336
-100.0   120.0   50.0
-150.0   90.0   50.0
-150.0   120.0   50.0
-100.0   120.0   50.0
-150.0   120.0   33.333333333333336
-150.0   90.0   50.0
-100.0   120.0   50.0
-100.0   90.0   50.0
-100.0   90.0   33.333333333333336
-150.0   90.0   50.0
-100.0   120.0   50.0
-100.0   90.0   33.333333333333336
-150.0   120.0   33.333333333333336
-150.0   120.0   0.0
-100.0   120.0   0.0
-150.0   150.0   0.0
-150.0   120.0   16.666666666666668
-100.0   120.0   0.0
-100.0   150.0   0.0
-150.0   150.0   0.0
-100.0   150.0   16.666666666666668
-150.0   120.0   16.666666666666668
-150.0   150.0   16.666666666666668
-100.0   150.0   16.666666666666668
-150.0   150.0   0.0
-150.0   120.0   16.666666666666668
-100.0   150.0   16.666666666666668
-100.0   120.0   16.666666666666668
-100.0   120.0   0.0
-150.0   120.0   16.666666666666668
-100.0   150.0   16.666666666666668
-100.0   120.0   0.0
-150.0   150.0   0.0
-150.0   120.0   16.666666666666668
-100.0   120.0   16.666666666666668
-150.0   150.0   16.666666666666668
-150.0   120.0   33.333333333333336
-100.0   120.0   16.666666666666668
-100.0   150.0   16.666666666666668
-150.0   150.0   16.666666666666668
-100.0   150.0   33.333333333333336
-150.0   120.0   33.333333333333336
-150.0   150.0   33.333333333333336
-100.0   150.0   33.333333333333336
-150.0   150.0   16.666666666666668
-150.0   120.0   33.333333333333336
-100.0   150.0   33.333333333333336
-100.0   120.0   33.333333333333336
-100.0   120.0   16.666666666666668
-150.0   120.0   33.333333333333336
-100.0   150.0   33.333333333333336
-100.0   120.0   16.666666666666668
-150.0   150.0   16.666666666666668
-150.0   120.0   33.333333333333336
-100.0   120.0   33.333333333333336
-150.0   150.0   33.333333333333336
-150.0   120.0   50.0
-100.0   120.0   33.333333333333336
-100.0   150.0   33.333333333333336
-150.0   150.0   33.333333333333336
-100.0   150.0   50.0
-150.0   120.0   50.0
-150.0   150.0   50.0
-100.0   150.0   50.0
-150.0   150.0   33.333333333333336
-150.0   120.0   50.0
-100.0   150.0   50.0
-100.0   120.0   50.0
-100.0   120.0   33.333333333333336
-150.0   120.0   50.0
-100.0   150.0   50.0
-100.0   120.0   33.333333333333336
-150.0   150.0   33.333333333333336
-100.0   0.0   0.0
-50.0   0.0   0.0
-100.0   30.0   0.0
-100.0   0.0   16.666666666666668
-50.0   0.0   0.0
-50.0   30.0   0.0
-100.0   30.0   0.0
-50.0   30.0   16.666666666666668
-100.0   0.0   16.666666666666668
-100.0   30.0   16.666666666666668
-50.0   30.0   16.666666666666668
-100.0   30.0   0.0
-100.0   0.0   16.666666666666668
-50.0   30.0   16.666666666666668
-50.0   0.0   16.666666666666668
-50.0   0.0   0.0
-100.0   0.0   16.666666666666668
-50.0   30.0   16.666666666666668
-50.0   0.0   0.0
-100.0   30.0   0.0
-100.0   0.0   16.666666666666668
-50.0   0.0   16.666666666666668
-100.0   30.0   16.666666666666668
-100.0   0.0   33.333333333333336
-50.0   0.0   16.666666666666668
-50.0   30.0   16.666666666666668
-100.0   30.0   16.666666666666668
-50.0   30.0   33.333333333333336
-100.0   0.0   33.333333333333336
-100.0   30.0   33.333333333333336
-50.0   30.0   33.333333333333336
-100.0   30.0   16.666666666666668
-100.0   0.0   33.333333333333336
-50.0   30.0   33.333333333333336
-50.0   0.0   33.333333333333336
-50.0   0.0   16.666666666666668
-100.0   0.0   33.333333333333336
-50.0   30.0   33.333333333333336
-50.0   0.0   16.666666666666668
-100.0   30.0   16.666666666666668
-100.0   0.0   33.333333333333336
-50.0   0.0   33.333333333333336
-100.0   30.0   33.333333333333336
-100.0   0.0   50.0
-50.0   0.0   33.333333333333336
-50.0   30.0   33.333333333333336
-100.0   30.0   33.333333333333336
-50.0   30.0   50.0
-100.0   0.0   50.0
-100.0   30.0   50.0
-50.0   30.0   50.0
-100.0   30.0   33.333333333333336
-100.0   0.0   50.0
-50.0   30.0   50.0
-50.0   0.0   50.0
-50.0   0.0   33.333333333333336
-100.0   0.0   50.0
-50.0   30.0   50.0
-50.0   0.0   33.333333333333336
-100.0   30.0   33.333333333333336
-100.0   30.0   0.0
-50.0   30.0   0.0
-100.0   60.0   0.0
-100.0   30.0   16.666666666666668
-50.0   30.0   0.0
-50.0   60.0   0.0
-100.0   60.0   0.0
-50.0   60.0   16.666666666666668
-100.0   30.0   16.666666666666668
-100.0   60.0   16.666666666666668
-50.0   60.0   16.666666666666668
-100.0   60.0   0.0
-100.0   30.0   16.666666666666668
-50.0   60.0   16.666666666666668
-50.0   30.0   16.666666666666668
-50.0   30.0   0.0
-100.0   30.0   16.666666666666668
-50.0   60.0   16.666666666666668
-50.0   30.0   0.0
-100.0   60.0   0.0
-100.0   30.0   16.666666666666668
-50.0   30.0   16.666666666666668
-100.0   60.0   16.666666666666668
-100.0   30.0   33.333333333333336
-50.0   30.0   16.666666666666668
-50.0   60.0   16.666666666666668
-100.0   60.0   16.666666666666668
-50.0   60.0   33.333333333333336
-100.0   30.0   33.333333333333336
-100.0   60.0   33.333333333333336
-50.0   60.0   33.333333333333336
-100.0   60.0   16.666666666666668
-100.0   30.0   33.333333333333336
-50.0   60.0   33.333333333333336
-50.0   30.0   33.333333333333336
-50.0   30.0   16.666666666666668
-100.0   30.0   33.333333333333336
-50.0   60.0   33.333333333333336
-50.0   30.0   16.666666666666668
-100.0   60.0   16.666666666666668
-100.0   30.0   33.333333333333336
-50.0   30.0   33.333333333333336
-100.0   60.0   33.333333333333336
-100.0   30.0   50.0
-50.0   30.0   33.333333333333336
-50.0   60.0   33.333333333333336
-100.0   60.0   33.333333333333336
-50.0   60.0   50.0
-100.0   30.0   50.0
-100.0   60.0   50.0
-50.0   60.0   50.0
-100.0   60.0   33.333333333333336
-100.0   30.0   50.0
-50.0   60.0   50.0
-50.0   30.0   50.0
-50.0   30.0   33.333333333333336
-100.0   30.0   50.0
-50.0   60.0   50.0
-50.0   30.0   33.333333333333336
-100.0   60.0   33.333333333333336
-100.0   60.0   0.0
-50.0   60.0   0.0
-100.0   90.0   0.0
-100.0   60.0   16.666666666666668
-50.0   60.0   0.0
-50.0   90.0   0.0
-100.0   90.0   0.0
-50.0   90.0   16.666666666666668
-100.0   60.0   16.666666666666668
-100.0   90.0   16.666666666666668
-50.0   90.0   16.666666666666668
-100.0   90.0   0.0
-100.0   60.0   16.666666666666668
-50.0   90.0   16.666666666666668
-50.0   60.0   16.666666666666668
-50.0   60.0   0.0
-100.0   60.0   16.666666666666668
-50.0   90.0   16.666666666666668
-50.0   60.0   0.0
-100.0   90.0   0.0
-100.0   60.0   16.666666666666668
-50.0   60.0   16.666666666666668
-100.0   90.0   16.666666666666668
-100.0   60.0   33.333333333333336
-50.0   60.0   16.666666666666668
-50.0   90.0   16.666666666666668
-100.0   90.0   16.666666666666668
-50.0   90.0   33.333333333333336
-100.0   60.0   33.333333333333336
-100.0   90.0   33.333333333333336
-50.0   90.0   33.333333333333336
-100.0   90.0   16.666666666666668
-100.0   60.0   33.333333333333336
-50.0   90.0   33.333333333333336
-50.0   60.0   33.333333333333336
-50.0   60.0   16.666666666666668
-100.0   60.0   33.333333333333336
-50.0   90.0   33.333333333333336
-50.0   60.0   16.666666666666668
-100.0   90.0   16.666666666666668
-100.0   60.0   33.333333333333336
-50.0   60.0   33.333333333333336
-100.0   90.0   33.333333333333336
-100.0   60.0   50.0
-50.0   60.0   33.333333333333336
-50.0   90.0   33.333333333333336
-100.0   90.0   33.333333333333336
-50.0   90.0   50.0
-100.0   60.0   50.0
-100.0   90.0   50.0
-50.0   90.0   50.0
-100.0   90.0   33.333333333333336
-100.0   60.0   50.0
-50.0   90.0   50.0
-50.0   60.0   50.0
-50.0   60.0   33.333333333333336
-100.0   60.0   50.0
-50.0   90.0   50.0
-50.0   60.0   33.333333333333336
-100.0   90.0   33.333333333333336
-100.0   90.0   0.0
-50.0   90.0   0.0
-100.0   120.0   0.0
-100.0   90.0   16.666666666666668
-50.0   90.0   0.0
-50.0   120.0   0.0
-100.0   120.0   0.0
-50.0   120.0   16.666666666666668
-100.0   90.0   16.666666666666668
-100.0   120.0   16.666666666666668
-50.0   120.0   16.666666666666668
-100.0   120.0   0.0
-100.0   90.0   16.666666666666668
-50.0   120.0   16.666666666666668
-50.0   90.0   16.666666666666668
-50.0   90.0   0.0
-100.0   90.0   16.666666666666668
-50.0   120.0   16.666666666666668
-50.0   90.0   0.0
-100.0   120.0   0.0
-100.0   90.0   16.666666666666668
-50.0   90.0   16.666666666666668
-100.0   120.0   16.666666666666668
-100.0   90.0   33.333333333333336
-50.0   90.0   16.666666666666668
-50.0   120.0   16.666666666666668
-100.0   120.0   16.666666666666668
-50.0   120.0   33.333333333333336
-100.0   90.0   33.333333333333336
-100.0   120.0   33.333333333333336
-50.0   120.0   33.333333333333336
-100.0   120.0   16.666666666666668
-100.0   90.0   33.333333333333336
-50.0   120.0   33.333333333333336
-50.0   90.0   33.333333333333336
-50.0   90.0   16.666666666666668
-100.0   90.0   33.333333333333336
-50.0   120.0   33.333333333333336
-50.0   90.0   16.666666666666668
-100.0   120.0   16.666666666666668
-100.0   90.0   33.333333333333336
-50.0   90.0   33.333333333333336
-100.0   120.0   33.333333333333336
-100.0   90.0   50.0
-50.0   90.0   33.333333333333336
-50.0   120.0   33.333333333333336
-100.0   120.0   33.333333333333336
-50.0   120.0   50.0
-100.0   90.0   50.0
-100.0   120.0   50.0
-50.0   120.0   50.0
-100.0   120.0   33.333333333333336
-100.0   90.0   50.0
-50.0   120.0   50.0
-50.0   90.0   50.0
-50.0   90.0   33.333333333333336
-100.0   90.0   50.0
-50.0   120.0   50.0
-50.0   90.0   33.333333333333336
-100.0   120.0   33.333333333333336
-100.0   120.0   0.0
-50.0   120.0   0.0
-100.0   150.0   0.0
-100.0   120.0   16.666666666666668
-50.0   120.0   0.0
-50.0   150.0   0.0
-100.0   150.0   0.0
-50.0   150.0   16.666666666666668
-100.0   120.0   16.666666666666668
-100.0   150.0   16.666666666666668
-50.0   150.0   16.666666666666668
-100.0   150.0   0.0
-100.0   120.0   16.666666666666668
-50.0   150.0   16.666666666666668
-50.0   120.0   16.666666666666668
-50.0   120.0   0.0
-100.0   120.0   16.666666666666668
-50.0   150.0   16.666666666666668
-50.0   120.0   0.0
-100.0   150.0   0.0
-100.0   120.0   16.666666666666668
-50.0   120.0   16.666666666666668
-100.0   150.0   16.666666666666668
-100.0   120.0   33.333333333333336
-50.0   120.0   16.666666666666668
-50.0   150.0   16.666666666666668
-100.0   150.0   16.666666666666668
-50.0   150.0   33.333333333333336
-100.0   120.0   33.333333333333336
-100.0   150.0   33.333333333333336
-50.0   150.0   33.333333333333336
-100.0   150.0   16.666666666666668
-100.0   120.0   33.333333333333336
-50.0   150.0   33.333333333333336
-50.0   120.0   33.333333333333336
-50.0   120.0   16.666666666666668
-100.0   120.0   33.333333333333336
-50.0   150.0   33.333333333333336
-50.0   120.0   16.666666666666668
-100.0   150.0   16.666666666666668
-100.0   120.0   33.333333333333336
-50.0   120.0   33.333333333333336
-100.0   150.0   33.333333333333336
-100.0   120.0   50.0
-50.0   120.0   33.333333333333336
-50.0   150.0   33.333333333333336
-100.0   150.0   33.333333333333336
-50.0   150.0   50.0
-100.0   120.0   50.0
-100.0   150.0   50.0
-50.0   150.0   50.0
-100.0   150.0   33.333333333333336
-100.0   120.0   50.0
-50.0   150.0   50.0
-50.0   120.0   50.0
-50.0   120.0   33.333333333333336
-100.0   120.0   50.0
-50.0   150.0   50.0
-50.0   120.0   33.333333333333336
-100.0   150.0   33.333333333333336
-50.0   0.0   0.0
0.0   0.0   0.0
-50.0   30.0   0.0
-50.0   0.0   16.666666666666668
0.0   0.0   0.0
0.0   30.0   0.0
-50.0   30.0   0.0
0.0   30.0   16.666666666666668
-50.0   0.0   16.666666666666668
-50.0   30.0   16.666666666666668
0.0   30.0   16.666666666666668
-50.0   30.0   0.0
-50.0   0.0   16.666666666666668
0.0   30.0   16.666666666666668
0.0   0.0   16.666666666666668
0.0   0.0   0.0
-50.0   0.0   16.666666666666668
0.0   30.0   16.666666666666668
0.0   0.0   0.0
-50.0   30.0   0.0
-50.0   0.0   16.666666666666668
0.0   0.0   16.666666666666668
-50.0   30.0   16.666666666666668
-50.0   0.0   33.333333333333336
0.0   0.0   16.666666666666668
0.0   30.0   16.666666666666668
-50.0   30.0   16.666666666666668
0.0   30.0   33.333333333333336
-50.0   0.0   33.333333333333336
-50.0   30.0   33.333333333333336
0.0   30.0   33.333333333333336
-50.0   30.0   16.666666666666668
-50.0   0.0   33.333333333333336
0.0   30.0   33.333333333333336
0.0   0.0   33.333333333333336
0.0   0.0   16.666666666666668
-50.0   0.0   33.333333333333336
0.0   30.0   33.333333333333336
0.0   0.0   16.666666666666668
-50.0   30.0   16.666666666666668
-50.0   0.0   33.333333333333336
0.0   0.0   33.333333333333336
-50.0   30.0   33.333333333333336
-50.0   0.0   50.0
0.0   0.0   33.333333333333336
0.0   30.0   33.333333333333336
-50.0   30.0   33.333333333333336
0.0   30.0   50.0
-50.0   0.0   50.0
-50.0   30.0   50.0
0.0   30.0   50.0
-50.0   30.0   33.333333333333336
-50.0   0.0   50.0
0.0   30.0   50.0
0.0   0.0   50.0
0.0   0.0   33.333333333333336
-50.0   0.0   50.0
0.0   30.0   50.0
0.0   0.0   33.333333333333336
-50.0   30.0   33.333333333333336
-50.0   30.0   0.0
0.0   30.0   0.0
-50.0   60.0   0.0
-50.0   30.0   16.666666666666668
0.0   30.0   0.0
0.0   60.0   0.0
-50.0   60.0   0.0
0.0   60.0   16.666666666666668
-50.0   30.0   16.666666666666668
-50.0   60.0   16.666666666666668
0.0   60.0   16.666666666666668
-50.0   60.0   0.0
-50.0   30.0   16.666666666666668
0.0   60.0   16.666666666666668
0.0   30.0   16.666666666666668
0.0   30.0   0.0
-50.0   30.0   16.666666666666668
0.0   60.0   16.666666666666668
0.0   30.0   0.0
-50.0   60.0   0.0
-50.0   30.0   16.666666666666668
0.0   30.0   16.666666666666668
-50.0   60.0   16.666666666666668
-50.0   30.0   33.333333333333336
0.0   30.0   16.666666666666668
0.0   60.0   16.666666666666668
-50.0   60.0   16.666666666666668
0.0   60.0   33.333333333333336
-50.0   30.0   33.333333333333336
-50.0   60.0   33.333333333333336
0.0   60.0   33.333333333333336
-50.0   60.0   16.666666666666668
-50.0   30.0   33.333333333333336
0.0   60.0   33.333333333333336
0.0   30.0   33.333333333333336
0.0   30.0   16.666666666666668
-50.0   30.0   33.333333333333336
0.0   60.0   33.333333333333336
0.0   30.0   16.666666666666668
-50.0   60.0   16.666666666666668
-50.0   30.0   33.333333333333336
0.0   30.0   33.333333333333336
-50.0   60.0   33.333333333333336
-50.0   30.0   50.0
0.0   30.0   33.333333333333336
0.0   60.0   33.333333333333336
-50.0   60.0   33.333333333333336
0.0   60.0   50.0
-50.0   30.0   50.0
-50.0   60.0   50.0
0.0   60.0   50.0
-50.0   60.0   33.333333333333336
-50.0   30.0   50.0
0.0   60.0   50.0
0.0   30.0   50.0
0.0   30.0   33.333333333333336
-50.0   30.0   50.0
0.0   60.0   50.0
0.0   30.0   33.333333333333336
-50.0   60.0   33.333333333333336
-50.0   60.0   0.0
0.0   60.0   0.0
-50.0   90.0   0.0
-50.0   60.0   16.666666666666668
0.0   60.0   0.0
0.0   90.0   0.0
-50.0   90.0   0.0
0.0   90.0   16.666666666666668
-50.0   60.0   16.666666666666668
-50.0   90.0   16.666666666666668
0.0   90.0   16.666666666666668
-50.0   90.0   0.0
-50.0   60.0   16.666666666666668
0.0   90.0   16.666666666666668
0.0   60.0   16.666666666666668
0.0   60.0   0.0
-50.0   60.0   16.666666666666668
0.0   90.0   16.666666666666668
0.0   60.0   0.0
-50.0   90.0   0.0
-50.0   60.0   16.666666666666668
0.0   60.0   16.666666666666668
-50.0   90.0   16.666666666666668
-50.0   60.0   33.333333333333336
0.0   60.0   16.666666666666668
0.0   90.0   16.666666666666668
-50.0   90.0   16.666666666666668
0.0   90.0   33.333333333333336
-50.0   60.0   33.333333333333336
-50.0   90.0   33.333333333333336
0.0   90.0   33.333333333333336
-50.0   90.0   16.666666666666668
-50.0   60.0   33.333333333333336
0.0   90.0   33.333333333333336
0.0   60.0   33.333333333333336
0.0   60.0   16.666666666666668
-50.0   60.0   33.333333333333336
0.0   90.0   33.333333333333336
0.0   60.0   16.666666666666668
-50.0   90.0   16.666666666666668
-50.0   60.0   33.333333333333336
0.0   60.0   33.333333333333336
-50.0   90.0   33.333333333333336
-50.0   60.0   50.0
0.0   60.0   33.333333333333336
0.0   90.0   33.333333333333336
-50.0   90.0   33.333333333333336
0.0   90.0   50.0
-50.0   60.0   50.0
-50.0   90.0   50.0
0.0   90.0   50.0
-50.0   90.0   33.333333333333336
-50.0   60.0   50.0
0.0   90.0   50.0
0.0   60.0   50.0
0.0   60.0   33.333333333333336
-50.0   60.0   50.0
0.0   90.0   50.0
0.0   60.0   33.333333333333336
-50.0   90.0   33.333333333333336
-50.0   90.0   0.0
0.0   90.0   0.0
-50.0   120.0   0.0
-50.0   90.0   16.666666666666668
0.0   90.0   0.0
0.0   120.0   0.0
-50.0   120.0   0.0
0.0   120.0   16.666666666666668
-50.0   90.0   16.666666666666668
-50.0   120.0   16.666666666666668
0.0   120.0   16.666666666666668
-50.0   120.0   0.0
-50.0   90.0   16.666666666666668
0.0   120.0   16.666666666666668
0.0   90.0   16.666666666666668
0.0   90.0   0.0
-50.0   90.0   16.666666666666668
0.0   120.0   16.666666666666668
0.0   90.0   0.0
-50.0   120.0   0.0
-50.0   90.0   16.666666666666668
0.0   90.0   16.666666666666668
-50.0   120.0   16.666666666666668
-50.0   90.0   33.333333333333336
0.0   90.0   16.666666666666668
0.0   120.0   16.666666666666668
-50.0   120.0   16.666666666666668
0.0   120.0   33.333333333333336
-50.0   90.0   33.333333333333336
-50.0   120.0   33.333333333333336
0.0   120.0   33.333333333333336
-50.0   120.0   16.666666666666668
-50.0   90.0   33.333333333333336
0.0   120.0   33.333333333333336
0.0   90.0   33.333333333333336
0.0   90.0   16.666666666666668
-50.0   90.0   33.333333333333336
0.0   120.0   33.333333333333336
0.0   90.0   16.666666666666668
-50.0   120.0   16.666666666666668
-50.0   90.0   33.333333333333336
0.0   90.0   33.333333333333336
-50.0   120.0   33.333333333333336
-50.0   90.0   50.0
0.0   90.0   33.333333333333336
0.0   120.0   33.333333333333336
-50.0   120.0   33.333333333333336
0.0   120.0   50.0
-50.0   90.0   50.0
-50.0   120.0   50.0
0.0   120.0   50.0
-50.0   120.0   33.333333333333336
-50.0   90.0   50.0
0.0   120.0   50.0
0.0   90.0   50.0
0.0   90.0   33.333333333333336
-50.0   90.0   50.0
0.0   120.0   50.0
0.0   90.0   33.333333333333336
-50.0   120.0   33.333333333333336
-50.0   120.0   0.0
0.0   120.0   0.0
-50.0   150.0   0.0
-50.0   120.0   16.666666666666668
0.0   120.0   0.0
0.0   150.0   0.0
-50.0   150.0   0.0
0.0   150.0   16.666666666666668
-50.0   120.0   16.666666666666668
-50.0   150.0   16.666666666666668
0.0   150.0   16.666666666666668
-50.0   150.0   0.0
-50.0   120.0   16.666666666666668
0.0   150.0   16.666666666666668
0.0   120.0   16.666666666666668
0.0   120.0   0.0
-50.0   120.0   16.666666666666668
0.0   150.0   16.666666666666668
0.0   120.0   0.0
-50.0   150.0   0.0
-50.0   120.0   16.666666666666668
0.0   120.0   16.666666666666668
-50.0   150.0   16.666666666666668
-50.0   120.0   33.333333333333336
0.0   120.0   16.666666666666668
0.0   150.0   16.666666666666668
-50.0   150.0   16.666666666666668
0.0   150.0   33.333333333333336
-50.0   120.0   33.333333333333336
-50.0   150.0   33.333333333333336
0.0   150.0   33.333333333333336
-50.0   150.0   16.666666666666668
-50.0   120.0   33.333333333333336
0.0   150.0   33.333333333333336
0.0   120.0   33.333333333333336
0.0   120.0   16.666666666666668
-50.0   120.0   33.333333333333336
0.0   150.0   33.333333333333336
0.0   120.0   16.666666666666668
-50.0   150.0   16.666666666666668
-50.0   120.0   33.333333333333336
0.0   120.0   33.333333333333336
-50.0   150.0   33.333333333333336
-50.0   120.0   50.0
0.0   120.0   33.333333333333336
0.0   150.0   33.333333333333336
-50.0   150.0   33.333333333333336
0.0   150.0   50.0
-50.0   120.0   50.0
-50.0   150.0   50.0
0.0   150.0   50.0
-50.0   150.0   33.333333333333336
-50.0   120.0   50.0
0.0   150.0   50.0
0.0   120.0   50.0
0.0   120.0   33.333333333333336
-50.0   120.0   50.0
0.0   150.0   50.0
0.0   120.0   33.333333333333336
-50.0   150.0   33.333333333333336
0.0   0.0   0.0
50.0   0.0   0.0
0.0   30.0   0.0
0.0   0.0   16.666666666666668
50.0   0.0   0.0
50.0   30.0   0.0
0.0   30.0   0.0
50.0   30.0   16.666666666666668
0.0   0.0   16.666666666666668
0.0   30.0   16.666666666666668
50.0   30.0   16.666666666666668
0.0   30.0   0.0
0.0   0.0   16.666666666666668
50.0   30.0   16.666666666666668
50.0   0.0   16.666666666666668
50.0   0.0   0.0
0.0   0.0   16.666666666666668
50.0   30.0   16.666666666666668
50.0   0.0   0.0
0.0   30.0   0.0
0.0   0.0   16.666666666666668
50.0   0.0   16.666666666666668
0.0   30.0   16.666666666666668
0.0   0.0   33.333333333333336
50.0   0.0   16.666666666666668
50.0   30.0   16.666666666666668
0.0   30.0   16.666666666666668
50.0   30.0   33.333333333333336
0.0   0.0   33.333333333333336
0.0   30.0   33.333333333333336
50.0   30.0   33.333333333333336
0.0   30.0   16.666666666666668
0.0   0.0   33.333333333333336
50.0   30.0   33.333333333333336
50.0   0.0   33.333333333333336
50.0   0.0   16.666666666666668
0.0   0.0   33.333333333333336
50.0   30.0   33.333333333333336
50.0   0.0   16.666666666666668
0.0   30.0   16.666666666666668
0.0   0.0   33.333333333333336
50.0   0.0   33.333333333333336
0.0   30.0   33.333333333333336
0.0   0.0   50.0
50.0   0.0   33.333333333333336
50.0   30.0   33.333333333333336
0.0   30.0   33.333333333333336
50.0   30.0   50.0
0.0   0.0   50.0
0.0   30.0   50.0
50.0   30.0   50.0
0.0   30.0   33.333333333333336
0.0   0.0   50.0
50.0   30.0   50.0
50.0   0.0   50.0
50.0   0.0   33.333333333333336
0.0   0.0   50.0
50.0   30.0   50.0
50.0   0.0   33.333333333333336
0.0   30.0   33.333333333333336
0.0   30.0   0.0
50.0   30.0   0.0
0.0   60.0   0.0
0.0   30.0   16.666666666666668
50.0   30.0   0.0
50.0   60.0   0.0
0.0   60.0   0.0
50.0   60.0   16.666666666666668
0.0   30.0   16.666666666666668
0.0   60.0   16.666666666666668
50.0   60.0   16.666666666666668
0.0   60.0   0.0
0.0   30.0   16.666666666666668
50.0   60.0   16.666666666666668
50.0   30.0   16.666666666666668
50.0   30.0   0.0
0.0   30.0   16.666666666666668
50.0   60.0   16.666666666666668
50.0   30.0   0.0
0.0   60.0   0.0
0.0   30.0   16.666666666666668
50.0   30.0   16.666666666666668
0.0   60.0   16.666666666666668
0.0   30.0   33.333333333333336
50.0   30.0   16.666666666666668
50.0   60.0   16.666666666666668
0.0   60.0   16.666666666666668
50.0   60.0   33.333333333333336
0.0   30.0   33.333333333333336
0.0   60.0   33.333333333333336
50.0   60.0   33.333333333333336
0.0   60.0   16.666666666666668
0.0   30.0   33.333333333333336
50.0   60.0   33.333333333333336
50.0   30.0   33.333333333333336
50.0   30.0   16.666666666666668
0.0   30.0   33.333333333333336
50.0   60.0   33.333333333333336
50.0   30.0   16.666666666666668
0.0   60.0   16.666666666666668
0.0   30.0   33.333333333333336
50.0   30.0   33.333333333333336
0.0   60.0   33.333333333333336
0.0   30.0   50.0
50.0   30.0   33.333333333333336
50.0   60.0   33.333333333333336
0.0   60.0   33.333333333333336
50.0   60.0   50.0
0.0   30.0   50.0
0.0   60.0   50.0
50.0   60.0   50.0
0.0   60.0   33.333333333333336
0.0   30.0   50.0
50.0   60.0   50.0
50.0   30.0   50.0
50.0   30.0   33.333333333333336
0.0   30.0   50.0
50.0   60.0   50.0
50.0   30.0   33.333333333333336
0.0   60.0   33.333333333333336
0.0   60.0   0.0
50.0   60.0   0.0
0.0   90.0   0.0
0.0   60.0   16.666666666666668
50.0   60.0   0.0
50.0   90.0   0.0
0.0   90.0   0.0
50.0   90.0   16.666666666666668
0.0   60.0   16.666666666666668
0.0   90.0   16.666666666666668
50.0   90.0   16.666666666666668
0.0   90.0   0.0
0.0   60.0   16.666666666666668
50.0   90.0   16.666666666666668
50.0   60.0   16.666666666666668
50.0   60.0   0.0
0.0   60.0   16.666666666666668
50.0   90.0   16.666666666666668
50.0   60.0   0.0
0.0   90.0   0.0
0.0   60.0   16.666666666666668
50.0   60.0   16.666666666666668
0.0   90.0   16.666666666666668
0.0   60.0   33.333333333333336
50.0   60.0   16.666666666666668
50.0   90.0   16.666666666666668
0.0   90.0   16.666666666666668
50.0   90.0   33.333333333333336
0.0   60.0   33.333333333333336
0.0   90.0   33.333333333333336
50.0   90.0   33.333333333333336
0.0   90.0   16.666666666666668
0.0   60.0   33.333333333333336
50.0   90.0   33.333333333333336
50.0   60.0   33.333333333333336
50.0   60.0   16.666666666666668
0.0   60.0   33.333333333333336
50.0   90.0   33.333333333333336
50.0   60.0   16.666666666666668
0.0   90.0   16.666666666666668
0.0   60.0   33.333333333333336
50.0   60.0   33.333333333333336
0.0   90.0   33.333333333333336
0.0   60.0   50.0
50.0   60.0   33.333333333333336
50.0   90.0   33.333333333333336
0.0   90.0   33.333333333333336
50.0   90.0   50.0
0.0   60.0   50.0
0.0   90.0   50.0
50.0   90.0   50.0
0.0   90.0   33.333333333333336
0.0   60.0   50.0
50.0   90.0   50.0
50.0   60.0   50.0
50.0   60.0   33.333333333333336
0.0   60.0   50.0
50.0   90.0   50.0
50.0   60.0   33.333333333333336
0.0   90.0   33.333333333333336
0.0   90.0   0.0
50.0   90.0   0.0
0.0   120.0   0.0
0.0   90.0   16.666666666666668
50.0   90.0   0.0
50.0   120.0   0.0
0.0   120.0   0.0
50.0   120.0   16.666666666666668
0.0   90.0   16.666666666666668
0.0   120.0   16.666666666666668
50.0   120.0   16.666666666666668
0.0   120.0   0.0
0.0   90.0   16.666666666666668
50.0   120.0   16.666666666666668
50.0   90.0   16.666666666666668
50.0   90.0   0.0
0.0   90.0   16.666666666666668
50.0   120.0   16.666666666666668
50.0   90.0   0.0
0.0   120.0   0.0
0.0   90.0   16.666666666666668
50.0   90.0   16.666666666666668
0.0   120.0   16.666666666666668
0.0   90.0   33.333333333333336
50.0   90.0   16.666666666666668
50.0   120.0   16.666666666666668
0.0   120.0   16.666666666666668
50.0   120.0   33.333333333333336
0.0   90.0   33.333333333333336
0.0   120.0   33.333333333333336
50.0   120.0   33.333333333333336
0.0   120.0   16.666666666666668
0.0   90.0   33.333333333333336
50.0   120.0   33.333333333333336
50.0   90.0   33.333333333333336
50.0   90.0   16.666666666666668
0.0   90.0   33.333333333333336
50.0   120.0   33.333333333333336
50.0   90.0   16.666666666666668
0.0   120.0   16.666666666666668
0.0   90.0   33.333333333333336
50.0   90.0   33.333333333333336
0.0   120.0   33.333333333333336
0.0   90.0   50.0
50.0   90.0   33.333333333333336
50.0   120.0   33.333333333333336
0.0   120.0   33.333333333333336
50.0   120.0   50.0
0.0   90.0   50.0
0.0   120.0   50.0
50.0   120.0   50.0
0.0   120.0   33.333333333333336
0.0   90.0   50.0
50.0   120.0   50.0
50.0   90.0   50.0
50.0   90.0   33.333333333333336
0.0   90.0   50.0
50.0   120.0   50.0
50.0   90.0   33.333333333333336
0.0   120.0   33.333333333333336
0.0   120.0   0.0
50.0   120.0   0.0
0.0   150.0   0.0
0.0   120.0   16.666666666666668
50.0   120.0   0.0
50.0   150.0   0.0
0.0   150.0   0.0
50.0   150.0   16.666666666666668
0.0   120.0   16.666666666666668
0.0   150.0   16.666666666666668
50.0   150.0   16.666666666666668
0.0   150.0   0.0
0.0   120.0   16.666666666666668
50.0   150.0   16.666666666666668
50.0   120.0   16.666666666666668
50.0   120.0   0.0
0.0   120.0   16.666666666666668
50.0   150.0   16.666666666666668
50.0   120.0   0.0
0.0   150.0   0.0
0.0   120.0   16.666666666666668
50.0   120.0   16.666666666666668
0.0   150.0   16.666666666666668
0.0   120.0   33.333333333333336
50.0   120.0   16.666666666666668
50.0   150.0   16.666666666666668
0.0   150.0   16.666666666666668
50.0   150.0   33.333333333333336
0.0   120.0   33.333333333333336
0.0   150.0   33.333333333333336
50.0   150.0   33.333333333333336
0.0   150.0   16.666666666666668
0.0   120.0   33.333333333333336
50.0   150.0   33.333333333333336
50.0   120.0   33.333333333333336
50.0   120.0   16.666666666666668
0.0   120.0   33.333333333333336
50.0   150.0   33.333333333333336
50.0   120.0   16.666666666666668
0.0   150.0   16.666666666666668
0.0   120.0   33.333333333333336
50.0   120.0   33.333333333333336
0.0   150.0   33.333333333333336
0.0   120.0   50.0
50.0   120.0   33.333333333333336
50.0   150.0   33.333333333333336
0.0   150.0   33.333333333333336
50.0   150.0   50.0
0.0   120.0   50.0
0.0   150.0   50.0
50.0   150.0   50.0
0.0   150.0   33.333333333333336
0.0   120.0   50.0
50.0   150.0   50.0
50.0   120.0   50.0
50.0   120.0   33.333333333333336
0.0   120.0   50.0
50.0   150.0   50.0
50.0   120.0   33.333333333333336
0.0   150.0   33.333333333333336
50.0   0.0   0.0
100.0   0.0   0.0
50.0   30.0   0.0
50.0   0.0   16.666666666666668
100.0   0.0   0.0
100.0   30.0   0.0
50.0   30.0   0.0
100.0   30.0   16.666666666666668
50.0   0.0   16.666666666666668
50.0   30.0   16.666666666666668
100.0   30.0   16.666666666666668
50.0   30.0   0.0
50.0   0.0   16.666666666666668
100.0   30.0   16.666666666666668
100.0   0.0   16.666666666666668
100.0   0.0   0.0
50.0   0.0   16.666666666666668
100.0   30.0   16.666666666666668
100.0   0.0   0.0
50.0   30.0   0.0
50.0   0.0   16.666666666666668
100.0   0.0   16.666666666666668
50.0   30.0   16.666666666666668
50.0   0.0   33.333333333333336
100.0   0.0   16.666666666666668
100.0   30.0   16.666666666666668
50.0   30.0   16.666666666666668
100.0   30.0   33.333333333333336
50.0   0.0   33.333333333333336
50.0   30.0   33.333333333333336
100.0   30.0   33.333333333333336
50.0   30.0   16.666666666666668
50.0   0.0   33.333333333333336
100.0   30.0   33.333333333333336
100.0   0.0   33.333333333333336
100.0   0.0   16.666666666666668
50.0   0.0   33.333333333333336
100.0   30.0   33.333333333333336
100.0   0.0   16.666666666666668
50.0   30.0   16.666666666666668
50.0   0.0   33.333333333333336
100.0   0.0   33.333333333333336
50.0   30.0   33.333333333333336
50.0   0.0   50.0
100.0   0.0   33.333333333333336
100.0   30.0   33.333333333333336
50.0   30.0   33.333333333333336
100.0   30.0   50.0
50.0   0.0   50.0
50.0   30.0   50.0
100.0   30.0   50.0
50.0   30.0   33.333333333333336
50.0   0.0   50.0
100.0   30.0   50.0
100.0   0.0   50.0
100.0   0.0   33.333333333333336
50.0   0.0   50.0
100.0   30.0   50.0
100.0   0.0   33.333333333333336
50.0   30.0   33.333333333333336
50.0   30.0   0.0
100.0   30.0   0.0
50.0   60.0   0.0
50.0   30.0   16.666666666666668
100.0   30.0   0.0
100.0   60.0   0.0
50.0   60.0   0.0
100.0   60.0   16.666666666666668
50.0   30.0   16.666666666666668
50.0   60.0   16.666666666666668
100.0   60.0   16.666666666666668
50.0   60.0   0.0
50.0   30.0   16.666666666666668
100.0   60.0   16.666666666666668
100.0   30.0   16.666666666666668
100.0   30.0   0.0
50.0   30.0   16.666666666666668
100.0   60.0   16.666666666666668
100.0   30.0   0.0
50.0   60.0   0.0
50.0   30.0   16.666666666666668
100.0   30.0   16.666666666666668
50.0   60.0   16.666666666666668
50.0   30.0   33.333333333333336
100.0   30.0   16.666666666666668
100.0   60.0   16.666666666666668
50.0   60.0   16.666666666666668
100.0   60.0   33.333333333333336
50.0   30.0   33.333333333333336
50.0   60.0   33.333333333333336
100.0   60.0   33.333333333333336
50.0   60.0   16.666666666666668
50.0   30.0   33.333333333333336
100.0   60.0   33.333333333333336
100.0   30.0   33.333333333333336
100.0   30.0   16.666666666666668
50.0   30.0   33.333333333333336
100.0   60.0   33.333333333333336
100.0   30.0   16.666666666666668
50.0   60.0   16.666666666666668
50.0   30.0   33.333333333333336
100.0   30.0   33.333333333333336
50.0   60.0   33.333333333333336
50.0   30.0   50.0
100.0   30.0   33.333333333333336
100.0   60.0   33.333333333333336
50.0   60.0   33.333333333333336
100.0   60.0   50.0
50.0   30.0   50.0
50.0   60.0   50.0
100.0   60.0   50.0
50.0   60.0   33.333333333333336
50.0   30.0   50.0
100.0   60.0   50.0
100.0   30.0   50.0
100.0   30.0   33.333333333333336
50.0   30.0   50.0
100.0   60.0   50.0
100.0   30.0   33.333333333333336
50.0   60.0   33.333333333333336
50.0   60.0   0.0
100.0   60.0   0.0
50.0   90.0   0.0
50.0   60.0   16.666666666666668
100.0   60.0   0.0
100.0   90.0   0.0
50.0   90.0   0.0
100.0   90.0   16.666666666666668
50.0   60.0   16.666666666666668
50.0   90.0   16.666666666666668
100.0   90.0   16.666666666666668
50.0   90.0   0.0
50.0   60.0   16.666666666666668
100.0   90.0   16.666666666666668
100.0   60.0   16.666666666666668
100.0   60.0   0.0
50.0   60.0   16.666666666666668
100.0   90.0   16.666666666666668
100.0   60.0   0.0
50.0   90.0   0.0
50.0   60.0   16.666666666666668
100.0   60.0   16.666666666666668
50.0   90.0   16.666666666666668
50.0   60.0   33.333333333333336
100.0   60.0   16.666666666666668
100.0   90.0   16.666666666666668
50.0   90.0   16.666666666666668
100.0   90.0   33.333333333333336
50.0   60.0   33.333333333333336
50.0   90.0   33.333333333333336
100.0   90.0   33.333333333333336
50.0   90.0   16.666666666666668
50.0   60.0   33.333333333333336
100.0   90.0   33.333333333333336
100.0   60.0   33.333333333333336
100.0   60.0   16.666666666666668
50.0   60.0   33.333333333333336
100.0   90.0   33.333333333333336
100.0   60.0   16.666666666666668
50.0   90.0   16.666666666666668
50.0   60.0   33.333333333333336
100.0   60.0   33.333333333333336
50.0   90.0   33.333333333333336
50.0   60.0   50.0
100.0   60.0   33.333333333333336
100.0   90.0   33.333333333333336
50.0   90.0   33.333333333333336
100.0   90.0   50.0
50.0   60.0   50.0
50.0   90.0   50.0
100.0   90.0   50.0
50.0   90.0   33.333333333333336
50.0   60.0   50.0
100.0   90.0   50.0
100.0   60.0   50.0
100.0   60.0   33.333333333333336
50.0   60.0   50.0
100.0   90.0   50.0
100.0   60.0   33.333333333333336
50.0   90.0   33.333333333333336
50.0   90.0   0.0
100.0   90.0   0.0
50.0   120.0   0.0
50.0   90.0   16.666666666666668
100.0   90.0   0.0
100.0   120.0   0.0
50.0   120.0   0.0
100.0   120.0   16.666666666666668
50.0   90.0   16.666666666666668
50.0   120.0   16.666666666666668
100.0   120.0   16.666666666666668
50.0   120.0   0.0
50.0   90.0   16.666666666666668
100.0   120.0   16.666666666666668
100.0   90.0   16.666666666666668
100.0   90.0   0.0
50.0   90.0   16.666666666666668
100.0   120.0   16.666666666666668
100.0   90.0   0.0
50.0   120.0   0.0
50.0   90.0   16.666666666666668
100.0   90.0   16.666666666666668
50.0   120.0   16.666666666666668
50.0   90.0   33.333333333333336
100.0   90.0   16.666666666666668
100.0   120.0   16.666666666666668
50.0   120.0   16.666666666666668
100.0   120.0   33.333333333333336
50.0   90.0   33.333333333333336
50.0   120.0   33.333333333333336
100.0   120.0   33.333333333333336
50.0   120.0   16.666666666666668
50.0   90.0   33.333333333333336
100.0   120.0   33.333333333333336
100.0   90.0   33.333333333333336
100.0   90.0   16.666666666666668
50.0   90.0   33.333333333333336
100.0   120.0   33.333333333333336
100.0   90.0   16.666666666666668
50.0   120.0   16.666666666666668
50.0   90.0   33.333333333333336
100.0   90.0   33.333333333333336
50.0   120.0   33.333333333333336
50.0   90.0   50.0
100.0   90.0   33.333333333333336
100.0   120.0   33.333333333333336
50.0   120.0   33.333333333333336
100.0   120.0   50.0
50.0   90.0   50.0
50.0   120.0   50.0
100.0   120.0   50.0
50.0   120.0   33.333333333333336
50.0   90.0   50.0
100.0   120.0   50.0
100.0   90.0   50.0
100.0   90.0   33.333333333333336
50.0   90.0   50.0
100.0   120.0   50.0
100.0   90.0   33.333333333333336
50.0   120.0   33.333333333333336
50.0   120.0   0.0
100.0   120.0   0.0
50.0   150.0   0.0
50.0   120.0   16.666666666666668
100.0   120.0   0.0
100.0   150.0   0.0
50.0   150.0   0.0
100.0   150.0   16.666666666666668
50.0   120.0   16.666666666666668
50.0   150.0   16.666666666666668
100.0   150.0   16.666666666666668
50.0   150.0   0.0
50.0   120.0   16.666666666666668
100.0   150.0   16.666666666666668
100.0   120.0   16.666666666666668
100.0   120.0   0.0
50.0   120.0   16.666666666666668
100.0   150.0   16.666666666666668
100.0   120.0   0.0
50.0   150.0   0.0
50.0   120.0   16.666666666666668
100.0   120.0   16.666666666666668
50.0   150.0   16.666666666666668
50.0   120.0   33.333333333333336
100.0   120.0   16.666666666666668
100.0   150.0   16.666666666666668
50.0   150.0   16.666666666666668
100.0   150.0   33.333333333333336
50.0   120.0   33.333333333333336
50.0   150.0   33.333333333333336
100.0   150.0   33.333333333333336
50.0   150.0   16.666666666666668
50.0   120.0   33.333333333333336
100.0   150.0   33.333333333333336
100.0   120.0   33.333333333333336
100.0   120.0   16.666666666666668
50.0   120.0   33.333333333333336
100.0   150.0   33.333333333333336
100.0   120.0   16.666666666666668
50.0   150.0   16.666666666666668
50.0   120.0   33.333333333333336
100.0   120.0   33.333333333333336
50.0   150.0   33.333333333333336
50.0   120.0   50.0
100.0   120.0   33.333333333333336
100.0   150.0   33.333333333333336
50.0   150.0   33.333333333333336
100.0   150.0   50.0
50.0   120.0   50.0
50.0   150.0   50.0
100.0   150.0   50.0
50.0   150.0   33.333333333333336
50.0   120.0   50.0
100.0   150.0   50.0
100.0   120.0   50.0
100.0   120.0   33.333333333333336
50.0   120.0   50.0
100.0   150.0   50.0
100.0   120.0   33.333333333333336
50.0   150.0   33.333333333333336
100.0   0.0   0.0
150.0   0.0   0.0
100.0   30.0   0.0
100.0   0.0   16.666666666666668
150.0   0.0   0.0
150.0   30.0   0.0
100.0   30.0   0.0
150.0   30.0   16.666666666666668
100.0   0.0   16.666666666666668
100.0   30.0   16.666666666666668
150.0   30.0   16.666666666666668
100.0   30.0   0.0
100.0   0.0   16.666666666666668
150.0   30.0   16.666666666666668
150.0   0.0   16.666666666666668
150.0   0.0   0.0
100.0   0.0   16.666666666666668
150.0   30.0   16.666666666666668
150.0   0.0   0.0
100.0   30.0   0.0
100.0   0.0   16.666666666666668
150.0   0.0   16.666666666666668
100.0   30.0   16.666666666666668
100.0   0.0   33.333333333333336
150.0   0.0   16.666666666666668
150.0   30.0   16.666666666666668
100.0   30.0   16.666666666666668
150.0   30.0   33.333333333333336
100.0   0.0   33.333333333333336
100.0   30.0   33.333333333333336
150.0   30.0   33.333333333333336
100.0   30.0   16.666666666666668
100.0   0.0   33.333333333333336
150.0   30.0   33.333333333333336
150.0   0.0   33.333333333333336
150.0   0.0   16.666666666666668
100.0   0.0   33.333333333333336
150.0   30.0   33.333333333333336
150.0   0.0   16.666666666666668
100.0   30.0   16.666666666666668
100.0   0.0   33.333333333333336
150.0   0.0   33.333333333333336
100.0   30.0   33.333333333333336
100.0   0.0   50.0
150.0   0.0   33.333333333333336
150.0   30.0   33.333333333333336
100.0   30.0   33.333333333333336
150.0   30.0   50.0
100.0   0.0   50.0
100.0   30.0   50.0
150.0   30.0   50.0
100.0   30.0   33.333333333333336
100.0   0.0   50.0
150.0   30.0   50.0
150.0   0.0   50.0
150.0   0.0   33.333333333333336
100.0   0.0   50.0
150.0   30.0   50.0
150.0   0.0   33.333333333333336
100.0   30.0   33.333333333333336
100.0   30.0   0.0
150.0   30.0   0.0
100.0   60.0   0.0
100.0   30.0   16.666666666666668
150.0   30.0   0.0
150.0   60.0   0.0
100.0   60.0   0.0
150.0   60.0   16.666666666666668
100.0   30.0   16.666666666666668
100.0   60.0   16.666666666666668
150.0   60.0   16.666666666666668
100.0   60.0   0.0
100.0   30.0   16.666666666666668
150.0   60.0   16.666666666666668
150.0   30.0   16.666666666666668
150.0   30.0   0.0
100.0   30.0   16.666666666666668
150.0   60.0   16.666666666666668
150.0   30.0   0.0
100.0   60.0   0.0
100.0   30.0   16.666666666666668
150.0   30.0   16.666666666666668
100.0   60.0   16.666666666666668
100.0   30.0   33.333333333333336
150.0   30.0   16.666666666666668
150.0   60.0   16.666666666666668
100.0   60.0   16.666666666666668
150.0   60.0   33.333333333333336
100.0   30.0   33.333333333333336
100.0   60.0   33.333333333333336
150.0   60.0   33.333333333333336
100.0   60.0   16.666666666666668
100.0   30.0   33.333333333333336
150.0   60.0   33.333333333333336
150.0   30.0   33.333333333333336
150.0   30.0   16.666666666666668
100.0   30.0   33.333333333333336
150.0   60.0   33.333333333333336
150.0   30.0   16.666666666666668
100.0   60.0   16.666666666666668
100.0   30.0   33.333333333333336
150.0   30.0   33.333333333333336
100.0   60.0   33.333333333333336
100.0   30.0   50.0
150.0   30.0   33.333333333333336
150.0   60.0   33.333333333333336
100.0   60.0   33.333333333333336
150.0   60.0   50.0
100.0   30.0   50.0
100.0   60.0   50.0
150.0   60.0   50.0
100.0   60.0   33.333333333333336
100.0   30.0   50.0
150.0   60.0   50.0
150.0   30.0   50.0
150.0   30.0   33.333333333333336
100.0   30.0   50.0
150.0   60.0   50.0
150.0   30.0   33.333333333333336
100.0   60.0   33.333333333333336
100.0   60.0   0.0
150.0   60.0   0.0
100.0   90.0   0.0
100.0   60.0   16.666666666666668
150.0   60.0   0.0
150.0   90.0   0.0
100.0   90.0   0.0
150.0   90.0   16.666666666666668
100.0   60.0   16.666666666666668
100.0   90.0   16.666666666666668
150.0   90.0   16.666666666666668
100.0   90.0   0.0
100.0   60.0   16.666666666666668
150.0   90.0   16.666666666666668
150.0   60.0   16.666666666666668
150.0   60.0   0.0
100.0   60.0   16.666666666666668
150.0   90.0   16.666666666666668
150.0   60.0   0.0
100.0   90.0   0.0
100.0   60.0   16.666666666666668
150.0   60.0   16.666666666666668
100.0   90.0   16.666666666666668
100.0   60.0   33.333333333333336
150.0   60.0   16.666666666666668
150.0   90.0   16.666666666666668
100.0   90.0   16.666666666666668
150.0   90.0   33.333333333333336
100.0   60.0   33.333333333333336
100.0   90.0   33.333333333333336
150.0   90.0   33.333333333333336
100.0   90.0   16.666666666666668
100.0   60.0   33.333333333333336
150.0   90.0   33.333333333333336
150.0   60.0   33.333333333333336
150.0   60.0   16.666666666666668
100.0   60.0   33.333333333333336
150.0   90.0   33.333333333333336
150.0   60.0   16.666666666666668
100.0   90.0   16.666666666666668
100.0   60.0   33.333333333333336
150.0   60.0   33.333333333333336
100.0   90.0   33.333333333333336
100.0   60.0   50.0
150.0   60.0   33.333333333333336
150.0   90.0   33.333333333333336
100.0   90.0   33.333333333333336
150.0   90.0   50.0
100.0   60.0   50.0
100.0   90.0   50.0
150.0   90.0   50.0
100.0   90.0   33.333333333333336
100.0   60.0   50.0
150.0   90.0   50.0
150.0   60.0   50.0
150.0   60.0   33.333333333333336
100.0   60.0   50.0
150.0   90.0   50.0
150.0   60.0   33.333333333333336
100.0   90.0   33.333333333333336
100.0   90.0   0.0
150.0   90.0   0.0
100.0   120.0   0.0
100.0   90.0   16.666666666666668
150.0   90.0   0.0
150.0   120.0   0.0
100.0   120.0   0.0
150.0   120.0   16.666666666666668
100.0   90.0   16.666666666666668
100.0   120.0   16.666666666666668
150.0   120.0   16.666666666666668
100.0   120.0   0.0
100.0   90.0   16.666666666666668
150.0   120.0   16.666666666666668
150.0   90.0   16.666666666666668
150.0   90.0   0.0
100.0   90.0   16.666666666666668
150.0   120.0   16.666666666666668
150.0   90.0   0.0
100.0   120.0   0.0
100.0   90.0   16.666666666666668
150.0   90.0   16.666666666666668
100.0   120.0   16.666666666666668
100.0   90.0   33.333333333333336
150.0   90.0   16.666666666666668
150.0   120.0   16.666666666666668
100.0   120.0   16.666666666666668
150.0   120.0   33.333333333333336
100.0   90.0   33.333333333333336
100.0   120.0   33.333333333333336
150.0   120.0   33.333333333333336
100.0   120.0   16.666666666666668
100.0   90.0   33.333333333333336
150.0   120.0   33.333333333333336
150.0   90.0   33.333333333333336
150.0   90.0   16.666666666666668
100.0   90.0   33.333333333333336
150.0   120.0   33.333333333333336
150.0   90.0   16.666666666666668
100.0   120.0   16.666666666666668
100.0   90.0   33.333333333333336
150.0   90.0   33.333333333333336
100.0   120.0   33.333333333333336
100.0   90.0   50.0
150.0   90.0   33.333333333333336
150.0   120.0   33.333333333333336
100.0   120.0   33.333333333333336
150.0   120.0   50.0
100.0   90.0   50.0
100.0   120.0   50.0
150.0   120.0   50.0
100.0   120.0   33.333333333333336
100.0   90.0   50.0
150.0   120.0   50.0
150.0   90.0   50.0
150.0   90.0   33.333333333333336
100.0   90.0   50.0
150.0   120.0   50.0
150.0   90.0   33.333333333333336
100.0   120.0   33.333333333333336
100.0   120.0   0.0
150.0   120.0   0.0
100.0   150.0   0.0
100.0   120.0   16.666666666666668
150.0   120.0   0.0
150.0   150.0   0.0
100.0   150.0   0.0
150.0   150.0   16.666666666666668
100.0   120.0   16.666666666666668
100.0   150.0   16.666666666666668
150.0   150.0   16.666666666666668
100.0   150.0   0.0
100.0   120.0   16.666666666666668
150.0   150.0   16.666666666666668
150.0   120.0   16.666666666666668
150.0   120.0   0.0
100.0   120.0   16.666666666666668
150.0   150.0   16.666666666666668
150.0   120.0   0.0
100.0   150.0   0.0
100.0   120.0   16.666666666666668
150.0   120.0   16.666666666666668
100.0   150.0   16.666666666666668
100.0   120.0   33.333333333333336
150.0   120.0   16.666666666666668
150.0   150.0   16.666666666666668
100.0   150.0   16.666666666666668
150.0   150.0   33.333333333333336
100.0   120.0   33.333333333333336
100.0   150.0   33.333333333333336
150.0   150.0   33.333333333333336
100.0   150.0   16.666666666666668
100.0   120.0   33.333333333333336
150.0   150.0   33.333333333333336
150.0   120.0   33.333333333333336
150.0   120.0   16.666666666666668
100.0   120.0   33.333333333333336
150.0   150.0   33.333333333333336
150.0   120.0   16.666666666666668
100.0   150.0   16.666666666666668
100.0   120.0   33.333333333333336
150.0   120.0   33.333333333333336
100.0   150.0   33.333333333333336
100.0   120.0   50.0
150.0   120.0   33.333333333333336
150.0   150.0   33.333333333333336
100.0   150.0   33.333333333333336
150.0   150.0   50.0
100.0   120.0   50.0
100.0   150.0   50.0
150.0   150.0   50.0
100.0   150.0   33.333333333333336
100.0   120.0   50.0
150.0   150.0   50.0
150.0   120.0   50.0
150.0   120.0   33.333333333333336
100.0   120.0   50.0
150.0   150.0   50.0
150.0   120.0   33.333333333333336
100.0   150.0   33.333333333333336
150.0   0.0   0.0
200.0   0.0   0.0
150.0   30.0   0.0
150.0   0.0   16.666666666666668
200.0   0.0   0.0
200.0   30.0   0.0
150.0   30.0   0.0
200.0   30.0   16.666666666666668
150.0   0.0   16.666666666666668
150.0   30.0   16.666666666666668
200.0   30.0   16.666666666666668
150.0   30.0   0.0
150.0   0.0   16.666666666666668
200.0   30.0   16.666666666666668
200.0   0.0   16.666666666666668
200.0   0.0   0.0
150.0   0.0   16.666666666666668
200.0   30.0   16.666666666666668
200.0   0.0   0.0
150.0   30.0   0.0
150.0   0.0   16.666666666666668
200.0   0.0   16.666666666666668
150.0   30.0   16.666666666666668
150.0   0.0   33.333333333333336
200.0   0.0   16.666666666666668
200.0   30.0   16.666666666666668
150.0   30.0   16.666666666666668
200.0   30.0   33.333333333333336
150.0   0.0   33.333333333333336
150.0   30.0   33.333333333333336
200.0   30.0   33.333333333333336
150.0   30.0   16.666666666666668
150.0   0.0   33.333333333333336
200.0   30.0   33.333333333333336
200.0   0.0   33.333333333333336
200.0   0.0   16.666666666666668
150.0   0.0   33.333333333333336
200.0   30.0   33.333333333333336
200.0   0.0   16.666666666666668
150.0   30.0   16.666666666666668
150.0   0.0   33.333333333333336
200.0   0.0   33.333333333333336
150.0   30.0   33.333333333333336
150.0   0.0   50.0
200.0   0.0   33.333333333333336
200.0   30.0   33.333333333333336
150.0   30.0   33.333333333333336
200.0   30.0   50.0
150.0   0.0   50.0
150.0   30.0   50.0
200.0   30.0   50.0
150.0   30.0   33.333333333333336
150.0   0.0   50.0
200.0   30.0   50.0
200.0   0.0   50.0
200.0   0.0   33.333333333333336
150.0   0.0   50.0
200.0   30.0   50.0
200.0   0.0   33.333333333333336
150.0   30.0   33.333333333333336
150.0   30.0   0.0
200.0   30.0   0.0
150.0   60.0   0.0
150.0   30.0   16.666666666666668
200.0   30.0   0.0
200.0   60.0   0.0
150.0   60.0   0.0
200.0   60.0   16.666666666666668
150.0   30.0   16.666666666666668
150.0   60.0   16.666666666666668
200.0   60.0   16.666666666666668
150.0   60.0   0.0
150.0   30.0   16.666666666666668
200.0   60.0   16.666666666666668
200.0   30.0   16.666666666666668
200.0   30.0   0.0
150.0   30.0   16.666666666666668
200.0   60.0   16.666666666666668
200.0   30.0   0.0
150.0   60.0   0.0
150.0   30.0   16.666666666666668
200.0   30.0   16.666666666666668
150.0   60.0   16.666666666666668
150.0   30.0   33.333333333333336
200.0   30.0   16.666666666666668
200.0   60.0   16.666666666666668
150.0   60.0   16.666666666666668
200.0   60.0   33.333333333333336
150.0   30.0   33.333333333333336
150.0   60.0   33.333333333333336
200.0   60.0   33.333333333333336
150.0   60.0   16.666666666666668
150.0   30.0   33.333333333333336
200.0   60.0   33.333333333333336
200.0   30.0   33.333333333333336
200.0   30.0   16.666666666666668
150.0   30.0   33.333333333333336
200.0   60.0   33.333333333333336
200.0   30.0   16.666666666666668
150.0   60.0   16.666666666666668
150.0   30.0   33.333333333333336
200.0   30.0   33.333333333333336
150.0   60.0   33.333333333333336
150.0   30.0   50.0
200.0   30.0   33.333333333333336
200.0   60.0   33.333333333333336
150.0   60.0   33.333333333333336
200.0   60.0   50.0
150.0   30.0   50.0
150.0   60.0   50.0
200.0   60.0   50.0
150.0   60.0   33.333333333333336
150.0   30.0   50.0
200.0   60.0   50.0
200.0   30.0   50.0
200.0   30.0   33.333333333333336
150.0   30.0   50.0
200.0   60.0   50.0
200.0   30.0   33.333333333333336
150.0   60.0   33.333333333333336
150.0   60.0   0.0
200.0   60.0   0.0
150.0   90.0   0.0
150.0   60.0   16.666666666666668
200.0   60.0   0.0
200.0   90.0   0.0
150.0   90.0   0.0
200.0   90.0   16.666666666666668
150.0   60.0   16.666666666666668
150.0   90.0   16.666666666666668
200.0   90.0   16.666666666666668
150.0   90.0   0.0
150.0   60.0   16.666666666666668
200.0   90.0   16.666666666666668
200.0   60.0   16.666666666666668
200.0   60.0   0.0
150.0   60.0   16.666666666666668
200.0   90.0   16.666666666666668
200.0   60.0   0.0
150.0   90.0   0.0
150.0   60.0   16.666666666666668
200.0   60.0   16.666666666666668
150.0   90.0   16.666666666666668
150.0   60.0   33.333333333333336
200.0   60.0   16.666666666666668
200.0   90.0   16.666666666666668
150.0   90.0   16.666666666666668
200.0   90.0   33.333333333333336
150.0   60.0   33.333333333333336
150.0   90.0   33.333333333333336
200.0   90.0   33.333333333333336
150.0   90.0   16.666666666666668
150.0   60.0   33.333333333333336
200.0   90.0   33.333333333333336
200.0   60.0   33.333333333333336
200.0   60.0   16.666666666666668
150.0   60.0   33.333333333333336
200.0   90.0   33.333333333333336
200.0   60.0   16.666666666666668
150.0   90.0   16.666666666666668
150.0   60.0   33.333333333333336
200.0   60.0   33.333333333333336
150.0   90.0   33.333333333333336
150.0   60.0   50.0
200.0   60.0   33.333333333333336
200.0   90.0   33.333333333333336
150.0   90.0   33.333333333333336
200.0   90.0   50.0
150.0   60.0   50.0
150.0   90.0   50.0
200.0   90.0   50.0
150.0   90.0   33.333333333333336
150.0   60.0   50.0
200.0   90.0   50.0
200.0   60.0   50.0
200.0   60.0   33.333333333333336
150.0   60.0   50.0
200.0   90.0   50.0
200.0   60.0   33.333333333333336
150.0   90.0   33.333333333333336
150.0   90.0   0.0
200.0   90.0   0.0
150.0   120.0   0.0
150.0   90.0   16.666666666666668
200.0   90.0   0.0
200.0   120.0   0.0
150.0   120.0   0.0
200.0   120.0   16.666666666666668
150.0   90.0   16.666666666666668
150.0   120.0   16.666666666666668
200.0   120.0   16.666666666666668
150.0   120.0   0.0
150.0   90.0   16.666666666666668
200.0   120.0   16.666666666666668
200.0   90.0   16.666666666666668
200.0   90.0   0.0
150.0   90.0   16.666666666666668
200.0   120.0   16.666666666666668
200.0   90.0   0.0
150.0   120.0   0.0
150.0   90.0   16.666666666666668
200.0   90.0   16.666666666666668
150.0   120.0   16.666666666666668
150.0   90.0   33.333333333333336
200.0   90.0   16.666666666666668
200.0   120.0   16.666666666666668
150.0   120.0   16.666666666666668
200.0   120.0   33.333333333333336
150.0   90.0   33.333333333333336
150.0   120.0   33.333333333333336
200.0   120.0   33.333333333333336
150.0   120.0   16.666666666666668
150.0   90.0   33.333333333333336
200.0   120.0   33.333333333333336
200.0   90.0   33.333333333333336
200.0   90.0   16.666666666666668
150.0   90.0   33.333333333333336
200.0   120.0   33.333333333333336
200.0   90.0   16.666666666666668
150.0   120.0   16.666666666666668
150.0   90.0   33.333333333333336
200.0   90.0   33.333333333333336
150.0   120.0   33.333333333333336
150.0   90.0   50.0
200.0   90.0   33.333333333333336
200.0   120.0   33.333333333333336
150.0   120.0   33.333333333333336
200.0   120.0   50.0
150.0   90.0   50.0
150.0   120.0   50.0
200.0   120.0   50.0
150.0   120.0   33.333333333333336
150.0   90.0   50.0
200.0   120.0   50.0
200.0   90.0   50.0
200.0   90.0   33.333333333333336
150.0   90.0   50.0
200.0   120.0   50.0
200.0   90.0   33.333333333333336
150.0   120.0   33.333333333333336
150.0   120.0   0.0
200.0   120.0   0.0
150.0   150.0   0.0
150.0   120.0   16.666666666666668
200.0   120.0   0.0
200.0   150.0   0.0
150.0   150.0   0.0
200.0   150.0   16.666666666666668
150.0   120.0   16.666666666666668
150.0   150.0   16.666666666666668
200.0   150.0   16.666666666666668
150.0   150.0   0.0
150.0   120.0   16.666666666666668
200.0   150.0   16.666666666666668
200.0   120.0   16.666666666666668
200.0   120.0   0.0
150.0   120.0   16.666666666666668
200.0   150.0   16.666666666666668
200.0   120.0   0.0
150.0   150.0   0.0
150.0   120.0   16.666666666666668
200.0   120.0   16.666666666666668
150.0   150.0   16.666666666666668
150.0   120.0   33.333333333333336
200.0   120.0   16.666666666666668
200.0   150.0   16.666666666666668
150.0   150.0   16.666666666666668
200.0   150.0   33.333333333333336
150.0   120.0   33.333333333333336
150.0   150.0   33.333333333333336
200.0   150.0   33.333333333333336
150.0   150.0   16.666666666666668
150.0   120.0   33.333333333333336
200.0   150.0   33.333333333333336
200.0   120.0   33.333333333333336
200.0   120.0   16.666666666666668
150.0   120.0   33.333333333333336
200.0   150.0   33.333333333333336
200.0   120.0   16.666666666666668
150.0   150.0   16.666666666666668
150.0   120.0   33.333333333333336
200.0   120.0   33.333333333333336
150.0   150.0   33.333333333333336
150.0   120.0   50.0
200.0   120.0   33.333333333333336
200.0   150.0   33.333333333333336
150.0   150.0   33.333333333333336
200.0   150.0   50.0
150.0   120.0   50.0
150.0   150.0   50.0
200.0   150.0   50.0
150.0   150.0   33.333333333333336
150.0   120.0   50.0
200.0   150.0   50.0
200.0   120.0   50.0
200.0   120.0   33.333333333333336
150.0   120.0   50.0
200.0   150.0   50.0
200.0   120.0   33.333333333333336
150.0   150.0   33.333333333333336
200.0   0.0   0.0
250.0   0.0   0.0
200.0   30.0   0.0
200.0   0.0   16.666666666666668
250.0   0.0   0.0
250.0   30.0   0.0
200.0   30.0   0.0
250.0   30.0   16.666666666666668
200.0   0.0   16.666666666666668
200.0   30.0   16.666666666666668
250.0   30.0   16.666666666666668
200.0   30.0   0.0
200.0   0.0   16.666666666666668
250.0   30.0   16.666666666666668
250.0   0.0   16.666666666666668
250.0   0.0   0.0
200.0   0.0   16.666666666666668
250.0   30.0   16.666666666666668
250.0   0.0   0.0
200.0   30.0   0.0
200.0   0.0   16.666666666666668
250.0   0.0   16.666666666666668
200.0   30.0   16.666666666666668
200.0   0.0   33.333333333333336
250.0   0.0   16.666666666666668
250.0   30.0   16.666666666666668
200.0   30.0   16.666666666666668
250.0   30.0   33.333333333333336
200.0   0.0   33.333333333333336
200.0   30.0   33.333333333333336
250.0   30.0   33.333333333333336
200.0   30.0   16.666666666666668
200.0   0.0   33.333333333333336
250.0   30.0   33.333333333333336
250.0   0.0   33.333333333333336
250.0   0.0   16.666666666666668
200.0   0.0   33.333333333333336
250.0   30.0   33.333333333333336
250.0   0.0   16.666666666666668
200.0   30.0   16.666666666666668
200.0   0.0   33.333333333333336
250.0   0.0   33.333333333333336
200.0   30.0   33.333333333333336
200.0   0.0   50.0
250.0   0.0   33.333333333333336
250.0   30.0   33.333333333333336
200.0   30.0   33.333333333333336
250.0   30.0   50.0
200.0   0.0   50.0
200.0   30.0   50.0
250.0   30.0   50.0
200.0   30.0   33.333333333333336
200.0   0.0   50.0
250.0   30.0   50.0
250.0   0.0   50.0
250.0   0.0   33.333333333333336
200.0   0.0   50.0
250.0   30.0   50.0
250.0   0.0   33.333333333333336
200.0   30.0   33.333333333333336
200.0   30.0   0.0
250.0   30.0   0.0
200.0   60.0   0.0
200.0   30.0   16.666666666666668
250.0   30.0   0.0
250.0   60.0   0.0
200.0   60.0   0.0
250.0   60.0   16.666666666666668
200.0   30.0   16.666666666666668
200.0   60.0   16.666666666666668
250.0   60.0   16.666666666666668
200.0   60.0   0.0
200.0   30.0   16.666666666666668
250.0   60.0   16.666666666666668
250.0   30.0   16.666666666666668
250.0   30.0   0.0
200.0   30.0   16.666666666666668
250.0   60.0   16.666666666666668
250.0   30.0   0.0
200.0   60.0   0.0
200.0   30.0   16.666666666666668
250.0   30.0   16.666666666666668
200.0   60.0   16.666666666666668
200.0   30.0   33.333333333333336
250.0   30.0   16.666666666666668
250.0   60.0   16.666666666666668
200.0   60.0   16.666666666666668
250.0   60.0   33.333333333333336
200.0   30.0   33.333333333333336
200.0   60.0   33.333333333333336
250.0   60.0   33.333333333333336
200.0   60.0   16.666666666666668
200.0   30.0   33.333333333333336
250.0   60.0   33.333333333333336
250.0   30.0   33.333333333333336
250.0   30.0   16.666666666666668
200.0   30.0   33.333333333333336
250.0   60.0   33.333333333333336
250.0   30.0   16.666666666666668
200.0   60.0   16.666666666666668
200.0   30.0   33.333333333333336
250.0   30.0   33.333333333333336
200.0   60.0   33.333333333333336
200.0   30.0   50.0
250.0   30.0   33.333333333333336
250.0   60.0   33.333333333333336
200.0   60.0   33.333333333333336
250.0   60.0   50.0
200.0   30.0   50.0
200.0   60.0   50.0
250.0   60.0   50.0
200.0   60.0   33.333333333333336
200.0   30.0   50.0
250.0   60.0   50.0
250.0   30.0   50.0
250.0   30.0   33.333333333333336
200.0   30.0   50.0
250.0   60.0   50.0
250.0   30.0   33.333333333333336
200.0   60.0   33.333333333333336
200.0   60.0   0.0
250.0   60.0   0.0
200.0   90.0   0.0
200.0   60.0   16.666666666666668
250.0   60.0   0.0
250.0   90.0   0.0
200.0   90.0   0.0
250.0   90.0   16.666666666666668
200.0   60.0   16.666666666666668
200.0   90.0   16.666666666666668
250.0   90.0   16.666666666666668
200.0   90.0   0.0
200.0   60.0   16.666666666666668
250.0   90.0   16.666666666666668
250.0   60.0   16.666666666666668
250.0   60.0   0.0
200.0   60.0   16.666666666666668
250.0   90.0   16.666666666666668
250.0   60.0   0.0
200.0   90.0   0.0
200.0   60.0   16.666666666666668
250.0   60.0   16.666666666666668
200.0   90.0   16.666666666666668
200.0   60.0   33.333333333333336
250.0   60.0   16.666666666666668
250.0   90.0   16.666666666666668
200.0   90.0   16.666666666666668
250.0   90.0   33.333333333333336
200.0   60.0   33.333333333333336
200.0   90.0   33.333333333333336
250.0   90.0   33.333333333333336
200.0   90.0   16.666666666666668
200.0   60.0   33.333333333333336
250.0   90.0   33.333333333333336
250.0   60.0   33.333333333333336
250.0   60.0   16.666666666666668
200.0   60.0   33.333333333333336
250.0   90.0   33.333333333333336
250.0   60.0   16.666666666666668
200.0   90.0   16.666666666666668
200.0   60.0   33.333333333333336
250.0   60.0   33.333333333333336
200.0   90.0   33.333333333333336
200.0   60.0   50.0
250.0   60.0   33.333333333333336
250.0   90.0   33.333333333333336
200.0   90.0   33.333333333333336
250.0   90.0   50.0
200.0   60.0   50.0
200.0   90.0   50.0
250.0   90.0   50.0
200.0   90.0   33.333333333333336
200.0   60.0   50.0
250.0   90.0   50.0
250.0   60.0   50.0
250.0   60.0   33.333333333333336
200.0   60.0   50.0
250.0   90.0   50.0
250.0   60.0   33.333333333333336
200.0   90.0   33.333333333333336
200.0   90.0   0.0
250.0   90.0   0.0
200.0   120.0   0.0
200.0   90.0   16.666666666666668
250.0   90.0   0.0
250.0   120.0   0.0
200.0   120.0   0.0
250.0   120.0   16.666666666666668
200.0   90.0   16.666666666666668
200.0   120.0   16.666666666666668
250.0   120.0   16.666666666666668
200.0   120.0   0.0
200.0   90.0   16.666666666666668
250.0   120.0   16.666666666666668
250.0   90.0   16.666666666666668
250.0   90.0   0.0
200.0   90.0   16.666666666666668
250.0   120.0   16.666666666666668
250.0   90.0   0.0
200.0   120.0   0.0
200.0   90.0   16.666666666666668
250.0   90.0   16.666666666666668
200.0   120.0   16.666666666666668
200.0   90.0   33.333333333333336
250.0   90.0   16.666666666666668
250.0   120.0   16.666666666666668
200.0   120.0   16.666666666666668
250.0   120.0   33.333333333333336
200.0   90.0   33.333333333333336
200.0   120.0   33.333333333333336
250.0   120.0   33.333333333333336
200.0   120.0   16.666666666666668
200.0   90.0   33.333333333333336
250.0   120.0   33.333333333333336
250.0   90.0   33.333333333333336
250.0   90.0   16.666666666666668
200.0   90.0   33.333333333333336
250.0   120.0   33.333333333333336
250.0   90.0   16.666666666666668
200.0   120.0   16.666666666666668
200.0   90.0   33.333333333333336
250.0   90.0   33.333333333333336
200.0   120.0   33.333333333333336
200.0   90.0   50.0
250.0   90.0   33.333333333333336
250.0   120.0   33.333333333333336
200.0   120.0   33.333333333333336
250.0   120.0   50.0
200.0   90.0   50.0
200.0   120.0   50.0
250.0   120.0   50.0
200.0   120.0   33.333333333333336
200.0   90.0   50.0
250.0   120.0   50.0
250.0   90.0   50.0
250.0   90.0   33.333333333333336
200.0   90.0   50.0
250.0   120.0   50.0
250.0   90.0   33.333333333333336
200.0   120.0   33.333333333333336
200.0   120.0   0.0
250.0   120.0   0.0
200.0   150.0   0.0
200.0   120.0   16.666666666666668
250.0   120.0   0.0
250.0   150.0   0.0
200.0   150.0   0.0
250.0   150.0   16.666666666666668
200.0   120.0   16.666666666666668
200.0   150.0   16.666666666666668
250.0   150.0   16.666666666666668
200.0   150.0   0.0
200.0   120.0   16.666666666666668
250.0   150.0   16.666666666666668
250.0   120.0   16.666666666666668
250.0   120.0   0.0
200.0   120.0   16.666666666666668
250.0   150.0   16.666666666666668
250.0   120.0   0.0
200.0   150.0   0.0
200.0   120.0   16.666666666666668
250.0   120.0   16.666666666666668
200.0   150.0   16.666666666666668
200.0   120.0   33.333333333333336
250.0   120.0   16.666666666666668
250.0   150.0   16.666666666666668
200.0   150.0   16.666666666666668
250.0   150.0   33.333333333333336
200.0   120.0   33.333333333333336
200.0   150.0   33.333333333333336
250.0   150.0   33.333333333333336
200.0   150.0   16.666666666666668
200.0   120.0   33.333333333333336
250.0   150.0   33.333333333333336
250.0   120.0   33.333333333333336
250.0   120.0   16.666666666666668
200.0   120.0   33.333333333333336
250.0   150.0   33.333333333333336
250.0   120.0   16.666666666666668
200.0   150.0   16.666666666666668
200.0   120.0   33.333333333333336
250.0   120.0   33.333333333333336
200.0   150.0   33.333333333333336
200.0   120.0   50.0
250.0   120.0   33.333333333333336
250.0   150.0   33.333333333333336
200.0   150.0   33.333333333333336
250.0   150.0   50.0
200.0   120.0   50.0
200.0   150.0   50.0
250.0   150.0   50.0
200.0   150.0   33.333333333333336
200.0   120.0   50.0
250.0   150.0   50.0
250.0   120.0   50.0
250.0   120.0   33.333333333333336
200.0   120.0   50.0
250.0   150.0   50.0
250.0   120.0   33.333333333333336
200.0   150.0   33.333333333333336
250.0   0.0   0.0
300.0   0.0   0.0
250.0   30.0   0.0
250.0   0.0   16.666666666666668
300.0   0.0   0.0
300.0   30.0   0.0
250.0   30.0   0.0
300.0   30.0   16.666666666666668
250.0   0.0   16.666666666666668
250.0   30.0   16.666666666666668
300.0   30.0   16.666666666666668
250.0   30.0   0.0
250.0   0.0   16.666666666666668
300.0   30.0   16.666666666666668
300.0   0.0   16.666666666666668
300.0   0.0   0.0
250.0   0.0   16.666666666666668
300.0   30.0   16.666666666666668
300.0   0.0   0.0
250.0   30.0   0.0
250.0   0.0   16.666666666666668
300.0   0.0   16.666666666666668
250.0   30.0   16.666666666666668
250.0   0.0   33.333333333333336
300.0   0.0   16.666666666666668
300.0   30.0   16.666666666666668
250.0   30.0   16.666666666666668
300.0   30.0   33.333333333333336
250.0   0.0   33.333333333333336
250.0   30.0   33.333333333333336
300.0   30.0   33.333333333333336
250.0   30.0   16.666666666666668
250.0   0.0   33.333333333333336
300.0   30.0   33.333333333333336
300.0   0.0   33.333333333333336
300.0   0.0   16.666666666666668
250.0   0.0   33.333333333333336
300.0   30.0   33.333333333333336
300.0   0.0   16.666666666666668
250.0   30.0   16.666666666666668
250.0   0.0   33.333333333333336
300.0   0.0   33.333333333333336
250.0   30.0   33.333333333333336
250.0   0.0   50.0
300.0   0.0   33.333333333333336
300.0   30.0   33.333333333333336
250.0   30.0   33.333333333333336
300.0   30.0   50.0
250.0   0.0   50.0
250.0   30.0   50.0
300.0   30.0   50.0
250.0   30.0   33.333333333333336
250.0   0.0   50.0
300.0   30.0   50.0
300.0   0.0   50.0
300.0   0.0   33.333333333333336
250.0   0.0   50.0
300.0   30.0   50.0
300.0   0.0   33.333333333333336
250.0   30.0   33.333333333333336
250.0   30.0   0.0
300.0   30.0   0.0
250.0   60.0   0.0
250.0   30.0   16.666666666666668
300.0   30.0   0.0
300.0   60.0   0.0
250.0   60.0   0.0
300.0   60.0   16.666666666666668
250.0   30.0   16.666666666666668
250.0   60.0   16.666666666666668
300.0   60.0   16.666666666666668
250.0   60.0   0.0
250.0   30.0   16.666666666666668
300.0   60.0   16.666666666666668
300.0   30.0   16.666666666666668
300.0   30.0   0.0
250.0   30.0   16.666666666666668
300.0   60.0   16.666666666666668
300.0   30.0   0.0
250.0   60.0   0.0
250.0   30.0   16.666666666666668
300.0   30.0   16.666666666666668
250.0   60.0   16.666666666666668
250.0   30.0   33.333333333333336
300.0   30.0   16.666666666666668
300.0   60.0   16.666666666666668
250.0   60.0   16.666666666666668
300.0   60.0   33.333333333333336
250.0   30.0   33.333333333333336
250.0   60.0   33.333333333333336
300.0   60.0   33.333333333333336
250.0   60.0   16.666666666666668
250.0   30.0   33.333333333333336
300.0   60.0   33.333333333333336
300.0   30.0   33.333333333333336
300.0   30.0   16.666666666666668
250.0   30.0   33.333333333333336
300.0   60.0   33.333333333333336
300.0   30.0   16.666666666666668
250.0   60.0   16.666666666666668
250.0   30.0   33.333333333333336
300.0   30.0   33.333333333333336
250.0   60.0   33.333333333333336
250.0   30.0   50.0
300.0   30.0   33.333333333333336
300.0   60.0   33.333333333333336
250.0   60.0   33.333333333333336
300.0   60.0   50.0
250.0   30.0   50.0
250.0   60.0   50.0
300.0   60.0   50.0
250.0   60.0   33.333333333333336
250.0   30.0   50.0
300.0   60.0   50.0
300.0   30.0   50.0
300.0   30.0   33.333333333333336
250.0   30.0   50.0
300.0   60.0   50.0
300.0   30.0   33.333333333333336
250.0   60.0   33.333333333333336
250.0   60.0   0.0
300.0   60.0   0.0
250.0   90.0   0.0
250.0   60.0   16.666666666666668
300.0   60.0   0.0
300.0   90.0   0.0
250.0   90.0   0.0
300.0   90.0   16.666666666666668
250.0   60.0   16.666666666666668
250.0   90.0   16.666666666666668
300.0   90.0   16.666666666666668
250.0   90.0   0.0
250.0   60.0   16.666666666666668
300.0   90.0   16.666666666666668
300.0   60.0   16.666666666666668
300.0   60.0   0.0
250.0   60.0   16.666666666666668
300.0   90.0   16.666666666666668
300.0   60.0   0.0
250.0   90.0   0.0
250.0   60.0   16.666666666666668
300.0   60.0   16.666666666666668
250.0   90.0   16.666666666666668
250.0   60.0   33.333333333333336
300.0   60.0   16.666666666666668
300.0   90.0   16.666666666666668
250.0   90.0   16.666666666666668
300.0   90.0   33.333333333333336
250.0   60.0   33.333333333333336
250.0   90.0   33.333333333333336
300.0   90.0   33.333333333333336
250.0   90.0   16.666666666666668
250.0   60.0   33.333333333333336
300.0   90.0   33.333333333333336
300.0   60.0   33.333333333333336
300.0   60.0   16.666666666666668
250.0   60.0   33.333333333333336
300.0   90.0   33.333333333333336
300.0   60.0   16.666666666666668
250.0   90.0   16.666666666666668
250.0   60.0   33.333333333333336
300.0   60.0   33.333333333333336
250.0   90.0   33.333333333333336
250.0   60.0   50.0
300.0   60.0   33.333333333333336
300.0   90.0   33.333333333333336
250.0   90.0   33.333333333333336
300.0   90.0   50.0
250.0   60.0   50.0
250.0   90.0   50.0
300.0   90.0   50.0
250.0   90.0   33.333333333333336
250.0   60.0   50.0
300.0   90.0   50.0
300.0   60.0   50.0
300.0   60.0   33.333333333333336
250.0   60.0   50.0
300.0   90.0   50.0
300.0   60.0   33.333333333333336
250.0   90.0   33.333333333333336
250.0   90.0   0.0
300.0   90.0   0.0
250.0   120.0   0.0
250.0   90.0   16.666666666666668
300.0   90.0   0.0
300.0   120.0   0.0
250.0   120.0   0.0
300.0   120.0   16.666666666666668
250.0   90.0   16.666666666666668
250.0   120.0   16.666666666666668
300.0   120.0   16.666666666666668
250.0   120.0   0.0
250.0   90.0   16.666666666666668
300.0   120.0   16.666666666666668
300.0   90.0   16.666666666666668
300.0   90.0   0.0
250.0   90.0   16.666666666666668
300.0   120.0   16.666666666666668
300.0   90.0   0.0
250.0   120.0   0.0
250.0   90.0   16.666666666666668
300.0   90.0   16.666666666666668
250.0   120.0   16.666666666666668
250.0   90.0   33.333333333333336
300.0   90.0   16.666666666666668
300.0   120.0   16.666666666666668
250.0   120.0   16.666666666666668
300.0   120.0   33.333333333333336
250.0   90.0   33.333333333333336
250.0   120.0   33.333333333333336
300.0   120.0   33.333333333333336
250.0   120.0   16.666666666666668
250.0   90.0   33.333333333333336
300.0   120.0   33.333333333333336
300.0   90.0   33.333333333333336
300.0   90.0   16.666666666666668
250.0   90.0   33.333333333333336
300.0   120.0   33.333333333333336
300.0   90.0   16.666666666666668
250.0   120.0   16.666666666666668
250.0   90.0   33.333333333333336
300.0   90.0   33.333333333333336
250.0   120.0   33.333333333333336
250.0   90.0   50.0
300.0   90.0   33.333333333333336
300.0   120.0   33.333333333333336
250.0   120.0   33.333333333333336
300.0   120.0   50.0
250.0   90.0   50.0
250.0   120.0   50.0
300.0   120.0   50.0
250.0   120.0   33.333333333333336
250.0   90.0   50.0
300.0   120.0   50.0
300.0   90.0   50.0
300.0   90.0   33.333333333333336
250.0   90.0   50.0
300.0   120.0   50.0
300.0   90.0   33.333333333333336
250.0   120.0   33.333333333333336
250.0   120.0   0.0
300.0   120.0   0.0
250.0   150.0   0.0
250.0   120.0   16.666666666666668
300.0   120.0   0.0
300.0   150.0   0.0
250.0   150.0   0.0
300.0   150.0   16.666666666666668
250.0   120.0   16.666666666666668
250.0   150.0   16.666666666666668
300.0   150.0   16.666666666666668
250.0   150.0   0.0
250.0   120.0   16.666666666666668
300.0   150.0   16.666666666666668
300.0   120.0   16.666666666666668
300.0   120.0   0.0
250.0   120.0   16.666666666666668
300.0   150.0   16.666666666666668
300.0   120.0   0.0
250.0   150.0   0.0
250.0   120.0   16.666666666666668
300.0   120.0   16.666666666666668
250.0   150.0   16.666666666666668
250.0   120.0   33.333333333333336
300.0   120.0   16.666666666666668
300.0   150.0   16.666666666666668
250.0   150.0   16.666666666666668
300.0   150.0   33.333333333333336
250.0   120.0   33.333333333333336
250.0   150.0   33.333333333333336
300.0   150.0   33.333333333333336
250.0   150.0   16.666666666666668
250.0   120.0   33.333333333333336
300.0   150.0   33.333333333333336
300.0   120.0   33.333333333333336
300.0   120.0   16.666666666666668
250.0   120.0   33.333333333333336
300.0   150.0   33.333333333333336
300.0   120.0   16.666666666666668
250.0   150.0   16.666666666666668
250.0   120.0   33.333333333333336
300.0   120.0   33.333333333333336
250.0   150.0   33.333333333333336
250.0   120.0   50.0
300.0   120.0   33.333333333333336
300.0   150.0   33.333333333333336
250.0   150.0   33.333333333333336
300.0   150.0   50.0
250.0   120.0   50.0
250.0   150.0   50.0
300.0   150.0   50.0
250.0   150.0   33.333333333333336
250.0   120.0   50.0
300.0   150.0   50.0
300.0   120.0   50.0
300.0   120.0   33.333333333333336
250.0   120.0   50.0
300.0   150.0   50.0
300.0   120.0   33.333333333333336
250.0   150.0   33.333333333333336
300.0   0.0   0.0
350.0   0.0   0.0
300.0   30.0   0.0
300.0   0.0   16.666666666666668
350.0   0.0   0.0
350.0   30.0   0.0
300.0   30.0   0.0
350.0   30.0   16.666666666666668
300.0   0.0   16.666666666666668
300.0   30.0   16.666666666666668
350.0   30.0   16.666666666666668
300.0   30.0   0.0
300.0   0.0   16.666666666666668
350.0   30.0   16.666666666666668
350.0   0.0   16.666666666666668
350.0   0.0   0.0
300.0   0.0   16.666666666666668
350.0   30.0   16.666666666666668
350.0   0.0   0.0
300.0   30.0   0.0
300.0   0.0   16.666666666666668
350.0   0.0   16.666666666666668
300.0   30.0   16.666666666666668
300.0   0.0   33.333333333333336
350.0   0.0   16.666666666666668
350.0   30.0   16.666666666666668
300.0   30.0   16.666666666666668
350.0   30.0   33.333333333333336
300.0   0.0   33.333333333333336
300.0   30.0   33.333333333333336
350.0   30.0   33.333333333333336
300.0   30.0   16.666666666666668
300.0   0.0   33.333333333333336
350.0   30.0   33.333333333333336
350.0   0.0   33.333333333333336
350.0   0.0   16.666666666666668
300.0   0.0   33.333333333333336
350.0   30.0   33.333333333333336
350.0   0.0   16.666666666666668
300.0   30.0   16.666666666666668
300.0   0.0   33.333333333333336
350.0   0.0   33.333333333333336
300.0   30.0   33.333333333333336
300.0   0.0   50.0
350.0   0.0   33.333333333333336
350.0   30.0   33.333333333333336
300.0   30.0   33.333333333333336
350.0   30.0   50.0
300.0   0.0   50.0
300.0   30.0   50.0
350.0   30.0   50.0
300.0   30.0   33.333333333333336
300.0   0.0   50.0
350.0   30.0   50.0
350.0   0.0   50.0
350.0   0.0   33.333333333333336
300.0   0.0   50.0
350.0   30.0   50.0
350.0   0.0   33.333333333333336
300.0   30.0   33.333333333333336
300.0   30.0   0.0
350.0   30.0   0.0
300.0   60.0   0.0
300.0   30.0   16.666666666666668
350.0   30.0   0.0
350.0   60.0   0.0
300.0   60.0   0.0
350.0   60.0   16.666666666666668
300.0   30.0   16.666666666666668
300.0   60.0   16.666666666666668
350.0   60.0   16.666666666666668
300.0   60.0   0.0
300.0   30.0   16.666666666666668
350.0   60.0   16.666666666666668
350.0   30.0   16.666666666666668
350.0   30.0   0.0
300.0   30.0   16.666666666666668
350.0   60.0   16.666666666666668
350.0   30.0   0.0
300.0   60.0   0.0
300.0   30.0   16.666666666666668
350.0   30.0   16.666666666666668
300.0   60.0   16.666666666666668
300.0   30.0   33.333333333333336
350.0   30.0   16.666666666666668
350.0   60.0   16.666666666666668
300.0   60.0   16.666666666666668
350.0   60.0   33.333333333333336
300.0   30.0   33.333333333333336
300.0   60.0   33.333333333333336
350.0   60.0   33.333333333333336
300.0   60.0   16.666666666666668
300.0   30.0   33.333333333333336
350.0   60.0   33.333333333333336
350.0   30.0   33.333333333333336
350.0   30.0   16.666666666666668
300.0   30.0   33.333333333333336
350.0   60.0   33.333333333333336
350.0   30.0   16.666666666666668
300.0   60.0   16.666666666666668
300.0   30.0   33.333333333333336
350.0   30.0   33.333333333333336
300.0   60.0   33.333333333333336
300.0   30.0   50.0
350.0   30.0   33.333333333333336
350.0   60.0   33.333333333333336
300.0   60.0   33.333333333333336
350.0   60.0   50.0
300.0   30.0   50.0
300.0   60.0   50.0
350.0   60.0   50.0
300.0   60.0   33.333333333333336
300.0   30.0   50.0
350.0   60.0   50.0
350.0   30.0   50.0
350.0   30.0   33.333333333333336
300.0   30.0   50.0
350.0   60.0   50.0
350.0   30.0   33.333333333333336
300.0   60.0   33.333333333333336
300.0   60.0   0.0
350.0   60.0   0.0
300.0   90.0   0.0
300.0   60.0   16.666666666666668
350.0   60.0   0.0
350.0   90.0   0.0
300.0   90.0   0.0
350.0   90.0   16.666666666666668
300.0   60.0   16.666666666666668
300.0   90.0   16.666666666666668
350.0   90.0   16.666666666666668
300.0   90.0   0.0
300.0   60.0   16.666666666666668
350.0   90.0   16.666666666666668
350.0   60.0   16.666666666666668
350.0   60.0   0.0
300.0   60.0   16.666666666666668
350.0   90.0   16.666666666666668
350.0   60.0   0.0
300.0   90.0   0.0
300.0   60.0   16.666666666666668
350.0   60.0   16.666666666666668
300.0   90.0   16.666666666666668
300.0   60.0   33.333333333333336
350.0   60.0   16.666666666666668
350.0   90.0   16.666666666666668
300.0   90.0   16.666666666666668
350.0   90.0   33.333333333333336
300.0   60.0   33.333333333333336
300.0   90.0   33.333333333333336
350.0   90.0   33.333333333333336
300.0   90.0   16.666666666666668
300.0   60.0   33.333333333333336
350.0   90.0   33.333333333333336
350.0   60.0   33.333333333333336
350.0   60.0   16.666666666666668
300.0   60.0   33.333333333333336
350.0   90.0   33.333333333333336
350.0   60.0   16.666666666666668
300.0   90.0   16.666666666666668
300.0   60.0   33.333333333333336
350.0   60.0   33.333333333333336
300.0   90.0   33.333333333333336
300.0   60.0   50.0
350.0   60.0   33.333333333333336
350.0   90.0   33.333333333333336
300.0   90.0   33.333333333333336
350.0   90.0   50.0
300.0   60.0   50.0
300.0   90.0   50.0
350.0   90.0   50.0
300.0   90.0   33.333333333333336
300.0   60.0   50.0
350.0   90.0   50.0
350.0   60.0   50.0
350.0   60.0   33.333333333333336
300.0   60.0   50.0
350.0   90.0   50.0
350.0   60.0   33.333333333333336
300.0   90.0   33.333333333333336
300.0   90.0   0.0
350.0   90.0   0.0
300.0   120.0   0.0
300.0   90.0   16.666666666666668
350.0   90.0   0.0
350.0   120.0   0.0
300.0   120.0   0.0
350.0   120.0   16.666666666666668
300.0   90.0   16.666666666666668
300.0   120.0   16.666666666666668
350.0   120.0   16.666666666666668
300.0   120.0   0.0
300.0   90.0   16.666666666666668
350.0   120.0   16.666666666666668
350.0   90.0   16.666666666666668
350.0   90.0   0.0
300.0   90.0   16.666666666666668
350.0   120.0   16.666666666666668
350.0   90.0   0.0
300.0   120.0   0.0
300.0   90.0   16.666666666666668
350.0   90.0   16.666666666666668
300.0   120.0   16.666666666666668
300.0   90.0   33.333333333333336
350.0   90.0   16.666666666666668
350.0   120.0   16.666666666666668
300.0   120.0   16.666666666666668
350.0   120.0   33.333333333333336
300.0   90.0   33.333333333333336
300.0   120.0   33.333333333333336
350.0   120.0   33.333333333333336
300.0   120.0   16.666666666666668
300.0   90.0   33.333333333333336
350.0   120.0   33.333333333333336
350.0   90.0   33.333333333333336
350.0   90.0   16.666666666666668
300.0   90.0   33.333333333333336
350.0   120.0   33.333333333333336
350.0   90.0   16.666666666666668
300.0   120.0   16.666666666666668
300.0   90.0   33.333333333333336
350.0   90.0   33.333333333333336
300.0   120.0   33.333333333333336
300.0   90.0   50.0
350.0   90.0   33.333333333333336
350.0   120.0   33.333333333333336
300.0   120.0   33.333333333333336
350.0   120.0   50.0
300.0   90.0   50.0
300.0   120.0   50.0
350.0   120.0   50.0
300.0   120.0   33.333333333333336
300.0   90.0   50.0
350.0   120.0   50.0
350.0   90.0   50.0
350.0   90.0   33.333333333333336
300.0   90.0   50.0
350.0   120.0   50.0
350.0   90.0   33.333333333333336
300.0   120.0   33.333333333333336
300.0   120.0   0.0
350.0   120.0   0.0
300.0   150.0   0.0
300.0   120.0   16.666666666666668
350.0   120.0   0.0
350.0   150.0   0.0
300.0   150.0   0.0
350.0   150.0   16.666666666666668
300.0   120.0   16.666666666666668
300.0   150.0   16.666666666666668
350.0   150.0   16.666666666666668
300.0   150.0   0.0
300.0   120.0   16.666666666666668
350.0   150.0   16.666666666666668
350.0   120.0   16.666666666666668
350.0   120.0   0.0
300.0   120.0   16.666666666666668
350.0   150.0   16.666666666666668
350.0   120.0   0.0
300.0   150.0   0.0
300.0   120.0   16.666666666666668
350.0   120.0   16.666666666666668
300.0   150.0   16.666666666666668
300.0   120.0   33.333333333333336
350.0   120.0   16.666666666666668
350.0   150.0   16.666666666666668
300.0   150.0   16.666666666666668
350.0   150.0   33.333333333333336
300.0   120.0   33.333333333333336
300.0   150.0   33.333333333333336
350.0   150.0   33.333333333333336
300.0   150.0   16.666666666666668
300.0   120.0   33.333333333333336
350.0   150.0   33.333333333333336
350.0   120.0   33.333333333333336
350.0   120.0   16.666666666666668
300.0   120.0   33.333333333333336
350.0   150.0   33.333333333333336
350.0   120.0   16.666666666666668
300.0   150.0   16.666666666666668
300.0   120.0   33.333333333333336
350.0   120.0   33.333333333333336
300.0   150.0   33.333333333333336
300.0   120.0   50.0
350.0   120.0   33.333333333333336
350.0   150.0   33.333333333333336
300.0   150.0   33.333333333333336
350.0   150.0   50.0
300.0   120.0   50.0
300.0   150.0   50.0
350.0   150.0   50.0
300.0   150.0   33.333333333333336
300.0   120.0   50.0
350.0   150.0   50.0
350.0   120.0   50.0
350.0   120.0   33.333333333333336
300.0   120.0   50.0
350.0   150.0   50.0
350.0   120.0   33.333333333333336
300.0   150.0   33.333333333333336
350.0   0.0   0.0
400.0   0.0   0.0
350.0   30.0   0.0
350.0   0.0   16.666666666666668
400.0   0.0   0.0
400.0   30.0   0.0
350.0   30.0   0.0
400.0   30.0   16.666666666666668
350.0   0.0   16.666666666666668
350.0   30.0   16.666666666666668
400.0   30.0   16.666666666666668
350.0   30.0   0.0
350.0   0.0   16.666666666666668
400.0   30.0   16.666666666666668
400.0   0.0   16.666666666666668
400.0   0.0   0.0
350.0   0.0   16.666666666666668
400.0   30.0   16.666666666666668
400.0   0.0   0.0
350.0   30.0   0.0
350.0   0.0   16.666666666666668
400.0   0.0   16.666666666666668
350.0   30.0   16.666666666666668
350.0   0.0   33.333333333333336
400.0   0.0   16.666666666666668
400.0   30.0   16.666666666666668
350.0   30.0   16.666666666666668
400.0   30.0   33.333333333333336
350.0   0.0   33.333333333333336
350.0   30.0   33.333333333333336
400.0   30.0   33.333333333333336
350.0   30.0   16.666666666666668
350.0   0.0   33.333333333333336
400.0   30.0   33.333333333333336
400.0   0.0   33.333333333333336
400.0   0.0   16.666666666666668
350.0   0.0   33.333333333333336
400.0   30.0   33.333333333333336
400.0   0.0   16.666666666666668
350.0   30.0   16.666666666666668
350.0   0.0   33.333333333333336
400.0   0.0   33.333333333333336
350.0   30.0   33.333333333333336
350.0   0.0   50.0
400.0   0.0   33.333333333333336
400.0   30.0   33.333333333333336
350.0   30.0   33.333333333333336
400.0   30.0   50.0
350.0   0.0   50.0
350.0   30.0   50.0
400.0   30.0   50.0
350.0   30.0   33.333333333333336
350.0   0.0   50.0
400.0   30.0   50.0
400.0   0.0   50.0
400.0   0.0   33.333333333333336
350.0   0.0   50.0
400.0   30.0   50.0
400.0   0.0   33.333333333333336
350.0   30.0   33.333333333333336
350.0   30.0   0.0
400.0   30.0   0.0
350.0   60.0   0.0
350.0   30.0   16.666666666666668
400.0   30.0   0.0
400.0   60.0   0.0
350.0   60.0   0.0
400.0   60.0   16.666666666666668
350.0   30.0   16.666666666666668
350.0   60.0   16.666666666666668
400.0   60.0   16.666666666666668
350.0   60.0   0.0
350.0   30.0   16.666666666666668
400.0   60.0   16.666666666666668
400.0   30.0   16.666666666666668
400.0   30.0   0.0
350.0   30.0   16.666666666666668
400.0   60.0   16.666666666666668
400.0   30.0   0.0
350.0   60.0   0.0
350.0   30.0   16.666666666666668
400.0   30.0   16.666666666666668
350.0   60.0   16.666666666666668
350.0   30.0   33.333333333333336
400.0   30.0   16.666666666666668
400.0   60.0   16.666666666666668
350.0   60.0   16.666666666666668
400.0   60.0   33.333333333333336
350.0   30.0   33.333333333333336
350.0   60.0   33.333333333333336
400.0   60.0   33.333333333333336
350.0   60.0   16.666666666666668
350.0   30.0   33.333333333333336
400.0   60.0   33.333333333333336
400.0   30.0   33.333333333333336
400.0   30.0   16.666666666666668
350.0   30.0   33.333333333333336
400.0   60.0   33.333333333333336
400.0   30.0   16.666666666666668
350.0   60.0   16.666666666666668
350.0   30.0   33.333333333333336
400.0   30.0   33.333333333333336
350.0   60.0   33.333333333333336
350.0   30.0   50.0
400.0   30.0   33.333333333333336
400.0   60.0   33.333333333333336
350.0   60.0   33.333333333333336
400.0   60.0   50.0
350.0   30.0   50.0
350.0   60.0   50.0
400.0   60.0   50.0
350.0   60.0   33.333333333333336
350.0   30.0   50.0
400.0   60.0   50.0
400.0   30.0   50.0
400.0   30.0   33.333333333333336
350.0   30.0   50.0
400.0   60.0   50.0
400.0   30.0   33.333333333333336
350.0   60.0   33.333333333333336
350.0   60.0   0.0
400.0   60.0   0.0
350.0   90.0   0.0
350.0   60.0   16.666666666666668
400.0   60.0   0.0
400.0   90.0   0.0
350.0   90.0   0.0
400.0   90.0   16.666666666666668
350.0   60.0   16.666666666666668
350.0   90.0   16.666666666666668
400.0   90.0   16.666666666666668
350.0   90.0   0.0
350.0   60.0   16.666666666666668
400.0   90.0   16.666666666666668
400.0   60.0   16.666666666666668
400.0   60.0   0.0
350.0   60.0   16.666666666666668
400.0   90.0   16.666666666666668
400.0   60.0   0.0
350.0   90.0   0.0
350.0   60.0   16.666666666666668
400.0   60.0   16.666666666666668
350.0   90.0   16.666666666666668
350.0   60.0   33.333333333333336
400.0   60.0   16.666666666666668
400.0   90.0   16.666666666666668
350.0   90.0   16.666666666666668
400.0   90.0   33.333333333333336
350.0   60.0   33.333333333333336
350.0   90.0   33.333333333333336
400.0   90.0   33.333333333333336
350.0   90.0   16.666666666666668
350.0   60.0   33.333333333333336
400.0   90.0   33.333333333333336
400.0   60.0   33.333333333333336
400.0   60.0   16.666666666666668
350.0   60.0   33.333333333333336
400.0   90.0   33.333333333333336
400.0   60.0   16.666666666666668
350.0   90.0   16.666666666666668
350.0   60.0   33.333333333333336
400.0   60.0   33.333333333333336
350.0   90.0   33.333333333333336
350.0   60.0   50.0
400.0   60.0   33.333333333333336
400.0   90.0   33.333333333333336
350.0   90.0   33.333333333333336
400.0   90.0   50.0
350.0   60.0   50.0
350.0   90.0   50.0
400.0   90.0   50.0
350.0   90.0   33.333333333333336
350.0   60.0   50.0
400.0   90.0   50.0
400.0   60.0   50.0
400.0   60.0   33.333333333333336
350.0   60.0   50.0
400.0   90.0   50.0
400.0   60.0   33.333333333333336
350.0   90.0   33.333333333333336
350.0   90.0   0.0
400.0   90.0   0.0
350.0   120.0   0.0
350.0   90.0   16.666666666666668
400.0   90.0   0.0
400.0   120.0   0.0
350.0   120.0   0.0
400.0   120.0   16.666666666666668
350.0   90.0   16.666666666666668
350.0   120.0   16.666666666666668
400.0   120.0   16.666666666666668
350.0   120.0   0.0
350.0   90.0   16.666666666666668
400.0   120.0   16.666666666666668
400.0   90.0   16.666666666666668
400.0   90.0   0.0
350.0   90.0   16.666666666666668
400.0   120.0   16.666666666666668
400.0   90.0   0.0
350.0   120.0   0.0
350.0   90.0   16.666666666666668
400.0   90.0   16.666666666666668
350.0   120.0   16.666666666666668
350.0   90.0   33.333333333333336
400.0   90.0   16.666666666666668
400.0   120.0   16.666666666666668
350.0   120.0   16.666666666666668
400.0   120.0   33.333333333333336
350.0   90.0   33.333333333333336
350.0   120.0   33.333333333333336
400.0   120.0   33.333333333333336
350.0   120.0   16.666666666666668
350.0   90.0   33.333333333333336
400.0   120.0   33.333333333333336
400.0   90.0   33.333333333333336
400.0   90.0   16.666666666666668
350.0   90.0   33.333333333333336
400.0   120.0   33.333333333333336
400.0   90.0   16.666666666666668
350.0   120.0   16.666666666666668
350.0   90.0   33.333333333333336
400.0   90.0   33.333333333333336
350.0   120.0   33.333333333333336
350.0   90.0   50.0
400.0   90.0   33.333333333333336
400.0   120.0   33.333333333333336
350.0   120.0   33.333333333333336
400.0   120.0   50.0
350.0   90.0   50.0
350.0   120.0   50.0
400.0   120.0   50.0
350.0   120.0   33.333333333333336
350.0   90.0   50.0
400.0   120.0   50.0
400.0   90.0   50.0
400.0   90.0   33.333333333333336
350.0   90.0   50.0
400.0   120.0   50.0
400.0   90.0   33.333333333333336
350.0   120.0   33.333333333333336
350.0   120.0   0.0
400.0   120.0   0.0
350.0   150.0   0.0
350.0   120.0   16.666666666666668
400.0   120.0   0.0
400.0   150.0   0.0
350.0   150.0   0.0
400.0   150.0   16.666666666666668
350.0   120.0   16.666666666666668
350.0   150.0   16.666666666666668
400.0   150.0   16.666666666666668
350.0   150.0   0.0
350.0   120.0   16.666666666666668
400.0   150.0   16.666666666666668
400.0   120.0   16.666666666666668
400.0   120.0   0.0
350.0   120.0   16.666666666666668
400.0   150.0   16.666666666666668
400.0   120.0   0.0
350.0   150.0   0.0
350.0   120.0   16.666666666666668
400.0   120.0   16.666666666666668
350.0   150.0   16.666666666666668
350.0   120.0   33.333333333333336
400.0   120.0   16.666666666666668
400.0   150.0   16.666666666666668
350.0   150.0   16.666666666666668
400.0   150.0   33.333333333333336
350.0   120.0   33.333333333333336
350.0   150.0   33.333333333333336
400.0   150.0   33.333333333333336
350.0   150.0   16.666666666666668
350.0   120.0   33.333333333333336
400.0   150.0   33.333333333333336
400.0   120.0   33.333333333333336
400.0   120.0   16.666666666666668
350.0   120.0   33.333333333333336
400.0   150.0   33.333333333333336
400.0   120.0   16.666666666666668
350.0   150.0   16.666666666666668
350.0   120.0   33.333333333333336
400.0   120.0   33.333333333333336
350.0   150.0   33.333333333333336
350.0   120.0   50.0
400.0   120.0   33.333333333333336
400.0   150.0   33.333333333333336
350.0   150.0   33.333333333333336
400.0   150.0   50.0
350.0   120.0   50.0
350.0   150.0   50.0
400.0   150.0   50.0
350.0   150.0   33.333333333333336
350.0   120.0   50.0
400.0   150.0   50.0
400.0   120.0   50.0
400.0   120.0   33.333333333333336
350.0   120.0   50.0
400.0   150.0   50.0
400.0   120.0   33.333333333333336
350.0   150.0   33.333333333333336
400.0   0.0   0.0
450.0   0.0   0.0
400.0   30.0   0.0
400.0   0.0   16.666666666666668
450.0   0.0   0.0
450.0   30.0   0.0
400.0   30.0   0.0
450.0   30.0   16.666666666666668
400.0   0.0   16.666666666666668
400.0   30.0   16.666666666666668
450.0   30.0   16.666666666666668
400.0   30.0   0.0
400.0   0.0   16.666666666666668
450.0   30.0   16.666666666666668
450.0   0.0   16.666666666666668
450.0   0.0   0.0
400.0   0.0   16.666666666666668
450.0   30.0   16.666666666666668
450.0   0.0   0.0
400.0   30.0   0.0
400.0   0.0   16.666666666666668
450.0   0.0   16.666666666666668
400.0   30.0   16.666666666666668
400.0   0.0   33.333333333333336
450.0   0.0   16.666666666666668
450.0   30.0   16.666666666666668
400.0   30.0   16.666666666666668
450.0   30.0   33.333333333333336
400.0   0.0   33.333333333333336
400.0   30.0   33.333333333333336
450.0   30.0   33.333333333333336
400.0   30.0   16.666666666666668
400.0   0.0   33.333333333333336
450.0   30.0   33.333333333333336
450.0   0.0   33.333333333333336
450.0   0.0   16.666666666666668
400.0   0.0   33.333333333333336
450.0   30.0   33.333333333333336
450.0   0.0   16.666666666666668
400.0   30.0   16.666666666666668
400.0   0.0   33.333333333333336
450.0   0.0   33.333333333333336
400.0   30.0   33.333333333333336
400.0   0.0   50.0
450.0   0.0   33.333333333333336
450.0   30.0   33.333333333333336
400.0   30.0   33.333333333333336
450.0   30.0   50.0
400.0   0.0   50.0
400.0   30.0   50.0
450.0   30.0   50.0
400.0   30.0   33.333333333333336
400.0   0.0   50.0
450.0   30.0   50.0
450.0   0.0   50.0
450.0   0.0   33.333333333333336
400.0   0.0   50.0
450.0   30.0   50.0
450.0   0.0   33.333333333333336
400.0   30.0   33.333333333333336
400.0   30.0   0.0
450.0   30.0   0.0
400.0   60.0   0.0
400.0   30.0   16.666666666666668
450.0   30.0   0.0
450.0   60.0   0.0
400.0   60.0   0.0
450.0   60.0   16.666666666666668
400.0   30.0   16.666666666666668
400.0   60.0   16.666666666666668
450.0   60.0   16.666666666666668
400.0   60.0   0.0
400.0   30.0   16.666666666666668
450.0   60.0   16.666666666666668
450.0   30.0   16.666666666666668
450.0   30.0   0.0
400.0   30.0   16.666666666666668
450.0   60.0   16.666666666666668
450.0   30.0   0.0
400.0   60.0   0.0
400.0   30.0   16.666666666666668
450.0   30.0   16.666666666666668
400.0   60.0   16.666666666666668
400.0   30.0   33.333333333333336
450.0   30.0   16.666666666666668
450.0   60.0   16.666666666666668
400.0   60.0   16.666666666666668
450.0   60.0   33.333333333333336
400.0   30.0   33.333333333333336
400.0   60.0   33.333333333333336
450.0   60.0   33.333333333333336
400.0   60.0   16.666666666666668
400.0   30.0   33.333333333333336
450.0   60.0   33.333333333333336
450.0   30.0   33.333333333333336
450.0   30.0   16.666666666666668
400.0   30.0   33.333333333333336
450.0   60.0   33.333333333333336
450.0   30.0   16.666666666666668
400.0   60.0   16.666666666666668
400.0   30.0   33.333333333333336
450.0   30.0   33.333333333333336
400.0   60.0   33.333333333333336
400.0   30.0   50.0
450.0   30.0   33.333333333333336
450.0   60.0   33.333333333333336
400.0   60.0   33.333333333333336
450.0   60.0   50.0
400.0   30.0   50.0
400.0   60.0   50.0
450.0   60.0   50.0
400.0   60.0   33.333333333333336
400.0   30.0   50.0
450.0   60.0   50.0
450.0   30.0   50.0
450.0   30.0   33.333333333333336
400.0   30.0   50.0
450.0   60.0   50.0
450.0   30.0   33.333333333333336
400.0   60.0   33.333333333333336
400.0   60.0   0.0
450.0   60.0   0.0
400.0   90.0   0.0
400.0   60.0   16.666666666666668
450.0   60.0   0.0
450.0   90.0   0.0
400.0   90.0   0.0
450.0   90.0   16.666666666666668
400.0   60.0   16.666666666666668
400.0   90.0   16.666666666666668
450.0   90.0   16.666666666666668
400.0   90.0   0.0
400.0   60.0   16.666666666666668
450.0   90.0   16.666666666666668
450.0   60.0   16.666666666666668
450.0   60.0   0.0
400.0   60.0   16.666666666666668
450.0   90.0   16.666666666666668
450.0   60.0   0.0
400.0   90.0   0.0
400.0   60.0   16.666666666666668
450.0   60.0   16.666666666666668
400.0   90.0   16.666666666666668
400.0   60.0   33.333333333333336
450.0   60.0   16.666666666666668
450.0   90.0   16.666666666666668
400.0   90.0   16.666666666666668
450.0   90.0   33.333333333333336
400.0   60.0   33.333333333333336
400.0   90.0   33.333333333333336
450.0   90.0   33.333333333333336
400.0   90.0   16.666666666666668
400.0   60.0   33.333333333333336
450.0   90.0   33.333333333333336
450.0   60.0   33.333333333333336
450.0   60.0   16.666666666666668
400.0   60.0   33.333333333333336
450.0   90.0   33.333333333333336
450.0   60.0   16.666666666666668
400.0   90.0   16.666666666666668
400.0   60.0   33.333333333333336
450.0   60.0   33.333333333333336
400.0   90.0   33.333333333333336
400.0   60.0   50.0
450.0   60.0   33.333333333333336
450.0   90.0   33.333333333333336
400.0   90.0   33.333333333333336
450.0   90.0   50.0
400.0   60.0   50.0
400.0   90.0   50.0
450.0   90.0   50.0
400.0   90.0   33.333333333333336
400.0   60.0   50.0
450.0   90.0   50.0
450.0   60.0   50.0
450.0   60.0   33.333333333333336
400.0   60.0   50.0
450.0   90.0   50.0
450.0   60.0   33.333333333333336
400.0   90.0   33.333333333333336
400.0   90.0   0.0
450.0   90.0   0.0
400.0   120.0   0.0
400.0   90.0   16.666666666666668
450.0   90.0   0.0
450.0   120.0   0.0
400.0   120.0   0.0
450.0   120.0   16.666666666666668
400.0   90.0   16.666666666666668
400.0   120.0   16.666666666666668
450.0   120.0   16.666666666666668
400.0   120.0   0.0
400.0   90.0   16.666666666666668
450.0   120.0   16.666666666666668
450.0   90.0   16.666666666666668
450.0   90.0   0.0
400.0   90.0   16.666666666666668
450.0   120.0   16.666666666666668
450.0   90.0   0.0
400.0   120.0   0.0
400.0   90.0   16.666666666666668
450.0   90.0   16.666666666666668
400.0   120.0   16.666666666666668
400.0   90.0   33.333333333333336
450.0   90.0   16.666666666666668
450.0   120.0   16.666666666666668
400.0   120.0   16.666666666666668
450.0   120.0   33.333333333333336
400.0   90.0   33.333333333333336
400.0   120.0   33.333333333333336
450.0   120.0   33.333333333333336
400.0   120.0   16.666666666666668
400.0   90.0   33.333333333333336
450.0   120.0   33.333333333333336
450.0   90.0   33.333333333333336
450.0   90.0   16.666666666666668
400.0   90.0   33.333333333333336
450.0   120.0   33.333333333333336
450.0   90.0   16.666666666666668
400.0   120.0   16.666666666666668
400.0   90.0   33.333333333333336
450.0   90.0   33.333333333333336
400.0   120.0   33.333333333333336
400.0   90.0   50.0
450.0   90.0   33.333333333333336
450.0   120.0   33.333333333333336
400.0   120.0   33.333333333333336
450.0   120.0   50.0
400.0   90.0   50.0
400.0   120.0   50.0
450.0   120.0   50.0
400.0   120.0   33.333333333333336
400.0   90.0   50.0
450.0   120.0   50.0
450.0   90.0   50.0
450.0   90.0   33.333333333333336
400.0   90.0   50.0
450.0   120.0   50.0
450.0   90.0   33.333333333333336
400.0   120.0   33.333333333333336
400.0   120.0   0.0
450.0   120.0   0.0
400.0   150.0   0.0
400.0   120.0   16.666666666666668
450.0   120.0   0.0
450.0   150.0   0.0
400.0   150.0   0.0
450.0   150.0   16.666666666666668
400.0   120.0   16.666666666666668
400.0   150.0   16.666666666666668
450.0   150.0   16.666666666666668
400.0   150.0   0.0
400.0   120.0   16.666666666666668
450.0   150.0   16.666666666666668
450.0   120.0   16.666666666666668
450.0   120.0   0.0
400.0   120.0   16.666666666666668
450.0   150.0   16.666666666666668
450.0   120.0   0.0
400.0   150.0   0.0
400.0   120.0   16.666666666666668
450.0   120.0   16.666666666666668
400.0   150.0   16.666666666666668
400.0   120.0   33.333333333333336
450.0   120.0   16.666666666666668
450.0   150.0   16.666666666666668
400.0   150.0   16.666666666666668
450.0   150.0   33.333333333333336
400.0   120.0   33.333333333333336
400.0   150.0   33.333333333333336
450.0   150.0   33.333333333333336
400.0   150.0   16.666666666666668
400.0   120.0   33.333333333333336
450.0   150.0   33.333333333333336
450.0   120.0   33.333333333333336
450.0   120.0   16.666666666666668
400.0   120.0   33.333333333333336
450.0   150.0   33.333333333333336
450.0   120.0   16.666666666666668
400.0   150.0   16.666666666666668
400.0   120.0   33.333333333333336
450.0   120.0   33.333333333333336
400.0   150.0   33.333333333333336
400.0   120.0   50.0
450.0   120.0   33.333333333333336
450.0   150.0   33.333333333333336
400.0   150.0   33.333333333333336
450.0   150.0   50.0
400.0   120.0   50.0
400.0   150.0   50.0
450.0   150.0   50.0
400.0   150.0   33.333333333333336
400.0   120.0   50.0
450.0   150.0   50.0
450.0   120.0   50.0
450.0   120.0   33.333333333333336
400.0   120.0   50.0
450.0   150.0   50.0
450.0   120.0   33.333333333333336
400.0   150.0   33.333333333333336
450.0   0.0   0.0
500.0   0.0   0.0
450.0   30.0   0.0
450.0   0.0   16.666666666666668
500.0   0.0   0.0
500.0   30.0   0.0
450.0   30.0   0.0
500.0   30.0   16.666666666666668
450.0   0.0   16.666666666666668
450.0   30.0   16.666666666666668
500.0   30.0   16.666666666666668
450.0   30.0   0.0
450.0   0.0   16.666666666666668
500.0   30.0   16.666666666666668
500.0   0.0   16.666666666666668
500.0   0.0   0.0
450.0   0.0   16.666666666666668
500.0   30.0   16.666666666666668
500.0   0.0   0.0
450.0   30.0   0.0
450.0   0.0   16.666666666666668
500.0   0.0   16.666666666666668
450.0   30.0   16.666666666666668
450.0   0.0   33.333333333333336
500.0   0.0   16.666666666666668
500.0   30.0   16.666666666666668
450.0   30.0   16.666666666666668
500.0   30.0   33.333333333333336
450.0   0.0   33.333333333333336
450.0   30.0   33.333333333333336
500.0   30.0   33.333333333333336
450.0   30.0   16.666666666666668
450.0   0.0   33.333333333333336
500.0   30.0   33.333333333333336
500.0   0.0   33.333333333333336
500.0   0.0   16.666666666666668
450.0   0.0   33.333333333333336
500.0   30.0   33.333333333333336
500.0   0.0   16.666666666666668
450.0   30.0   16.666666666666668
450.0   0.0   33.333333333333336
500.0   0.0   33.333333333333336
450.0   30.0   33.333333333333336
450.0   0.0   50.0
500.0   0.0   33.333333333333336
500.0   30.0   33.333333333333336
450.0   30.0   33.333333333333336
500.0   30.0   50.0
450.0   0.0   50.0
450.0   30.0   50.0
500.0   30.0   50.0
450.0   30.0   33.333333333333336
450.0   0.0   50.0
500.0   30.0   50.0
500.0   0.0   50.0
500.0   0.0   33.333333333333336
450.0   0.0   50.0
500.0   30.0   50.0
500.0   0.0   33.333333333333336
450.0   30.0   33.333333333333336
450.0   30.0   0.0
500.0   30.0   0.0
450.0   60.0   0.0
450.0   30.0   16.666666666666668
500.0   30.0   0.0
500.0   60.0   0.0
450.0   60.0   0.0
500.0   60.0   16.666666666666668
450.0   30.0   16.666666666666668
450.0   60.0   16.666666666666668
500.0   60.0   16.666666666666668
450.0   60.0   0.0
450.0   30.0   16.666666666666668
500.0   60.0   16.666666666666668
500.0   30.0   16.666666666666668
500.0   30.0   0.0
450.0   30.0   16.666666666666668
500.0   60.0   16.666666666666668
500.0   30.0   0.0
450.0   60.0   0.0
450.0   30.0   16.666666666666668
500.0   30.0   16.666666666666668
450.0   60.0   16.666666666666668
450.0   30.0   33.333333333333336
500.0   30.0   16.666666666666668
500.0   60.0   16.666666666666668
450.0   60.0   16.666666666666668
500.0   60.0   33.333333333333336
450.0   30.0   33.333333333333336
450.0   60.0   33.333333333333336
500.0   60.0   33.333333333333336
450.0   60.0   16.666666666666668
450.0   30.0   33.333333333333336
500.0   60.0   33.333333333333336
500.0   30.0   33.333333333333336
500.0   30.0   16.666666666666668
450.0   30.0   33.333333333333336
500.0   60.0   33.333333333333336
500.0   30.0   16.666666666666668
450.0   60.0   16.666666666666668
450.0   30.0   33.333333333333336
500.0   30.0   33.333333333333336
450.0   60.0   33.333333333333336
450.0   30.0   50.0
500.0   30.0   33.333333333333336
500.0   60.0   33.333333333333336
450.0   60.0   33.333333333333336
500.0   60.0   50.0
450.0   30.0   50.0
450.0   60.0   50.0
500.0   60.0   50.0
450.0   60.0   33.333333333333336
450.0   30.0   50.0
500.0   60.0   50.0
500.0   30.0   50.0
500.0   30.0   33.333333333333336
450.0   30.0   50.0
500.0   60.0   50.0
500.0   30.0   33.333333333333336
450.0   60.0   33.333333333333336
450.0   60.0   0.0
500.0   60.0   0.0
450.0   90.0   0.0
450.0   60.0   16.666666666666668
500.0   60.0   0.0
500.0   90.0   0.0
450.0   90.0   0.0
500.0   90.0   16.666666666666668
450.0   60.0   16.666666666666668
450.0   90.0   16.666666666666668
500.0   90.0   16.666666666666668
450.0   90.0   0.0
450.0   60.0   16.666666666666668
500.0   90.0   16.666666666666668
500.0   60.0   16.666666666666668
500.0   60.0   0.0
450.0   60.0   16.666666666666668
500.0   90.0   16.666666666666668
500.0   60.0   0.0
450.0   90.0   0.0
450.0   60.0   16.666666666666668
500.0   60.0   16.666666666666668
450.0   90.0   16.666666666666668
450.0   60.0   33.333333333333336
500.0   60.0   16.666666666666668
500.0   90.0   16.666666666666668
450.0   90.0   16.666666666666668
500.0   90.0   33.333333333333336
450.0   60.0   33.333333333333336
450.0   90.0   33.333333333333336
500.0   90.0   33.333333333333336
450.0   90.0   16.666666666666668
450.0   60.0   33.333333333333336
500.0   90.0   33.333333333333336
500.0   60.0   33.333333333333336
500.0   60.0   16.666666666666668
450.0   60.0   33.333333333333336
500.0   90.0   33.333333333333336
500.0   60.0   16.666666666666668
450.0   90.0   16.666666666666668
450.0   60.0   33.333333333333336
500.0   60.0   33.333333333333336
450.0   90.0   33.333333333333336
450.0   60.0   50.0
500.0   60.0   33.333333333333336
500.0   90.0   33.333333333333336
450.0   90.0   33.333333333333336
500.0   90.0   50.0
450.0   60.0   50.0
450.0   90.0   50.0
500.0   90.0   50.0
450.0   90.0   33.333333333333336
450.0   60.0   50.0
500.0   90.0   50.0
500.0   60.0   50.0
500.0   60.0   33.333333333333336
450.0   60.0   50.0
500.0   90.0   50.0
500.0   60.0   33.333333333333336
450.0   90.0   33.333333333333336
450.0   90.0   0.0
500.0   90.0   0.0
450.0   120.0   0.0
450.0   90.0   16.666666666666668
500.0   90.0   0.0
500.0   120.0   0.0
450.0   120.0   0.0
500.0   120.0   16.666666666666668
450.0   90.0   16.666666666666668
450.0   120.0   16.666666666666668
500.0   120.0   16.666666666666668
450.0   120.0   0.0
450.0   90.0   16.666666666666668
500.0   120.0   16.666666666666668
500.0   90.0   16.666666666666668
500.0   90.0   0.0
450.0   90.0   16.666666666666668
500.0   120.0   16.666666666666668
500.0   90.0   0.0
450.0   120.0   0.0
450.0   90.0   16.666666666666668
500.0   90.0   16.666666666666668
450.0   120.0   16.666666666666668
450.0   90.0   33.333333333333336
500.0   90.0   16.666666666666668
500.0   120.0   16.666666666666668
450.0   120.0   16.666666666666668
500.0   120.0   33.333333333333336
450.0   90.0   33.333333333333336
450.0   120.0   33.333333333333336
500.0   120.0   33.333333333333336
450.0   120.0   16.666666666666668
450.0   90.0   33.333333333333336
500.0   120.0   33.333333333333336
500.0   90.0   33.333333333333336
500.0   90.0   16.666666666666668
450.0   90.0   33.333333333333336
500.0   120.0   33.333333333333336
500.0   90.0   16.666666666666668
450.0   120.0   16.666666666666668
450.0   90.0   33.333333333333336
500.0   90.0   33.333333333333336
450.0   120.0   33.333333333333336
450.0   90.0   50.0
500.0   90.0   33.333333333333336
500.0   120.0   33.333333333333336
450.0   120.0   33.333333333333336
500.0   120.0   50.0
450.0   90.0   50.0
450.0   120.0   50.0
500.0   120.0   50.0
450.0   120.0   33.333333333333336
450.0   90.0   50.0
500.0   120.0   50.0
500.0   90.0   50.0
500.0   90.0   33.333333333333336
450.0   90.0   50.0
500.0   120.0   50.0
500.0   90.0   33.333333333333336
450.0   120.0   33.333333333333336
450.0   120.0   0.0
500.0   120.0   0.0
450.0   150.0   0.0
450.0   120.0   16.666666666666668
500.0   120.0   0.0
500.0   150.0   0.0
450.0   150.0   0.0
500.0   150.0   16.666666666666668
450.0   120.0   16.666666666666668
450.0   150.0   16.666666666666668
500.0   150.0   16.666666666666668
450.0   150.0   0.0
450.0   120.0   16.666666666666668
500.0   150.0   16.666666666666668
500.0   120.0   16.666666666666668
500.0   120.0   0.0
450.0   120.0   16.666666666666668
500.0   150.0   16.666666666666668
500.0   120.0   0.0
450.0   150.0   0.0
450.0   120.0   16.666666666666668
500.0   120.0   16.666666666666668
450.0   150.0   16.666666666666668
450.0   120.0   33.333333333333336
500.0   120.0   16.666666666666668
500.0   150.0   16.666666666666668
450.0   150.0   16.666666666666668
500.0   150.0   33.333333333333336
450.0   120.0   33.333333333333336
450.0   150.0   33.333333333333336
500.0   150.0   33.333333333333336
450.0   150.0   16.666666666666668
450.0   120.0   33.333333333333336
500.0   150.0   33.333333333333336
500.0   120.0   33.333333333333336
500.0   120.0   16.666666666666668
450.0   120.0   33.333333333333336
500.0   150.0   33.333333333333336
500.0   120.0   16.666666666666668
450.0   150.0   16.666666666666668
450.0   120.0   33.333333333333336
500.0   120.0   33.333333333333336
450.0   150.0   33.333333333333336
450.0   120.0   50.0
500.0   120.0   33.333333333333336
500.0   150.0   33.333333333333336
450.0   150.0   33.333333333333336
500.0   150.0   50.0
450.0   120.0   50.0
450.0   150.0   50.0
500.0   150.0   50.0
450.0   150.0   33.333333333333336
450.0   120.0   50.0
500.0   150.0   50.0
500.0   120.0   50.0
500.0   120.0   33.333333333333336
450.0   120.0   50.0
500.0   150.0   50.0
500.0   120.0   33.333333333333336
450.0   150.0   33.333333333333336
             </DataArray>   
          </Points>  
          <Cells>  
             <DataArray type="Int32" Name="connectivity" format="ascii">   
0   1   2   3
4   5   6   7
8   9   10   11
12   13   14   15
16   17   18   19
20   21   22   23
24   25   26   27
28   29   30   31
32   33   34   35
36   37   38   39
40   41   42   43
44   45   46   47
48   49   50   51
52   53   54   55
56   57   58   59
60   61   62   63
64   65   66   67
68   69   70   71
72   73   74   75
76   77   78   79
80   81   82   83
84   85   86   87
88   89   90   91
92   93   94   95
96   97   98   99
100   101   102   103
104   105   106   107
108   109   110   111
112   113   114   115
116   117   118   119
120   121   122   123
124   125   126   127
128   129   130   131
132   133   134   135
136   137   138   139
140   141   142   143
144   145   146   147
148   149   150   151
152   153   154   155
156   157   158   159
160   161   162   163
164   165   166   167
168   169   170   171
172   173   174   175
176   177   178   179
180   181   182   183
184   185   186   187
188   189   190   191
192   193   194   195
196   197   198   199
200   201   202   203
204   205   206   207
208   209   210   211
212   213   214   215
216   217   218   219
220   221   222   223
224   225   226   227
228   229   230   231
232   233   234   235
236   237   238   239
240   241   242   243
244   245   246   247
248   249   250   251
252   253   254   255
256   257   258   259
260   261   262   263
264   265   266   267
268   269   270   271
272   273   274   275
276   277   278   279
280   281   282   283
284   285   286   287
288   289   290   291
292   293   294   295
296   297   298   299
300   301   302   303
304   305   306   307
308   309   310   311
312   313   314   315
316   317   318   319
320   321   322   323
324   325   326   327
328   329   330   331
332   333   334   335
336   337   338   339
340   341   342   343
344   345   346   347
348   349   350   351
352   353   354   355
356   357   358   359
360   361   362   363
364   365   366   367
368   369   370   371
372   373   374   375
376   377   378   379
380   381   382   383
384   385   386   387
388   389   390   391
392   393   394   395
396   397   398   399
400   401   402   403
404   405   406   407
408   409   410   411
412   413   414   415
416   417   418   419
420   421   422   423
424   425   426   427
428   429   430   431
432   433   434   435
436   437   438   439
440   441   442   443
444   445   446   447
448   449   450   451
452   453   454   455
456   457   458   459
460   461   462   463
464   465   466   467
468   469   470   471
472   473   474   475
476   477   478   479
480   481   482   483
484   485   486   487
488   489   490   491
492   493   494   495
496   497   498   499
500   501   502   503
504   505   506   507
508   509   510   511
512   513   514   515
516   517   518   519
520   521   522   523
524   525   526   527
528   529   530   531
532   533   534   535
536   537   538   539
540   541   542   543
544   545   546   547
548   549   550   551
552   553   554   555
556   557   558   559
560   561   562   563
564   565   566   567
568   569   570   571
572   573   574   575
576   577   578   579
580   581   582   583
584   585   586   587
588   589   590   591
592   593   594   595
596   597   598   599
600   601   602   603
604   605   606   607
608   609   610   611
612   613   614   615
616   617   618   619
620   621   622   623
624   625   626   627
628   629   630   631
632   633   634   635
636   637   638   639
640   641   642   643
644   645   646   647
648   649   650   651
652   653   654   655
656   657   658   659
660   661   662   663
664   665   666   667
668   669   670   671
672   673   674   675
676   677   678   679
680   681   682   683
684   685   686   687
688   689   690   691
692   693   694   695
696   697   698   699
700   701   702   703
704   705   706   707
708   709   710   711
712   713   714   715
716   717   718   719
720   721   722   723
724   725   726   727
728   729   730   731
732   733   734   735
736   737   738   739
740   741   742   743
744   745   746   747
748   749   750   751
752   753   754   755
756   757   758   759
760   761   762   763
764   765   766   767
768   769   770   771
772   773   774   775
776   777   778   779
780   781   782   783
784   785   786   787
788   789   790   791
792   793   794   795
796   797   798   799
800   801   802   803
804   805   806   807
808   809   810   811
812   813   814   815
816   817   818   819
820   821   822   823
824   825   826   827
828   829   830   831
832   833   834   835
836   837   838   839
840   841   842   843
844   845   846   847
848   849   850   851
852   853   854   855
856   857   858   859
860   861   862   863
864   865   866   867
868   869   870   871
872   873   874   875
876   877   878   879
880   881   882   883
884   885   886   887
888   889   890   891
892   893   894   895
896   897   898   899
900   901   902   903
904   905   906   907
908   909   910   911
912   913   914   915
916   917   918   919
920   921   922   923
924   925   926   927
928   929   930   931
932   933   934   935
936   937   938   939
940   941   942   943
944   945   946   947
948   949   950   951
952   953   954   955
956   957   958   959
960   961   962   963
964   965   966   967
968   969   970   971
972   973   974   975
976   977   978   979
980   981   982   983
984   985   986   987
988   989   990   991
992   993   994   995
996   997   998   999
1000   1001   1002   1003
1004   1005   1006   1007
1008   1009   1010   1011
1012   1013   1014   1015
1016   1017   1018   1019
1020   1021   1022   1023
1024   1025   1026   1027
1028   1029   1030   1031
1032   1033   1034   1035
1036   1037   1038   1039
1040   1041   1042   1043
1044   1045   1046   1047
1048   1049   1050   1051
1052   1053   1054   1055
1056   1057   1058   1059
1060   1061   1062   1063
1064   1065   1066   1067
1068   1069   1070   1071
1072   1073   1074   1075
1076   1077   1078   1079
1080   1081   1082   1083
1084   1085   1086   1087
1088   1089   1090   1091
1092   1093   1094   1095
1096   1097   1098   1099
1100   1101   1102   1103
1104   1105   1106   1107
1108   1109   1110   1111
1112   1113   1114   1115
1116   1117   1118   1119
1120   1121   1122   1123
1124   1125   1126   1127
1128   1129   1130   1131
1132   1133   1134   1135
1136   1137   1138   1139
1140   1141   1142   1143
1144   1145   1146   1147
1148   1149   1150   1151
1152   1153   1154   1155
1156   1157   1158   1159
1160   1161   1162   1163
1164   1165   1166   1167
1168   1169   1170   1171
1172   1173   1174   1175
1176   1177   1178   1179
1180   1181   1182   1183
1184   1185   1186   1187
1188   1189   1190   1191
1192   1193   1194   1195
1196   1197   1198   1199
1200   1201   1202   1203
1204   1205   1206   1207
1208   1209   1210   1211
1212   1213   1214   1215
1216   1217   1218   1219
1220   1221   1222   1223
1224   1225   1226   1227
1228   1229   1230   1231
1232   1233   1234   1235
1236   1237   1238   1239
1240   1241   1242   1243
1244   1245   1246   1247
1248   1249   1250   1251
1252   1253   1254   1255
1256   1257   1258   1259
1260   1261   1262   1263
1264   1265   1266   1267
1268   1269   1270   1271
1272   1273   1274   1275
1276   1277   1278   1279
1280   1281   1282   1283
1284   1285   1286   1287
1288   1289   1290   1291
1292   1293   1294   1295
1296   1297   1298   1299
1300   1301   1302   1303
1304   1305   1306   1307
1308   1309   1310   1311
1312   1313   1314   1315
1316   1317   1318   1319
1320   1321   1322   1323
1324   1325   1326   1327
1328   1329   1330   1331
1332   1333   1334   1335
1336   1337   1338   1339
1340   1341   1342   1343
1344   1345   1346   1347
1348   1349   1350   1351
1352   1353   1354   1355
1356   1357   1358   1359
1360   1361   1362   1363
1364   1365   1366   1367
1368   1369   1370   1371
1372   1373   1374   1375
1376   1377   1378   1379
1380   1381   1382   1383
1384   1385   1386   1387
1388   1389   1390   1391
1392   1393   1394   1395
1396   1397   1398   1399
1400   1401   1402   1403
1404   1405   1406   1407
1408   1409   1410   1411
1412   1413   1414   1415
1416   1417   1418   1419
1420   1421   1422   1423
1424   1425   1426   1427
1428   1429   1430   1431
1432   1433   1434   1435
1436   1437   1438   1439
1440   1441   1442   1443
1444   1445   1446   1447
1448   1449   1450   1451
1452   1453   1454   1455
1456   1457   1458   1459
1460   1461   1462   1463
1464   1465   1466   1467
1468   1469   1470   1471
1472   1473   1474   1475
1476   1477   1478   1479
1480   1481   1482   1483
1484   1485   1486   1487
1488   1489   1490   1491
1492   1493   1494   1495
1496   1497   1498   1499
1500   1501   1502   1503
1504   1505   1506   1507
1508   1509   1510   1511
1512   1513   1514   1515
1516   1517   1518   1519
1520   1521   1522   1523
1524   1525   1526   1527
1528   1529   1530   1531
1532   1533   1534   1535
1536   1537   1538   1539
1540   1541   1542   1543
1544   1545   1546   1547
1548   1549   1550   1551
1552   1553   1554   1555
1556   1557   1558   1559
1560   1561   1562   1563
1564   1565   1566   1567
1568   1569   1570   1571
1572   1573   1574   1575
1576   1577   1578   1579
1580   1581   1582   1583
1584   1585   1586   1587
1588   1589   1590   1591
1592   1593   1594   1595
1596   1597   1598   1599
1600   1601   1602   1603
1604   1605   1606   1607
1608   1609   1610   1611
1612   1613   1614   1615
1616   1617   1618   1619
1620   1621   1622   1623
1624   1625   1626   1627
1628   1629   1630   1631
1632   1633   1634   1635
1636   1637   1638   1639
1640   1641   1642   1643
1644   1645   1646   1647
1648   1649   1650   1651
1652   1653   1654   1655
1656   1657   1658   1659
1660   1661   1662   1663
1664   1665   1666   1667
1668   1669   1670   1671
1672   1673   1674   1675
1676   1677   1678   1679
1680   1681   1682   1683
1684   1685   1686   1687
1688   1689   1690   1691
1692   1693   1694   1695
1696   1697   1698   1699
1700   1701   1702   1703
1704   1705   1706   1707
1708   1709   1710   1711
1712   1713   1714   1715
1716   1717   1718   1719
1720   1721   1722   1723
1724   1725   1726   1727
1728   1729   1730   1731
1732   1733   1734   1735
1736   1737   1738   1739
1740   1741   1742   1743
1744   1745   1746   1747
1748   1749   1750   1751
1752   1753   1754   1755
1756   1757   1758   1759
1760   1761   1762   1763
1764   1765   1766   1767
1768   1769   1770   1771
1772   1773   1774   1775
1776   1777   1778   1779
1780   1781   1782   1783
1784   1785   1786   1787
1788   1789   1790   1791
1792   1793   1794   1795
1796   1797   1798   1799
1800   1801   1802   1803
1804   1805   1806   1807
1808   1809   1810   1811
1812   1813   1814   1815
1816   1817   1818   1819
1820   1821   1822   1823
1824   1825   1826   1827
1828   1829   1830   1831
1832   1833   1834   1835
1836   1837   1838   1839
1840   1841   1842   1843
1844   1845   1846   1847
1848   1849   1850   1851
1852   1853   1854   1855
1856   1857   1858   1859
1860   1861   1862   1863
1864   1865   1866   1867
1868   1869   1870   1871
1872   1873   1874   1875
1876   1877   1878   1879
1880   1881   1882   1883
1884   1885   1886   1887
1888   1889   1890   1891
1892   1893   1894   1895
1896   1897   1898   1899
1900   1901   1902   1903
1904   1905   1906   1907
1908   1909   1910   1911
1912   1913   1914   1915
1916   1917   1918   1919
1920   1921   1922   1923
1924   1925   1926   1927
1928   1929   1930   1931
1932   1933   1934   1935
1936   1937   1938   1939
1940   1941   1942   1943
1944   1945   1946   1947
1948   1949   1950   1951
1952   1953   1954   1955
1956   1957   1958   1959
1960   1961   1962   1963
1964   1965   1966   1967
1968   1969   1970   1971
1972   1973   1974   1975
1976   1977   1978   1979
1980   1981   1982   1983
1984   1985   1986   1987
1988   1989   1990   1991
1992   1993   1994   1995
1996   1997   1998   1999
2000   2001   2002   2003
2004   2005   2006   2007
2008   2009   2010   2011
2012   2013   2014   2015
2016   2017   2018   2019
2020   2021   2022   2023
2024   2025   2026   2027
2028   2029   2030   2031
2032   2033   2034   2035
2036   2037   2038   2039
2040   2041   2042   2043
2044   2045   2046   2047
2048   2049   2050   2051
2052   2053   2054   2055
2056   2057   2058   2059
2060   2061   2062   2063
2064   2065   2066   2067
2068   2069   2070   2071
2072   2073   2074   2075
2076   2077   2078   2079
2080   2081   2082   2083
2084   2085   2086   2087
2088   2089   2090   2091
2092   2093   2094   2095
2096   2097   2098   2099
2100   2101   2102   2103
2104   2105   2106   2107
2108   2109   2110   2111
2112   2113   2114   2115
2116   2117   2118   2119
2120   2121   2122   2123
2124   2125   2126   2127
2128   2129   2130   2131
2132   2133   2134   2135
2136   2137   2138   2139
2140   2141   2142   2143
2144   2145   2146   2147
2148   2149   2150   2151
2152   2153   2154   2155
2156   2157   2158   2159
2160   2161   2162   2163
2164   2165   2166   2167
2168   2169   2170   2171
2172   2173   2174   2175
2176   2177   2178   2179
2180   2181   2182   2183
2184   2185   2186   2187
2188   2189   2190   2191
2192   2193   2194   2195
2196   2197   2198   2199
2200   2201   2202   2203
2204   2205   2206   2207
2208   2209   2210   2211
2212   2213   2214   2215
2216   2217   2218   2219
2220   2221   2222   2223
2224   2225   2226   2227
2228   2229   2230   2231
2232   2233   2234   2235
2236   2237   2238   2239
2240   2241   2242   2243
2244   2245   2246   2247
2248   2249   2250   2251
2252   2253   2254   2255
2256   2257   2258   2259
2260   2261   2262   2263
2264   2265   2266   2267
2268   2269   2270   2271
2272   2273   2274   2275
2276   2277   2278   2279
2280   2281   2282   2283
2284   2285   2286   2287
2288   2289   2290   2291
2292   2293   2294   2295
2296   2297   2298   2299
2300   2301   2302   2303
2304   2305   2306   2307
2308   2309   2310   2311
2312   2313   2314   2315
2316   2317   2318   2319
2320   2321   2322   2323
2324   2325   2326   2327
2328   2329   2330   2331
2332   2333   2334   2335
2336   2337   2338   2339
2340   2341   2342   2343
2344   2345   2346   2347
2348   2349   2350   2351
2352   2353   2354   2355
2356   2357   2358   2359
2360   2361   2362   2363
2364   2365   2366   2367
2368   2369   2370   2371
2372   2373   2374   2375
2376   2377   2378   2379
2380   2381   2382   2383
2384   2385   2386   2387
2388   2389   2390   2391
2392   2393   2394   2395
2396   2397   2398   2399
2400   2401   2402   2403
2404   2405   2406   2407
2408   2409   2410   2411
2412   2413   2414   2415
2416   2417   2418   2419
2420   2421   2422   2423
2424   2425   2426   2427
2428   2429   2430   2431
2432   2433   2434   2435
2436   2437   2438   2439
2440   2441   2442   2443
2444   2445   2446   2447
2448   2449   2450   2451
2452   2453   2454   2455
2456   2457   2458   2459
2460   2461   2462   2463
2464   2465   2466   2467
2468   2469   2470   2471
2472   2473   2474   2475
2476   2477   2478   2479
2480   2481   2482   2483
2484   2485   2486   2487
2488   2489   2490   2491
2492   2493   2494   2495
2496   2497   2498   2499
2500   2501   2502   2503
2504   2505   2506   2507
2508   2509   2510   2511
2512   2513   2514   2515
2516   2517   2518   2519
2520   2521   2522   2523
2524   2525   2526   2527
2528   2529   2530   2531
2532   2533   2534   2535
2536   2537   2538   2539
2540   2541   2542   2543
2544   2545   2546   2547
2548   2549   2550   2551
2552   2553   2554   2555
2556   2557   2558   2559
2560   2561   2562   2563
2564   2565   2566   2567
2568   2569   2570   2571
2572   2573   2574   2575
2576   2577   2578   2579
2580   2581   2582   2583
2584   2585   2586   2587
2588   2589   2590   2591
2592   2593   2594   2595
2596   2597   2598   2599
2600   2601   2602   2603
2604   2605   2606   2607
2608   2609   2610   2611
2612   2613   2614   2615
2616   2617   2618   2619
2620   2621   2622   2623
2624   2625   2626   2627
2628   2629   2630   2631
2632   2633   2634   2635
2636   2637   2638   2639
2640   2641   2642   2643
2644   2645   2646   2647
2648   2649   2650   2651
2652   2653   2654   2655
2656   2657   2658   2659
2660   2661   2662   2663
2664   2665   2666   2667
2668   2669   2670   2671
2672   2673   2674   2675
2676   2677   2678   2679
2680   2681   2682   2683
2684   2685   2686   2687
2688   2689   2690   2691
2692   2693   2694   2695
2696   2697   2698   2699
2700   2701   2702   2703
2704   2705   2706   2707
2708   2709   2710   2711
2712   2713   2714   2715
2716   2717   2718   2719
2720   2721   2722   2723
2724   2725   2726   2727
2728   2729   2730   2731
2732   2733   2734   2735
2736   2737   2738   2739
2740   2741   2742   2743
2744   2745   2746   2747
2748   2749   2750   2751
2752   2753   2754   2755
2756   2757   2758   2759
2760   2761   2762   2763
2764   2765   2766   2767
2768   2769   2770   2771
2772   2773   2774   2775
2776   2777   2778   2779
2780   2781   2782   2783
2784   2785   2786   2787
2788   2789   2790   2791
2792   2793   2794   2795
2796   2797   2798   2799
2800   2801   2802   2803
2804   2805   2806   2807
2808   2809   2810   2811
2812   2813   2814   2815
2816   2817   2818   2819
2820   2821   2822   2823
2824   2825   2826   2827
2828   2829   2830   2831
2832   2833   2834   2835
2836   2837   2838   2839
2840   2841   2842   2843
2844   2845   2846   2847
2848   2849   2850   2851
2852   2853   2854   2855
2856   2857   2858   2859
2860   2861   2862   2863
2864   2865   2866   2867
2868   2869   2870   2871
2872   2873   2874   2875
2876   2877   2878   2879
2880   2881   2882   2883
2884   2885   2886   2887
2888   2889   2890   2891
2892   2893   2894   2895
2896   2897   2898   2899
2900   2901   2902   2903
2904   2905   2906   2907
2908   2909   2910   2911
2912   2913   2914   2915
2916   2917   2918   2919
2920   2921   2922   2923
2924   2925   2926   2927
2928   2929   2930   2931
2932   2933   2934   2935
2936   2937   2938   2939
2940   2941   2942   2943
2944   2945   2946   2947
2948   2949   2950   2951
2952   2953   2954   2955
2956   2957   2958   2959
2960   2961   2962   2963
2964   2965   2966   2967
2968   2969   2970   2971
2972   2973   2974   2975
2976   2977   2978   2979
2980   2981   2982   2983
2984   2985   2986   2987
2988   2989   2990   2991
2992   2993   2994   2995
2996   2997   2998   2999
3000   3001   3002   3003
3004   3005   3006   3007
3008   3009   3010   3011
3012   3013   3014   3015
3016   3017   3018   3019
3020   3021   3022   3023
3024   3025   3026   3027
3028   3029   3030   3031
3032   3033   3034   3035
3036   3037   3038   3039
3040   3041   3042   3043
3044   3045   3046   3047
3048   3049   3050   3051
3052   3053   3054   3055
3056   3057   3058   3059
3060   3061   3062   3063
3064   3065   3066   3067
3068   3069   3070   3071
3072   3073   3074   3075
3076   3077   3078   3079
3080   3081   3082   3083
3084   3085   3086   3087
3088   3089   3090   3091
3092   3093   3094   3095
3096   3097   3098   3099
3100   3101   3102   3103
3104   3105   3106   3107
3108   3109   3110   3111
3112   3113   3114   3115
3116   3117   3118   3119
3120   3121   3122   3123
3124   3125   3126   3127
3128   3129   3130   3131
3132   3133   3134   3135
3136   3137   3138   3139
3140   3141   3142   3143
3144   3145   3146   3147
3148   3149   3150   3151
3152   3153   3154   3155
3156   3157   3158   3159
3160   3161   3162   3163
3164   3165   3166   3167
3168   3169   3170   3171
3172   3173   3174   3175
3176   3177   3178   3179
3180   3181   3182   3183
3184   3185   3186   3187
3188   3189   3190   3191
3192   3193   3194   3195
3196   3197   3198   3199
3200   3201   3202   3203
3204   3205   3206   3207
3208   3209   3210   3211
3212   3213   3214   3215
3216   3217   3218   3219
3220   3221   3222   3223
3224   3225   3226   3227
3228   3229   3230   3231
3232   3233   3234   3235
3236   3237   3238   3239
3240   3241   3242   3243
3244   3245   3246   3247
3248   3249   3250   3251
3252   3253   3254   3255
3256   3257   3258   3259
3260   3261   3262   3263
3264   3265   3266   3267
3268   3269   3270   3271
3272   3273   3274   3275
3276   3277   3278   3279
3280   3281   3282   3283
3284   3285   3286   3287
3288   3289   3290   3291
3292   3293   3294   3295
3296   3297   3298   3299
3300   3301   3302   3303
3304   3305   3306   3307
3308   3309   3310   3311
3312   3313   3314   3315
3316   3317   3318   3319
3320   3321   3322   3323
3324   3325   3326   3327
3328   3329   3330   3331
3332   3333   3334   3335
3336   3337   3338   3339
3340   3341   3342   3343
3344   3345   3346   3347
3348   3349   3350   3351
3352   3353   3354   3355
3356   3357   3358   3359
3360   3361   3362   3363
3364   3365   3366   3367
3368   3369   3370   3371
3372   3373   3374   3375
3376   3377   3378   3379
3380   3381   3382   3383
3384   3385   3386   3387
3388   3389   3390   3391
3392   3393   3394   3395
3396   3397   3398   3399
3400   3401   3402   3403
3404   3405   3406   3407
3408   3409   3410   3411
3412   3413   3414   3415
3416   3417   3418   3419
3420   3421   3422   3423
3424   3425   3426   3427
3428   3429   3430   3431
3432   3433   3434   3435
3436   3437   3438   3439
3440   3441   3442   3443
3444   3445   3446   3447
3448   3449   3450   3451
3452   3453   3454   3455
3456   3457   3458   3459
3460   3461   3462   3463
3464   3465   3466   3467
3468   3469   3470   3471
3472   3473   3474   3475
3476   3477   3478   3479
3480   3481   3482   3483
3484   3485   3486   3487
3488   3489   3490   3491
3492   3493   3494   3495
3496   3497   3498   3499
3500   3501   3502   3503
3504   3505   3506   3507
3508   3509   3510   3511
3512   3513   3514   3515
3516   3517   3518   3519
3520   3521   3522   3523
3524   3525   3526   3527
3528   3529   3530   3531
3532   3533   3534   3535
3536   3537   3538   3539
3540   3541   3542   3543
3544   3545   3546   3547
3548   3549   3550   3551
3552   3553   3554   3555
3556   3557   3558   3559
3560   3561   3562   3563
3564   3565   3566   3567
3568   3569   3570   3571
3572   3573   3574   3575
3576   3577   3578   3579
3580   3581   3582   3583
3584   3585   3586   3587
3588   3589   3590   3591
3592   3593   3594   3595
3596   3597   3598   3599
3600   3601   3602   3603
3604   3605   3606   3607
3608   3609   3610   3611
3612   3613   3614   3615
3616   3617   3618   3619
3620   3621   3622   3623
3624   3625   3626   3627
3628   3629   3630   3631
3632   3633   3634   3635
3636   3637   3638   3639
3640   3641   3642   3643
3644   3645   3646   3647
3648   3649   3650   3651
3652   3653   3654   3655
3656   3657   3658   3659
3660   3661   3662   3663
3664   3665   3666   3667
3668   3669   3670   3671
3672   3673   3674   3675
3676   3677   3678   3679
3680   3681   3682   3683
3684   3685   3686   3687
3688   3689   3690   3691
3692   3693   3694   3695
3696   3697   3698   3699
3700   3701   3702   3703
3704   3705   3706   3707
3708   3709   3710   3711
3712   3713   3714   3715
3716   3717   3718   3719
3720   3721   3722   3723
3724   3725   3726   3727
3728   3729   3730   3731
3732   3733   3734   3735
3736   3737   3738   3739
3740   3741   3742   3743
3744   3745   3746   3747
3748   3749   3750   3751
3752   3753   3754   3755
3756   3757   3758   3759
3760   3761   3762   3763
3764   3765   3766   3767
3768   3769   3770   3771
3772   3773   3774   3775
3776   3777   3778   3779
3780   3781   3782   3783
3784   3785   3786   3787
3788   3789   3790   3791
3792   3793   3794   3795
3796   3797   3798   3799
3800   3801   3802   3803
3804   3805   3806   3807
3808   3809   3810   3811
3812   3813   3814   3815
3816   3817   3818   3819
3820   3821   3822   3823
3824   3825   3826   3827
3828   3829   3830   3831
3832   3833   3834   3835
3836   3837   3838   3839
3840   3841   3842   3843
3844   3845   3846   3847
3848   3849   3850   3851
3852   3853   3854   3855
3856   3857   3858   3859
3860   3861   3862   3863
3864   3865   3866   3867
3868   3869   3870   3871
3872   3873   3874   3875
3876   3877   3878   3879
3880   3881   3882   3883
3884   3885   3886   3887
3888   3889   3890   3891
3892   3893   3894   3895
3896   3897   3898   3899
3900   3901   3902   3903
3904   3905   3906   3907
3908   3909   3910   3911
3912   3913   3914   3915
3916   3917   3918   3919
3920   3921   3922   3923
3924   3925   3926   3927
3928   3929   3930   3931
3932   3933   3934   3935
3936   3937   3938   3939
3940   3941   3942   3943
3944   3945   3946   3947
3948   3949   3950   3951
3952   3953   3954   3955
3956   3957   3958   3959
3960   3961   3962   3963
3964   3965   3966   3967
3968   3969   3970   3971
3972   3973   3974   3975
3976   3977   3978   3979
3980   3981   3982   3983
3984   3985   3986   3987
3988   3989   3990   3991
3992   3993   3994   3995
3996   3997   3998   3999
4000   4001   4002   4003
4004   4005   4006   4007
4008   4009   4010   4011
4012   4013   4014   4015
4016   4017   4018   4019
4020   4021   4022   4023
4024   4025   4026   4027
4028   4029   4030   4031
4032   4033   4034   4035
4036   4037   4038   4039
4040   4041   4042   4043
4044   4045   4046   4047
4048   4049   4050   4051
4052   4053   4054   4055
4056   4057   4058   4059
4060   4061   4062   4063
4064   4065   4066   4067
4068   4069   4070   4071
4072   4073   4074   4075
4076   4077   4078   4079
4080   4081   4082   4083
4084   4085   4086   4087
4088   4089   4090   4091
4092   4093   4094   4095
4096   4097   4098   4099
4100   4101   4102   4103
4104   4105   4106   4107
4108   4109   4110   4111
4112   4113   4114   4115
4116   4117   4118   4119
4120   4121   4122   4123
4124   4125   4126   4127
4128   4129   4130   4131
4132   4133   4134   4135
4136   4137   4138   4139
4140   4141   4142   4143
4144   4145   4146   4147
4148   4149   4150   4151
4152   4153   4154   4155
4156   4157   4158   4159
4160   4161   4162   4163
4164   4165   4166   4167
4168   4169   4170   4171
4172   4173   4174   4175
4176   4177   4178   4179
4180   4181   4182   4183
4184   4185   4186   4187
4188   4189   4190   4191
4192   4193   4194   4195
4196   4197   4198   4199
4200   4201   4202   4203
4204   4205   4206   4207
4208   4209   4210   4211
4212   4213   4214   4215
4216   4217   4218   4219
4220   4221   4222   4223
4224   4225   4226   4227
4228   4229   4230   4231
4232   4233   4234   4235
4236   4237   4238   4239
4240   4241   4242   4243
4244   4245   4246   4247
4248   4249   4250   4251
4252   4253   4254   4255
4256   4257   4258   4259
4260   4261   4262   4263
4264   4265   4266   4267
4268   4269   4270   4271
4272   4273   4274   4275
4276   4277   4278   4279
4280   4281   4282   4283
4284   4285   4286   4287
4288   4289   4290   4291
4292   4293   4294   4295
4296   4297   4298   4299
4300   4301   4302   4303
4304   4305   4306   4307
4308   4309   4310   4311
4312   4313   4314   4315
4316   4317   4318   4319
4320   4321   4322   4323
4324   4325   4326   4327
4328   4329   4330   4331
4332   4333   4334   4335
4336   4337   4338   4339
4340   4341   4342   4343
4344   4345   4346   4347
4348   4349   4350   4351
4352   4353   4354   4355
4356   4357   4358   4359
4360   4361   4362   4363
4364   4365   4366   4367
4368   4369   4370   4371
4372   4373   4374   4375
4376   4377   4378   4379
4380   4381   4382   4383
4384   4385   4386   4387
4388   4389   4390   4391
4392   4393   4394   4395
4396   4397   4398   4399
4400   4401   4402   4403
4404   4405   4406   4407
4408   4409   4410   4411
4412   4413   4414   4415
4416   4417   4418   4419
4420   4421   4422   4423
4424   4425   4426   4427
4428   4429   4430   4431
4432   4433   4434   4435
4436   4437   4438   4439
4440   4441   4442   4443
4444   4445   4446   4447
4448   4449   4450   4451
4452   4453   4454   4455
4456   4457   4458   4459
4460   4461   4462   4463
4464   4465   4466   4467
4468   4469   4470   4471
4472   4473   4474   4475
4476   4477   4478   4479
4480   4481   4482   4483
4484   4485   4486   4487
4488   4489   4490   4491
4492   4493   4494   4495
4496   4497   4498   4499
4500   4501   4502   4503
4504   4505   4506   4507
4508   4509   4510   4511
4512   4513   4514   4515
4516   4517   4518   4519
4520   4521   4522   4523
4524   4525   4526   4527
4528   4529   4530   4531
4532   4533   4534   4535
4536   4537   4538   4539
4540   4541   4542   4543
4544   4545   4546   4547
4548   4549   4550   4551
4552   4553   4554   4555
4556   4557   4558   4559
4560   4561   4562   4563
4564   4565   4566   4567
4568   4569   4570   4571
4572   4573   4574   4575
4576   4577   4578   4579
4580   4581   4582   4583
4584   4585   4586   4587
4588   4589   4590   4591
4592   4593   4594   4595
4596   4597   4598   4599
4600   4601   4602   4603
4604   4605   4606   4607
4608   4609   4610   4611
4612   4613   4614   4615
4616   4617   4618   4619
4620   4621   4622   4623
4624   4625   4626   4627
4628   4629   4630   4631
4632   4633   4634   4635
4636   4637   4638   4639
4640   4641   4642   4643
4644   4645   4646   4647
4648   4649   4650   4651
4652   4653   4654   4655
4656   4657   4658   4659
4660   4661   4662   4663
4664   4665   4666   4667
4668   4669   4670   4671
4672   4673   4674   4675
4676   4677   4678   4679
4680   4681   4682   4683
4684   4685   4686   4687
4688   4689   4690   4691
4692   4693   4694   4695
4696   4697   4698   4699
4700   4701   4702   4703
4704   4705   4706   4707
4708   4709   4710   4711
4712   4713   4714   4715
4716   4717   4718   4719
4720   4721   4722   4723
4724   4725   4726   4727
4728   4729   4730   4731
4732   4733   4734   4735
4736   4737   4738   4739
4740   4741   4742   4743
4744   4745   4746   4747
4748   4749   4750   4751
4752   4753   4754   4755
4756   4757   4758   4759
4760   4761   4762   4763
4764   4765   4766   4767
4768   4769   4770   4771
4772   4773   4774   4775
4776   4777   4778   4779
4780   4781   4782   4783
4784   4785   4786   4787
4788   4789   4790   4791
4792   4793   4794   4795
4796   4797   4798   4799
4800   4801   4802   4803
4804   4805   4806   4807
4808   4809   4810   4811
4812   4813   4814   4815
4816   4817   4818   4819
4820   4821   4822   4823
4824   4825   4826   4827
4828   4829   4830   4831
4832   4833   4834   4835
4836   4837   4838   4839
4840   4841   4842   4843
4844   4845   4846   4847
4848   4849   4850   4851
4852   4853   4854   4855
4856   4857   4858   4859
4860   4861   4862   4863
4864   4865   4866   4867
4868   4869   4870   4871
4872   4873   4874   4875
4876   4877   4878   4879
4880   4881   4882   4883
4884   4885   4886   4887
4888   4889   4890   4891
4892   4893   4894   4895
4896   4897   4898   4899
4900   4901   4902   4903
4904   4905   4906   4907
4908   4909   4910   4911
4912   4913   4914   4915
4916   4917   4918   4919
4920   4921   4922   4923
4924   4925   4926   4927
4928   4929   4930   4931
4932   4933   4934   4935
4936   4937   4938   4939
4940   4941   4942   4943
4944   4945   4946   4947
4948   4949   4950   4951
4952   4953   4954   4955
4956   4957   4958   4959
4960   4961   4962   4963
4964   4965   4966   4967
4968   4969   4970   4971
4972   4973   4974   4975
4976   4977   4978   4979
4980   4981   4982   4983
4984   4985   4986   4987
4988   4989   4990   4991
4992   4993   4994   4995
4996   4997   4998   4999
5000   5001   5002   5003
5004   5005   5006   5007
5008   5009   5010   5011
5012   5013   5014   5015
5016   5017   5018   5019
5020   5021   5022   5023
5024   5025   5026   5027
5028   5029   5030   5031
5032   5033   5034   5035
5036   5037   5038   5039
5040   5041   5042   5043
5044   5045   5046   5047
5048   5049   5050   5051
5052   5053   5054   5055
5056   5057   5058   5059
5060   5061   5062   5063
5064   5065   5066   5067
5068   5069   5070   5071
5072   5073   5074   5075
5076   5077   5078   5079
5080   5081   5082   5083
5084   5085   5086   5087
5088   5089   5090   5091
5092   5093   5094   5095
5096   5097   5098   5099
5100   5101   5102   5103
5104   5105   5106   5107
5108   5109   5110   5111
5112   5113   5114   5115
5116   5117   5118   5119
5120   5121   5122   5123
5124   5125   5126   5127
5128   5129   5130   5131
5132   5133   5134   5135
5136   5137   5138   5139
5140   5141   5142   5143
5144   5145   5146   5147
5148   5149   5150   5151
5152   5153   5154   5155
5156   5157   5158   5159
5160   5161   5162   5163
5164   5165   5166   5167
5168   5169   5170   5171
5172   5173   5174   5175
5176   5177   5178   5179
5180   5181   5182   5183
5184   5185   5186   5187
5188   5189   5190   5191
5192   5193   5194   5195
5196   5197   5198   5199
5200   5201   5202   5203
5204   5205   5206   5207
5208   5209   5210   5211
5212   5213   5214   5215
5216   5217   5218   5219
5220   5221   5222   5223
5224   5225   5226   5227
5228   5229   5230   5231
5232   5233   5234   5235
5236   5237   5238   5239
5240   5241   5242   5243
5244   5245   5246   5247
5248   5249   5250   5251
5252   5253   5254   5255
5256   5257   5258   5259
5260   5261   5262   5263
5264   5265   5266   5267
5268   5269   5270   5271
5272   5273   5274   5275
5276   5277   5278   5279
5280   5281   5282   5283
5284   5285   5286   5287
5288   5289   5290   5291
5292   5293   5294   5295
5296   5297   5298   5299
5300   5301   5302   5303
5304   5305   5306   5307
5308   5309   5310   5311
5312   5313   5314   5315
5316   5317   5318   5319
5320   5321   5322   5323
5324   5325   5326   5327
5328   5329   5330   5331
5332   5333   5334   5335
5336   5337   5338   5339
5340   5341   5342   5343
5344   5345   5346   5347
5348   5349   5350   5351
5352   5353   5354   5355
5356   5357   5358   5359
5360   5361   5362   5363
5364   5365   5366   5367
5368   5369   5370   5371
5372   5373   5374   5375
5376   5377   5378   5379
5380   5381   5382   5383
5384   5385   5386   5387
5388   5389   5390   5391
5392   5393   5394   5395
5396   5397   5398   5399
5400   5401   5402   5403
5404   5405   5406   5407
5408   5409   5410   5411
5412   5413   5414   5415
5416   5417   5418   5419
5420   5421   5422   5423
5424   5425   5426   5427
5428   5429   5430   5431
5432   5433   5434   5435
5436   5437   5438   5439
5440   5441   5442   5443
5444   5445   5446   5447
5448   5449   5450   5451
5452   5453   5454   5455
5456   5457   5458   5459
5460   5461   5462   5463
5464   5465   5466   5467
5468   5469   5470   5471
5472   5473   5474   5475
5476   5477   5478   5479
5480   5481   5482   5483
5484   5485   5486   5487
5488   5489   5490   5491
5492   5493   5494   5495
5496   5497   5498   5499
5500   5501   5502   5503
5504   5505   5506   5507
5508   5509   5510   5511
5512   5513   5514   5515
5516   5517   5518   5519
5520   5521   5522   5523
5524   5525   5526   5527
5528   5529   5530   5531
5532   5533   5534   5535
5536   5537   5538   5539
5540   5541   5542   5543
5544   5545   5546   5547
5548   5549   5550   5551
5552   5553   5554   5555
5556   5557   5558   5559
5560   5561   5562   5563
5564   5565   5566   5567
5568   5569   5570   5571
5572   5573   5574   5575
5576   5577   5578   5579
5580   5581   5582   5583
5584   5585   5586   5587
5588   5589   5590   5591
5592   5593   5594   5595
5596   5597   5598   5599
5600   5601   5602   5603
5604   5605   5606   5607
5608   5609   5610   5611
5612   5613   5614   5615
5616   5617   5618   5619
5620   5621   5622   5623
5624   5625   5626   5627
5628   5629   5630   5631
5632   5633   5634   5635
5636   5637   5638   5639
5640   5641   5642   5643
5644   5645   5646   5647
5648   5649   5650   5651
5652   5653   5654   5655
5656   5657   5658   5659
5660   5661   5662   5663
5664   5665   5666   5667
5668   5669   5670   5671
5672   5673   5674   5675
5676   5677   5678   5679
5680   5681   5682   5683
5684   5685   5686   5687
5688   5689   5690   5691
5692   5693   5694   5695
5696   5697   5698   5699
5700   5701   5702   5703
5704   5705   5706   5707
5708   5709   5710   5711
5712   5713   5714   5715
5716   5717   5718   5719
5720   5721   5722   5723
5724   5725   5726   5727
5728   5729   5730   5731
5732   5733   5734   5735
5736   5737   5738   5739
5740   5741   5742   5743
5744   5745   5746   5747
5748   5749   5750   5751
5752   5753   5754   5755
5756   5757   5758   5759
5760   5761   5762   5763
5764   5765   5766   5767
5768   5769   5770   5771
5772   5773   5774   5775
5776   5777   5778   5779
5780   5781   5782   5783
5784   5785   5786   5787
5788   5789   5790   5791
5792   5793   5794   5795
5796   5797   5798   5799
5800   5801   5802   5803
5804   5805   5806   5807
5808   5809   5810   5811
5812   5813   5814   5815
5816   5817   5818   5819
5820   5821   5822   5823
5824   5825   5826   5827
5828   5829   5830   5831
5832   5833   5834   5835
5836   5837   5838   5839
5840   5841   5842   5843
5844   5845   5846   5847
5848   5849   5850   5851
5852   5853   5854   5855
5856   5857   5858   5859
5860   5861   5862   5863
5864   5865   5866   5867
5868   5869   5870   5871
5872   5873   5874   5875
5876   5877   5878   5879
5880   5881   5882   5883
5884   5885   5886   5887
5888   5889   5890   5891
5892   5893   5894   5895
5896   5897   5898   5899
5900   5901   5902   5903
5904   5905   5906   5907
5908   5909   5910   5911
5912   5913   5914   5915
5916   5917   5918   5919
5920   5921   5922   5923
5924   5925   5926   5927
5928   5929   5930   5931
5932   5933   5934   5935
5936   5937   5938   5939
5940   5941   5942   5943
5944   5945   5946   5947
5948   5949   5950   5951
5952   5953   5954   5955
5956   5957   5958   5959
5960   5961   5962   5963
5964   5965   5966   5967
5968   5969   5970   5971
5972   5973   5974   5975
5976   5977   5978   5979
5980   5981   5982   5983
5984   5985   5986   5987
5988   5989   5990   5991
5992   5993   5994   5995
5996   5997   5998   5999
              </DataArray>   
              <DataArray type="Int32" Name="offsets" format="ascii">   
4
8
12
16
20
24
28
32
36
40
44
48
52
56
60
64
68
72
76
80
84
88
92
96
100
104
108
112
116
120
124
128
132
136
140
144
148
152
156
160
164
168
172
176
180
184
188
192
196
200
204
208
212
216
220
224
228
232
236
240
244
248
252
256
260
264
268
272
276
280
284
288
292
296
300
304
308
312
316
320
324
328
332
336
340
344
348
352
356
360
364
368
372
376
380
384
388
392
396
400
404
408
412
416
420
424
428
432
436
440
444
448
452
456
460
464
468
472
476
480
484
488
492
496
500
504
508
512
516
520
524
528
532
536
540
544
548
552
556
560
564
568
572
576
580
584
588
592
596
600
604
608
612
616
620
624
628
632
636
640
644
648
652
656
660
664
668
672
676
680
684
688
692
696
700
704
708
712
716
720
724
728
732
736
740
744
748
752
756
760
764
768
772
776
780
784
788
792
796
800
804
808
812
816
820
824
828
832
836
840
844
848
852
856
860
864
868
872
876
880
884
888
892
896
900
904
908
912
916
920
924
928
932
936
940
944
948
952
956
960
964
968
972
976
980
984
988
992
996
1000
1004
1008
1012
1016
1020
1024
1028
1032
1036
1040
1044
1048
1052
1056
1060
1064
1068
1072
1076
1080
1084
1088
1092
1096
1100
1104
1108
1112
1116
1120
1124
1128
1132
1136
1140
1144
1148
1152
1156
1160
1164
1168
1172
1176
1180
1184
1188
1192
1196
1200
1204
1208
1212
1216
1220
1224
1228
1232
1236
1240
1244
1248
1252
1256
1260
1264
1268
1272
1276
1280
1284
1288
1292
1296
1300
1304
1308
1312
1316
1320
1324
1328
1332
1336
1340
1344
1348
1352
1356
1360
1364
1368
1372
1376
1380
1384
1388
1392
1396
1400
1404
1408
1412
1416
1420
1424
1428
1432
1436
1440
1444
1448
1452
1456
1460
1464
1468
1472
1476
1480
1484
1488
1492
1496
1500
1504
1508
1512
1516
1520
1524
1528
1532
1536
1540
1544
1548
1552
1556
1560
1564
1568
1572
1576
1580
1584
1588
1592
1596
1600
1604
1608
1612
1616
1620
1624
1628
1632
1636
1640
1644
1648
1652
1656
1660
1664
1668
1672
1676
1680
1684
1688
1692
1696
1700
1704
1708
1712
1716
1720
1724
1728
1732
1736
1740
1744
1748
1752
1756
1760
1764
1768
1772
1776
1780
1784
1788
1792
1796
1800
1804
1808
1812
1816
1820
1824
1828
1832
1836
1840
1844
1848
1852
1856
1860
1864
1868
1872
1876
1880
1884
1888
1892
1896
1900
1904
1908
1912
1916
1920
1924
1928
1932
1936
1940
1944
1948
1952
1956
1960
1964
1968
1972
1976
1980
1984
1988
1992
1996
2000
2004
2008
2012
2016
2020
2024
2028
2032
2036
2040
2044
2048
2052
2056
2060
2064
2068
2072
2076
2080
2084
2088
2092
2096
2100
2104
2108
2112
2116
2120
2124
2128
2132
2136
2140
2144
2148
2152
2156
2160
2164
2168
2172
2176
2180
2184
2188
2192
2196
2200
2204
2208
2212
2216
2220
2224
2228
2232
2236
2240
2244
2248
2252
2256
2260
2264
2268
2272
2276
2280
2284
2288
2292
2296
2300
2304
2308
2312
2316
2320
2324
2328
2332
2336
2340
2344
2348
2352
2356
2360
2364
2368
2372
2376
2380
2384
2388
2392
2396
2400
2404
2408
2412
2416
2420
2424
2428
2432
2436
2440
2444
2448
2452
2456
2460
2464
2468
2472
2476
2480
2484
2488
2492
2496
2500
2504
2508
2512
2516
2520
2524
2528
2532
2536
2540
2544
2548
2552
2556
2560
2564
2568
2572
2576
2580
2584
2588
2592
2596
2600
2604
2608
2612
2616
2620
2624
2628
2632
2636
2640
2644
2648
2652
2656
2660
2664
2668
2672
2676
2680
2684
2688
2692
2696
2700
2704
2708
2712
2716
2720
2724
2728
2732
2736
2740
2744
2748
2752
2756
2760
2764
2768
2772
2776
2780
2784
2788
2792
2796
2800
2804
2808
2812
2816
2820
2824
2828
2832
2836
2840
2844
2848
2852
2856
2860
2864
2868
2872
2876
2880
2884
2888
2892
2896
2900
2904
2908
2912
2916
2920
2924
2928
2932
2936
2940
2944
2948
2952
2956
2960
2964
2968
2972
2976
2980
2984
2988
2992
2996
3000
3004
3008
3012
3016
3020
3024
3028
3032
3036
3040
3044
3048
3052
3056
3060
3064
3068
3072
3076
3080
3084
3088
3092
3096
3100
3104
3108
3112
3116
3120
3124
3128
3132
3136
3140
3144
3148
3152
3156
3160
3164
3168
3172
3176
3180
3184
3188
3192
3196
3200
3204
3208
3212
3216
3220
3224
3228
3232
3236
3240
3244
3248
3252
3256
3260
3264
3268
3272
3276
3280
3284
3288
3292
3296
3300
3304
3308
3312
3316
3320
3324
3328
3332
3336
3340
3344
3348
3352
3356
3360
3364
3368
3372
3376
3380
3384
3388
3392
3396
3400
3404
3408
3412
3416
3420
3424
3428
3432
3436
3440
3444
3448
3452
3456
3460
3464
3468
3472
3476
3480
3484
3488
3492
3496
3500
3504
3508
3512
3516
3520
3524
3528
3532
3536
3540
3544
3548
3552
3556
3560
3564
3568
3572
3576
3580
3584
3588
3592
3596
3600
3604
3608
3612
3616
3620
3624
3628
3632
3636
3640
3644
3648
3652
3656
3660
3664
3668
3672
3676
3680
3684
3688
3692
3696
3700
3704
3708
3712
3716
3720
3724
3728
3732
3736
3740
3744
3748
3752
3756
3760
3764
3768
3772
3776
3780
3784
3788
3792
3796
3800
3804
3808
3812
3816
3820
3824
3828
3832
3836
3840
3844
3848
3852
3856
3860
3864
3868
3872
3876
3880
3884
3888
3892
3896
3900
3904
3908
3912
3916
3920
3924
3928
3932
3936
3940
3944
3948
3952
3956
3960
3964
3968
3972
3976
3980
3984
3988
3992
3996
4000
4004
4008
4012
4016
4020
4024
4028
4032
4036
4040
4044
4048
4052
4056
4060
4064
4068
4072
4076
4080
4084
4088
4092
4096
4100
4104
4108
4112
4116
4120
4124
4128
4132
4136
4140
4144
4148
4152
4156
4160
4164
4168
4172
4176
4180
4184
4188
4192
4196
4200
4204
4208
4212
4216
4220
4224
4228
4232
4236
4240
4244
4248
4252
4256
4260
4264
4268
4272
4276
4280
4284
4288
4292
4296
4300
4304
4308
4312
4316
4320
4324
4328
4332
4336
4340
4344
4348
4352
4356
4360
4364
4368
4372
4376
4380
4384
4388
4392
4396
4400
4404
4408
4412
4416
4420
4424
4428
4432
4436
4440
4444
4448
4452
4456
4460
4464
4468
4472
4476
4480
4484
4488
4492
4496
4500
4504
4508
4512
4516
4520
4524
4528
4532
4536
4540
4544
4548
4552
4556
4560
4564
4568
4572
4576
4580
4584
4588
4592
4596
4600
4604
4608
4612
4616
4620
4624
4628
4632
4636
4640
4644
4648
4652
4656
4660
4664
4668
4672
4676
4680
4684
4688
4692
4696
4700
4704
4708
4712
4716
4720
4724
4728
4732
4736
4740
4744
4748
4752
4756
4760
4764
4768
4772
4776
4780
4784
4788
4792
4796
4800
4804
4808
4812
4816
4820
4824
4828
4832
4836
4840
4844
4848
4852
4856
4860
4864
4868
4872
4876
4880
4884
4888
4892
4896
4900
4904
4908
4912
4916
4920
4924
4928
4932
4936
4940
4944
4948
4952
4956
4960
4964
4968
4972
4976
4980
4984
4988
4992
4996
5000
5004
5008
5012
5016
5020
5024
5028
5032
5036
5040
5044
5048
5052
5056
5060
5064
5068
5072
5076
5080
5084
5088
5092
5096
5100
5104
5108
5112
5116
5120
5124
5128
5132
5136
5140
5144
5148
5152
5156
5160
5164
5168
5172
5176
5180
5184
5188
5192
5196
5200
5204
5208
5212
5216
5220
5224
5228
5232
5236
5240
5244
5248
5252
5256
5260
5264
5268
5272
5276
5280
5284
5288
5292
5296
5300
5304
5308
5312
5316
5320
5324
5328
5332
5336
5340
5344
5348
5352
5356
5360
5364
5368
5372
5376
5380
5384
5388
5392
5396
5400
5404
5408
5412
5416
5420
5424
5428
5432
5436
5440
5444
5448
5452
5456
5460
5464
5468
5472
5476
5480
5484
5488
5492
5496
5500
5504
5508
5512
5516
5520
5524
5528
5532
5536
5540
5544
5548
5552
5556
5560
5564
5568
5572
5576
5580
5584
5588
5592
5596
5600
5604
5608
5612
5616
5620
5624
5628
5632
5636
5640
5644
5648
5652
5656
5660
5664
5668
5672
5676
5680
5684
5688
5692
5696
5700
5704
5708
5712
5716
5720
5724
5728
5732
5736
5740
5744
5748
5752
5756
5760
5764
5768
5772
5776
5780
5784
5788
5792
5796
5800
5804
5808
5812
5816
5820
5824
5828
5832
5836
5840
5844
5848
5852
5856
5860
5864
5868
5872
5876
5880
5884
5888
5892
5896
5900
5904
5908
5912
5916
5920
5924
5928
5932
5936
5940
5944
5948
5952
5956
5960
5964
5968
5972
5976
5980
5984
5988
5992
5996
6000
              </DataArray>   
              <DataArray type="UInt8" Name="types" format="ascii">   
10
10
10
10
10
10
10
10
10
10
10
10
10
10
10
10
10
10
10
10
10
10
10
10
10
10
10
10
10
10
10
10
10
10
10
10
10
10
10
10
10
10
10
10
10
10
10
10
10
10
10
10
10
10
10
10
10
10
10
10
10
10
10
10
10
10
10
10
10
10
10
10
10
10
10
10
10
10
10
10
10
10
10
10
10
10
10
10
10
10
10
10
10
10
10
10
10
10
10
10
10
10
10
10
10
10
10
10
10
10
10
10
10
10
10
10
10
10
10
10
10
10
10
10
10
10
10
10
10
10
10
10
10
10
10
10
10
10
10
10
10
10
10
10
10
10
10
10
10
10
10
10
10
10
10
10
10
10
10
10
10
10
10
10
10
10
10
10
10
10
10
10
10
10
10
10
10
10
10
10
10
10
10
10
10
10
10
10
10
10
10
10
10
10
10
10
10
10
10
10
10
10
10
10
10
10
10
10
10
10
10
10
10
10
10
10
10
10
10
10
10
10
10
10
10
10
10
10
10
10
10
10
10
10
10
10
10
10
10
10
10
10
10
10
10
10
10
10
10
10
10
10
10
10
10
10
10
10
10
10
10
10
10
10
10
10
10
10
10
10
10
10
10
10
10
10
10
10
10
10
10
10
10
10
10
10
10
10
10
10
10
10
10
10
10
10
10
10
10
10
10
10
10
10
10
10
10
10
10
10
10
10
10
10
10
10
10
10
10
10
10
10
10
10
10
10
10
10
10
10
10
10
10
10
10
10
10
10
10
10
10
10
10
10
10
10
10
10
10
10
10
10
10
10
10
10
10
10
10
10
10
10
10
10
10
10
10
10
10
10
10
10
10
10
10
10
10
10
10
10
10
10
10
10
10
10
10
10
10
10
10
10
10
10
10
10
10
10
10
10
10
10
10
10
10
10
10
10
10
10
10
10
10
10
10
10
10
10
10
10
10
10
10
10
10
10
10
10
10
10
10
10
10
10
10
10
10
10
10
10
10
10
10
10
10
10
10
10
10
10
10
10
10
10
10
10
10
10
10
10
10
10
10
10
10
10
10
10
10
10
10
10
10
10
10
10
10
10
10
10
10
10
10
10
10
10
10
10
10
10
10
10
10
10
10
10
10
10
10
10
10
10
10
10
10
10
10
10
10
10
10
10
10
10
10
10
10
10
10
10
10
10
10
10
10
10
10
10
10
10
10
10
10
10
10
10
10
10
10
10
10
10
10
10
10
10
10
10
10
10
10
10
10
10
10
10
10
10
10
10
10
10
10
10
10
10
10
10
10
10
10
10
10
10
10
10
10
10
10
10
10
10
10
10
10
10
10
10
10
10
10
10
10
10
10
10
10
10
10
10
10
10
10
10
10
10
10
10
10
10
10
10
10
10
10
10
10
10
10
10
10
10
10
10
10
10
10
10
10
10
10
10
10
10
10
10
10
10
10
10
10
10
10
10
10
10
10
10
10
10
10
10
10
10
10
10
10
10
10
10
10
10
10
10
10
10
10
10
10
10
10
10
10
10
10
10
10
10
10
10
10
10
10
10
10
10
10
10
10
10
10
10
10
10
10
10
10
10
10
10
10
10
10
10
10
10
10
10
10
10
10
10
10
10
10
10
10
10
10
10
10
10
10
10
10
10
10
10
10
10
10
10
10
10
10
10
10
10
10
10
10
10
10
10
10
10
10
10
10
10
10
10
10
10
10
10
10
10
10
10
10
10
10
10
10
10
10
10
10
10
10
10
10
10
10
10
10
10
10
10
10
10
10
10
10
10
10
10
10
10
10
10
10
10
10
10
10
10
10
10
10
10
10
10
10
10
10
10
10
10
10
10
10
10
10
10
10
10
10
10
10
10
10
10
10
10
10
10
10
10
10
10
10
10
10
10
10
10
10
10
10
10
10
10
10
10
10
10
10
10
10
10
10
10
10
10
10
10
10
10
10
10
10
10
10
10
10
10
10
10
10
10
10
10
10
10
10
10
10
10
10
10
10
10
10
10
10
10
10
10
10
10
10
10
10
10
10
10
10
10
10
10
10
10
10
10
10
10
10
10
10
10
10
10
10
10
10
10
10
10
10
10
10
10
10
10
10
10
10
10
10
10
10
10
10
10
10
10
10
10
10
10
10
10
10
10
10
10
10
10
10
10
10
10
10
10
10
10
10
10
10
10
10
10
10
10
10
10
10
10
10
10
10
10
10
10
10
10
10
10
10
10
10
10
10
10
10
10
10
10
10
10
10
10
10
10
10
10
10
10
10
10
10
10
10
10
10
10
10
10
10
10
10
10
10
10
10
10
10
10
10
10
10
10
10
10
10
10
10
10
10
10
10
10
10
10
10
10
10
10
10
10
10
10
10
10
10
10
10
10
10
10
10
10
10
10
10
10
10
10
10
10
10
10
10
10
10
10
10
10
10
10
10
10
10
10
10
10
10
10
10
10
10
10
10
10
10
10
10
10
10
10
10
10
10
10
10
10
10
10
10
10
10
10
10
10
10
10
10
10
10
10
10
10
10
10
10
10
10
10
10
10
10
10
10
10
10
10
10
10
10
10
10
10
10
10
10
10
10
10
10
10
10
10
10
10
10
10
10
10
10
10
10
10
10
10
10
10
10
10
10
10
10
10
10
10
10
10
10
10
10
10
10
10
10
10
10
10
10
10
10
10
10
10
10
10
10
10
10
10
10
10
10
10
10
10
10
10
10
10
10
10
10
10
10
10
10
10
10
10
10
10
10
10
10
10
10
10
10
10
10
10
10
10
10
10
10
10
10
10
10
10
10
10
10
10
10
10
10
10
10
10
10
10
10
10
10
10
10
10
10
10
10
10
10
10
10
10
10
10
10
10
10
10
10
10
10
10
10
10
10
10
10
10
10
10
10
10
10
10
10
10
10
10
10
10
10
10
10
10
10
10
10
10
10
10
10
10
10
10
10
10
10
10
10
10
10
10
10
10
10
10
10
10
10
10
10
10
10
10
10
10
10
10
10
10
10
10
10
10
10
10
10
10
10
10
10
10
10
10
10
10
10
10
10
10
10
10
10
10
10
10
10
10
10
10
10
10
10
10
10
10
10
10
10
10
10
10
10
10
10
10
10
10
10
10
10
10
10
10
10
10
10
10
10
10
10
10
10
10
10
10
10
10
10
10
10
10
10
10
10
10
10
10
10
10
10
10
10
10
10
10
10
10
10
10
10
10
10
10
10
10
10
10
10
10
10
10
10
10
10
10
10
10
10
10
10
10
10
10
10
10
10
10
10
10
10
10
10
10
10
10
10
10
10
10
10
10
10
10
10
10
10
10
10
10
10
10
10
10
10
10
10
10
10
10
10
10
10
10
10
10
10
10
10
10
10
10
10
10
10
10
10
10
10
10
10
10
10
10
              </DataArray>   
          </Cells>  
          <PointData>  
             <DataArray type="Float64" NumberOfComponents="3" Name="Strains" format="ascii">   
-0.00010063189759967634   0.0   -6.602799002685588e-05
-0.00010063189759967634   0.0   -6.602799002685588e-05
-0.00010063189759967634   0.0   -6.602799002685588e-05
-0.00010063189759967634   0.0   -6.602799002685588e-05
-6.40356981843256e-05   1.1150327294092327e-05   1.655872041850633e-06
-6.40356981843256e-05   1.1150327294092327e-05   1.655872041850633e-06
-6.40356981843256e-05   1.1150327294092327e-05   1.655872041850633e-06
-6.40356981843256e-05   1.1150327294092327e-05   1.655872041850633e-06
-6.277061967548871e-05   0.0   -6.231517048247475e-05
-6.277061967548871e-05   0.0   -6.231517048247475e-05
-6.277061967548871e-05   0.0   -6.231517048247475e-05
-6.277061967548871e-05   0.0   -6.231517048247475e-05
-0.00010531770089546415   1.337989060927072e-05   5.686971852554893e-07
-0.00010531770089546415   1.337989060927072e-05   5.686971852554893e-07
-0.00010531770089546415   1.337989060927072e-05   5.686971852554893e-07
-0.00010531770089546415   1.337989060927072e-05   5.686971852554893e-07
-8.170125863758238e-05   3.094016286984261e-06   -3.26205153178422e-05
-8.170125863758238e-05   3.094016286984261e-06   -3.26205153178422e-05
-8.170125863758238e-05   3.094016286984261e-06   -3.26205153178422e-05
-8.170125863758238e-05   3.094016286984261e-06   -3.26205153178422e-05
-0.00010531770089546433   0.0   -7.034310484803721e-05
-0.00010531770089546433   0.0   -7.034310484803721e-05
-0.00010531770089546433   0.0   -7.034310484803721e-05
-0.00010531770089546433   0.0   -7.034310484803721e-05
-6.277061967548871e-05   1.3379890609270748e-05   8.596631550817946e-06
-6.277061967548871e-05   1.3379890609270748e-05   8.596631550817946e-06
-6.277061967548871e-05   1.3379890609270748e-05   8.596631550817946e-06
-6.277061967548871e-05   1.3379890609270748e-05   8.596631550817946e-06
-6.29490933125474e-05   0.0   -6.384081701998124e-05
-6.29490933125474e-05   0.0   -6.384081701998124e-05
-6.29490933125474e-05   0.0   -6.384081701998124e-05
-6.29490933125474e-05   0.0   -6.384081701998124e-05
-0.00010860916001977727   1.4334244199164147e-05   3.6587476392370302e-06
-0.00010860916001977727   1.4334244199164147e-05   3.6587476392370302e-06
-0.00010860916001977727   1.4334244199164147e-05   3.6587476392370302e-06
-0.00010860916001977727   1.4334244199164147e-05   3.6587476392370302e-06
-8.413339710400573e-05   5.41857319004663e-06   -3.178478794824502e-05
-8.413339710400573e-05   5.41857319004663e-06   -3.178478794824502e-05
-8.413339710400573e-05   5.41857319004663e-06   -3.178478794824502e-05
-8.413339710400573e-05   5.41857319004663e-06   -3.178478794824502e-05
-0.00010860916001977746   0.0   -7.244136353947974e-05
-0.00010860916001977746   0.0   -7.244136353947974e-05
-0.00010860916001977746   0.0   -7.244136353947974e-05
-0.00010860916001977746   0.0   -7.244136353947974e-05
-6.29490933125474e-05   1.4334244199164174e-05   1.225929415873553e-05
-6.29490933125474e-05   1.4334244199164174e-05   1.225929415873553e-05
-6.29490933125474e-05   1.4334244199164174e-05   1.225929415873553e-05
-6.29490933125474e-05   1.4334244199164174e-05   1.225929415873553e-05
-6.291763973707822e-05   0.0   -6.423261878088805e-05
-6.291763973707822e-05   0.0   -6.423261878088805e-05
-6.291763973707822e-05   0.0   -6.423261878088805e-05
-6.291763973707822e-05   0.0   -6.423261878088805e-05
-0.00011569843139316682   1.632873015299263e-05   1.3938129220797678e-05
-0.00011569843139316682   1.632873015299263e-05   1.3938129220797678e-05
-0.00011569843139316682   1.632873015299263e-05   1.3938129220797678e-05
-0.00011569843139316682   1.632873015299263e-05   1.3938129220797678e-05
-8.576339987842769e-05   6.840620632159728e-06   -3.0260724257934467e-05
-8.576339987842769e-05   6.840620632159728e-06   -3.0260724257934467e-05
-8.576339987842769e-05   6.840620632159728e-06   -3.0260724257934467e-05
-8.576339987842769e-05   6.840620632159728e-06   -3.0260724257934467e-05
-6.403569818432572e-05   0.0   -5.933779365040046e-05
-6.403569818432572e-05   0.0   -5.933779365040046e-05
-6.403569818432572e-05   0.0   -5.933779365040046e-05
-6.403569818432572e-05   0.0   -5.933779365040046e-05
-2.9160527126991415e-05   4.0899343375233875e-06   1.2414520476706893e-06
-2.9160527126991415e-05   4.0899343375233875e-06   1.2414520476706893e-06
-2.9160527126991415e-05   4.0899343375233875e-06   1.2414520476706893e-06
-2.9160527126991415e-05   4.0899343375233875e-06   1.2414520476706893e-06
-2.804759507274043e-05   0.0   -5.882193404067262e-05
-2.804759507274043e-05   0.0   -5.882193404067262e-05
-2.804759507274043e-05   0.0   -5.882193404067262e-05
-2.804759507274043e-05   0.0   -5.882193404067262e-05
-6.277061967548871e-05   5.822060736336885e-06   -4.44346281122764e-06
-6.277061967548871e-05   5.822060736336885e-06   -4.44346281122764e-06
-6.277061967548871e-05   5.822060736336885e-06   -4.44346281122764e-06
-6.277061967548871e-05   5.822060736336885e-06   -4.44346281122764e-06
-4.604164662853299e-05   4.298830081065399e-07   -2.9089777919215402e-05
-4.604164662853299e-05   4.298830081065399e-07   -2.9089777919215402e-05
-4.604164662853299e-05   4.298830081065399e-07   -2.9089777919215402e-05
-4.604164662853299e-05   4.298830081065399e-07   -2.9089777919215402e-05
-6.277061967548865e-05   0.0   -6.23151704824747e-05
-6.277061967548865e-05   0.0   -6.23151704824747e-05
-6.277061967548865e-05   0.0   -6.23151704824747e-05
-6.277061967548865e-05   0.0   -6.23151704824747e-05
-2.804759507274043e-05   5.822060736336885e-06   -9.502263694255062e-07
-2.804759507274043e-05   5.822060736336885e-06   -9.502263694255062e-07
-2.804759507274043e-05   5.822060736336885e-06   -9.502263694255062e-07
-2.804759507274043e-05   5.822060736336885e-06   -9.502263694255062e-07
-2.742313063519587e-05   0.0   -5.956060774031763e-05
-2.742313063519587e-05   0.0   -5.956060774031763e-05
-2.742313063519587e-05   0.0   -5.956060774031763e-05
-2.742313063519587e-05   0.0   -5.956060774031763e-05
-6.29490933125474e-05   7.133682132772672e-06   -4.630879224395371e-06
-6.29490933125474e-05   7.133682132772672e-06   -4.630879224395371e-06
-6.29490933125474e-05   7.133682132772672e-06   -4.630879224395371e-06
-6.29490933125474e-05   7.133682132772672e-06   -4.630879224395371e-06
-4.50968751553422e-05   2.295468951797605e-06   -3.1481648244485386e-05
-4.50968751553422e-05   2.295468951797605e-06   -3.1481648244485386e-05
-4.50968751553422e-05   2.295468951797605e-06   -3.1481648244485386e-05
-4.50968751553422e-05   2.295468951797605e-06   -3.1481648244485386e-05
-6.29490933125474e-05   0.0   -6.384081701998124e-05
-6.29490933125474e-05   0.0   -6.384081701998124e-05
-6.29490933125474e-05   0.0   -6.384081701998124e-05
-6.29490933125474e-05   0.0   -6.384081701998124e-05
-2.742313063519587e-05   7.133682132772672e-06   -3.5066994473176543e-07
-2.742313063519587e-05   7.133682132772672e-06   -3.5066994473176543e-07
-2.742313063519587e-05   7.133682132772672e-06   -3.5066994473176543e-07
-2.742313063519587e-05   7.133682132772672e-06   -3.5066994473176543e-07
-2.6854746281390245e-05   0.0   -5.9252302013960107e-05
-2.6854746281390245e-05   0.0   -5.9252302013960107e-05
-2.6854746281390245e-05   0.0   -5.9252302013960107e-05
-2.6854746281390245e-05   0.0   -5.9252302013960107e-05
-6.291763973707806e-05   8.300527944879801e-06   -4.12779635474141e-06
-6.291763973707806e-05   8.300527944879801e-06   -4.12779635474141e-06
-6.291763973707806e-05   8.300527944879801e-06   -4.12779635474141e-06
-6.291763973707806e-05   8.300527944879801e-06   -4.12779635474141e-06
-4.4901919796968804e-05   3.823762505017569e-06   -3.146793699100638e-05
-4.4901919796968804e-05   3.823762505017569e-06   -3.146793699100638e-05
-4.4901919796968804e-05   3.823762505017569e-06   -3.146793699100638e-05
-4.4901919796968804e-05   3.823762505017569e-06   -3.146793699100638e-05
-2.9160527126991466e-05   0.0   -5.6883833047886434e-05
-2.9160527126991466e-05   0.0   -5.6883833047886434e-05
-2.9160527126991466e-05   0.0   -5.6883833047886434e-05
-2.9160527126991466e-05   0.0   -5.6883833047886434e-05
3.7911967136142798e-06   -5.236549873281364e-07   -2.278486305940353e-06
3.7911967136142798e-06   -5.236549873281364e-07   -2.278486305940353e-06
3.7911967136142798e-06   -5.236549873281364e-07   -2.278486305940353e-06
3.7911967136142798e-06   -5.236549873281364e-07   -2.278486305940353e-06
4.500907538903677e-06   0.0   -5.820271880977458e-05
4.500907538903677e-06   0.0   -5.820271880977458e-05
4.500907538903677e-06   0.0   -5.820271880977458e-05
4.500907538903677e-06   0.0   -5.820271880977458e-05
-2.8047595072740383e-05   1.032025384829736e-06   -4.574429687932412e-06
-2.8047595072740383e-05   1.032025384829736e-06   -4.574429687932412e-06
-2.8047595072740383e-05   1.032025384829736e-06   -4.574429687932412e-06
-2.8047595072740383e-05   1.032025384829736e-06   -4.574429687932412e-06
-1.2329809794043843e-05   -1.099071468240286e-06   -2.9492080373917853e-05
-1.2329809794043843e-05   -1.099071468240286e-06   -2.9492080373917853e-05
-1.2329809794043843e-05   -1.099071468240286e-06   -2.9492080373917853e-05
-1.2329809794043843e-05   -1.099071468240286e-06   -2.9492080373917853e-05
-2.804759507274043e-05   0.0   -5.882193404067262e-05
-2.804759507274043e-05   0.0   -5.882193404067262e-05
-2.804759507274043e-05   0.0   -5.882193404067262e-05
-2.804759507274043e-05   0.0   -5.882193404067262e-05
4.500907538903685e-06   1.032025384829736e-06   -3.955214457034573e-06
4.500907538903685e-06   1.032025384829736e-06   -3.955214457034573e-06
4.500907538903685e-06   1.032025384829736e-06   -3.955214457034573e-06
4.500907538903685e-06   1.032025384829736e-06   -3.955214457034573e-06
5.060864738226082e-06   0.0   -5.8119562344588515e-05
5.060864738226082e-06   0.0   -5.8119562344588515e-05
5.060864738226082e-06   0.0   -5.8119562344588515e-05
5.060864738226082e-06   0.0   -5.8119562344588515e-05
-2.7423130635195774e-05   2.4017423262150166e-06   -5.420615451281022e-06
-2.7423130635195774e-05   2.4017423262150166e-06   -5.420615451281022e-06
-2.7423130635195774e-05   2.4017423262150166e-06   -5.420615451281022e-06
-2.7423130635195774e-05   2.4017423262150166e-06   -5.420615451281022e-06
-1.149336516725715e-05   5.85309746736671e-07   -3.0880365016825104e-05
-1.149336516725715e-05   5.85309746736671e-07   -3.0880365016825104e-05
-1.149336516725715e-05   5.85309746736671e-07   -3.0880365016825104e-05
-1.149336516725715e-05   5.85309746736671e-07   -3.0880365016825104e-05
-2.742313063519587e-05   0.0   -5.956060774031763e-05
-2.742313063519587e-05   0.0   -5.956060774031763e-05
-2.742313063519587e-05   0.0   -5.956060774031763e-05
-2.742313063519587e-05   0.0   -5.956060774031763e-05
5.060864738226092e-06   2.40174232621503e-06   -3.979570055552027e-06
5.060864738226092e-06   2.40174232621503e-06   -3.979570055552027e-06
5.060864738226092e-06   2.40174232621503e-06   -3.979570055552027e-06
5.060864738226092e-06   2.40174232621503e-06   -3.979570055552027e-06
5.814770956450972e-06   0.0   -5.685931613002789e-05
5.814770956450972e-06   0.0   -5.685931613002789e-05
5.814770956450972e-06   0.0   -5.685931613002789e-05
5.814770956450972e-06   0.0   -5.685931613002789e-05
-2.6854746281390177e-05   3.98830980655361e-06   -4.8031066175580655e-06
-2.6854746281390177e-05   3.98830980655361e-06   -4.8031066175580655e-06
-2.6854746281390177e-05   3.98830980655361e-06   -4.8031066175580655e-06
-2.6854746281390177e-05   3.98830980655361e-06   -4.8031066175580655e-06
-1.0804179839372425e-05   2.251076341908031e-06   -3.0511710608800362e-05
-1.0804179839372425e-05   2.251076341908031e-06   -3.0511710608800362e-05
-1.0804179839372425e-05   2.251076341908031e-06   -3.0511710608800362e-05
-1.0804179839372425e-05   2.251076341908031e-06   -3.0511710608800362e-05
3.7911967136142866e-06   0.0   -5.7198026040283316e-05
3.7911967136142866e-06   0.0   -5.7198026040283316e-05
3.7911967136142866e-06   0.0   -5.7198026040283316e-05
3.7911967136142866e-06   0.0   -5.7198026040283316e-05
3.955856125895418e-05   -4.63980754452018e-06   -3.696363247622465e-07
3.955856125895418e-05   -4.63980754452018e-06   -3.696363247622465e-07
3.955856125895418e-05   -4.63980754452018e-06   -3.696363247622465e-07
3.955856125895418e-05   -4.63980754452018e-06   -3.696363247622465e-07
3.962647778345115e-05   0.0   -6.0301644468489084e-05
3.962647778345115e-05   0.0   -6.0301644468489084e-05
3.962647778345115e-05   0.0   -6.0301644468489084e-05
3.962647778345115e-05   0.0   -6.0301644468489084e-05
4.500907538903693e-06   -3.4982094311905153e-06   3.398982644709719e-07
4.500907538903693e-06   -3.4982094311905153e-06   3.398982644709719e-07
4.500907538903693e-06   -3.4982094311905153e-06   3.398982644709719e-07
4.500907538903693e-06   -3.4982094311905153e-06   3.398982644709719e-07
2.170883724853272e-05   -2.5863486901714754e-06   -2.888710102952213e-05
2.170883724853272e-05   -2.5863486901714754e-06   -2.888710102952213e-05
2.170883724853272e-05   -2.5863486901714754e-06   -2.888710102952213e-05
2.170883724853272e-05   -2.5863486901714754e-06   -2.888710102952213e-05
4.500907538903693e-06   0.0   -5.820271880977478e-05
4.500907538903693e-06   0.0   -5.820271880977478e-05
4.500907538903693e-06   0.0   -5.820271880977478e-05
4.500907538903693e-06   0.0   -5.820271880977478e-05
3.962647778345115e-05   -3.4982094311905153e-06   -1.7590273942433353e-06
3.962647778345115e-05   -3.4982094311905153e-06   -1.7590273942433353e-06
3.962647778345115e-05   -3.4982094311905153e-06   -1.7590273942433353e-06
3.962647778345115e-05   -3.4982094311905153e-06   -1.7590273942433353e-06
3.945467328914623e-05   0.0   -5.944054237852409e-05
3.945467328914623e-05   0.0   -5.944054237852409e-05
3.945467328914623e-05   0.0   -5.944054237852409e-05
3.945467328914623e-05   0.0   -5.944054237852409e-05
5.060864738226092e-06   -2.201633389892457e-06   -7.965480930550645e-07
5.060864738226092e-06   -2.201633389892457e-06   -7.965480930550645e-07
5.060864738226092e-06   -2.201633389892457e-06   -7.965480930550645e-07
5.060864738226092e-06   -2.201633389892457e-06   -7.965480930550645e-07
2.1977790414024962e-05   -1.0315196406244254e-06   -2.9693492468947307e-05
2.1977790414024962e-05   -1.0315196406244254e-06   -2.9693492468947307e-05
2.1977790414024962e-05   -1.0315196406244254e-06   -2.9693492468947307e-05
2.1977790414024962e-05   -1.0315196406244254e-06   -2.9693492468947307e-05
5.0608647382260865e-06   0.0   -5.811956234458857e-05
5.0608647382260865e-06   0.0   -5.811956234458857e-05
5.0608647382260865e-06   0.0   -5.811956234458857e-05
5.0608647382260865e-06   0.0   -5.811956234458857e-05
3.945467328914623e-05   -2.201633389892457e-06   -2.1175281269905383e-06
3.945467328914623e-05   -2.201633389892457e-06   -2.1175281269905383e-06
3.945467328914623e-05   -2.201633389892457e-06   -2.1175281269905383e-06
3.945467328914623e-05   -2.201633389892457e-06   -2.1175281269905383e-06
4.021678334215394e-05   0.0   -5.7134834526798765e-05
4.021678334215394e-05   0.0   -5.7134834526798765e-05
4.021678334215394e-05   0.0   -5.7134834526798765e-05
4.021678334215394e-05   0.0   -5.7134834526798765e-05
5.814770956450982e-06   -4.591973279512916e-07   4.773711794769427e-07
5.814770956450982e-06   -4.591973279512916e-07   4.773711794769427e-07
5.814770956450982e-06   -4.591973279512916e-07   4.773711794769427e-07
5.814770956450982e-06   -4.591973279512916e-07   4.773711794769427e-07
2.263882404019e-05   8.20606514824877e-07   -2.83305995990871e-05
2.263882404019e-05   8.20606514824877e-07   -2.83305995990871e-05
2.263882404019e-05   8.20606514824877e-07   -2.83305995990871e-05
2.263882404019e-05   8.20606514824877e-07   -2.83305995990871e-05
3.955856125895418e-05   0.0   -5.998191056699542e-05
3.955856125895418e-05   0.0   -5.998191056699542e-05
3.955856125895418e-05   0.0   -5.998191056699542e-05
3.955856125895418e-05   0.0   -5.998191056699542e-05
8.929627765712954e-05   -1.1760259147572781e-05   1.5858127941420367e-05
8.929627765712954e-05   -1.1760259147572781e-05   1.5858127941420367e-05
8.929627765712954e-05   -1.1760259147572781e-05   1.5858127941420367e-05
8.929627765712954e-05   -1.1760259147572781e-05   1.5858127941420367e-05
8.386046499695195e-05   0.0   -6.630607853841744e-05
8.386046499695195e-05   0.0   -6.630607853841744e-05
8.386046499695195e-05   0.0   -6.630607853841744e-05
8.386046499695195e-05   0.0   -6.630607853841744e-05
3.962647778345115e-05   -1.0007390116547249e-05   1.3421667554012237e-05
3.962647778345115e-05   -1.0007390116547249e-05   1.3421667554012237e-05
3.962647778345115e-05   -1.0007390116547249e-05   1.3421667554012237e-05
3.962647778345115e-05   -1.0007390116547249e-05   1.3421667554012237e-05
6.170951312795307e-05   -5.2701399761850165e-06   -2.622574143770826e-05
6.170951312795307e-05   -5.2701399761850165e-06   -2.622574143770826e-05
6.170951312795307e-05   -5.2701399761850165e-06   -2.622574143770826e-05
6.170951312795307e-05   -5.2701399761850165e-06   -2.622574143770826e-05
3.962647778345112e-05   0.0   -6.0301644468489037e-05
3.962647778345112e-05   0.0   -6.0301644468489037e-05
3.962647778345112e-05   0.0   -6.0301644468489037e-05
3.962647778345112e-05   0.0   -6.0301644468489037e-05
8.386046499695167e-05   -1.0007390116547208e-05   7.41723348408386e-06
8.386046499695167e-05   -1.0007390116547208e-05   7.41723348408386e-06
8.386046499695167e-05   -1.0007390116547208e-05   7.41723348408386e-06
8.386046499695167e-05   -1.0007390116547208e-05   7.41723348408386e-06
8.135285038237138e-05   0.0   -6.49275159679309e-05
8.135285038237138e-05   0.0   -6.49275159679309e-05
8.135285038237138e-05   0.0   -6.49275159679309e-05
8.135285038237138e-05   0.0   -6.49275159679309e-05
3.945467328914623e-05   -9.144955982344683e-06   1.0389752776851147e-05
3.945467328914623e-05   -9.144955982344683e-06   1.0389752776851147e-05
3.945467328914623e-05   -9.144955982344683e-06   1.0389752776851147e-05
3.945467328914623e-05   -9.144955982344683e-06   1.0389752776851147e-05
6.048966408291123e-05   -3.854892916201516e-06   -2.7842603052443088e-05
6.048966408291123e-05   -3.854892916201516e-06   -2.7842603052443088e-05
6.048966408291123e-05   -3.854892916201516e-06   -2.7842603052443088e-05
6.048966408291123e-05   -3.854892916201516e-06   -2.7842603052443088e-05
3.945467328914623e-05   0.0   -5.944054237852409e-05
3.945467328914623e-05   0.0   -5.944054237852409e-05
3.945467328914623e-05   0.0   -5.944054237852409e-05
3.945467328914623e-05   0.0   -5.944054237852409e-05
8.135285038237109e-05   -9.144955982344656e-06   4.902779187444318e-06
8.135285038237109e-05   -9.144955982344656e-06   4.902779187444318e-06
8.135285038237109e-05   -9.144955982344656e-06   4.902779187444318e-06
8.135285038237109e-05   -9.144955982344656e-06   4.902779187444318e-06
7.76211783815925e-05   0.0   -6.140034601265078e-05
7.76211783815925e-05   0.0   -6.140034601265078e-05
7.76211783815925e-05   0.0   -6.140034601265078e-05
7.76211783815925e-05   0.0   -6.140034601265078e-05
4.021678334215394e-05   -7.109185809753545e-06   5.205823872265699e-06
4.021678334215394e-05   -7.109185809753545e-06   5.205823872265699e-06
4.021678334215394e-05   -7.109185809753545e-06   5.205823872265699e-06
4.021678334215394e-05   -7.109185809753545e-06   5.205823872265699e-06
5.8537925835369435e-05   -1.6331696951056671e-06   -2.8615023285215474e-05
5.8537925835369435e-05   -1.6331696951056671e-06   -2.8615023285215474e-05
5.8537925835369435e-05   -1.6331696951056671e-06   -2.8615023285215474e-05
5.8537925835369435e-05   -1.6331696951056671e-06   -2.8615023285215474e-05
-8.732498610903718e-05   1.1150327294092314e-05   -5.7285230754084275e-05
-8.732498610903718e-05   1.1150327294092314e-05   -5.7285230754084275e-05
-8.732498610903718e-05   1.1150327294092314e-05   -5.7285230754084275e-05
-8.732498610903718e-05   1.1150327294092314e-05   -5.7285230754084275e-05
-5.592981583851839e-05   1.0028055668602953e-05   -5.633309945179878e-06
-5.592981583851839e-05   1.0028055668602953e-05   -5.633309945179878e-06
-5.592981583851839e-05   1.0028055668602953e-05   -5.633309945179878e-06
-5.592981583851839e-05   1.0028055668602953e-05   -5.633309945179878e-06
-5.733802157193903e-05   1.3379890609270707e-05   -4.810932599372893e-05
-5.733802157193903e-05   1.3379890609270707e-05   -4.810932599372893e-05
-5.733802157193903e-05   1.3379890609270707e-05   -4.810932599372893e-05
-5.733802157193903e-05   1.3379890609270707e-05   -4.810932599372893e-05
-8.827235720686098e-05   1.2035256989492542e-05   4.254680236341407e-06
-8.827235720686098e-05   1.2035256989492542e-05   4.254680236341407e-06
-8.827235720686098e-05   1.2035256989492542e-05   4.254680236341407e-06
-8.827235720686098e-05   1.2035256989492542e-05   4.254680236341407e-06
-6.935606293817574e-05   1.164658263444292e-05   -2.703927226510469e-05
-6.935606293817574e-05   1.164658263444292e-05   -2.703927226510469e-05
-6.935606293817574e-05   1.164658263444292e-05   -2.703927226510469e-05
-6.935606293817574e-05   1.164658263444292e-05   -2.703927226510469e-05
-8.827235720686098e-05   1.3379890609270707e-05   -4.730254582186198e-05
-8.827235720686098e-05   1.3379890609270707e-05   -4.730254582186198e-05
-8.827235720686098e-05   1.3379890609270707e-05   -4.730254582186198e-05
-8.827235720686098e-05   1.3379890609270707e-05   -4.730254582186198e-05
-5.733802157193922e-05   1.2035256989492542e-05   3.44790006447454e-06
-5.733802157193922e-05   1.2035256989492542e-05   3.44790006447454e-06
-5.733802157193922e-05   1.2035256989492542e-05   3.44790006447454e-06
-5.733802157193922e-05   1.2035256989492542e-05   3.44790006447454e-06
-5.763408526893201e-05   1.4334244199164134e-05   -4.325226655998044e-05
-5.763408526893201e-05   1.4334244199164134e-05   -4.325226655998044e-05
-5.763408526893201e-05   1.4334244199164134e-05   -4.325226655998044e-05
-5.763408526893201e-05   1.4334244199164134e-05   -4.325226655998044e-05
-8.889537337015913e-05   1.2941135353879835e-05   9.685745582568395e-06
-8.889537337015913e-05   1.2941135353879835e-05   9.685745582568395e-06
-8.889537337015913e-05   1.2941135353879835e-05   9.685745582568395e-06
-8.889537337015913e-05   1.2941135353879835e-05   9.685745582568395e-06
-7.139672849426942e-05   1.290870916793212e-05   -1.9459206832345594e-05
-7.139672849426942e-05   1.290870916793212e-05   -1.9459206832345594e-05
-7.139672849426942e-05   1.290870916793212e-05   -1.9459206832345594e-05
-7.139672849426942e-05   1.290870916793212e-05   -1.9459206832345594e-05
-8.889537337015899e-05   1.4334244199164134e-05   -4.2416401252809836e-05
-8.889537337015899e-05   1.4334244199164134e-05   -4.2416401252809836e-05
-8.889537337015899e-05   1.4334244199164134e-05   -4.2416401252809836e-05
-8.889537337015899e-05   1.4334244199164134e-05   -4.2416401252809836e-05
-5.763408526893212e-05   1.2941135353879835e-05   8.849880275397777e-06
-5.763408526893212e-05   1.2941135353879835e-05   8.849880275397777e-06
-5.763408526893212e-05   1.2941135353879835e-05   8.849880275397777e-06
-5.763408526893212e-05   1.2941135353879835e-05   8.849880275397777e-06
-5.730784574370475e-05   1.6328730152992602e-05   -3.1955997380673454e-05
-5.730784574370475e-05   1.6328730152992602e-05   -3.1955997380673454e-05
-5.730784574370475e-05   1.6328730152992602e-05   -3.1955997380673454e-05
-5.730784574370475e-05   1.6328730152992602e-05   -3.1955997380673454e-05
-8.643291993210495e-05   1.3661093701862123e-05   1.818637480400495e-05
-8.643291993210495e-05   1.3661093701862123e-05   1.818637480400495e-05
-8.643291993210495e-05   1.3661093701862123e-05   1.818637480400495e-05
-8.643291993210495e-05   1.3661093701862123e-05   1.818637480400495e-05
-6.954124708250263e-05   1.4158594640554959e-05   -1.0264913841881272e-05
-6.954124708250263e-05   1.4158594640554959e-05   -1.0264913841881272e-05
-6.954124708250263e-05   1.4158594640554959e-05   -1.0264913841881272e-05
-6.954124708250263e-05   1.4158594640554959e-05   -1.0264913841881272e-05
-5.592981583851839e-05   4.089934337523374e-06   -6.082697432607184e-05
-5.592981583851839e-05   4.089934337523374e-06   -6.082697432607184e-05
-5.592981583851839e-05   4.089934337523374e-06   -6.082697432607184e-05
-5.592981583851839e-05   4.089934337523374e-06   -6.082697432607184e-05
-2.6500709736980843e-05   4.666184983907382e-06   -1.1432713769012077e-05
-2.6500709736980843e-05   4.666184983907382e-06   -1.1432713769012077e-05
-2.6500709736980843e-05   4.666184983907382e-06   -1.1432713769012077e-05
-2.6500709736980843e-05   4.666184983907382e-06   -1.1432713769012077e-05
-2.7134914587116925e-05   5.822060736336885e-06   -6.0735484894286555e-05
-2.7134914587116925e-05   5.822060736336885e-06   -6.0735484894286555e-05
-2.7134914587116925e-05   5.822060736336885e-06   -6.0735484894286555e-05
-2.7134914587116925e-05   5.822060736336885e-06   -6.0735484894286555e-05
-5.733802157193903e-05   6.511953172149993e-06   -1.0810908714404139e-05
-5.733802157193903e-05   6.511953172149993e-06   -1.0810908714404139e-05
-5.733802157193903e-05   6.511953172149993e-06   -1.0810908714404139e-05
-5.733802157193903e-05   6.511953172149993e-06   -1.0810908714404139e-05
-4.160843844011072e-05   5.243553250342773e-06   -3.6265840647700627e-05
-4.160843844011072e-05   5.243553250342773e-06   -3.6265840647700627e-05
-4.160843844011072e-05   5.243553250342773e-06   -3.6265840647700627e-05
-4.160843844011072e-05   5.243553250342773e-06   -3.6265840647700627e-05
-5.733802157193898e-05   5.822060736336885e-06   -6.114942035577434e-05
-5.733802157193898e-05   5.822060736336885e-06   -6.114942035577434e-05
-5.733802157193898e-05   5.822060736336885e-06   -6.114942035577434e-05
-5.733802157193898e-05   5.822060736336885e-06   -6.114942035577434e-05
-2.7134914587116972e-05   6.511953172149993e-06   -1.0396973252916288e-05
-2.7134914587116972e-05   6.511953172149993e-06   -1.0396973252916288e-05
-2.7134914587116972e-05   6.511953172149993e-06   -1.0396973252916288e-05
-2.7134914587116972e-05   6.511953172149993e-06   -1.0396973252916288e-05
-2.7335316248528072e-05   7.133682132772658e-06   -5.959885241004601e-05
-2.7335316248528072e-05   7.133682132772658e-06   -5.959885241004601e-05
-2.7335316248528072e-05   7.133682132772658e-06   -5.959885241004601e-05
-2.7335316248528072e-05   7.133682132772658e-06   -5.959885241004601e-05
-5.763408526893201e-05   8.039661354548053e-06   -9.644491575771413e-06
-5.763408526893201e-05   8.039661354548053e-06   -9.644491575771413e-06
-5.763408526893201e-05   8.039661354548053e-06   -9.644491575771413e-06
-5.763408526893201e-05   8.039661354548053e-06   -9.644491575771413e-06
-4.193519987293198e-05   6.654819619046279e-06   -3.4978395527803614e-05
-4.193519987293198e-05   6.654819619046279e-06   -3.4978395527803614e-05
-4.193519987293198e-05   6.654819619046279e-06   -3.4978395527803614e-05
-4.193519987293198e-05   6.654819619046279e-06   -3.4978395527803614e-05
-5.763408526893201e-05   7.133682132772658e-06   -6.014243994311129e-05
-5.763408526893201e-05   7.133682132772658e-06   -6.014243994311129e-05
-5.763408526893201e-05   7.133682132772658e-06   -6.014243994311129e-05
-5.763408526893201e-05   7.133682132772658e-06   -6.014243994311129e-05
-2.7335316248528167e-05   8.039661354548107e-06   -9.100904042706199e-06
-2.7335316248528167e-05   8.039661354548107e-06   -9.100904042706199e-06
-2.7335316248528167e-05   8.039661354548107e-06   -9.100904042706199e-06
-2.7335316248528167e-05   8.039661354548107e-06   -9.100904042706199e-06
-2.7270181249157865e-05   8.300527944879801e-06   -5.898947838045988e-05
-2.7270181249157865e-05   8.300527944879801e-06   -5.898947838045988e-05
-2.7270181249157865e-05   8.300527944879801e-06   -5.898947838045988e-05
-2.7270181249157865e-05   8.300527944879801e-06   -5.898947838045988e-05
-5.730784574370471e-05   9.683332390793297e-06   -9.756386890429937e-06
-5.730784574370471e-05   9.683332390793297e-06   -9.756386890429937e-06
-5.730784574370471e-05   9.683332390793297e-06   -9.756386890429937e-06
-5.730784574370471e-05   9.683332390793297e-06   -9.756386890429937e-06
-4.218366786987677e-05   7.932169148901745e-06   -3.391265206834169e-05
-4.218366786987677e-05   7.932169148901745e-06   -3.391265206834169e-05
-4.218366786987677e-05   7.932169148901745e-06   -3.391265206834169e-05
-4.218366786987677e-05   7.932169148901745e-06   -3.391265206834169e-05
-2.6500709736980792e-05   -5.236549873281364e-07   -6.368696929945559e-05
-2.6500709736980792e-05   -5.236549873281364e-07   -6.368696929945559e-05
-2.6500709736980792e-05   -5.236549873281364e-07   -6.368696929945559e-05
-2.6500709736980792e-05   -5.236549873281364e-07   -6.368696929945559e-05
2.557349156724073e-06   -1.387820693087862e-07   -1.5025947392469162e-05
2.557349156724073e-06   -1.387820693087862e-07   -1.5025947392469162e-05
2.557349156724073e-06   -1.387820693087862e-07   -1.5025947392469162e-05
2.557349156724073e-06   -1.387820693087862e-07   -1.5025947392469162e-05
2.4363188356315254e-06   1.032025384829736e-06   -6.404183181571526e-05
2.4363188356315254e-06   1.032025384829736e-06   -6.404183181571526e-05
2.4363188356315254e-06   1.032025384829736e-06   -6.404183181571526e-05
2.4363188356315254e-06   1.032025384829736e-06   -6.404183181571526e-05
-2.7134914587116925e-05   1.5617860466269522e-06   -1.5074299174879245e-05
-2.7134914587116925e-05   1.5617860466269522e-06   -1.5074299174879245e-05
-2.7134914587116925e-05   1.5617860466269522e-06   -1.5074299174879245e-05
-2.7134914587116925e-05   1.5617860466269522e-06   -1.5074299174879245e-05
-1.2233806065155449e-05   5.184959198700268e-07   -3.928350596876109e-05
-1.2233806065155449e-05   5.184959198700268e-07   -3.928350596876109e-05
-1.2233806065155449e-05   5.184959198700268e-07   -3.928350596876109e-05
-1.2233806065155449e-05   5.184959198700268e-07   -3.928350596876109e-05
-2.7134914587116925e-05   1.0320253848297223e-06   -6.435968821279347e-05
-2.7134914587116925e-05   1.0320253848297223e-06   -6.435968821279347e-05
-2.7134914587116925e-05   1.0320253848297223e-06   -6.435968821279347e-05
-2.7134914587116925e-05   1.0320253848297223e-06   -6.435968821279347e-05
2.4363188356315254e-06   1.561786046626898e-06   -1.4756442777800989e-05
2.4363188356315254e-06   1.561786046626898e-06   -1.4756442777800989e-05
2.4363188356315254e-06   1.561786046626898e-06   -1.4756442777800989e-05
2.4363188356315254e-06   1.561786046626898e-06   -1.4756442777800989e-05
2.271987046393779e-06   2.4017423262150166e-06   -6.417584279454923e-05
2.271987046393779e-06   2.4017423262150166e-06   -6.417584279454923e-05
2.271987046393779e-06   2.4017423262150166e-06   -6.417584279454923e-05
2.271987046393779e-06   2.4017423262150166e-06   -6.417584279454923e-05
-2.7335316248528072e-05   3.2233341962917945e-06   -1.532329242505893e-05
-2.7335316248528072e-05   3.2233341962917945e-06   -1.532329242505893e-05
-2.7335316248528072e-05   3.2233341962917945e-06   -1.532329242505893e-05
-2.7335316248528072e-05   3.2233341962917945e-06   -1.532329242505893e-05
-1.2463717389472655e-05   1.959681757145664e-06   -3.935109905999681e-05
-1.2463717389472655e-05   1.959681757145664e-06   -3.935109905999681e-05
-1.2463717389472655e-05   1.959681757145664e-06   -3.935109905999681e-05
-1.2463717389472655e-05   1.959681757145664e-06   -3.935109905999681e-05
-2.7335316248528072e-05   2.4017423262150166e-06   -6.466879791659528e-05
-2.7335316248528072e-05   2.4017423262150166e-06   -6.466879791659528e-05
-2.7335316248528072e-05   2.4017423262150166e-06   -6.466879791659528e-05
-2.7335316248528072e-05   2.4017423262150166e-06   -6.466879791659528e-05
2.2719870463937833e-06   3.2233341962917402e-06   -1.4830337303012891e-05
2.2719870463937833e-06   3.2233341962917402e-06   -1.4830337303012891e-05
2.2719870463937833e-06   3.2233341962917402e-06   -1.4830337303012891e-05
2.2719870463937833e-06   3.2233341962917402e-06   -1.4830337303012891e-05
1.942638342399593e-06   3.98830980655361e-06   -6.406536440568418e-05
1.942638342399593e-06   3.98830980655361e-06   -6.406536440568418e-05
1.942638342399593e-06   3.98830980655361e-06   -6.406536440568418e-05
1.942638342399593e-06   3.98830980655361e-06   -6.406536440568418e-05
-2.727018124915789e-05   4.9545448140873925e-06   -1.595707275760873e-05
-2.727018124915789e-05   4.9545448140873925e-06   -1.595707275760873e-05
-2.727018124915789e-05   4.9545448140873925e-06   -1.595707275760873e-05
-2.727018124915789e-05   4.9545448140873925e-06   -1.595707275760873e-05
-1.2603578020854594e-05   3.4402180693389884e-06   -3.949281542459844e-05
-1.2603578020854594e-05   3.4402180693389884e-06   -3.949281542459844e-05
-1.2603578020854594e-05   3.4402180693389884e-06   -3.949281542459844e-05
-1.2603578020854594e-05   3.4402180693389884e-06   -3.949281542459844e-05
2.557349156724073e-06   -4.639807544520167e-06   -5.876331104075377e-05
2.557349156724073e-06   -4.639807544520167e-06   -5.876331104075377e-05
2.557349156724073e-06   -4.639807544520167e-06   -5.876331104075377e-05
2.557349156724073e-06   -4.639807544520167e-06   -5.876331104075377e-05
3.250217408887586e-05   -4.77026189012311e-06   -8.933542094529209e-06
3.250217408887586e-05   -4.77026189012311e-06   -8.933542094529209e-06
3.250217408887586e-05   -4.77026189012311e-06   -8.933542094529209e-06
3.250217408887586e-05   -4.77026189012311e-06   -8.933542094529209e-06
3.276681397255442e-05   -3.4982094311904882e-06   -5.958293807848041e-05
3.276681397255442e-05   -3.4982094311904882e-06   -5.958293807848041e-05
3.276681397255442e-05   -3.4982094311904882e-06   -5.958293807848041e-05
3.276681397255442e-05   -3.4982094311904882e-06   -5.958293807848041e-05
2.4363188356315254e-06   -3.2252410716419617e-06   -9.195893866004575e-06
2.4363188356315254e-06   -3.2252410716419617e-06   -9.195893866004575e-06
2.4363188356315254e-06   -3.2252410716419617e-06   -9.195893866004575e-06
2.4363188356315254e-06   -3.2252410716419617e-06   -9.195893866004575e-06
1.7341184414243068e-05   -3.860650045971512e-06   -3.365609111242619e-05
1.7341184414243068e-05   -3.860650045971512e-06   -3.365609111242619e-05
1.7341184414243068e-05   -3.860650045971512e-06   -3.365609111242619e-05
1.7341184414243068e-05   -3.860650045971512e-06   -3.365609111242619e-05
2.4363188356315203e-06   -3.4982094311905018e-06   -5.974671909420962e-05
2.4363188356315203e-06   -3.4982094311905018e-06   -5.974671909420962e-05
2.4363188356315203e-06   -3.4982094311905018e-06   -5.974671909420962e-05
2.4363188356315203e-06   -3.4982094311905018e-06   -5.974671909420962e-05
3.276681397255449e-05   -3.225241071642016e-06   -9.03211285027542e-06
3.276681397255449e-05   -3.225241071642016e-06   -9.03211285027542e-06
3.276681397255449e-05   -3.225241071642016e-06   -9.03211285027542e-06
3.276681397255449e-05   -3.225241071642016e-06   -9.03211285027542e-06
3.2602967487871126e-05   -2.2016333898924433e-06   -6.069888834411111e-05
3.2602967487871126e-05   -2.2016333898924433e-06   -6.069888834411111e-05
3.2602967487871126e-05   -2.2016333898924433e-06   -6.069888834411111e-05
3.2602967487871126e-05   -2.2016333898924433e-06   -6.069888834411111e-05
2.271987046393779e-06   -1.7117459099906724e-06   -1.0441186762923339e-05
2.271987046393779e-06   -1.7117459099906724e-06   -1.0441186762923339e-05
2.271987046393779e-06   -1.7117459099906724e-06   -1.0441186762923339e-05
2.271987046393779e-06   -1.7117459099906724e-06   -1.0441186762923339e-05
1.7153762314937696e-05   -2.6270600998658667e-06   -3.469495702990463e-05
1.7153762314937696e-05   -2.6270600998658667e-06   -3.469495702990463e-05
1.7153762314937696e-05   -2.6270600998658667e-06   -3.469495702990463e-05
1.7153762314937696e-05   -2.6270600998658667e-06   -3.469495702990463e-05
2.2719870463937765e-06   -2.201633389892457e-06   -6.099282083205218e-05
2.2719870463937765e-06   -2.201633389892457e-06   -6.099282083205218e-05
2.2719870463937765e-06   -2.201633389892457e-06   -6.099282083205218e-05
2.2719870463937765e-06   -2.201633389892457e-06   -6.099282083205218e-05
3.260296748787124e-05   -1.7117459099906724e-06   -1.0147254274982264e-05
3.260296748787124e-05   -1.7117459099906724e-06   -1.0147254274982264e-05
3.260296748787124e-05   -1.7117459099906724e-06   -1.0147254274982264e-05
3.260296748787124e-05   -1.7117459099906724e-06   -1.0147254274982264e-05
3.1648101360513854e-05   -4.591973279512916e-07   -6.080614418271103e-05
3.1648101360513854e-05   -4.591973279512916e-07   -6.080614418271103e-05
3.1648101360513854e-05   -4.591973279512916e-07   -6.080614418271103e-05
3.1648101360513854e-05   -4.591973279512916e-07   -6.080614418271103e-05
1.942638342399593e-06   1.6034985516569667e-07   -1.1668767462390867e-05
1.942638342399593e-06   1.6034985516569667e-07   -1.1668767462390867e-05
1.942638342399593e-06   1.6034985516569667e-07   -1.1668767462390867e-05
1.942638342399593e-06   1.6034985516569667e-07   -1.1668767462390867e-05
1.6964146120845254e-05   -1.1862456994470331e-06   -3.589665642703257e-05
1.6964146120845254e-05   -1.1862456994470331e-06   -3.589665642703257e-05
1.6964146120845254e-05   -1.1862456994470331e-06   -3.589665642703257e-05
1.6964146120845254e-05   -1.1862456994470331e-06   -3.589665642703257e-05
3.250217408887586e-05   -1.1760259147572781e-05   -3.555766389338927e-05
3.250217408887586e-05   -1.1760259147572781e-05   -3.555766389338927e-05
3.250217408887586e-05   -1.1760259147572781e-05   -3.555766389338927e-05
3.250217408887586e-05   -1.1760259147572781e-05   -3.555766389338927e-05
6.205889136144614e-05   -8.867058020845908e-06   1.5439452236930534e-05
6.205889136144614e-05   -8.867058020845908e-06   1.5439452236930534e-05
6.205889136144614e-05   -8.867058020845908e-06   1.5439452236930534e-05
6.205889136144614e-05   -8.867058020845908e-06   1.5439452236930534e-05
6.441408385189275e-05   -1.0007390116547235e-05   -4.322477657725817e-05
6.441408385189275e-05   -1.0007390116547235e-05   -4.322477657725817e-05
6.441408385189275e-05   -1.0007390116547235e-05   -4.322477657725817e-05
6.441408385189275e-05   -1.0007390116547235e-05   -4.322477657725817e-05
3.276681397255454e-05   -8.04494586160244e-06   8.343206668672123e-06
3.276681397255454e-05   -8.04494586160244e-06   8.343206668672123e-06
3.276681397255454e-05   -8.04494586160244e-06   8.343206668672123e-06
3.276681397255454e-05   -8.04494586160244e-06   8.343206668672123e-06
4.57062643780469e-05   -9.629016889902358e-06   -1.2272101390168607e-05
4.57062643780469e-05   -9.629016889902358e-06   -1.2272101390168607e-05
4.57062643780469e-05   -9.629016889902358e-06   -1.2272101390168607e-05
4.57062643780469e-05   -9.629016889902358e-06   -1.2272101390168607e-05
3.2766813972554456e-05   -1.0007390116547222e-05   -4.44022431302249e-05
3.2766813972554456e-05   -1.0007390116547222e-05   -4.44022431302249e-05
3.2766813972554456e-05   -1.0007390116547222e-05   -4.44022431302249e-05
3.2766813972554456e-05   -1.0007390116547222e-05   -4.44022431302249e-05
6.441408385189275e-05   -8.04494586160244e-06   9.52067322163903e-06
6.441408385189275e-05   -8.04494586160244e-06   9.52067322163903e-06
6.441408385189275e-05   -8.04494586160244e-06   9.52067322163903e-06
6.441408385189275e-05   -8.04494586160244e-06   9.52067322163903e-06
6.416871754747039e-05   -9.14495598234467e-06   -4.700900214337357e-05
6.416871754747039e-05   -9.14495598234467e-06   -4.700900214337357e-05
6.416871754747039e-05   -9.14495598234467e-06   -4.700900214337357e-05
6.416871754747039e-05   -9.14495598234467e-06   -4.700900214337357e-05
3.260296748787124e-05   -7.173947154184531e-06   4.41797599239554e-06
3.260296748787124e-05   -7.173947154184531e-06   4.41797599239554e-06
3.260296748787124e-05   -7.173947154184531e-06   4.41797599239554e-06
3.260296748787124e-05   -7.173947154184531e-06   4.41797599239554e-06
4.729986069987458e-05   -8.504291504464608e-06   -1.9278639417441996e-05
4.729986069987458e-05   -8.504291504464608e-06   -1.9278639417441996e-05
4.729986069987458e-05   -8.504291504464608e-06   -1.9278639417441996e-05
4.729986069987458e-05   -8.504291504464608e-06   -1.9278639417441996e-05
3.2602967487871193e-05   -9.144955982344643e-06   -4.819160744026958e-05
3.2602967487871193e-05   -9.144955982344643e-06   -4.819160744026958e-05
3.2602967487871193e-05   -9.144955982344643e-06   -4.819160744026958e-05
3.2602967487871193e-05   -9.144955982344643e-06   -4.819160744026958e-05
6.416871754747039e-05   -7.173947154184531e-06   5.600581289291577e-06
6.416871754747039e-05   -7.173947154184531e-06   5.600581289291577e-06
6.416871754747039e-05   -7.173947154184531e-06   5.600581289291577e-06
6.416871754747039e-05   -7.173947154184531e-06   5.600581289291577e-06
6.377572157766743e-05   -7.109185809753532e-06   -5.471637462066043e-05
6.377572157766743e-05   -7.109185809753532e-06   -5.471637462066043e-05
6.377572157766743e-05   -7.109185809753532e-06   -5.471637462066043e-05
6.377572157766743e-05   -7.109185809753532e-06   -5.471637462066043e-05
3.164810136051397e-05   -5.299521688934732e-06   -2.256139397896004e-06
3.164810136051397e-05   -5.299521688934732e-06   -2.256139397896004e-06
3.164810136051397e-05   -5.299521688934732e-06   -2.256139397896004e-06
3.164810136051397e-05   -5.299521688934732e-06   -2.256139397896004e-06
4.594245350587611e-05   -7.3230129161157656e-06   -2.4865964903857525e-05
4.594245350587611e-05   -7.3230129161157656e-06   -2.4865964903857525e-05
4.594245350587611e-05   -7.3230129161157656e-06   -2.4865964903857525e-05
4.594245350587611e-05   -7.3230129161157656e-06   -2.4865964903857525e-05
-6.957255501999584e-05   1.0028055668602953e-05   -4.801378607484385e-05
-6.957255501999584e-05   1.0028055668602953e-05   -4.801378607484385e-05
-6.957255501999584e-05   1.0028055668602953e-05   -4.801378607484385e-05
-6.957255501999584e-05   1.0028055668602953e-05   -4.801378607484385e-05
-4.5608681216066996e-05   7.66332698874661e-06   -9.492833609542976e-06
-4.5608681216066996e-05   7.66332698874661e-06   -9.492833609542976e-06
-4.5608681216066996e-05   7.66332698874661e-06   -9.492833609542976e-06
-4.5608681216066996e-05   7.66332698874661e-06   -9.492833609542976e-06
-4.5829964119081606e-05   1.2035256989492542e-05   -3.986550920733042e-05
-4.5829964119081606e-05   1.2035256989492542e-05   -3.986550920733042e-05
-4.5829964119081606e-05   1.2035256989492542e-05   -3.986550920733042e-05
-4.5829964119081606e-05   1.2035256989492542e-05   -3.986550920733042e-05
-6.852066864654924e-05   9.269952634665389e-06   -3.8848571532140806e-07
-6.852066864654924e-05   9.269952634665389e-06   -3.8848571532140806e-07
-6.852066864654924e-05   9.269952634665389e-06   -3.8848571532140806e-07
-6.852066864654924e-05   9.269952634665389e-06   -3.8848571532140806e-07
-5.495623598502472e-05   1.0196821539436491e-05   -2.3551994827391762e-05
-5.495623598502472e-05   1.0196821539436491e-05   -2.3551994827391762e-05
-5.495623598502472e-05   1.0196821539436491e-05   -2.3551994827391762e-05
-5.495623598502472e-05   1.0196821539436491e-05   -2.3551994827391762e-05
-6.852066864654924e-05   1.2035256989492542e-05   -3.820632659443416e-05
-6.852066864654924e-05   1.2035256989492542e-05   -3.820632659443416e-05
-6.852066864654924e-05   1.2035256989492542e-05   -3.820632659443416e-05
-6.852066864654924e-05   1.2035256989492542e-05   -3.820632659443416e-05
-4.5829964119081606e-05   9.269952634665497e-06   -2.047668328217559e-06
-4.5829964119081606e-05   9.269952634665497e-06   -2.047668328217559e-06
-4.5829964119081606e-05   9.269952634665497e-06   -2.047668328217559e-06
-4.5829964119081606e-05   9.269952634665497e-06   -2.047668328217559e-06
-4.578438040646621e-05   1.2941135353879835e-05   -3.410509023492672e-05
-4.578438040646621e-05   1.2941135353879835e-05   -3.410509023492672e-05
-4.578438040646621e-05   1.2941135353879835e-05   -3.410509023492672e-05
-4.578438040646621e-05   1.2941135353879835e-05   -3.410509023492672e-05
-6.749492512308789e-05   9.975757859122963e-06   3.858377456296663e-06
-6.749492512308789e-05   9.975757859122963e-06   3.858377456296663e-06
-6.749492512308789e-05   9.975757859122963e-06   3.858377456296663e-06
-6.749492512308789e-05   9.975757859122963e-06   3.858377456296663e-06
-5.5432555549728014e-05   1.1128201535776788e-05   -1.6937038038628146e-05
-5.5432555549728014e-05   1.1128201535776788e-05   -1.6937038038628146e-05
-5.5432555549728014e-05   1.1128201535776788e-05   -1.6937038038628146e-05
-5.5432555549728014e-05   1.1128201535776788e-05   -1.6937038038628146e-05
-6.749492512308789e-05   1.2941135353879835e-05   -3.232586373807256e-05
-6.749492512308789e-05   1.2941135353879835e-05   -3.232586373807256e-05
-6.749492512308789e-05   1.2941135353879835e-05   -3.232586373807256e-05
-6.749492512308789e-05   1.2941135353879835e-05   -3.232586373807256e-05
-4.5784380406466277e-05   9.975757859122963e-06   2.079150959442922e-06
-4.5784380406466277e-05   9.975757859122963e-06   2.079150959442922e-06
-4.5784380406466277e-05   9.975757859122963e-06   2.079150959442922e-06
-4.5784380406466277e-05   9.975757859122963e-06   2.079150959442922e-06
-4.5831665550791103e-05   1.3661093701862123e-05   -2.6037955884340995e-05
-4.5831665550791103e-05   1.3661093701862123e-05   -2.6037955884340995e-05
-4.5831665550791103e-05   1.3661093701862123e-05   -2.6037955884340995e-05
-4.5831665550791103e-05   1.3661093701862123e-05   -2.6037955884340995e-05
-6.615489951096866e-05   1.067022751878523e-05   9.62862042580071e-06
-6.615489951096866e-05   1.067022751878523e-05   9.62862042580071e-06
-6.615489951096866e-05   1.067022751878523e-05   9.62862042580071e-06
-6.615489951096866e-05   1.067022751878523e-05   9.62862042580071e-06
-5.417103981892359e-05   1.1618105744825625e-05   -1.0913205996564569e-05
-5.417103981892359e-05   1.1618105744825625e-05   -1.0913205996564569e-05
-5.417103981892359e-05   1.1618105744825625e-05   -1.0913205996564569e-05
-5.417103981892359e-05   1.1618105744825625e-05   -1.0913205996564569e-05
-4.5608681216066996e-05   4.666184983907436e-06   -5.5577777494420286e-05
-4.5608681216066996e-05   4.666184983907436e-06   -5.5577777494420286e-05
-4.5608681216066996e-05   4.666184983907436e-06   -5.5577777494420286e-05
-4.5608681216066996e-05   4.666184983907436e-06   -5.5577777494420286e-05
-2.321048142737081e-05   3.82084063313404e-06   -1.875465112372398e-05
-2.321048142737081e-05   3.82084063313404e-06   -1.875465112372398e-05
-2.321048142737081e-05   3.82084063313404e-06   -1.875465112372398e-05
-2.321048142737081e-05   3.82084063313404e-06   -1.875465112372398e-05
-2.349310253494119e-05   6.511953172149993e-06   -5.4790965521239006e-05
-2.349310253494119e-05   6.511953172149993e-06   -5.4790965521239006e-05
-2.349310253494119e-05   6.511953172149993e-06   -5.4790965521239006e-05
-2.349310253494119e-05   6.511953172149993e-06   -5.4790965521239006e-05
-4.582996411908151e-05   5.400873947100041e-06   -1.689621534597507e-05
-4.582996411908151e-05   5.400873947100041e-06   -1.689621534597507e-05
-4.582996411908151e-05   5.400873947100041e-06   -1.689621534597507e-05
-4.582996411908151e-05   5.400873947100041e-06   -1.689621534597507e-05
-3.4239964661154825e-05   5.381059015820654e-06   -3.6200992150418665e-05
-3.4239964661154825e-05   5.381059015820654e-06   -3.6200992150418665e-05
-3.4239964661154825e-05   5.381059015820654e-06   -3.6200992150418665e-05
-3.4239964661154825e-05   5.381059015820654e-06   -3.6200992150418665e-05
-4.582996411908155e-05   6.511953172149993e-06   -5.412431798620891e-05
-4.582996411908155e-05   6.511953172149993e-06   -5.412431798620891e-05
-4.582996411908155e-05   6.511953172149993e-06   -5.412431798620891e-05
-4.582996411908155e-05   6.511953172149993e-06   -5.412431798620891e-05
-2.349310253494123e-05   5.400873947100041e-06   -1.7562862881004935e-05
-2.349310253494123e-05   5.400873947100041e-06   -1.7562862881004935e-05
-2.349310253494123e-05   5.400873947100041e-06   -1.7562862881004935e-05
-2.349310253494123e-05   5.400873947100041e-06   -1.7562862881004935e-05
-2.367662244132926e-05   8.039661354548053e-06   -5.334055572959594e-05
-2.367662244132926e-05   8.039661354548053e-06   -5.334055572959594e-05
-2.367662244132926e-05   8.039661354548053e-06   -5.334055572959594e-05
-2.367662244132926e-05   8.039661354548053e-06   -5.334055572959594e-05
-4.578438040646621e-05   6.804505282047768e-06   -1.575319881086791e-05
-4.578438040646621e-05   6.804505282047768e-06   -1.575319881086791e-05
-4.578438040646621e-05   6.804505282047768e-06   -1.575319881086791e-05
-4.578438040646621e-05   6.804505282047768e-06   -1.575319881086791e-05
-3.430399322511287e-05   6.6808867686031655e-06   -3.481300633838928e-05
-3.430399322511287e-05   6.6808867686031655e-06   -3.481300633838928e-05
-3.430399322511287e-05   6.6808867686031655e-06   -3.481300633838928e-05
-3.430399322511287e-05   6.6808867686031655e-06   -3.481300633838928e-05
-4.578438040646621e-05   8.039661354548107e-06   -5.259946208609594e-05
-4.578438040646621e-05   8.039661354548107e-06   -5.259946208609594e-05
-4.578438040646621e-05   8.039661354548107e-06   -5.259946208609594e-05
-4.578438040646621e-05   8.039661354548107e-06   -5.259946208609594e-05
-2.3676622441329343e-05   6.804505282047876e-06   -1.64942924543678e-05
-2.3676622441329343e-05   6.804505282047876e-06   -1.64942924543678e-05
-2.3676622441329343e-05   6.804505282047876e-06   -1.64942924543678e-05
-2.3676622441329343e-05   6.804505282047876e-06   -1.64942924543678e-05
-2.391383070270814e-05   9.683332390793351e-06   -5.3211625124181805e-05
-2.391383070270814e-05   9.683332390793351e-06   -5.3211625124181805e-05
-2.391383070270814e-05   9.683332390793351e-06   -5.3211625124181805e-05
-2.391383070270814e-05   9.683332390793351e-06   -5.3211625124181805e-05
-4.5831665550791076e-05   8.297516697319688e-06   -1.58504109612927e-05
-4.5831665550791076e-05   8.297516697319688e-06   -1.58504109612927e-05
-4.5831665550791076e-05   8.297516697319688e-06   -1.58504109612927e-05
-4.5831665550791076e-05   8.297516697319688e-06   -1.58504109612927e-05
-3.471119242834743e-05   7.968268990266925e-06   -3.418698420780002e-05
-3.471119242834743e-05   7.968268990266925e-06   -3.418698420780002e-05
-3.471119242834743e-05   7.968268990266925e-06   -3.418698420780002e-05
-3.471119242834743e-05   7.968268990266925e-06   -3.418698420780002e-05
-2.321048142737077e-05   -1.387820693087862e-07   -5.9909141479153044e-05
-2.321048142737077e-05   -1.387820693087862e-07   -5.9909141479153044e-05
-2.321048142737077e-05   -1.387820693087862e-07   -5.9909141479153044e-05
-2.321048142737077e-05   -1.387820693087862e-07   -5.9909141479153044e-05
-1.0636091957080754e-06   2.0335722828368138e-07   -2.2792404181159727e-05
-1.0636091957080754e-06   2.0335722828368138e-07   -2.2792404181159727e-05
-1.0636091957080754e-06   2.0335722828368138e-07   -2.2792404181159727e-05
-1.0636091957080754e-06   2.0335722828368138e-07   -2.2792404181159727e-05
-1.2904650669420513e-06   1.561786046626898e-06   -5.9350212828033144e-05
-1.2904650669420513e-06   1.561786046626898e-06   -5.9350212828033144e-05
-1.2904650669420513e-06   1.561786046626898e-06   -5.9350212828033144e-05
-1.2904650669420513e-06   1.561786046626898e-06   -5.9350212828033144e-05
-2.349310253494119e-05   1.75858373857498e-06   -2.2463895663203508e-05
-2.349310253494119e-05   1.75858373857498e-06   -2.2463895663203508e-05
-2.349310253494119e-05   1.75858373857498e-06   -2.2463895663203508e-05
-2.349310253494119e-05   1.75858373857498e-06   -2.2463895663203508e-05
-1.2195496597115437e-05   1.0245629478117615e-06   -4.0852826418455175e-05
-1.2195496597115437e-05   1.0245629478117615e-06   -4.0852826418455175e-05
-1.2195496597115437e-05   1.0245629478117615e-06   -4.0852826418455175e-05
-1.2195496597115437e-05   1.0245629478117615e-06   -4.0852826418455175e-05
-2.349310253494119e-05   1.5617860466269522e-06   -5.9468291443202004e-05
-2.349310253494119e-05   1.5617860466269522e-06   -5.9468291443202004e-05
-2.349310253494119e-05   1.5617860466269522e-06   -5.9468291443202004e-05
-2.349310253494119e-05   1.5617860466269522e-06   -5.9468291443202004e-05
-1.2904650669420538e-06   1.75858373857498e-06   -2.2345817048034566e-05
-1.2904650669420538e-06   1.75858373857498e-06   -2.2345817048034566e-05
-1.2904650669420538e-06   1.75858373857498e-06   -2.2345817048034566e-05
-1.2904650669420538e-06   1.75858373857498e-06   -2.2345817048034566e-05
-1.454635714152351e-06   3.2233341962917945e-06   -5.9511444735543795e-05
-1.454635714152351e-06   3.2233341962917945e-06   -5.9511444735543795e-05
-1.454635714152351e-06   3.2233341962917945e-06   -5.9511444735543795e-05
-1.454635714152351e-06   3.2233341962917945e-06   -5.9511444735543795e-05
-2.3676622441329302e-05   3.309166490300013e-06   -2.252629956665407e-05
-2.3676622441329302e-05   3.309166490300013e-06   -2.252629956665407e-05
-2.3676622441329302e-05   3.309166490300013e-06   -2.252629956665407e-05
-2.3676622441329302e-05   3.309166490300013e-06   -2.252629956665407e-05
-1.248808780757115e-05   2.3960953862425197e-06   -4.0626014627149454e-05
-1.248808780757115e-05   2.3960953862425197e-06   -4.0626014627149454e-05
-1.248808780757115e-05   2.3960953862425197e-06   -4.0626014627149454e-05
-1.248808780757115e-05   2.3960953862425197e-06   -4.0626014627149454e-05
-2.3676622441329302e-05   3.2233341962917402e-06   -5.956294411194881e-05
-2.3676622441329302e-05   3.2233341962917402e-06   -5.956294411194881e-05
-2.3676622441329302e-05   3.2233341962917402e-06   -5.956294411194881e-05
-2.3676622441329302e-05   3.2233341962917402e-06   -5.956294411194881e-05
-1.4546357141523535e-06   3.3091664902999045e-06   -2.2474800190248862e-05
-1.4546357141523535e-06   3.3091664902999045e-06   -2.2474800190248862e-05
-1.4546357141523535e-06   3.3091664902999045e-06   -2.2474800190248862e-05
-1.4546357141523535e-06   3.3091664902999045e-06   -2.2474800190248862e-05
-1.7121746819546055e-06   4.9545448140873925e-06   -6.0277237709920127e-05
-1.7121746819546055e-06   4.9545448140873925e-06   -6.0277237709920127e-05
-1.7121746819546055e-06   4.9545448140873925e-06   -6.0277237709920127e-05
-1.7121746819546055e-06   4.9545448140873925e-06   -6.0277237709920127e-05
-2.3913830702708118e-05   4.895804729068091e-06   -2.323923362431961e-05
-2.3913830702708118e-05   4.895804729068091e-06   -2.323923362431961e-05
-2.3913830702708118e-05   4.895804729068091e-06   -2.323923362431961e-05
-2.3913830702708118e-05   4.895804729068091e-06   -2.323923362431961e-05
-1.2798879481114493e-05   3.7839196165263085e-06   -4.109702125945023e-05
-1.2798879481114493e-05   3.7839196165263085e-06   -4.109702125945023e-05
-1.2798879481114493e-05   3.7839196165263085e-06   -4.109702125945023e-05
-1.2798879481114493e-05   3.7839196165263085e-06   -4.109702125945023e-05
-1.063609195708077e-06   -4.770261890123164e-06   -5.3533179995295826e-05
-1.063609195708077e-06   -4.770261890123164e-06   -5.3533179995295826e-05
-1.063609195708077e-06   -4.770261890123164e-06   -5.3533179995295826e-05
-1.063609195708077e-06   -4.770261890123164e-06   -5.3533179995295826e-05
2.097237058949704e-05   -3.1991122015339333e-06   -1.5863857206800463e-05
2.097237058949704e-05   -3.1991122015339333e-06   -1.5863857206800463e-05
2.097237058949704e-05   -3.1991122015339333e-06   -1.5863857206800463e-05
2.097237058949704e-05   -3.1991122015339333e-06   -1.5863857206800463e-05
2.0955569561375716e-05   -3.2252410716419617e-06   -5.29187156496368e-05
2.0955569561375716e-05   -3.2252410716419617e-06   -5.29187156496368e-05
2.0955569561375716e-05   -3.2252410716419617e-06   -5.29187156496368e-05
2.0955569561375716e-05   -3.2252410716419617e-06   -5.29187156496368e-05
-1.2904650669420538e-06   -1.7736606273084437e-06   -1.6712939535707282e-05
-1.2904650669420538e-06   -1.7736606273084437e-06   -1.6712939535707282e-05
-1.2904650669420538e-06   -1.7736606273084437e-06   -1.6712939535707282e-05
-1.2904650669420538e-06   -1.7736606273084437e-06   -1.6712939535707282e-05
9.817918134823175e-06   -3.129969948359305e-06   -3.44131259460188e-05
9.817918134823175e-06   -3.129969948359305e-06   -3.44131259460188e-05
9.817918134823175e-06   -3.129969948359305e-06   -3.44131259460188e-05
9.817918134823175e-06   -3.129969948359305e-06   -3.44131259460188e-05
-1.2904650669420538e-06   -3.225241071642016e-06   -5.378966391623679e-05
-1.2904650669420538e-06   -3.225241071642016e-06   -5.378966391623679e-05
-1.2904650669420538e-06   -3.225241071642016e-06   -5.378966391623679e-05
-1.2904650669420538e-06   -3.225241071642016e-06   -5.378966391623679e-05
2.0955569561375716e-05   -1.7736606273084437e-06   -1.5841991269107054e-05
2.0955569561375716e-05   -1.7736606273084437e-06   -1.5841991269107054e-05
2.0955569561375716e-05   -1.7736606273084437e-06   -1.5841991269107054e-05
2.0955569561375716e-05   -1.7736606273084437e-06   -1.5841991269107054e-05
2.105366819472945e-05   -1.7117459099906724e-06   -5.43189741176575e-05
2.105366819472945e-05   -1.7117459099906724e-06   -5.43189741176575e-05
2.105366819472945e-05   -1.7117459099906724e-06   -5.43189741176575e-05
2.105366819472945e-05   -1.7117459099906724e-06   -5.43189741176575e-05
-1.454635714152356e-06   -3.7287911366240285e-07   -1.7608454347318244e-05
-1.454635714152356e-06   -3.7287911366240285e-07   -1.7608454347318244e-05
-1.454635714152356e-06   -3.7287911366240285e-07   -1.7608454347318244e-05
-1.454635714152356e-06   -3.7287911366240285e-07   -1.7608454347318244e-05
9.51596336935724e-06   -1.8939236738430769e-06   -3.498015941705891e-05
9.51596336935724e-06   -1.8939236738430769e-06   -3.498015941705891e-05
9.51596336935724e-06   -1.8939236738430769e-06   -3.498015941705891e-05
9.51596336935724e-06   -1.8939236738430769e-06   -3.498015941705891e-05
-1.4546357141523526e-06   -1.7117459099906724e-06   -5.512229419545419e-05
-1.4546357141523526e-06   -1.7117459099906724e-06   -5.512229419545419e-05
-1.4546357141523526e-06   -1.7117459099906724e-06   -5.512229419545419e-05
-1.4546357141523526e-06   -1.7117459099906724e-06   -5.512229419545419e-05
2.105366819472945e-05   -3.7287911366251127e-07   -1.680513426952101e-05
2.105366819472945e-05   -3.7287911366251127e-07   -1.680513426952101e-05
2.105366819472945e-05   -3.7287911366251127e-07   -1.680513426952101e-05
2.105366819472945e-05   -3.7287911366251127e-07   -1.680513426952101e-05
2.0891224356044702e-05   1.6034985516569667e-07   -5.590585380525699e-05
2.0891224356044702e-05   1.6034985516569667e-07   -5.590585380525699e-05
2.0891224356044702e-05   1.6034985516569667e-07   -5.590585380525699e-05
2.0891224356044702e-05   1.6034985516569667e-07   -5.590585380525699e-05
-1.712174681954608e-06   1.2650492117753567e-06   -1.8896341689224048e-05
-1.712174681954608e-06   1.2650492117753567e-06   -1.8896341689224048e-05
-1.712174681954608e-06   1.2650492117753567e-06   -1.8896341689224048e-05
-1.712174681954608e-06   1.2650492117753567e-06   -1.8896341689224048e-05
9.409637526656001e-06   -5.712843847750521e-07   -3.6330895212311154e-05
9.409637526656001e-06   -5.712843847750521e-07   -3.6330895212311154e-05
9.409637526656001e-06   -5.712843847750521e-07   -3.6330895212311154e-05
9.409637526656001e-06   -5.712843847750521e-07   -3.6330895212311154e-05
2.0972370589497e-05   -8.867058020845908e-06   -2.995341652671865e-05
2.0972370589497e-05   -8.867058020845908e-06   -2.995341652671865e-05
2.0972370589497e-05   -8.867058020845908e-06   -2.995341652671865e-05
2.0972370589497e-05   -8.867058020845908e-06   -2.995341652671865e-05
4.160938303184188e-05   -5.802786453508934e-06   6.280167150925155e-06
4.160938303184188e-05   -5.802786453508934e-06   6.280167150925155e-06
4.160938303184188e-05   -5.802786453508934e-06   6.280167150925155e-06
4.160938303184188e-05   -5.802786453508934e-06   6.280167150925155e-06
4.301035302191957e-05   -8.04494586160244e-06   -3.3705340242905156e-05
4.301035302191957e-05   -8.04494586160244e-06   -3.3705340242905156e-05
4.301035302191957e-05   -8.04494586160244e-06   -3.3705340242905156e-05
4.301035302191957e-05   -8.04494586160244e-06   -3.3705340242905156e-05
2.0955569561375675e-05   -4.981519381962499e-06   1.2145763035508394e-06
2.0955569561375675e-05   -4.981519381962499e-06   1.2145763035508394e-06
2.0955569561375675e-05   -4.981519381962499e-06   1.2145763035508394e-06
2.0955569561375675e-05   -4.981519381962499e-06   1.2145763035508394e-06
3.0284773516754836e-05   -6.8420820131756695e-06   -1.321775937668666e-05
3.0284773516754836e-05   -6.8420820131756695e-06   -1.321775937668666e-05
3.0284773516754836e-05   -6.8420820131756695e-06   -1.321775937668666e-05
3.0284773516754836e-05   -6.8420820131756695e-06   -1.321775937668666e-05
2.095556956137566e-05   -8.04494586160244e-06   -3.5543396130688956e-05
2.095556956137566e-05   -8.04494586160244e-06   -3.5543396130688956e-05
2.095556956137566e-05   -8.04494586160244e-06   -3.5543396130688956e-05
2.095556956137566e-05   -8.04494586160244e-06   -3.5543396130688956e-05
4.301035302191957e-05   -4.981519381962499e-06   3.0526321913348963e-06
4.301035302191957e-05   -4.981519381962499e-06   3.0526321913348963e-06
4.301035302191957e-05   -4.981519381962499e-06   3.0526321913348963e-06
4.301035302191957e-05   -4.981519381962499e-06   3.0526321913348963e-06
4.408683225681282e-05   -7.173947154184531e-06   -3.801557145637862e-05
4.408683225681282e-05   -7.173947154184531e-06   -3.801557145637862e-05
4.408683225681282e-05   -7.173947154184531e-06   -3.801557145637862e-05
4.408683225681282e-05   -7.173947154184531e-06   -3.801557145637862e-05
2.105366819472937e-05   -4.276993164349695e-06   -1.3651370801407207e-06
2.105366819472937e-05   -4.276993164349695e-06   -1.3651370801407207e-06
2.105366819472937e-05   -4.276993164349695e-06   -1.3651370801407207e-06
2.105366819472937e-05   -4.276993164349695e-06   -1.3651370801407207e-06
3.1312535939086805e-05   -6.3121899181695865e-06   -1.7242131935110916e-05
3.1312535939086805e-05   -6.3121899181695865e-06   -1.7242131935110916e-05
3.1312535939086805e-05   -6.3121899181695865e-06   -1.7242131935110916e-05
3.1312535939086805e-05   -6.3121899181695865e-06   -1.7242131935110916e-05
2.105366819472941e-05   -7.173947154184531e-06   -3.975374385027953e-05
2.105366819472941e-05   -7.173947154184531e-06   -3.975374385027953e-05
2.105366819472941e-05   -7.173947154184531e-06   -3.975374385027953e-05
2.105366819472941e-05   -7.173947154184531e-06   -3.975374385027953e-05
4.408683225681274e-05   -4.276993164349695e-06   3.7303531376050615e-07
4.408683225681274e-05   -4.276993164349695e-06   3.7303531376050615e-07
4.408683225681274e-05   -4.276993164349695e-06   3.7303531376050615e-07
4.408683225681274e-05   -4.276993164349695e-06   3.7303531376050615e-07
4.523369173397958e-05   -5.299521688934732e-06   -4.534837139988769e-05
4.523369173397958e-05   -5.299521688934732e-06   -4.534837139988769e-05
4.523369173397958e-05   -5.299521688934732e-06   -4.534837139988769e-05
4.523369173397958e-05   -5.299521688934732e-06   -4.534837139988769e-05
2.0891224356044634e-05   -2.7718839376938108e-06   -6.294175087407495e-06
2.0891224356044634e-05   -2.7718839376938108e-06   -6.294175087407495e-06
2.0891224356044634e-05   -2.7718839376938108e-06   -6.294175087407495e-06
2.0891224356044634e-05   -2.7718839376938108e-06   -6.294175087407495e-06
3.1177724016238425e-05   -5.437935301465951e-06   -2.1838710369467015e-05
3.1177724016238425e-05   -5.437935301465951e-06   -2.1838710369467015e-05
3.1177724016238425e-05   -5.437935301465951e-06   -2.1838710369467015e-05
3.1177724016238425e-05   -5.437935301465951e-06   -2.1838710369467015e-05
-5.0003108294072456e-05   7.66332698874661e-06   -3.8037485224993366e-05
-5.0003108294072456e-05   7.66332698874661e-06   -3.8037485224993366e-05
-5.0003108294072456e-05   7.66332698874661e-06   -3.8037485224993366e-05
-5.0003108294072456e-05   7.66332698874661e-06   -3.8037485224993366e-05
-3.4044445628067977e-05   4.875606638450624e-06   -1.3112346325163498e-05
-3.4044445628067977e-05   4.875606638450624e-06   -1.3112346325163498e-05
-3.4044445628067977e-05   4.875606638450624e-06   -1.3112346325163498e-05
-3.4044445628067977e-05   4.875606638450624e-06   -1.3112346325163498e-05
-3.3920571732698484e-05   9.269952634665389e-06   -3.231428620090746e-05
-3.3920571732698484e-05   9.269952634665389e-06   -3.231428620090746e-05
-3.3920571732698484e-05   9.269952634665389e-06   -3.231428620090746e-05
-3.3920571732698484e-05   9.269952634665389e-06   -3.231428620090746e-05
-4.850812711295905e-05   6.205619680093276e-06   -6.163094127729809e-06
-4.850812711295905e-05   6.205619680093276e-06   -6.163094127729809e-06
-4.850812711295905e-05   6.205619680093276e-06   -6.163094127729809e-06
-4.850812711295905e-05   6.205619680093276e-06   -6.163094127729809e-06
-3.985340106710199e-05   7.379197480990177e-06   -2.1291784218029812e-05
-3.985340106710199e-05   7.379197480990177e-06   -2.1291784218029812e-05
-3.985340106710199e-05   7.379197480990177e-06   -2.1291784218029812e-05
-3.985340106710199e-05   7.379197480990177e-06   -2.1291784218029812e-05
-4.850812711295905e-05   9.269952634665389e-06   -3.0475686428164223e-05
-4.850812711295905e-05   9.269952634665389e-06   -3.0475686428164223e-05
-4.850812711295905e-05   9.269952634665389e-06   -3.0475686428164223e-05
-4.850812711295905e-05   9.269952634665389e-06   -3.0475686428164223e-05
-3.3920571732698566e-05   6.205619680093276e-06   -8.001693900473233e-06
-3.3920571732698566e-05   6.205619680093276e-06   -8.001693900473233e-06
-3.3920571732698566e-05   6.205619680093276e-06   -8.001693900473233e-06
-3.3920571732698566e-05   6.205619680093276e-06   -8.001693900473233e-06
-3.366335954372657e-05   9.975757859122963e-06   -2.817788693968684e-05
-3.366335954372657e-05   9.975757859122963e-06   -2.817788693968684e-05
-3.366335954372657e-05   9.975757859122963e-06   -2.817788693968684e-05
-3.366335954372657e-05   9.975757859122963e-06   -2.817788693968684e-05
-4.739049145232688e-05   6.82524919769971e-06   -3.409028561832377e-06
-4.739049145232688e-05   6.82524919769971e-06   -3.409028561832377e-06
-4.739049145232688e-05   6.82524919769971e-06   -3.409028561832377e-06
-4.739049145232688e-05   6.82524919769971e-06   -3.409028561832377e-06
-3.985585425698617e-05   8.121329622412304e-06   -1.6744405475561236e-05
-3.985585425698617e-05   8.121329622412304e-06   -1.6744405475561236e-05
-3.985585425698617e-05   8.121329622412304e-06   -1.6744405475561236e-05
-3.985585425698617e-05   8.121329622412304e-06   -1.6744405475561236e-05
-4.739049145232688e-05   9.975757859122963e-06   -2.628758174283289e-05
-4.739049145232688e-05   9.975757859122963e-06   -2.628758174283289e-05
-4.739049145232688e-05   9.975757859122963e-06   -2.628758174283289e-05
-4.739049145232688e-05   9.975757859122963e-06   -2.628758174283289e-05
-3.366335954372665e-05   6.8252491976998186e-06   -5.299333758686136e-06
-3.366335954372665e-05   6.8252491976998186e-06   -5.299333758686136e-06
-3.366335954372665e-05   6.8252491976998186e-06   -5.299333758686136e-06
-3.366335954372665e-05   6.8252491976998186e-06   -5.299333758686136e-06
-3.3560333342561884e-05   1.067022751878512e-05   -2.2451821010444572e-05
-3.3560333342561884e-05   1.067022751878512e-05   -2.2451821010444572e-05
-3.3560333342561884e-05   1.067022751878512e-05   -2.2451821010444572e-05
-3.3560333342561884e-05   1.067022751878512e-05   -2.2451821010444572e-05
-4.592804519958711e-05   7.604333766321795e-06   5.68336075684045e-10
-4.592804519958711e-05   7.604333766321795e-06   5.68336075684045e-10
-4.592804519958711e-05   7.604333766321795e-06   5.68336075684045e-10
-4.592804519958711e-05   7.604333766321795e-06   5.68336075684045e-10
-3.8676812257650605e-05   8.523348466517224e-06   -1.2636228720602413e-05
-3.8676812257650605e-05   8.523348466517224e-06   -1.2636228720602413e-05
-3.8676812257650605e-05   8.523348466517224e-06   -1.2636228720602413e-05
-3.8676812257650605e-05   8.523348466517224e-06   -1.2636228720602413e-05
-3.404444562806792e-05   3.820840633133931e-06   -4.8464728338887915e-05
-3.404444562806792e-05   3.820840633133931e-06   -4.8464728338887915e-05
-3.404444562806792e-05   3.820840633133931e-06   -4.8464728338887915e-05
-3.404444562806792e-05   3.820840633133931e-06   -4.8464728338887915e-05
-1.958017199560626e-05   2.5203158787983748e-06   -2.5137920470719855e-05
-1.958017199560626e-05   2.5203158787983748e-06   -2.5137920470719855e-05
-1.958017199560626e-05   2.5203158787983748e-06   -2.5137920470719855e-05
-1.958017199560626e-05   2.5203158787983748e-06   -2.5137920470719855e-05
-1.95896590960347e-05   5.40087394710015e-06   -4.80487124043732e-05
-1.95896590960347e-05   5.40087394710015e-06   -4.80487124043732e-05
-1.95896590960347e-05   5.40087394710015e-06   -4.80487124043732e-05
-1.95896590960347e-05   5.40087394710015e-06   -4.80487124043732e-05
-3.3920571732698484e-05   3.92440863758621e-06   -2.327797882422522e-05
-3.3920571732698484e-05   3.92440863758621e-06   -2.327797882422522e-05
-3.3920571732698484e-05   3.92440863758621e-06   -2.327797882422522e-05
-3.3920571732698484e-05   3.92440863758621e-06   -2.327797882422522e-05
-2.6536794249979992e-05   4.1790424797922415e-06   -3.573705493407979e-05
-2.6536794249979992e-05   4.1790424797922415e-06   -3.573705493407979e-05
-2.6536794249979992e-05   4.1790424797922415e-06   -3.573705493407979e-05
-2.6536794249979992e-05   4.1790424797922415e-06   -3.573705493407979e-05
-3.392057173269846e-05   5.400873947100041e-06   -4.71628332186647e-05
-3.392057173269846e-05   5.400873947100041e-06   -4.71628332186647e-05
-3.392057173269846e-05   5.400873947100041e-06   -4.71628332186647e-05
-3.392057173269846e-05   5.400873947100041e-06   -4.71628332186647e-05
-1.95896590960347e-05   3.92440863758621e-06   -2.4163858009933507e-05
-1.95896590960347e-05   3.92440863758621e-06   -2.4163858009933507e-05
-1.95896590960347e-05   3.92440863758621e-06   -2.4163858009933507e-05
-1.95896590960347e-05   3.92440863758621e-06   -2.4163858009933507e-05
-1.957511920802552e-05   6.804505282047876e-06   -4.697175126804163e-05
-1.957511920802552e-05   6.804505282047876e-06   -4.697175126804163e-05
-1.957511920802552e-05   6.804505282047876e-06   -4.697175126804163e-05
-1.957511920802552e-05   6.804505282047876e-06   -4.697175126804163e-05
-3.366335954372657e-05   5.201981018640488e-06   -2.252983615049555e-05
-3.366335954372657e-05   5.201981018640488e-06   -2.252983615049555e-05
-3.366335954372657e-05   5.201981018640488e-06   -2.252983615049555e-05
-3.366335954372657e-05   5.201981018640488e-06   -2.252983615049555e-05
-2.6413097224771168e-05   5.332068335674395e-06   -3.46916590723079e-05
-2.6413097224771168e-05   5.332068335674395e-06   -3.46916590723079e-05
-2.6413097224771168e-05   5.332068335674395e-06   -3.46916590723079e-05
-2.6413097224771168e-05   5.332068335674395e-06   -3.46916590723079e-05
-3.366335954372657e-05   6.804505282047876e-06   -4.601023670999717e-05
-3.366335954372657e-05   6.804505282047876e-06   -4.601023670999717e-05
-3.366335954372657e-05   6.804505282047876e-06   -4.601023670999717e-05
-3.366335954372657e-05   6.804505282047876e-06   -4.601023670999717e-05
-1.9575119208025546e-05   5.20198101864038e-06   -2.349135070853984e-05
-1.9575119208025546e-05   5.20198101864038e-06   -2.349135070853984e-05
-1.9575119208025546e-05   5.20198101864038e-06   -2.349135070853984e-05
-1.9575119208025546e-05   5.20198101864038e-06   -2.349135070853984e-05
-1.959069660243194e-05   8.297516697319796e-06   -4.716105921252257e-05
-1.959069660243194e-05   8.297516697319796e-06   -4.716105921252257e-05
-1.959069660243194e-05   8.297516697319796e-06   -4.716105921252257e-05
-1.959069660243194e-05   8.297516697319796e-06   -4.716105921252257e-05
-3.356033334256194e-05   6.589639155935088e-06   -2.285360478747507e-05
-3.356033334256194e-05   6.589639155935088e-06   -2.285360478747507e-05
-3.356033334256194e-05   6.589639155935088e-06   -2.285360478747507e-05
-3.356033334256194e-05   6.589639155935088e-06   -2.285360478747507e-05
-2.658407650536649e-05   6.472682327266074e-06   -3.441052541893272e-05
-2.658407650536649e-05   6.472682327266074e-06   -3.441052541893272e-05
-2.658407650536649e-05   6.472682327266074e-06   -3.441052541893272e-05
-2.658407650536649e-05   6.472682327266074e-06   -3.441052541893272e-05
-1.9580171995606233e-05   2.0335722828368138e-07   -5.348807982748059e-05
-1.9580171995606233e-05   2.0335722828368138e-07   -5.348807982748059e-05
-1.9580171995606233e-05   2.0335722828368138e-07   -5.348807982748059e-05
-1.9580171995606233e-05   2.0335722828368138e-07   -5.348807982748059e-05
-5.317235840505089e-06   4.3366821579442476e-07   -2.9578332976472235e-05
-5.317235840505089e-06   4.3366821579442476e-07   -2.9578332976472235e-05
-5.317235840505089e-06   4.3366821579442476e-07   -2.9578332976472235e-05
-5.317235840505089e-06   4.3366821579442476e-07   -2.9578332976472235e-05
-5.327290054605239e-06   1.75858373857498e-06   -5.2897703941334035e-05
-5.327290054605239e-06   1.75858373857498e-06   -5.2897703941334035e-05
-5.327290054605239e-06   1.75858373857498e-06   -5.2897703941334035e-05
-5.327290054605239e-06   1.75858373857498e-06   -5.2897703941334035e-05
-1.958965909603466e-05   1.8453191473041721e-06   -2.9179130117522605e-05
-1.958965909603466e-05   1.8453191473041721e-06   -2.9179130117522605e-05
-1.958965909603466e-05   1.8453191473041721e-06   -2.9179130117522605e-05
-1.958965909603466e-05   1.8453191473041721e-06   -2.9179130117522605e-05
-1.237087175689654e-05   1.2427857546369603e-06   -4.084892231381911e-05
-1.237087175689654e-05   1.2427857546369603e-06   -4.084892231381911e-05
-1.237087175689654e-05   1.2427857546369603e-06   -4.084892231381911e-05
-1.237087175689654e-05   1.2427857546369603e-06   -4.084892231381911e-05
-1.958965909603466e-05   1.75858373857498e-06   -5.294974518657168e-05
-1.958965909603466e-05   1.75858373857498e-06   -5.294974518657168e-05
-1.958965909603466e-05   1.75858373857498e-06   -5.294974518657168e-05
-1.958965909603466e-05   1.75858373857498e-06   -5.294974518657168e-05
-5.327290054605239e-06   1.8453191473041721e-06   -2.9127088872285068e-05
-5.327290054605239e-06   1.8453191473041721e-06   -2.9127088872285068e-05
-5.327290054605239e-06   1.8453191473041721e-06   -2.9127088872285068e-05
-5.327290054605239e-06   1.8453191473041721e-06   -2.9127088872285068e-05
-5.3084712444262045e-06   3.3091664902999045e-06   -5.303236908740024e-05
-5.3084712444262045e-06   3.3091664902999045e-06   -5.303236908740024e-05
-5.3084712444262045e-06   3.3091664902999045e-06   -5.303236908740024e-05
-5.3084712444262045e-06   3.3091664902999045e-06   -5.303236908740024e-05
-1.957511920802552e-05   3.2614819785123936e-06   -2.922601177432889e-05
-1.957511920802552e-05   3.2614819785123936e-06   -2.922601177432889e-05
-1.957511920802552e-05   3.2614819785123936e-06   -2.922601177432889e-05
-1.957511920802552e-05   3.2614819785123936e-06   -2.922601177432889e-05
-1.2453609223665909e-05   2.4776442344010387e-06   -4.062489243512811e-05
-1.2453609223665909e-05   2.4776442344010387e-06   -4.062489243512811e-05
-1.2453609223665909e-05   2.4776442344010387e-06   -4.062489243512811e-05
-1.2453609223665909e-05   2.4776442344010387e-06   -4.062489243512811e-05
-1.957511920802552e-05   3.309166490300013e-06   -5.30037583803277e-05
-1.957511920802552e-05   3.309166490300013e-06   -5.30037583803277e-05
-1.957511920802552e-05   3.309166490300013e-06   -5.30037583803277e-05
-1.957511920802552e-05   3.309166490300013e-06   -5.30037583803277e-05
-5.308471244426214e-06   3.2614819785123936e-06   -2.9254622481401265e-05
-5.308471244426214e-06   3.2614819785123936e-06   -2.9254622481401265e-05
-5.308471244426214e-06   3.2614819785123936e-06   -2.9254622481401265e-05
-5.308471244426214e-06   3.2614819785123936e-06   -2.9254622481401265e-05
-5.316783583622904e-06   4.895804729068091e-06   -5.383443227104692e-05
-5.316783583622904e-06   4.895804729068091e-06   -5.383443227104692e-05
-5.316783583622904e-06   4.895804729068091e-06   -5.383443227104692e-05
-5.316783583622904e-06   4.895804729068091e-06   -5.383443227104692e-05
-1.9590696602431927e-05   4.702405043098979e-06   -2.9928537428116822e-05
-1.9590696602431927e-05   4.702405043098979e-06   -2.9928537428116822e-05
-1.9590696602431927e-05   4.702405043098979e-06   -2.9928537428116822e-05
-1.9590696602431927e-05   4.702405043098979e-06   -2.9928537428116822e-05
-1.2560597668508465e-05   3.7287192359853737e-06   -4.106115750038787e-05
-1.2560597668508465e-05   3.7287192359853737e-06   -4.106115750038787e-05
-1.2560597668508465e-05   3.7287192359853737e-06   -4.106115750038787e-05
-1.2560597668508465e-05   3.7287192359853737e-06   -4.106115750038787e-05
-5.31723584050508e-06   -3.199112201533825e-06   -4.736403607376847e-05
-5.31723584050508e-06   -3.199112201533825e-06   -4.736403607376847e-05
-5.31723584050508e-06   -3.199112201533825e-06   -4.736403607376847e-05
-5.31723584050508e-06   -3.199112201533825e-06   -4.736403607376847e-05
8.73862251205541e-06   -1.4747326976143928e-06   -2.2902977783816037e-05
8.73862251205541e-06   -1.4747326976143928e-06   -2.2902977783816037e-05
8.73862251205541e-06   -1.4747326976143928e-06   -2.2902977783816037e-05
8.73862251205541e-06   -1.4747326976143928e-06   -2.2902977783816037e-05
8.853405500239498e-06   -1.7736606273084437e-06   -4.628772722571774e-05
8.853405500239498e-06   -1.7736606273084437e-06   -4.628772722571774e-05
8.853405500239498e-06   -1.7736606273084437e-06   -4.628772722571774e-05
8.853405500239498e-06   -1.7736606273084437e-06   -4.628772722571774e-05
-5.327290054605239e-06   -1.4516195516033493e-07   -2.363033383759873e-05
-5.327290054605239e-06   -1.4516195516033493e-07   -2.363033383759873e-05
-5.327290054605239e-06   -1.4516195516033493e-07   -2.363033383759873e-05
-5.327290054605239e-06   -1.4516195516033493e-07   -2.363033383759873e-05
1.745050203412926e-06   -1.5254773008949304e-06   -3.458937839352161e-05
1.745050203412926e-06   -1.5254773008949304e-06   -3.458937839352161e-05
1.745050203412926e-06   -1.5254773008949304e-06   -3.458937839352161e-05
1.745050203412926e-06   -1.5254773008949304e-06   -3.458937839352161e-05
-5.327290054605239e-06   -1.7736606273084437e-06   -4.7264826429006704e-05
-5.327290054605239e-06   -1.7736606273084437e-06   -4.7264826429006704e-05
-5.327290054605239e-06   -1.7736606273084437e-06   -4.7264826429006704e-05
-5.327290054605239e-06   -1.7736606273084437e-06   -4.7264826429006704e-05
8.853405500239538e-06   -1.451619551602265e-07   -2.2653234634309894e-05
8.853405500239538e-06   -1.451619551602265e-07   -2.2653234634309894e-05
8.853405500239538e-06   -1.451619551602265e-07   -2.2653234634309894e-05
8.853405500239538e-06   -1.451619551602265e-07   -2.2653234634309894e-05
9.123814965516974e-06   -3.7287911366240285e-07   -4.726190142730671e-05
9.123814965516974e-06   -3.7287911366240285e-07   -4.726190142730671e-05
9.123814965516974e-06   -3.7287911366240285e-07   -4.726190142730671e-05
9.123814965516974e-06   -3.7287911366240285e-07   -4.726190142730671e-05
-5.308471244426214e-06   1.1339905816084433e-06   -2.411221289456401e-05
-5.308471244426214e-06   1.1339905816084433e-06   -2.411221289456401e-05
-5.308471244426214e-06   1.1339905816084433e-06   -2.411221289456401e-05
-5.308471244426214e-06   1.1339905816084433e-06   -2.411221289456401e-05
1.6637589012014532e-06   -4.194336072511082e-07   -3.480054195729442e-05
1.6637589012014532e-06   -4.194336072511082e-07   -3.480054195729442e-05
1.6637589012014532e-06   -4.194336072511082e-07   -3.480054195729442e-05
1.6637589012014532e-06   -4.194336072511082e-07   -3.480054195729442e-05
-5.3084712444262096e-06   -3.7287911366240285e-07   -4.816602324446916e-05
-5.3084712444262096e-06   -3.7287911366240285e-07   -4.816602324446916e-05
-5.3084712444262096e-06   -3.7287911366240285e-07   -4.816602324446916e-05
-5.3084712444262096e-06   -3.7287911366240285e-07   -4.816602324446916e-05
9.123814965517e-06   1.1339905816084433e-06   -2.320809107740141e-05
9.123814965517e-06   1.1339905816084433e-06   -2.320809107740141e-05
9.123814965517e-06   1.1339905816084433e-06   -2.320809107740141e-05
9.123814965517e-06   1.1339905816084433e-06   -2.320809107740141e-05
9.25612889837134e-06   1.2650492117753567e-06   -4.86552392103117e-05
9.25612889837134e-06   1.2650492117753567e-06   -4.86552392103117e-05
9.25612889837134e-06   1.2650492117753567e-06   -4.86552392103117e-05
9.25612889837134e-06   1.2650492117753567e-06   -4.86552392103117e-05
-5.316783583622895e-06   2.6001443361551788e-06   -2.5168108814949124e-05
-5.316783583622895e-06   2.6001443361551788e-06   -2.5168108814949124e-05
-5.316783583622895e-06   2.6001443361551788e-06   -2.5168108814949124e-05
-5.316783583622895e-06   2.6001443361551788e-06   -2.5168108814949124e-05
1.7127195972411452e-06   7.637084934416279e-07   -3.578208594409428e-05
1.7127195972411452e-06   7.637084934416279e-07   -3.578208594409428e-05
1.7127195972411452e-06   7.637084934416279e-07   -3.578208594409428e-05
1.7127195972411452e-06   7.637084934416279e-07   -3.578208594409428e-05
8.738622512055396e-06   -5.802786453508934e-06   -2.6023946954093337e-05
8.738622512055396e-06   -5.802786453508934e-06   -2.6023946954093337e-05
8.738622512055396e-06   -5.802786453508934e-06   -2.6023946954093337e-05
8.738622512055396e-06   -5.802786453508934e-06   -2.6023946954093337e-05
2.122391109912099e-05   -2.710283931681612e-06   -3.3596311292209127e-06
2.122391109912099e-05   -2.710283931681612e-06   -3.3596311292209127e-06
2.122391109912099e-05   -2.710283931681612e-06   -3.3596311292209127e-06
2.122391109912099e-05   -2.710283931681612e-06   -3.3596311292209127e-06
2.2706257286827635e-05   -4.981519381962499e-06   -2.732813982866638e-05
2.2706257286827635e-05   -4.981519381962499e-06   -2.732813982866638e-05
2.2706257286827635e-05   -4.981519381962499e-06   -2.732813982866638e-05
2.2706257286827635e-05   -4.981519381962499e-06   -2.732813982866638e-05
8.853405500239525e-06   -1.80981967463998e-06   -6.143073342079763e-06
8.853405500239525e-06   -1.80981967463998e-06   -6.143073342079763e-06
8.853405500239525e-06   -1.80981967463998e-06   -6.143073342079763e-06
8.853405500239525e-06   -1.80981967463998e-06   -6.143073342079763e-06
1.4724737119587553e-05   -3.707583702507915e-06   -1.4789967624272425e-05
1.4724737119587553e-05   -3.707583702507915e-06   -1.4789967624272425e-05
1.4724737119587553e-05   -3.707583702507915e-06   -1.4789967624272425e-05
1.4724737119587553e-05   -3.707583702507915e-06   -1.4789967624272425e-05
8.853405500239511e-06   -4.981519381962499e-06   -2.9231159653059604e-05
8.853405500239511e-06   -4.981519381962499e-06   -2.9231159653059604e-05
8.853405500239511e-06   -4.981519381962499e-06   -2.9231159653059604e-05
8.853405500239511e-06   -4.981519381962499e-06   -2.9231159653059604e-05
2.2706257286827527e-05   -1.8098196746400884e-06   -4.240053517686241e-06
2.2706257286827527e-05   -1.8098196746400884e-06   -4.240053517686241e-06
2.2706257286827527e-05   -1.8098196746400884e-06   -4.240053517686241e-06
2.2706257286827527e-05   -1.8098196746400884e-06   -4.240053517686241e-06
2.3847193683159372e-05   -4.276993164349695e-06   -2.9968564780901037e-05
2.3847193683159372e-05   -4.276993164349695e-06   -2.9968564780901037e-05
2.3847193683159372e-05   -4.276993164349695e-06   -2.9968564780901037e-05
2.3847193683159372e-05   -4.276993164349695e-06   -2.9968564780901037e-05
9.123814965517e-06   -1.1880940693076306e-06   -7.282939708522424e-06
9.123814965517e-06   -1.1880940693076306e-06   -7.282939708522424e-06
9.123814965517e-06   -1.1880940693076306e-06   -7.282939708522424e-06
9.123814965517e-06   -1.1880940693076306e-06   -7.282939708522424e-06
1.5630824922461684e-05   -3.245219798474696e-06   -1.6893680865929774e-05
1.5630824922461684e-05   -3.245219798474696e-06   -1.6893680865929774e-05
1.5630824922461684e-05   -3.245219798474696e-06   -1.6893680865929774e-05
1.5630824922461684e-05   -3.245219798474696e-06   -1.6893680865929774e-05
9.123814965516987e-06   -4.276993164349695e-06   -3.1821904237926254e-05
9.123814965516987e-06   -4.276993164349695e-06   -3.1821904237926254e-05
9.123814965516987e-06   -4.276993164349695e-06   -3.1821904237926254e-05
9.123814965516987e-06   -4.276993164349695e-06   -3.1821904237926254e-05
2.384719368315929e-05   -1.1880940693075222e-06   -5.4296002514969905e-06
2.384719368315929e-05   -1.1880940693075222e-06   -5.4296002514969905e-06
2.384719368315929e-05   -1.1880940693075222e-06   -5.4296002514969905e-06
2.384719368315929e-05   -1.1880940693075222e-06   -5.4296002514969905e-06
2.5363367568858062e-05   -2.771883937693919e-06   -3.5032202519303274e-05
2.5363367568858062e-05   -2.771883937693919e-06   -3.5032202519303274e-05
2.5363367568858062e-05   -2.771883937693919e-06   -3.5032202519303274e-05
2.5363367568858062e-05   -2.771883937693919e-06   -3.5032202519303274e-05
9.256128898371354e-06   3.4265567569013826e-08   -9.870494438316365e-06
9.256128898371354e-06   3.4265567569013826e-08   -9.870494438316365e-06
9.256128898371354e-06   3.4265567569013826e-08   -9.870494438316365e-06
9.256128898371354e-06   3.4265567569013826e-08   -9.870494438316365e-06
1.5932286976997215e-05   -2.5571752016405585e-06   -1.9442560107833752e-05
1.5932286976997215e-05   -2.5571752016405585e-06   -1.9442560107833752e-05
1.5932286976997215e-05   -2.5571752016405585e-06   -1.9442560107833752e-05
1.5932286976997215e-05   -2.5571752016405585e-06   -1.9442560107833752e-05
-3.027291076069719e-05   4.875606638450624e-06   -2.8367707718517966e-05
-3.027291076069719e-05   4.875606638450624e-06   -2.8367707718517966e-05
-3.027291076069719e-05   4.875606638450624e-06   -2.8367707718517966e-05
-3.027291076069719e-05   4.875606638450624e-06   -2.8367707718517966e-05
-2.235163485948634e-05   1.986691727201605e-06   -1.689893016324924e-05
-2.235163485948634e-05   1.986691727201605e-06   -1.689893016324924e-05
-2.235163485948634e-05   1.986691727201605e-06   -1.689893016324924e-05
-2.235163485948634e-05   1.986691727201605e-06   -1.689893016324924e-05
-2.2022819296993408e-05   6.205619680093276e-06   -2.502543737537173e-05
-2.2022819296993408e-05   6.205619680093276e-06   -2.502543737537173e-05
-2.2022819296993408e-05   6.205619680093276e-06   -2.502543737537173e-05
-2.2022819296993408e-05   6.205619680093276e-06   -2.502543737537173e-05
-2.8628121829198745e-05   3.093444733940666e-06   -1.2149294854004204e-05
-2.8628121829198745e-05   3.093444733940666e-06   -1.2149294854004204e-05
-2.8628121829198745e-05   3.093444733940666e-06   -1.2149294854004204e-05
-2.8628121829198745e-05   3.093444733940666e-06   -1.2149294854004204e-05
-2.472497972543384e-05   4.37337926908316e-06   -1.9422492414699244e-05
-2.472497972543384e-05   4.37337926908316e-06   -1.9422492414699244e-05
-2.472497972543384e-05   4.37337926908316e-06   -1.9422492414699244e-05
-2.472497972543384e-05   4.37337926908316e-06   -1.9422492414699244e-05
-2.8628121829198745e-05   6.205619680093276e-06   -2.3158132407679992e-05
-2.8628121829198745e-05   6.205619680093276e-06   -2.3158132407679992e-05
-2.8628121829198745e-05   6.205619680093276e-06   -2.3158132407679992e-05
-2.8628121829198745e-05   6.205619680093276e-06   -2.3158132407679992e-05
-2.2022819296993435e-05   3.093444733940666e-06   -1.4016599821696079e-05
-2.2022819296993435e-05   3.093444733940666e-06   -1.4016599821696079e-05
-2.2022819296993435e-05   3.093444733940666e-06   -1.4016599821696079e-05
-2.2022819296993435e-05   3.093444733940666e-06   -1.4016599821696079e-05
-2.1553543280527907e-05   6.82524919769971e-06   -2.2346387622829145e-05
-2.1553543280527907e-05   6.82524919769971e-06   -2.2346387622829145e-05
-2.1553543280527907e-05   6.82524919769971e-06   -2.2346387622829145e-05
-2.1553543280527907e-05   6.82524919769971e-06   -2.2346387622829145e-05
-2.7316073713850556e-05   3.6526044982134603e-06   -1.083858341426611e-05
-2.7316073713850556e-05   3.6526044982134603e-06   -1.083858341426611e-05
-2.7316073713850556e-05   3.6526044982134603e-06   -1.083858341426611e-05
-2.7316073713850556e-05   3.6526044982134603e-06   -1.083858341426611e-05
-2.429115521933676e-05   4.970562494254057e-06   -1.667088903608031e-05
-2.429115521933676e-05   4.970562494254057e-06   -1.667088903608031e-05
-2.429115521933676e-05   4.970562494254057e-06   -1.667088903608031e-05
-2.429115521933676e-05   4.970562494254057e-06   -1.667088903608031e-05
-2.73160737138505e-05   6.82524919769971e-06   -2.0442800803137417e-05
-2.73160737138505e-05   6.82524919769971e-06   -2.0442800803137417e-05
-2.73160737138505e-05   6.82524919769971e-06   -2.0442800803137417e-05
-2.73160737138505e-05   6.82524919769971e-06   -2.0442800803137417e-05
-2.1553543280527934e-05   3.6526044982134603e-06   -1.2742170233957974e-05
-2.1553543280527934e-05   3.6526044982134603e-06   -1.2742170233957974e-05
-2.1553543280527934e-05   3.6526044982134603e-06   -1.2742170233957974e-05
-2.1553543280527934e-05   3.6526044982134603e-06   -1.2742170233957974e-05
-2.123377905895204e-05   7.604333766321795e-06   -1.8909467442171672e-05
-2.123377905895204e-05   7.604333766321795e-06   -1.8909467442171672e-05
-2.123377905895204e-05   7.604333766321795e-06   -1.8909467442171672e-05
-2.123377905895204e-05   7.604333766321795e-06   -1.8909467442171672e-05
-2.5645354373830603e-05   4.538325487085746e-06   -9.717236949832167e-06
-2.5645354373830603e-05   4.538325487085746e-06   -9.717236949832167e-06
-2.5645354373830603e-05   4.538325487085746e-06   -9.717236949832167e-06
-2.5645354373830603e-05   4.538325487085746e-06   -9.717236949832167e-06
-2.3156036272395088e-05   5.3845411883534505e-06   -1.4373829872985902e-05
-2.3156036272395088e-05   5.3845411883534505e-06   -1.4373829872985902e-05
-2.3156036272395088e-05   5.3845411883534505e-06   -1.4373829872985902e-05
-2.3156036272395088e-05   5.3845411883534505e-06   -1.4373829872985902e-05
-2.235163485948634e-05   2.5203158787983748e-06   -4.1346315958222415e-05
-2.235163485948634e-05   2.5203158787983748e-06   -4.1346315958222415e-05
-2.235163485948634e-05   2.5203158787983748e-06   -4.1346315958222415e-05
-2.235163485948634e-05   2.5203158787983748e-06   -4.1346315958222415e-05
-1.5915618072552624e-05   1.1404452929537207e-06   -3.144754366483964e-05
-1.5915618072552624e-05   1.1404452929537207e-06   -3.144754366483964e-05
-1.5915618072552624e-05   1.1404452929537207e-06   -3.144754366483964e-05
-1.5915618072552624e-05   1.1404452929537207e-06   -3.144754366483964e-05
-1.570027960570472e-05   3.92440863758621e-06   -4.121067065292086e-05
-1.570027960570472e-05   3.92440863758621e-06   -4.121067065292086e-05
-1.570027960570472e-05   3.92440863758621e-06   -4.121067065292086e-05
-1.570027960570472e-05   3.92440863758621e-06   -4.121067065292086e-05
-2.2022819296993435e-05   2.409494714590999e-06   -2.9764156146975607e-05
-2.2022819296993435e-05   2.409494714590999e-06   -2.9764156146975607e-05
-2.2022819296993435e-05   2.409494714590999e-06   -2.9764156146975607e-05
-2.2022819296993435e-05   2.409494714590999e-06   -2.9764156146975607e-05
-1.8812379618423118e-05   2.7421288621306238e-06   -3.531446943311748e-05
-1.8812379618423118e-05   2.7421288621306238e-06   -3.531446943311748e-05
-1.8812379618423118e-05   2.7421288621306238e-06   -3.531446943311748e-05
-1.8812379618423118e-05   2.7421288621306238e-06   -3.531446943311748e-05
-2.202281929699338e-05   3.92440863758621e-06   -4.030172229912347e-05
-2.202281929699338e-05   3.92440863758621e-06   -4.030172229912347e-05
-2.202281929699338e-05   3.92440863758621e-06   -4.030172229912347e-05
-2.202281929699338e-05   3.92440863758621e-06   -4.030172229912347e-05
-1.570027960570472e-05   2.409494714590999e-06   -3.067310450077278e-05
-1.570027960570472e-05   2.409494714590999e-06   -3.067310450077278e-05
-1.570027960570472e-05   2.409494714590999e-06   -3.067310450077278e-05
-1.570027960570472e-05   2.409494714590999e-06   -3.067310450077278e-05
-1.5462463670069945e-05   5.201981018640488e-06   -4.0544385736816075e-05
-1.5462463670069945e-05   5.201981018640488e-06   -4.0544385736816075e-05
-1.5462463670069945e-05   5.201981018640488e-06   -4.0544385736816075e-05
-1.5462463670069945e-05   5.201981018640488e-06   -4.0544385736816075e-05
-2.155354328052796e-05   3.5894881483446855e-06   -2.9425090663874923e-05
-2.155354328052796e-05   3.5894881483446855e-06   -2.9425090663874923e-05
-2.155354328052796e-05   3.5894881483446855e-06   -2.9425090663874923e-05
-2.155354328052796e-05   3.5894881483446855e-06   -2.9425090663874923e-05
-1.8529229388422257e-05   3.7681639213991546e-06   -3.4572819281216945e-05
-1.8529229388422257e-05   3.7681639213991546e-06   -3.4572819281216945e-05
-1.8529229388422257e-05   3.7681639213991546e-06   -3.4572819281216945e-05
-1.8529229388422257e-05   3.7681639213991546e-06   -3.4572819281216945e-05
-2.1553543280527907e-05   5.20198101864038e-06   -3.957689001463842e-05
-2.1553543280527907e-05   5.20198101864038e-06   -3.957689001463842e-05
-2.1553543280527907e-05   5.20198101864038e-06   -3.957689001463842e-05
-2.1553543280527907e-05   5.20198101864038e-06   -3.957689001463842e-05
-1.5462463670069918e-05   3.5894881483444687e-06   -3.039258638605247e-05
-1.5462463670069918e-05   3.5894881483444687e-06   -3.039258638605247e-05
-1.5462463670069918e-05   3.5894881483444687e-06   -3.039258638605247e-05
-1.5462463670069918e-05   3.5894881483444687e-06   -3.039258638605247e-05
-1.5250953546555414e-05   6.58963915593498e-06   -4.0937503217925776e-05
-1.5250953546555414e-05   6.58963915593498e-06   -4.0937503217925776e-05
-1.5250953546555414e-05   6.58963915593498e-06   -4.0937503217925776e-05
-1.5250953546555414e-05   6.58963915593498e-06   -4.0937503217925776e-05
-2.1233779058952093e-05   4.90064098313263e-06   -2.9952728460249615e-05
-2.1233779058952093e-05   4.90064098313263e-06   -2.9952728460249615e-05
-2.1233779058952093e-05   4.90064098313263e-06   -2.9952728460249615e-05
-2.1233779058952093e-05   4.90064098313263e-06   -2.9952728460249615e-05
-1.841859864361445e-05   4.807383056972328e-06   -3.458874106344992e-05
-1.841859864361445e-05   4.807383056972328e-06   -3.458874106344992e-05
-1.841859864361445e-05   4.807383056972328e-06   -3.458874106344992e-05
-1.841859864361445e-05   4.807383056972328e-06   -3.458874106344992e-05
-1.5915618072552556e-05   4.3366821579442476e-07   -4.675283740798795e-05
-1.5915618072552556e-05   4.3366821579442476e-07   -4.675283740798795e-05
-1.5915618072552556e-05   4.3366821579442476e-07   -4.675283740798795e-05
-1.5915618072552556e-05   4.3366821579442476e-07   -4.675283740798795e-05
-9.644128233341214e-06   6.535145442001979e-07   -3.616844654559244e-05
-9.644128233341214e-06   6.535145442001979e-07   -3.616844654559244e-05
-9.644128233341214e-06   6.535145442001979e-07   -3.616844654559244e-05
-9.644128233341214e-06   6.535145442001979e-07   -3.616844654559244e-05
-9.434255931018806e-06   1.8453191473041721e-06   -4.6165511156259277e-05
-9.434255931018806e-06   1.8453191473041721e-06   -4.6165511156259277e-05
-9.434255931018806e-06   1.8453191473041721e-06   -4.6165511156259277e-05
-9.434255931018806e-06   1.8453191473041721e-06   -4.6165511156259277e-05
-1.570027960570472e-05   1.9460384877221897e-06   -3.5782569969366454e-05
-1.570027960570472e-05   1.9460384877221897e-06   -3.5782569969366454e-05
-1.570027960570472e-05   1.9460384877221897e-06   -3.5782569969366454e-05
-1.570027960570472e-05   1.9460384877221897e-06   -3.5782569969366454e-05
-1.2592361290412378e-05   1.3995552486188029e-06   -4.063454388472605e-05
-1.2592361290412378e-05   1.3995552486188029e-06   -4.063454388472605e-05
-1.2592361290412378e-05   1.3995552486188029e-06   -4.063454388472605e-05
-1.2592361290412378e-05   1.3995552486188029e-06   -4.063454388472605e-05
-1.5700279605704694e-05   1.8453191473041721e-06   -4.622594276050996e-05
-1.5700279605704694e-05   1.8453191473041721e-06   -4.622594276050996e-05
-1.5700279605704694e-05   1.8453191473041721e-06   -4.622594276050996e-05
-1.5700279605704694e-05   1.8453191473041721e-06   -4.622594276050996e-05
-9.434255931018806e-06   1.9460384877221897e-06   -3.572213836511588e-05
-9.434255931018806e-06   1.9460384877221897e-06   -3.572213836511588e-05
-9.434255931018806e-06   1.9460384877221897e-06   -3.572213836511588e-05
-9.434255931018806e-06   1.9460384877221897e-06   -3.572213836511588e-05
-9.198144525268058e-06   3.261481978512502e-06   -4.628600394855154e-05
-9.198144525268058e-06   3.261481978512502e-06   -4.628600394855154e-05
-9.198144525268058e-06   3.261481978512502e-06   -4.628600394855154e-05
-9.198144525268058e-06   3.261481978512502e-06   -4.628600394855154e-05
-1.5462463670069918e-05   3.2498867352682027e-06   -3.583851489460168e-05
-1.5462463670069918e-05   3.2498867352682027e-06   -3.583851489460168e-05
-1.5462463670069918e-05   3.2498867352682027e-06   -3.583851489460168e-05
-1.5462463670069918e-05   3.2498867352682027e-06   -3.583851489460168e-05
-1.2451616657836919e-05   2.51002899606949e-06   -4.041267860480427e-05
-1.2451616657836919e-05   2.51002899606949e-06   -4.041267860480427e-05
-1.2451616657836919e-05   2.51002899606949e-06   -4.041267860480427e-05
-1.2451616657836919e-05   2.51002899606949e-06   -4.041267860480427e-05
-1.546246367006989e-05   3.2614819785123936e-06   -4.627904680260496e-05
-1.546246367006989e-05   3.2614819785123936e-06   -4.627904680260496e-05
-1.546246367006989e-05   3.2614819785123936e-06   -4.627904680260496e-05
-1.546246367006989e-05   3.2614819785123936e-06   -4.627904680260496e-05
-9.198144525268073e-06   3.249886735267986e-06   -3.584547204054842e-05
-9.198144525268073e-06   3.249886735267986e-06   -3.584547204054842e-05
-9.198144525268073e-06   3.249886735267986e-06   -3.584547204054842e-05
-9.198144525268073e-06   3.249886735267986e-06   -3.584547204054842e-05
-8.98601335168061e-06   4.702405043098871e-06   -4.70651059146154e-05
-8.98601335168061e-06   4.702405043098871e-06   -4.70651059146154e-05
-8.98601335168061e-06   4.702405043098871e-06   -4.70651059146154e-05
-8.98601335168061e-06   4.702405043098871e-06   -4.70651059146154e-05
-1.5250953546555414e-05   4.5734107416344014e-06   -3.654614234227844e-05
-1.5250953546555414e-05   4.5734107416344014e-06   -3.654614234227844e-05
-1.5250953546555414e-05   4.5734107416344014e-06   -3.654614234227844e-05
-1.5250953546555414e-05   4.5734107416344014e-06   -3.654614234227844e-05
-1.233525225595465e-05   3.6352657649058387e-06   -4.0842757507242994e-05
-1.233525225595465e-05   3.6352657649058387e-06   -4.0842757507242994e-05
-1.233525225595465e-05   3.6352657649058387e-06   -4.0842757507242994e-05
-1.233525225595465e-05   3.6352657649058387e-06   -4.0842757507242994e-05
-9.64412823334118e-06   -1.4747326976143928e-06   -4.0980202120640026e-05
-9.64412823334118e-06   -1.4747326976143928e-06   -4.0980202120640026e-05
-9.64412823334118e-06   -1.4747326976143928e-06   -4.0980202120640026e-05
-9.64412823334118e-06   -1.4747326976143928e-06   -4.0980202120640026e-05
-3.561854876474611e-06   2.7917324859597255e-07   -2.979073629146955e-05
-3.561854876474611e-06   2.7917324859597255e-07   -2.979073629146955e-05
-3.561854876474611e-06   2.7917324859597255e-07   -2.979073629146955e-05
-3.561854876474611e-06   2.7917324859597255e-07   -2.979073629146955e-05
-3.2483004568088807e-06   -1.451619551602265e-07   -3.9662954702760194e-05
-3.2483004568088807e-06   -1.451619551602265e-07   -3.9662954702760194e-05
-3.2483004568088807e-06   -1.451619551602265e-07   -3.9662954702760194e-05
-3.2483004568088807e-06   -1.451619551602265e-07   -3.9662954702760194e-05
-9.434255931018789e-06   1.5311737428607385e-06   -3.03588303312227e-05
-9.434255931018789e-06   1.5311737428607385e-06   -3.03588303312227e-05
-9.434255931018789e-06   1.5311737428607385e-06   -3.03588303312227e-05
-9.434255931018789e-06   1.5311737428607385e-06   -3.03588303312227e-05
-6.406830370387191e-06   1.7835892549000754e-07   -3.4592850708520186e-05
-6.406830370387191e-06   1.7835892549000754e-07   -3.4592850708520186e-05
-6.406830370387191e-06   1.7835892549000754e-07   -3.4592850708520186e-05
-6.406830370387191e-06   1.7835892549000754e-07   -3.4592850708520186e-05
-9.434255931018774e-06   -1.451619551602265e-07   -4.0668756121572795e-05
-9.434255931018774e-06   -1.451619551602265e-07   -4.0668756121572795e-05
-9.434255931018774e-06   -1.451619551602265e-07   -4.0668756121572795e-05
-9.434255931018774e-06   -1.451619551602265e-07   -4.0668756121572795e-05
-3.2483004568088807e-06   1.5311737428609553e-06   -2.935302891241031e-05
-3.2483004568088807e-06   1.5311737428609553e-06   -2.935302891241031e-05
-3.2483004568088807e-06   1.5311737428609553e-06   -2.935302891241031e-05
-3.2483004568088807e-06   1.5311737428609553e-06   -2.935302891241031e-05
-2.782799556602189e-06   1.1339905816084433e-06   -4.019737788222904e-05
-2.782799556602189e-06   1.1339905816084433e-06   -4.019737788222904e-05
-2.782799556602189e-06   1.1339905816084433e-06   -4.019737788222904e-05
-2.782799556602189e-06   1.1339905816084433e-06   -4.019737788222904e-05
-9.198144525268058e-06   2.711018047416719e-06   -3.045135274727083e-05
-9.198144525268058e-06   2.711018047416719e-06   -3.045135274727083e-05
-9.198144525268058e-06   2.711018047416719e-06   -3.045135274727083e-05
-9.198144525268058e-06   2.711018047416719e-06   -3.045135274727083e-05
-6.2172359705156984e-06   1.1891968090804988e-06   -3.450644092885648e-05
-6.2172359705156984e-06   1.1891968090804988e-06   -3.450644092885648e-05
-6.2172359705156984e-06   1.1891968090804988e-06   -3.450644092885648e-05
-6.2172359705156984e-06   1.1891968090804988e-06   -3.450644092885648e-05
-9.198144525268032e-06   1.1339905816084433e-06   -4.1143594361713704e-05
-9.198144525268032e-06   1.1339905816084433e-06   -4.1143594361713704e-05
-9.198144525268032e-06   1.1339905816084433e-06   -4.1143594361713704e-05
-9.198144525268032e-06   1.1339905816084433e-06   -4.1143594361713704e-05
-2.7827995566022027e-06   2.711018047416719e-06   -2.950513626778599e-05
-2.7827995566022027e-06   2.711018047416719e-06   -2.950513626778599e-05
-2.7827995566022027e-06   2.711018047416719e-06   -2.950513626778599e-05
-2.7827995566022027e-06   2.711018047416719e-06   -2.950513626778599e-05
-2.457781107858821e-06   2.6001443361551788e-06   -4.132164247299536e-05
-2.457781107858821e-06   2.6001443361551788e-06   -4.132164247299536e-05
-2.457781107858821e-06   2.6001443361551788e-06   -4.132164247299536e-05
-2.457781107858821e-06   2.6001443361551788e-06   -4.132164247299536e-05
-8.98601335168061e-06   4.0451360309398145e-06   -3.1308250416829585e-05
-8.98601335168061e-06   4.0451360309398145e-06   -3.1308250416829585e-05
-8.98601335168061e-06   4.0451360309398145e-06   -3.1308250416829585e-05
-8.98601335168061e-06   4.0451360309398145e-06   -3.1308250416829585e-05
-6.0187589102693405e-06   2.248683181996702e-06   -3.517580277648258e-05
-6.0187589102693405e-06   2.248683181996702e-06   -3.517580277648258e-05
-6.0187589102693405e-06   2.248683181996702e-06   -3.517580277648258e-05
-6.0187589102693405e-06   2.248683181996702e-06   -3.517580277648258e-05
-3.5618548764745976e-06   -2.710283931681612e-06   -2.2240013411415076e-05
-3.5618548764745976e-06   -2.710283931681612e-06   -2.2240013411415076e-05
-3.5618548764745976e-06   -2.710283931681612e-06   -2.2240013411415076e-05
-3.5618548764745976e-06   -2.710283931681612e-06   -2.2240013411415076e-05
9.375208205571542e-07   3.86938241101354e-07   -1.2882720612692432e-05
9.375208205571542e-07   3.86938241101354e-07   -1.2882720612692432e-05
9.375208205571542e-07   3.86938241101354e-07   -1.2882720612692432e-05
9.375208205571542e-07   3.86938241101354e-07   -1.2882720612692432e-05
2.5917466397902262e-06   -1.80981967463998e-06   -2.1241015561648943e-05
2.5917466397902262e-06   -1.80981967463998e-06   -2.1241015561648943e-05
2.5917466397902262e-06   -1.80981967463998e-06   -2.1241015561648943e-05
2.5917466397902262e-06   -1.80981967463998e-06   -2.1241015561648943e-05
-3.2483004568088807e-06   1.3764767401620859e-06   -1.3419381582864645e-05
-3.2483004568088807e-06   1.3764767401620859e-06   -1.3419381582864645e-05
-3.2483004568088807e-06   1.3764767401620859e-06   -1.3419381582864645e-05
-3.2483004568088807e-06   1.3764767401620859e-06   -1.3419381582864645e-05
-7.989752984348966e-07   -5.555503169878996e-07   -1.6342373945865132e-05
-7.989752984348966e-07   -5.555503169878996e-07   -1.6342373945865132e-05
-7.989752984348966e-07   -5.555503169878996e-07   -1.6342373945865132e-05
-7.989752984348966e-07   -5.555503169878996e-07   -1.6342373945865132e-05
-3.248300456808867e-06   -1.8098196746400884e-06   -2.3152793410529792e-05
-3.248300456808867e-06   -1.8098196746400884e-06   -2.3152793410529792e-05
-3.248300456808867e-06   -1.8098196746400884e-06   -2.3152793410529792e-05
-3.248300456808867e-06   -1.8098196746400884e-06   -2.3152793410529792e-05
2.5917466397902262e-06   1.3764767401620859e-06   -1.1507603733983498e-05
2.5917466397902262e-06   1.3764767401620859e-06   -1.1507603733983498e-05
2.5917466397902262e-06   1.3764767401620859e-06   -1.1507603733983498e-05
2.5917466397902262e-06   1.3764767401620859e-06   -1.1507603733983498e-05
3.897912041210452e-06   -1.1880940693075222e-06   -2.2399562841934288e-05
3.897912041210452e-06   -1.1880940693075222e-06   -2.2399562841934288e-05
3.897912041210452e-06   -1.1880940693075222e-06   -2.2399562841934288e-05
3.897912041210452e-06   -1.1880940693075222e-06   -2.2399562841934288e-05
-2.7827995566022027e-06   1.933012049718831e-06   -1.3137707183662114e-05
-2.7827995566022027e-06   1.933012049718831e-06   -1.3137707183662114e-05
-2.7827995566022027e-06   1.933012049718831e-06   -1.3137707183662114e-05
-2.7827995566022027e-06   1.933012049718831e-06   -1.3137707183662114e-05
4.05945884901851e-08   -8.178916561466659e-08   -1.663448336294924e-05
4.05945884901851e-08   -8.178916561466659e-08   -1.663448336294924e-05
4.05945884901851e-08   -8.178916561466659e-08   -1.663448336294924e-05
4.05945884901851e-08   -8.178916561466659e-08   -1.663448336294924e-05
-2.782799556602189e-06   -1.1880940693075222e-06   -2.4272226513349948e-05
-2.782799556602189e-06   -1.1880940693075222e-06   -2.4272226513349948e-05
-2.782799556602189e-06   -1.1880940693075222e-06   -2.4272226513349948e-05
-2.782799556602189e-06   -1.1880940693075222e-06   -2.4272226513349948e-05
3.8979120412104245e-06   1.933012049718831e-06   -1.1265043512246318e-05
3.8979120412104245e-06   1.933012049718831e-06   -1.1265043512246318e-05
3.8979120412104245e-06   1.933012049718831e-06   -1.1265043512246318e-05
3.8979120412104245e-06   1.933012049718831e-06   -1.1265043512246318e-05
5.545989978989819e-06   3.4265567569013826e-08   -2.509361204927949e-05
5.545989978989819e-06   3.4265567569013826e-08   -2.509361204927949e-05
5.545989978989819e-06   3.4265567569013826e-08   -2.509361204927949e-05
5.545989978989819e-06   3.4265567569013826e-08   -2.509361204927949e-05
-2.4577811078588344e-06   2.9200541037544686e-06   -1.3485466692909318e-05
-2.4577811078588344e-06   2.9200541037544686e-06   -1.3485466692909318e-05
-2.4577811078588344e-06   2.9200541037544686e-06   -1.3485466692909318e-05
-2.4577811078588344e-06   2.9200541037544686e-06   -1.3485466692909318e-05
7.622208974256535e-07   4.5908200743400955e-07   -1.7375553443924887e-05
7.622208974256535e-07   4.5908200743400955e-07   -1.7375553443924887e-05
7.622208974256535e-07   4.5908200743400955e-07   -1.7375553443924887e-05
7.622208974256535e-07   4.5908200743400955e-07   -1.7375553443924887e-05
-1.0549584455376237e-05   1.986691727201605e-06   -1.891103534976471e-05
-1.0549584455376237e-05   1.986691727201605e-06   -1.891103534976471e-05
-1.0549584455376237e-05   1.986691727201605e-06   -1.891103534976471e-05
-1.0549584455376237e-05   1.986691727201605e-06   -1.891103534976471e-05
-1.0688393983474415e-05   -9.235425299566197e-07   -2.08885251175568e-05
-1.0688393983474415e-05   -9.235425299566197e-07   -2.08885251175568e-05
-1.0688393983474415e-05   -9.235425299566197e-07   -2.08885251175568e-05
-1.0688393983474415e-05   -9.235425299566197e-07   -2.08885251175568e-05
-1.0152855916326808e-05   3.093444733940449e-06   -1.776822163948458e-05
-1.0152855916326808e-05   3.093444733940449e-06   -1.776822163948458e-05
-1.0152855916326808e-05   3.093444733940449e-06   -1.776822163948458e-05
-1.0152855916326808e-05   3.093444733940449e-06   -1.776822163948458e-05
-8.707134280446676e-06   -2.816394830524281e-08   -1.8304792489937192e-05
-8.707134280446676e-06   -2.816394830524281e-08   -1.8304792489937192e-05
-8.707134280446676e-06   -2.816394830524281e-08   -1.8304792489937192e-05
-8.707134280446676e-06   -2.816394830524281e-08   -1.8304792489937192e-05
-9.586321566942791e-06   1.3676946032797899e-06   -1.7676995476728825e-05
-9.586321566942791e-06   1.3676946032797899e-06   -1.7676995476728825e-05
-9.586321566942791e-06   1.3676946032797899e-06   -1.7676995476728825e-05
-9.586321566942791e-06   1.3676946032797899e-06   -1.7676995476728825e-05
-8.707134280446676e-06   3.093444733940449e-06   -1.5895256430137144e-05
-8.707134280446676e-06   3.093444733940449e-06   -1.5895256430137144e-05
-8.707134280446676e-06   3.093444733940449e-06   -1.5895256430137144e-05
-8.707134280446676e-06   3.093444733940449e-06   -1.5895256430137144e-05
-1.0152855916326835e-05   -2.816394830524281e-08   -2.017775769928479e-05
-1.0152855916326835e-05   -2.816394830524281e-08   -2.017775769928479e-05
-1.0152855916326835e-05   -2.816394830524281e-08   -2.017775769928479e-05
-1.0152855916326835e-05   -2.816394830524281e-08   -2.017775769928479e-05
-9.477341264679714e-06   3.6526044982132435e-06   -1.6489067764299554e-05
-9.477341264679714e-06   3.6526044982132435e-06   -1.6489067764299554e-05
-9.477341264679714e-06   3.6526044982132435e-06   -1.6489067764299554e-05
-9.477341264679714e-06   3.6526044982132435e-06   -1.6489067764299554e-05
-7.183424152317397e-06   4.783077856668986e-07   -1.8407684924041977e-05
-7.183424152317397e-06   4.783077856668986e-07   -1.8407684924041977e-05
-7.183424152317397e-06   4.783077856668986e-07   -1.8407684924041977e-05
-7.183424152317397e-06   4.783077856668986e-07   -1.8407684924041977e-05
-8.713946486477975e-06   1.8273727095932581e-06   -1.6666253321464153e-05
-8.713946486477975e-06   1.8273727095932581e-06   -1.6666253321464153e-05
-8.713946486477975e-06   1.8273727095932581e-06   -1.6666253321464153e-05
-8.713946486477975e-06   1.8273727095932581e-06   -1.6666253321464153e-05
-7.183424152317397e-06   3.6526044982132435e-06   -1.4584489736771638e-05
-7.183424152317397e-06   3.6526044982132435e-06   -1.4584489736771638e-05
-7.183424152317397e-06   3.6526044982132435e-06   -1.4584489736771638e-05
-7.183424152317397e-06   3.6526044982132435e-06   -1.4584489736771638e-05
-9.477341264679741e-06   4.783077856668986e-07   -2.0312262951569784e-05
-9.477341264679741e-06   4.783077856668986e-07   -2.0312262951569784e-05
-9.477341264679741e-06   4.783077856668986e-07   -2.0312262951569784e-05
-9.477341264679741e-06   4.783077856668986e-07   -2.0312262951569784e-05
-8.95038199918535e-06   4.538325487085963e-06   -1.529958276418335e-05
-8.95038199918535e-06   4.538325487085963e-06   -1.529958276418335e-05
-8.95038199918535e-06   4.538325487085963e-06   -1.529958276418335e-05
-8.95038199918535e-06   4.538325487085963e-06   -1.529958276418335e-05
-5.302131651314034e-06   1.4884435130995202e-06   -1.9550070826243647e-05
-5.302131651314034e-06   1.4884435130995202e-06   -1.9550070826243647e-05
-5.302131651314034e-06   1.4884435130995202e-06   -1.9550070826243647e-05
-5.302131651314034e-06   1.4884435130995202e-06   -1.9550070826243647e-05
-7.623490520967206e-06   2.2678525954059753e-06   -1.614878482620566e-05
-7.623490520967206e-06   2.2678525954059753e-06   -1.614878482620566e-05
-7.623490520967206e-06   2.2678525954059753e-06   -1.614878482620566e-05
-7.623490520967206e-06   2.2678525954059753e-06   -1.614878482620566e-05
-1.0688393983474388e-05   1.1404452929537207e-06   -3.437786705414315e-05
-1.0688393983474388e-05   1.1404452929537207e-06   -3.437786705414315e-05
-1.0688393983474388e-05   1.1404452929537207e-06   -3.437786705414315e-05
-1.0688393983474388e-05   1.1404452929537207e-06   -3.437786705414315e-05
-1.2312892007423519e-05   -2.0016697793007708e-07   -3.7889731123255514e-05
-1.2312892007423519e-05   -2.0016697793007708e-07   -3.7889731123255514e-05
-1.2312892007423519e-05   -2.0016697793007708e-07   -3.7889731123255514e-05
-1.2312892007423519e-05   -2.0016697793007708e-07   -3.7889731123255514e-05
-1.1880134216623643e-05   2.409494714590999e-06   -3.440374314338658e-05
-1.1880134216623643e-05   2.409494714590999e-06   -3.440374314338658e-05
-1.1880134216623643e-05   2.409494714590999e-06   -3.440374314338658e-05
-1.1880134216623643e-05   2.409494714590999e-06   -3.440374314338658e-05
-1.0152855916326808e-05   9.295527502203686e-07   -3.6394575131925514e-05
-1.0152855916326808e-05   9.295527502203686e-07   -3.6394575131925514e-05
-1.0152855916326808e-05   9.295527502203686e-07   -3.6394575131925514e-05
-1.0152855916326808e-05   9.295527502203686e-07   -3.6394575131925514e-05
-1.1127425033699117e-05   1.3177425228745945e-06   -3.500320713323155e-05
-1.1127425033699117e-05   1.3177425228745945e-06   -3.500320713323155e-05
-1.1127425033699117e-05   1.3177425228745945e-06   -3.500320713323155e-05
-1.1127425033699117e-05   1.3177425228745945e-06   -3.500320713323155e-05
-1.015285591632678e-05   2.409494714590999e-06   -3.351577796476403e-05
-1.015285591632678e-05   2.409494714590999e-06   -3.351577796476403e-05
-1.015285591632678e-05   2.409494714590999e-06   -3.351577796476403e-05
-1.015285591632678e-05   2.409494714590999e-06   -3.351577796476403e-05
-1.1880134216623616e-05   9.295527502203686e-07   -3.728254031054796e-05
-1.1880134216623616e-05   9.295527502203686e-07   -3.728254031054796e-05
-1.1880134216623616e-05   9.295527502203686e-07   -3.728254031054796e-05
-1.1880134216623616e-05   9.295527502203686e-07   -3.728254031054796e-05
-1.1430051272611093e-05   3.5894881483446855e-06   -3.411536143175945e-05
-1.1430051272611093e-05   3.5894881483446855e-06   -3.411536143175945e-05
-1.1430051272611093e-05   3.5894881483446855e-06   -3.411536143175945e-05
-1.1430051272611093e-05   3.5894881483446855e-06   -3.411536143175945e-05
-9.477341264679768e-06   2.0171994191062192e-06   -3.6426504874101774e-05
-9.477341264679768e-06   2.0171994191062192e-06   -3.6426504874101774e-05
-9.477341264679768e-06   2.0171994191062192e-06   -3.6426504874101774e-05
-9.477341264679768e-06   2.0171994191062192e-06   -3.6426504874101774e-05
-1.0693771539774852e-05   2.228499501487867e-06   -3.4525901131705645e-05
-1.0693771539774852e-05   2.228499501487867e-06   -3.4525901131705645e-05
-1.0693771539774852e-05   2.228499501487867e-06   -3.4525901131705645e-05
-1.0693771539774852e-05   2.228499501487867e-06   -3.4525901131705645e-05
-9.477341264679714e-06   3.5894881483446855e-06   -3.317198819421626e-05
-9.477341264679714e-06   3.5894881483446855e-06   -3.317198819421626e-05
-9.477341264679714e-06   3.5894881483446855e-06   -3.317198819421626e-05
-9.477341264679714e-06   3.5894881483446855e-06   -3.317198819421626e-05
-1.1430051272611052e-05   2.0171994191062192e-06   -3.736987811164458e-05
-1.1430051272611052e-05   2.0171994191062192e-06   -3.736987811164458e-05
-1.1430051272611052e-05   2.0171994191062192e-06   -3.736987811164458e-05
-1.1430051272611052e-05   2.0171994191062192e-06   -3.736987811164458e-05
-1.1006135776398245e-05   4.9006409831324135e-06   -3.4680362258522265e-05
-1.1006135776398245e-05   4.9006409831324135e-06   -3.4680362258522265e-05
-1.1006135776398245e-05   4.9006409831324135e-06   -3.4680362258522265e-05
-1.1006135776398245e-05   4.9006409831324135e-06   -3.4680362258522265e-05
-8.950381999185377e-06   3.2591527306937915e-06   -3.71217256024137e-05
-8.950381999185377e-06   3.2591527306937915e-06   -3.71217256024137e-05
-8.950381999185377e-06   3.2591527306937915e-06   -3.71217256024137e-05
-8.950381999185377e-06   3.2591527306937915e-06   -3.71217256024137e-05
-1.031221579964245e-05   3.183856398548566e-06   -3.4806824802364935e-05
-1.031221579964245e-05   3.183856398548566e-06   -3.4806824802364935e-05
-1.031221579964245e-05   3.183856398548566e-06   -3.4806824802364935e-05
-1.031221579964245e-05   3.183856398548566e-06   -3.4806824802364935e-05
-1.2312892007423492e-05   6.535145442001979e-07   -4.003504509446972e-05
-1.2312892007423492e-05   6.535145442001979e-07   -4.003504509446972e-05
-1.2312892007423492e-05   6.535145442001979e-07   -4.003504509446972e-05
-1.2312892007423492e-05   6.535145442001979e-07   -4.003504509446972e-05
-1.4023811289147112e-05   9.367109804606956e-07   -4.2716659368919534e-05
-1.4023811289147112e-05   9.367109804606956e-07   -4.2716659368919534e-05
-1.4023811289147112e-05   9.367109804606956e-07   -4.2716659368919534e-05
-1.4023811289147112e-05   9.367109804606956e-07   -4.2716659368919534e-05
-1.3598501268285948e-05   1.9460384877221897e-06   -3.941822637369328e-05
-1.3598501268285948e-05   1.9460384877221897e-06   -3.941822637369328e-05
-1.3598501268285948e-05   1.9460384877221897e-06   -3.941822637369328e-05
-1.3598501268285948e-05   1.9460384877221897e-06   -3.941822637369328e-05
-1.1880134216623616e-05   2.1043422182005604e-06   -4.2377153698084144e-05
-1.1880134216623616e-05   2.1043422182005604e-06   -4.2377153698084144e-05
-1.1880134216623616e-05   2.1043422182005604e-06   -4.2377153698084144e-05
-1.1880134216623616e-05   2.1043422182005604e-06   -4.2377153698084144e-05
-1.2875854008744125e-05   1.5920070357447295e-06   -4.041021960174353e-05
-1.2875854008744125e-05   1.5920070357447295e-06   -4.041021960174353e-05
-1.2875854008744125e-05   1.5920070357447295e-06   -4.041021960174353e-05
-1.2875854008744125e-05   1.5920070357447295e-06   -4.041021960174353e-05
-1.1880134216623575e-05   1.9460384877221897e-06   -3.9513208611980256e-05
-1.1880134216623575e-05   1.9460384877221897e-06   -3.9513208611980256e-05
-1.1880134216623575e-05   1.9460384877221897e-06   -3.9513208611980256e-05
-1.1880134216623575e-05   1.9460384877221897e-06   -3.9513208611980256e-05
-1.3598501268285973e-05   2.1043422182007773e-06   -4.228217145979725e-05
-1.3598501268285973e-05   2.1043422182007773e-06   -4.228217145979725e-05
-1.3598501268285973e-05   2.1043422182007773e-06   -4.228217145979725e-05
-1.3598501268285973e-05   2.1043422182007773e-06   -4.228217145979725e-05
-1.3151187624613146e-05   3.249886735267986e-06   -3.9532634352628044e-05
-1.3151187624613146e-05   3.249886735267986e-06   -3.9532634352628044e-05
-1.3151187624613146e-05   3.249886735267986e-06   -3.9532634352628044e-05
-1.3151187624613146e-05   3.249886735267986e-06   -3.9532634352628044e-05
-1.1430051272611093e-05   3.297646048069187e-06   -4.242985052697849e-05
-1.1430051272611093e-05   3.297646048069187e-06   -4.242985052697849e-05
-1.1430051272611093e-05   3.297646048069187e-06   -4.242985052697849e-05
-1.1430051272611093e-05   3.297646048069187e-06   -4.242985052697849e-05
-1.2518917777910959e-05   2.590821320100703e-06   -4.019097818136507e-05
-1.2518917777910959e-05   2.590821320100703e-06   -4.019097818136507e-05
-1.2518917777910959e-05   2.590821320100703e-06   -4.019097818136507e-05
-1.2518917777910959e-05   2.590821320100703e-06   -4.019097818136507e-05
-1.1430051272611052e-05   3.249886735267986e-06   -3.956128994030844e-05
-1.1430051272611052e-05   3.249886735267986e-06   -3.956128994030844e-05
-1.1430051272611052e-05   3.249886735267986e-06   -3.956128994030844e-05
-1.1430051272611052e-05   3.249886735267986e-06   -3.956128994030844e-05
-1.3151187624613146e-05   3.297646048069187e-06   -4.240119493929785e-05
-1.3151187624613146e-05   3.297646048069187e-06   -4.240119493929785e-05
-1.3151187624613146e-05   3.297646048069187e-06   -4.240119493929785e-05
-1.3151187624613146e-05   3.297646048069187e-06   -4.240119493929785e-05
-1.2729305893778933e-05   4.573410741634618e-06   -4.029994617289962e-05
-1.2729305893778933e-05   4.573410741634618e-06   -4.029994617289962e-05
-1.2729305893778933e-05   4.573410741634618e-06   -4.029994617289962e-05
-1.2729305893778933e-05   4.573410741634618e-06   -4.029994617289962e-05
-1.1006135776398259e-05   4.50746251491824e-06   -4.313232743250416e-05
-1.1006135776398259e-05   4.50746251491824e-06   -4.313232743250416e-05
-1.1006135776398259e-05   4.50746251491824e-06   -4.313232743250416e-05
-1.1006135776398259e-05   4.50746251491824e-06   -4.313232743250416e-05
-1.2190381803237934e-05   3.6036108225225797e-06   -4.061627303900069e-05
-1.2190381803237934e-05   3.6036108225225797e-06   -4.061627303900069e-05
-1.2190381803237934e-05   3.6036108225225797e-06   -4.061627303900069e-05
-1.2190381803237934e-05   3.6036108225225797e-06   -4.061627303900069e-05
-1.4023811289147061e-05   2.7917324859597255e-07   -3.453976054631678e-05
-1.4023811289147061e-05   2.7917324859597255e-07   -3.453976054631678e-05
-1.4023811289147061e-05   2.7917324859597255e-07   -3.453976054631678e-05
-1.4023811289147061e-05   2.7917324859597255e-07   -3.453976054631678e-05
-1.5830240860861017e-05   2.0820134130957596e-06   -3.6468772400473554e-05
-1.5830240860861017e-05   2.0820134130957596e-06   -3.6468772400473554e-05
-1.5830240860861017e-05   2.0820134130957596e-06   -3.6468772400473554e-05
-1.5830240860861017e-05   2.0820134130957596e-06   -3.6468772400473554e-05
-1.5315654752135225e-05   1.5311737428607385e-06   -3.3021479436085173e-05
-1.5315654752135225e-05   1.5311737428607385e-06   -3.3021479436085173e-05
-1.5315654752135225e-05   1.5311737428607385e-06   -3.3021479436085173e-05
-1.5315654752135225e-05   1.5311737428607385e-06   -3.3021479436085173e-05
-1.3598501268285948e-05   3.2535719157195803e-06   -3.6916840812882274e-05
-1.3598501268285948e-05   3.2535719157195803e-06   -3.6916840812882274e-05
-1.3598501268285948e-05   3.2535719157195803e-06   -3.6916840812882274e-05
-1.3598501268285948e-05   3.2535719157195803e-06   -3.6916840812882274e-05
-1.457850798728166e-05   1.9170048838111717e-06   -3.448155606207827e-05
-1.457850798728166e-05   1.9170048838111717e-06   -3.448155606207827e-05
-1.457850798728166e-05   1.9170048838111717e-06   -3.448155606207827e-05
-1.457850798728166e-05   1.9170048838111717e-06   -3.448155606207827e-05
-1.3598501268285926e-05   1.5311737428607385e-06   -3.4054918339800305e-05
-1.3598501268285926e-05   1.5311737428607385e-06   -3.4054918339800305e-05
-1.3598501268285926e-05   1.5311737428607385e-06   -3.4054918339800305e-05
-1.3598501268285926e-05   1.5311737428607385e-06   -3.4054918339800305e-05
-1.5315654752135225e-05   3.2535719157193634e-06   -3.5883401909167305e-05
-1.5315654752135225e-05   3.2535719157193634e-06   -3.5883401909167305e-05
-1.5315654752135225e-05   3.2535719157193634e-06   -3.5883401909167305e-05
-1.5315654752135225e-05   3.2535719157193634e-06   -3.5883401909167305e-05
-1.4650717559881648e-05   2.711018047416719e-06   -3.316450249068992e-05
-1.4650717559881648e-05   2.711018047416719e-06   -3.316450249068992e-05
-1.4650717559881648e-05   2.711018047416719e-06   -3.316450249068992e-05
-1.4650717559881648e-05   2.711018047416719e-06   -3.316450249068992e-05
-1.3151187624613122e-05   4.334372328517562e-06   -3.6637731618131144e-05
-1.3151187624613122e-05   4.334372328517562e-06   -3.6637731618131144e-05
-1.3151187624613122e-05   4.334372328517562e-06   -3.6637731618131144e-05
-1.3151187624613122e-05   4.334372328517562e-06   -3.6637731618131144e-05
-1.4118622893561027e-05   2.8464798790556883e-06   -3.4132604033541424e-05
-1.4118622893561027e-05   2.8464798790556883e-06   -3.4132604033541424e-05
-1.4118622893561027e-05   2.8464798790556883e-06   -3.4132604033541424e-05
-1.4118622893561027e-05   2.8464798790556883e-06   -3.4132604033541424e-05
-1.3151187624613088e-05   2.711018047416719e-06   -3.413851505935028e-05
-1.3151187624613088e-05   2.711018047416719e-06   -3.413851505935028e-05
-1.3151187624613088e-05   2.711018047416719e-06   -3.413851505935028e-05
-1.3151187624613088e-05   2.711018047416719e-06   -3.413851505935028e-05
-1.4650717559881688e-05   4.3343723285177785e-06   -3.5663719049470804e-05
-1.4650717559881688e-05   4.3343723285177785e-06   -3.5663719049470804e-05
-1.4650717559881688e-05   4.3343723285177785e-06   -3.5663719049470804e-05
-1.4650717559881688e-05   4.3343723285177785e-06   -3.5663719049470804e-05
-1.4128330651242657e-05   4.0451360309398145e-06   -3.4084350368257066e-05
-1.4128330651242657e-05   4.0451360309398145e-06   -3.4084350368257066e-05
-1.4128330651242657e-05   4.0451360309398145e-06   -3.4084350368257066e-05
-1.4128330651242657e-05   4.0451360309398145e-06   -3.4084350368257066e-05
-1.2729305893778933e-05   5.545648194798429e-06   -3.7316365595678195e-05
-1.2729305893778933e-05   5.545648194798429e-06   -3.7316365595678195e-05
-1.2729305893778933e-05   5.545648194798429e-06   -3.7316365595678195e-05
-1.2729305893778933e-05   5.545648194798429e-06   -3.7316365595678195e-05
-1.3774111594055818e-05   3.796415548778251e-06   -3.452548317427098e-05
-1.3774111594055818e-05   3.796415548778251e-06   -3.452548317427098e-05
-1.3774111594055818e-05   3.796415548778251e-06   -3.452548317427098e-05
-1.3774111594055818e-05   3.796415548778251e-06   -3.452548317427098e-05
-1.5830240860860962e-05   3.86938241101354e-07   -1.840837407250976e-05
-1.5830240860860962e-05   3.86938241101354e-07   -1.840837407250976e-05
-1.5830240860860962e-05   3.86938241101354e-07   -1.840837407250976e-05
-1.5830240860860962e-05   3.86938241101354e-07   -1.840837407250976e-05
-1.9170844989435838e-05   3.49856509783311e-06   -2.2109071506095507e-05
-1.9170844989435838e-05   3.49856509783311e-06   -2.2109071506095507e-05
-1.9170844989435838e-05   3.49856509783311e-06   -2.2109071506095507e-05
-1.9170844989435838e-05   3.49856509783311e-06   -2.2109071506095507e-05
-1.7343589026661254e-05   1.3764767401620859e-06   -1.5177317493124897e-05
-1.7343589026661254e-05   1.3764767401620859e-06   -1.5177317493124897e-05
-1.7343589026661254e-05   1.3764767401620859e-06   -1.5177317493124897e-05
-1.7343589026661254e-05   1.3764767401620859e-06   -1.5177317493124897e-05
-1.5315654752135198e-05   4.560667762519999e-06   -2.0467722564082954e-05
-1.5315654752135198e-05   4.560667762519999e-06   -2.0467722564082954e-05
-1.5315654752135198e-05   4.560667762519999e-06   -2.0467722564082954e-05
-1.5315654752135198e-05   4.560667762519999e-06   -2.0467722564082954e-05
-1.623050042407015e-05   2.5842143076433826e-06   -1.7757107704599118e-05
-1.623050042407015e-05   2.5842143076433826e-06   -1.7757107704599118e-05
-1.623050042407015e-05   2.5842143076433826e-06   -1.7757107704599118e-05
-1.623050042407015e-05   2.5842143076433826e-06   -1.7757107704599118e-05
-1.5315654752135158e-05   1.3764767401620859e-06   -1.7087832106539428e-05
-1.5315654752135158e-05   1.3764767401620859e-06   -1.7087832106539428e-05
-1.5315654752135158e-05   1.3764767401620859e-06   -1.7087832106539428e-05
-1.5315654752135158e-05   1.3764767401620859e-06   -1.7087832106539428e-05
-1.73435890266612e-05   4.560667762519999e-06   -1.8557207950668396e-05
-1.73435890266612e-05   4.560667762519999e-06   -1.8557207950668396e-05
-1.73435890266612e-05   4.560667762519999e-06   -1.8557207950668396e-05
-1.73435890266612e-05   4.560667762519999e-06   -1.8557207950668396e-05
-1.5857371887558462e-05   1.933012049719048e-06   -1.492869491068324e-05
-1.5857371887558462e-05   1.933012049719048e-06   -1.492869491068324e-05
-1.5857371887558462e-05   1.933012049719048e-06   -1.492869491068324e-05
-1.5857371887558462e-05   1.933012049719048e-06   -1.492869491068324e-05
-1.4650717559881648e-05   5.046976209523895e-06   -1.8808163952694073e-05
-1.4650717559881648e-05   5.046976209523895e-06   -1.8808163952694073e-05
-1.4650717559881648e-05   5.046976209523895e-06   -1.8808163952694073e-05
-1.4650717559881648e-05   5.046976209523895e-06   -1.8808163952694073e-05
-1.5450392272950657e-05   3.0759113723304206e-06   -1.6292733861929774e-05
-1.5450392272950657e-05   3.0759113723304206e-06   -1.6292733861929774e-05
-1.5450392272950657e-05   3.0759113723304206e-06   -1.6292733861929774e-05
-1.5450392272950657e-05   3.0759113723304206e-06   -1.6292733861929774e-05
-1.4650717559881634e-05   1.933012049719048e-06   -1.6797073406566126e-05
-1.4650717559881634e-05   1.933012049719048e-06   -1.6797073406566126e-05
-1.4650717559881634e-05   1.933012049719048e-06   -1.6797073406566126e-05
-1.4650717559881634e-05   1.933012049719048e-06   -1.6797073406566126e-05
-1.5857371887558462e-05   5.046976209523678e-06   -1.6939785456811024e-05
-1.5857371887558462e-05   5.046976209523678e-06   -1.6939785456811024e-05
-1.5857371887558462e-05   5.046976209523678e-06   -1.6939785456811024e-05
-1.5857371887558462e-05   5.046976209523678e-06   -1.6939785456811024e-05
-1.4039715163473342e-05   2.9200541037542518e-06   -1.5400236946582738e-05
-1.4039715163473342e-05   2.9200541037542518e-06   -1.5400236946582738e-05
-1.4039715163473342e-05   2.9200541037542518e-06   -1.5400236946582738e-05
-1.4039715163473342e-05   2.9200541037542518e-06   -1.5400236946582738e-05
-1.412833065124263e-05   5.800595294795478e-06   -1.6980869181591545e-05
-1.412833065124263e-05   5.800595294795478e-06   -1.6980869181591545e-05
-1.412833065124263e-05   5.800595294795478e-06   -1.6980869181591545e-05
-1.412833065124263e-05   5.800595294795478e-06   -1.6980869181591545e-05
-1.4303060930927636e-05   3.4734650413066094e-06   -1.5293373896690075e-05
-1.4303060930927636e-05   3.4734650413066094e-06   -1.5293373896690075e-05
-1.4303060930927636e-05   3.4734650413066094e-06   -1.5293373896690075e-05
-1.4303060930927636e-05   3.4734650413066094e-06   -1.5293373896690075e-05
9.334845137100875e-06   -9.235425299564028e-07   -9.57785097926967e-06
9.334845137100875e-06   -9.235425299564028e-07   -9.57785097926967e-06
9.334845137100875e-06   -9.235425299564028e-07   -9.57785097926967e-06
9.334845137100875e-06   -9.235425299564028e-07   -9.57785097926967e-06
9.5724276859876e-07   -3.885918613760276e-06   -2.5317947243722115e-05
9.5724276859876e-07   -3.885918613760276e-06   -2.5317947243722115e-05
9.5724276859876e-07   -3.885918613760276e-06   -2.5317947243722115e-05
9.5724276859876e-07   -3.885918613760276e-06   -2.5317947243722115e-05
1.691492045939754e-06   -2.816394830524281e-08   -1.0580860009454978e-05
1.691492045939754e-06   -2.816394830524281e-08   -1.0580860009454978e-05
1.691492045939754e-06   -2.816394830524281e-08   -1.0580860009454978e-05
1.691492045939754e-06   -2.816394830524281e-08   -1.0580860009454978e-05
1.1385474375433398e-05   -3.1933150166235397e-06   -2.4838406584286863e-05
1.1385474375433398e-05   -3.1933150166235397e-06   -2.4838406584286863e-05
1.1385474375433398e-05   -3.1933150166235397e-06   -2.4838406584286863e-05
1.1385474375433398e-05   -3.1933150166235397e-06   -2.4838406584286863e-05
5.624611156538069e-06   -1.6212567782235114e-06   -1.6180202829167874e-05
5.624611156538069e-06   -1.6212567782235114e-06   -1.6180202829167874e-05
5.624611156538069e-06   -1.6212567782235114e-06   -1.6180202829167874e-05
5.624611156538069e-06   -1.6212567782235114e-06   -1.6180202829167874e-05
1.1385474375433398e-05   -2.816394830524281e-08   -8.681769368464086e-06
1.1385474375433398e-05   -2.816394830524281e-08   -8.681769368464086e-06
1.1385474375433398e-05   -2.816394830524281e-08   -8.681769368464086e-06
1.1385474375433398e-05   -2.816394830524281e-08   -8.681769368464086e-06
1.691492045939781e-06   -3.193315016623323e-06   -2.6737497225277863e-05
1.691492045939781e-06   -3.193315016623323e-06   -2.6737497225277863e-05
1.691492045939781e-06   -3.193315016623323e-06   -2.6737497225277863e-05
1.691492045939781e-06   -3.193315016623323e-06   -2.6737497225277863e-05
2.5570215312301775e-06   4.783077856668986e-07   -1.0661725520669718e-05
2.5570215312301775e-06   4.783077856668986e-07   -1.0661725520669718e-05
2.5570215312301775e-06   4.783077856668986e-07   -1.0661725520669718e-05
2.5570215312301775e-06   4.783077856668986e-07   -1.0661725520669718e-05
1.3118881401459745e-05   -2.7316147503619014e-06   -2.633887178276836e-05
1.3118881401459745e-05   -2.7316147503619014e-06   -2.633887178276836e-05
1.3118881401459745e-05   -2.7316147503619014e-06   -2.633887178276836e-05
1.3118881401459745e-05   -2.7316147503619014e-06   -2.633887178276836e-05
6.925441501175929e-06   -1.2976513966138793e-06   -1.687684996121158e-05
6.925441501175929e-06   -1.2976513966138793e-06   -1.687684996121158e-05
6.925441501175929e-06   -1.2976513966138793e-06   -1.687684996121158e-05
6.925441501175929e-06   -1.2976513966138793e-06   -1.687684996121158e-05
1.3118881401459745e-05   4.783077856668986e-07   -8.735771999052308e-06
1.3118881401459745e-05   4.783077856668986e-07   -8.735771999052308e-06
1.3118881401459745e-05   4.783077856668986e-07   -8.735771999052308e-06
1.3118881401459745e-05   4.783077856668986e-07   -8.735771999052308e-06
2.5570215312301775e-06   -2.7316147503619014e-06   -2.8264825304385663e-05
2.5570215312301775e-06   -2.7316147503619014e-06   -2.8264825304385663e-05
2.5570215312301775e-06   -2.7316147503619014e-06   -2.8264825304385663e-05
2.5570215312301775e-06   -2.7316147503619014e-06   -2.8264825304385663e-05
3.2695913103167632e-06   1.4884435130995202e-06   -1.1681983077822854e-05
3.2695913103167632e-06   1.4884435130995202e-06   -1.1681983077822854e-05
3.2695913103167632e-06   1.4884435130995202e-06   -1.1681983077822854e-05
3.2695913103167632e-06   1.4884435130995202e-06   -1.1681983077822854e-05
1.520113096677324e-05   -1.56820013860119e-06   -2.973389631422997e-05
1.520113096677324e-05   -1.56820013860119e-06   -2.973389631422997e-05
1.520113096677324e-05   -1.56820013860119e-06   -2.973389631422997e-05
1.520113096677324e-05   -1.56820013860119e-06   -2.973389631422997e-05
7.960482292917936e-06   -8.224834080090837e-07   -1.8113578562827307e-05
7.960482292917936e-06   -8.224834080090837e-07   -1.8113578562827307e-05
7.960482292917936e-06   -8.224834080090837e-07   -1.8113578562827307e-05
7.960482292917936e-06   -8.224834080090837e-07   -1.8113578562827307e-05
9.5724276859876e-07   -2.0016697793007708e-07   -2.7552115272720537e-05
9.5724276859876e-07   -2.0016697793007708e-07   -2.7552115272720537e-05
9.5724276859876e-07   -2.0016697793007708e-07   -2.7552115272720537e-05
9.5724276859876e-07   -2.0016697793007708e-07   -2.7552115272720537e-05
-8.820292969327306e-06   -1.5372647864852953e-06   -4.4650266854397115e-05
-8.820292969327306e-06   -1.5372647864852953e-06   -4.4650266854397115e-05
-8.820292969327306e-06   -1.5372647864852953e-06   -4.4650266854397115e-05
-8.820292969327306e-06   -1.5372647864852953e-06   -4.4650266854397115e-05
-8.176180826482027e-06   9.295527502203686e-07   -2.7708052252255677e-05
-8.176180826482027e-06   9.295527502203686e-07   -2.7708052252255677e-05
-8.176180826482027e-06   9.295527502203686e-07   -2.7708052252255677e-05
-8.176180826482027e-06   9.295527502203686e-07   -2.7708052252255677e-05
1.691492045939781e-06   -5.87738600046385e-07   -4.3243798896132075e-05
1.691492045939781e-06   -5.87738600046385e-07   -4.3243798896132075e-05
1.691492045939781e-06   -5.87738600046385e-07   -4.3243798896132075e-05
1.691492045939781e-06   -5.87738600046385e-07   -4.3243798896132075e-05
-3.504020100765574e-06   -5.8168286178874803e-08   -3.4902354173277036e-05
-3.504020100765574e-06   -5.8168286178874803e-08   -3.4902354173277036e-05
-3.504020100765574e-06   -5.8168286178874803e-08   -3.4902354173277036e-05
-3.504020100765574e-06   -5.8168286178874803e-08   -3.4902354173277036e-05
1.691492045939781e-06   9.295527502203686e-07   -2.6797677442095646e-05
1.691492045939781e-06   9.295527502203686e-07   -2.6797677442095646e-05
1.691492045939781e-06   9.295527502203686e-07   -2.6797677442095646e-05
1.691492045939781e-06   9.295527502203686e-07   -2.6797677442095646e-05
-8.176180826482027e-06   -5.877386000466018e-07   -4.415417370629232e-05
-8.176180826482027e-06   -5.877386000466018e-07   -4.415417370629232e-05
-8.176180826482027e-06   -5.877386000466018e-07   -4.415417370629232e-05
-8.176180826482027e-06   -5.877386000466018e-07   -4.415417370629232e-05
-7.5283969657749755e-06   2.0171994191062192e-06   -2.7749841336911904e-05
-7.5283969657749755e-06   2.0171994191062192e-06   -2.7749841336911904e-05
-7.5283969657749755e-06   2.0171994191062192e-06   -2.7749841336911904e-05
-7.5283969657749755e-06   2.0171994191062192e-06   -2.7749841336911904e-05
2.5570215312301775e-06   3.940762629223247e-07   -4.358499827154355e-05
2.5570215312301775e-06   3.940762629223247e-07   -4.358499827154355e-05
2.5570215312301775e-06   3.940762629223247e-07   -4.358499827154355e-05
2.5570215312301775e-06   3.940762629223247e-07   -4.358499827154355e-05
-2.9334862590407577e-06   7.216667254358964e-07   -3.4630706231933406e-05
-2.9334862590407577e-06   7.216667254358964e-07   -3.4630706231933406e-05
-2.9334862590407577e-06   7.216667254358964e-07   -3.4630706231933406e-05
-2.9334862590407577e-06   7.216667254358964e-07   -3.4630706231933406e-05
2.5570215312301775e-06   2.0171994191062192e-06   -2.6775967443201545e-05
2.5570215312301775e-06   2.0171994191062192e-06   -2.6775967443201545e-05
2.5570215312301775e-06   2.0171994191062192e-06   -2.6775967443201545e-05
2.5570215312301775e-06   2.0171994191062192e-06   -2.6775967443201545e-05
-7.5283969657749755e-06   3.9407626292210785e-07   -4.455887216525396e-05
-7.5283969657749755e-06   3.9407626292210785e-07   -4.455887216525396e-05
-7.5283969657749755e-06   3.9407626292210785e-07   -4.455887216525396e-05
-7.5283969657749755e-06   3.9407626292210785e-07   -4.455887216525396e-05
-6.909439453408922e-06   3.2591527306940083e-06   -2.8445138485203763e-05
-6.909439453408922e-06   3.2591527306940083e-06   -2.8445138485203763e-05
-6.909439453408922e-06   3.2591527306940083e-06   -2.8445138485203763e-05
-6.909439453408922e-06   3.2591527306940083e-06   -2.8445138485203763e-05
3.2695913103167632e-06   1.5567697046895215e-06   -4.438875994247746e-05
3.2695913103167632e-06   1.5567697046895215e-06   -4.438875994247746e-05
3.2695913103167632e-06   1.5567697046895215e-06   -4.438875994247746e-05
3.2695913103167632e-06   1.5567697046895215e-06   -4.438875994247746e-05
-2.2982081248336216e-06   1.586086772520194e-06   -3.512668445792579e-05
-2.2982081248336216e-06   1.586086772520194e-06   -3.512668445792579e-05
-2.2982081248336216e-06   1.586086772520194e-06   -3.512668445792579e-05
-2.2982081248336216e-06   1.586086772520194e-06   -3.512668445792579e-05
-8.820292969327333e-06   9.367109804604788e-07   -3.335122006527399e-05
-8.820292969327333e-06   9.367109804604788e-07   -3.335122006527399e-05
-8.820292969327333e-06   9.367109804604788e-07   -3.335122006527399e-05
-8.820292969327333e-06   9.367109804604788e-07   -3.335122006527399e-05
-1.8513012086353647e-05   1.1808060545244903e-06   -4.935929488254613e-05
-1.8513012086353647e-05   1.1808060545244903e-06   -4.935929488254613e-05
-1.8513012086353647e-05   1.1808060545244903e-06   -4.935929488254613e-05
-1.8513012086353647e-05   1.1808060545244903e-06   -4.935929488254613e-05
-1.7864314182360674e-05   2.1043422182005604e-06   -3.2754035389344956e-05
-1.7864314182360674e-05   2.1043422182005604e-06   -3.2754035389344956e-05
-1.7864314182360674e-05   2.1043422182005604e-06   -3.2754035389344956e-05
-1.7864314182360674e-05   2.1043422182005604e-06   -3.2754035389344956e-05
-8.176180826482027e-06   2.1853926356128588e-06   -4.894955456625664e-05
-8.176180826482027e-06   2.1853926356128588e-06   -4.894955456625664e-05
-8.176180826482027e-06   2.1853926356128588e-06   -4.894955456625664e-05
-8.176180826482027e-06   2.1853926356128588e-06   -4.894955456625664e-05
-1.3266184831702792e-05   1.8067395399904741e-06   -4.023902270018198e-05
-1.3266184831702792e-05   1.8067395399904741e-06   -4.023902270018198e-05
-1.3266184831702792e-05   1.8067395399904741e-06   -4.023902270018198e-05
-1.3266184831702792e-05   1.8067395399904741e-06   -4.023902270018198e-05
-8.176180826482027e-06   2.1043422182007773e-06   -3.280266563979227e-05
-8.176180826482027e-06   2.1043422182007773e-06   -3.280266563979227e-05
-8.176180826482027e-06   2.1043422182007773e-06   -3.280266563979227e-05
-8.176180826482027e-06   2.1043422182007773e-06   -3.280266563979227e-05
-1.7864314182360674e-05   2.1853926356128588e-06   -4.89009243158096e-05
-1.7864314182360674e-05   2.1853926356128588e-06   -4.89009243158096e-05
-1.7864314182360674e-05   2.1853926356128588e-06   -4.89009243158096e-05
-1.7864314182360674e-05   2.1853926356128588e-06   -4.89009243158096e-05
-1.720520546891042e-05   3.297646048069187e-06   -3.283900909513697e-05
-1.720520546891042e-05   3.297646048069187e-06   -3.283900909513697e-05
-1.720520546891042e-05   3.297646048069187e-06   -3.283900909513697e-05
-1.720520546891042e-05   3.297646048069187e-06   -3.283900909513697e-05
-7.528396965775003e-06   3.2489871432503543e-06   -4.893782792413814e-05
-7.528396965775003e-06   3.2489871432503543e-06   -4.893782792413814e-05
-7.528396965775003e-06   3.2489871432503543e-06   -4.893782792413814e-05
-7.528396965775003e-06   3.2489871432503543e-06   -4.893782792413814e-05
-1.269533465515865e-05   2.6836009966312198e-06   -3.9987033420527856e-05
-1.269533465515865e-05   2.6836009966312198e-06   -3.9987033420527856e-05
-1.269533465515865e-05   2.6836009966312198e-06   -3.9987033420527856e-05
-1.269533465515865e-05   2.6836009966312198e-06   -3.9987033420527856e-05
-7.528396965775003e-06   3.297646048069187e-06   -3.280981375224578e-05
-7.528396965775003e-06   3.297646048069187e-06   -3.280981375224578e-05
-7.528396965775003e-06   3.297646048069187e-06   -3.280981375224578e-05
-7.528396965775003e-06   3.297646048069187e-06   -3.280981375224578e-05
-1.720520546891039e-05   3.2489871432503543e-06   -4.89670232670296e-05
-1.720520546891039e-05   3.2489871432503543e-06   -4.89670232670296e-05
-1.720520546891039e-05   3.2489871432503543e-06   -4.89670232670296e-05
-1.720520546891039e-05   3.2489871432503543e-06   -4.89670232670296e-05
-1.6576703779033747e-05   4.50746251491824e-06   -3.3576746600272496e-05
-1.6576703779033747e-05   4.50746251491824e-06   -3.3576746600272496e-05
-1.6576703779033747e-05   4.50746251491824e-06   -3.3576746600272496e-05
-1.6576703779033747e-05   4.50746251491824e-06   -3.3576746600272496e-05
-6.9094394534089765e-06   4.330963787515596e-06   -4.958295457320558e-05
-6.9094394534089765e-06   4.330963787515596e-06   -4.958295457320558e-05
-6.9094394534089765e-06   4.330963787515596e-06   -4.958295457320558e-05
-6.9094394534089765e-06   4.330963787515596e-06   -4.958295457320558e-05
-1.2164270475136607e-05   3.5737771935044193e-06   -4.0370590913920193e-05
-1.2164270475136607e-05   3.5737771935044193e-06   -4.0370590913920193e-05
-1.2164270475136607e-05   3.5737771935044193e-06   -4.0370590913920193e-05
-1.2164270475136607e-05   3.5737771935044193e-06   -4.0370590913920193e-05
-1.851301208635368e-05   2.0820134130959764e-06   -2.803858015108969e-05
-1.851301208635368e-05   2.0820134130959764e-06   -2.803858015108969e-05
-1.851301208635368e-05   2.0820134130959764e-06   -2.803858015108969e-05
-1.851301208635368e-05   2.0820134130959764e-06   -2.803858015108969e-05
-2.809010184236875e-05   3.818858088819235e-06   -4.295828960568064e-05
-2.809010184236875e-05   3.818858088819235e-06   -4.295828960568064e-05
-2.809010184236875e-05   3.818858088819235e-06   -4.295828960568064e-05
-2.809010184236875e-05   3.818858088819235e-06   -4.295828960568064e-05
-2.7348919866389287e-05   3.2535719157195803e-06   -2.6406155364569386e-05
-2.7348919866389287e-05   3.2535719157195803e-06   -2.6406155364569386e-05
-2.7348919866389287e-05   3.2535719157195803e-06   -2.6406155364569386e-05
-2.7348919866389287e-05   3.2535719157195803e-06   -2.6406155364569386e-05
-1.7864314182360674e-05   4.891154212154254e-06   -4.3196380882477967e-05
-1.7864314182360674e-05   4.891154212154254e-06   -4.3196380882477967e-05
-1.7864314182360674e-05   4.891154212154254e-06   -4.3196380882477967e-05
-1.7864314182360674e-05   4.891154212154254e-06   -4.3196380882477967e-05
-2.279510289907964e-05   3.6507492162528472e-06   -3.423415669040529e-05
-2.279510289907964e-05   3.6507492162528472e-06   -3.423415669040529e-05
-2.279510289907964e-05   3.6507492162528472e-06   -3.423415669040529e-05
-2.279510289907964e-05   3.6507492162528472e-06   -3.423415669040529e-05
-1.7864314182360707e-05   3.2535719157195803e-06   -2.7388704742430255e-05
-1.7864314182360707e-05   3.2535719157195803e-06   -2.7388704742430255e-05
-1.7864314182360707e-05   3.2535719157195803e-06   -2.7388704742430255e-05
-1.7864314182360707e-05   3.2535719157195803e-06   -2.7388704742430255e-05
-2.734891986638934e-05   4.891154212154471e-06   -4.221383150461704e-05
-2.734891986638934e-05   4.891154212154471e-06   -4.221383150461704e-05
-2.734891986638934e-05   4.891154212154471e-06   -4.221383150461704e-05
-2.734891986638934e-05   4.891154212154471e-06   -4.221383150461704e-05
-2.6461552202753883e-05   4.3343723285177785e-06   -2.616194076597621e-05
-2.6461552202753883e-05   4.3343723285177785e-06   -2.616194076597621e-05
-2.6461552202753883e-05   4.3343723285177785e-06   -2.616194076597621e-05
-2.6461552202753883e-05   4.3343723285177785e-06   -2.616194076597621e-05
-1.720520546891042e-05   5.857047341841339e-06   -4.2502790330376265e-05
-1.720520546891042e-05   5.857047341841339e-06   -4.2502790330376265e-05
-1.720520546891042e-05   5.857047341841339e-06   -4.2502790330376265e-05
-1.720520546891042e-05   5.857047341841339e-06   -4.2502790330376265e-05
-2.204813489774417e-05   4.4973912835706564e-06   -3.361544764735806e-05
-2.204813489774417e-05   4.4973912835706564e-06   -3.361544764735806e-05
-2.204813489774417e-05   4.4973912835706564e-06   -3.361544764735806e-05
-2.204813489774417e-05   4.4973912835706564e-06   -3.361544764735806e-05
-1.7205205468910405e-05   4.3343723285177785e-06   -2.7075545773970174e-05
-1.7205205468910405e-05   4.3343723285177785e-06   -2.7075545773970174e-05
-1.7205205468910405e-05   4.3343723285177785e-06   -2.7075545773970174e-05
-1.7205205468910405e-05   4.3343723285177785e-06   -2.7075545773970174e-05
-2.6461552202753883e-05   5.857047341841556e-06   -4.1589185322382085e-05
-2.6461552202753883e-05   5.857047341841556e-06   -4.1589185322382085e-05
-2.6461552202753883e-05   5.857047341841556e-06   -4.1589185322382085e-05
-2.6461552202753883e-05   5.857047341841556e-06   -4.1589185322382085e-05
-2.5722248653292315e-05   5.545648194798429e-06   -2.6885943561567567e-05
-2.5722248653292315e-05   5.545648194798429e-06   -2.6885943561567567e-05
-2.5722248653292315e-05   5.545648194798429e-06   -2.6885943561567567e-05
-2.5722248653292315e-05   5.545648194798429e-06   -2.6885943561567567e-05
-1.6576703779033747e-05   6.937768637880603e-06   -4.2963790617847654e-05
-1.6576703779033747e-05   6.937768637880603e-06   -4.2963790617847654e-05
-1.6576703779033747e-05   6.937768637880603e-06   -4.2963790617847654e-05
-1.6576703779033747e-05   6.937768637880603e-06   -4.2963790617847654e-05
-2.1547826928326882e-05   5.331622847619313e-06   -3.371489789486914e-05
-2.1547826928326882e-05   5.331622847619313e-06   -3.371489789486914e-05
-2.1547826928326882e-05   5.331622847619313e-06   -3.371489789486914e-05
-2.1547826928326882e-05   5.331622847619313e-06   -3.371489789486914e-05
-2.809010184236875e-05   3.498565097832893e-06   -1.450374856531674e-05
-2.809010184236875e-05   3.498565097832893e-06   -1.450374856531674e-05
-2.809010184236875e-05   3.498565097832893e-06   -1.450374856531674e-05
-2.809010184236875e-05   3.498565097832893e-06   -1.450374856531674e-05
-3.900479075555222e-05   6.565499300351758e-06   -3.085473623244445e-05
-3.900479075555222e-05   6.565499300351758e-06   -3.085473623244445e-05
-3.900479075555222e-05   6.565499300351758e-06   -3.085473623244445e-05
-3.900479075555222e-05   6.565499300351758e-06   -3.085473623244445e-05
-3.696824711746786e-05   4.560667762519999e-06   -9.119630545584745e-06
-3.696824711746786e-05   4.560667762519999e-06   -9.119630545584745e-06
-3.696824711746786e-05   4.560667762519999e-06   -9.119630545584745e-06
-3.696824711746786e-05   4.560667762519999e-06   -9.119630545584745e-06
-2.7348919866389287e-05   7.678743552354131e-06   -2.7022688104616065e-05
-2.7348919866389287e-05   7.678743552354131e-06   -2.7022688104616065e-05
-2.7348919866389287e-05   7.678743552354131e-06   -2.7022688104616065e-05
-2.7348919866389287e-05   7.678743552354131e-06   -2.7022688104616065e-05
-3.151642503320293e-05   5.703188539076844e-06   -1.8891513151960478e-05
-3.151642503320293e-05   5.703188539076844e-06   -1.8891513151960478e-05
-3.151642503320293e-05   5.703188539076844e-06   -1.8891513151960478e-05
-3.151642503320293e-05   5.703188539076844e-06   -1.8891513151960478e-05
-2.734891986638932e-05   4.560667762519999e-06   -1.0990476019485007e-05
-2.734891986638932e-05   4.560667762519999e-06   -1.0990476019485007e-05
-2.734891986638932e-05   4.560667762519999e-06   -1.0990476019485007e-05
-2.734891986638932e-05   4.560667762519999e-06   -1.0990476019485007e-05
-3.6968247117467754e-05   7.678743552354131e-06   -2.5151842630715586e-05
-3.6968247117467754e-05   7.678743552354131e-06   -2.5151842630715586e-05
-3.6968247117467754e-05   7.678743552354131e-06   -2.5151842630715586e-05
-3.6968247117467754e-05   7.678743552354131e-06   -2.5151842630715586e-05
-3.5285024011127666e-05   5.046976209523895e-06   -7.487997727576262e-06
-3.5285024011127666e-05   5.046976209523895e-06   -7.487997727576262e-06
-3.5285024011127666e-05   5.046976209523895e-06   -7.487997727576262e-06
-3.5285024011127666e-05   5.046976209523895e-06   -7.487997727576262e-06
-2.646155220275385e-05   8.077622778895942e-06   -2.401217201648924e-05
-2.646155220275385e-05   8.077622778895942e-06   -2.401217201648924e-05
-2.646155220275385e-05   8.077622778895942e-06   -2.401217201648924e-05
-2.646155220275385e-05   8.077622778895942e-06   -2.401217201648924e-05
-3.077021091843767e-05   6.203773283942936e-06   -1.5706764460044246e-05
-3.077021091843767e-05   6.203773283942936e-06   -1.5706764460044246e-05
-3.077021091843767e-05   6.203773283942936e-06   -1.5706764460044246e-05
-3.077021091843767e-05   6.203773283942936e-06   -1.5706764460044246e-05
-2.6461552202753883e-05   5.046976209523678e-06   -9.306385669199534e-06
-2.6461552202753883e-05   5.046976209523678e-06   -9.306385669199534e-06
-2.6461552202753883e-05   5.046976209523678e-06   -9.306385669199534e-06
-2.6461552202753883e-05   5.046976209523678e-06   -9.306385669199534e-06
-3.5285024011127584e-05   8.077622778895942e-06   -2.219378407486601e-05
-3.5285024011127584e-05   8.077622778895942e-06   -2.219378407486601e-05
-3.5285024011127584e-05   8.077622778895942e-06   -2.219378407486601e-05
-3.5285024011127584e-05   8.077622778895942e-06   -2.219378407486601e-05
-3.329451534740769e-05   5.800595294795478e-06   -5.780975566911477e-06
-3.329451534740769e-05   5.800595294795478e-06   -5.780975566911477e-06
-3.329451534740769e-05   5.800595294795478e-06   -5.780975566911477e-06
-3.329451534740769e-05   5.800595294795478e-06   -5.780975566911477e-06
-2.5722248653292315e-05   8.583560092936598e-06   -2.0071198935988347e-05
-2.5722248653292315e-05   8.583560092936598e-06   -2.0071198935988347e-05
-2.5722248653292315e-05   8.583560092936598e-06   -2.0071198935988347e-05
-2.5722248653292315e-05   8.583560092936598e-06   -2.0071198935988347e-05
-2.918824343660782e-05   6.445543230529892e-06   -1.301173084635208e-05
-2.918824343660782e-05   6.445543230529892e-06   -1.301173084635208e-05
-2.918824343660782e-05   6.445543230529892e-06   -1.301173084635208e-05
-2.918824343660782e-05   6.445543230529892e-06   -1.301173084635208e-05
2.9622150051184675e-05   -3.8859186137604924e-06   -2.3000791814979486e-07
2.9622150051184675e-05   -3.8859186137604924e-06   -2.3000791814979486e-07
2.9622150051184675e-05   -3.8859186137604924e-06   -2.3000791814979486e-07
2.9622150051184675e-05   -3.8859186137604924e-06   -2.3000791814979486e-07
1.262555351113609e-05   -7.010542019944121e-06   -3.043244286194107e-05
1.262555351113609e-05   -7.010542019944121e-06   -3.043244286194107e-05
1.262555351113609e-05   -7.010542019944121e-06   -3.043244286194107e-05
1.262555351113609e-05   -7.010542019944121e-06   -3.043244286194107e-05
1.3521144656122755e-05   -3.1933150166235397e-06   -3.3490711119018874e-06
1.3521144656122755e-05   -3.1933150166235397e-06   -3.3490711119018874e-06
1.3521144656122755e-05   -3.1933150166235397e-06   -3.3490711119018874e-06
1.3521144656122755e-05   -3.1933150166235397e-06   -3.3490711119018874e-06
3.1864525901997994e-05   -6.519734932959945e-06   -3.1925521238558964e-05
3.1864525901997994e-05   -6.519734932959945e-06   -3.1925521238558964e-05
3.1864525901997994e-05   -6.519734932959945e-06   -3.1925521238558964e-05
3.1864525901997994e-05   -6.519734932959945e-06   -3.1925521238558964e-05
2.1024899938175664e-05   -4.6200933225466236e-06   -1.4999262931769805e-05
2.1024899938175664e-05   -4.6200933225466236e-06   -1.4999262931769805e-05
2.1024899938175664e-05   -4.6200933225466236e-06   -1.4999262931769805e-05
2.1024899938175664e-05   -4.6200933225466236e-06   -1.4999262931769805e-05
3.186452590199805e-05   -3.1933150166235397e-06   -1.3532191621000878e-06
3.186452590199805e-05   -3.1933150166235397e-06   -1.3532191621000878e-06
3.186452590199805e-05   -3.1933150166235397e-06   -1.3532191621000878e-06
3.186452590199805e-05   -3.1933150166235397e-06   -1.3532191621000878e-06
1.3521144656122728e-05   -6.519734932959945e-06   -3.3921373188360764e-05
1.3521144656122728e-05   -6.519734932959945e-06   -3.3921373188360764e-05
1.3521144656122728e-05   -6.519734932959945e-06   -3.3921373188360764e-05
1.3521144656122728e-05   -6.519734932959945e-06   -3.3921373188360764e-05
1.4513213728754707e-05   -2.7316147503619014e-06   -4.716315888337935e-06
1.4513213728754707e-05   -2.7316147503619014e-06   -4.716315888337935e-06
1.4513213728754707e-05   -2.7316147503619014e-06   -4.716315888337935e-06
1.4513213728754707e-05   -2.7316147503619014e-06   -4.716315888337935e-06
3.374846495250689e-05   -6.098088041419161e-06   -3.475518395329024e-05
3.374846495250689e-05   -6.098088041419161e-06   -3.475518395329024e-05
3.374846495250689e-05   -6.098088041419161e-06   -3.475518395329024e-05
3.374846495250689e-05   -6.098088041419161e-06   -3.475518395329024e-05
2.2709124592852503e-05   -4.4324198705692625e-06   -1.7355684256376534e-05
2.2709124592852503e-05   -4.4324198705692625e-06   -1.7355684256376534e-05
2.2709124592852503e-05   -4.4324198705692625e-06   -1.7355684256376534e-05
2.2709124592852503e-05   -4.4324198705692625e-06   -1.7355684256376534e-05
3.3748464952507e-05   -2.7316147503619014e-06   -2.6964319137033187e-06
3.3748464952507e-05   -2.7316147503619014e-06   -2.6964319137033187e-06
3.3748464952507e-05   -2.7316147503619014e-06   -2.6964319137033187e-06
3.3748464952507e-05   -2.7316147503619014e-06   -2.6964319137033187e-06
1.451321372875468e-05   -6.098088041419161e-06   -3.677506792792507e-05
1.451321372875468e-05   -6.098088041419161e-06   -3.677506792792507e-05
1.451321372875468e-05   -6.098088041419161e-06   -3.677506792792507e-05
1.451321372875468e-05   -6.098088041419161e-06   -3.677506792792507e-05
1.5333432919472864e-05   -1.56820013860119e-06   -7.87240795514896e-06
1.5333432919472864e-05   -1.56820013860119e-06   -7.87240795514896e-06
1.5333432919472864e-05   -1.56820013860119e-06   -7.87240795514896e-06
1.5333432919472864e-05   -1.56820013860119e-06   -7.87240795514896e-06
3.5935897956752914e-05   -4.764490132023926e-06   -4.029207568789523e-05
3.5935897956752914e-05   -4.764490132023926e-06   -4.029207568789523e-05
3.5935897956752914e-05   -4.764490132023926e-06   -4.029207568789523e-05
3.5935897956752914e-05   -4.764490132023926e-06   -4.029207568789523e-05
2.3622354979906132e-05   -3.911570934343311e-06   -2.0281255578426726e-05
2.3622354979906132e-05   -3.911570934343311e-06   -2.0281255578426726e-05
2.3622354979906132e-05   -3.911570934343311e-06   -2.0281255578426726e-05
2.3622354979906132e-05   -3.911570934343311e-06   -2.0281255578426726e-05
1.2625553511136118e-05   -1.5372647864852953e-06   -2.0634842887401863e-05
1.2625553511136118e-05   -1.5372647864852953e-06   -2.0634842887401863e-05
1.2625553511136118e-05   -1.5372647864852953e-06   -2.0634842887401863e-05
1.2625553511136118e-05   -1.5372647864852953e-06   -2.0634842887401863e-05
-5.367421385847349e-06   -3.2839135782353895e-06   -5.167112365742424e-05
-5.367421385847349e-06   -3.2839135782353895e-06   -5.167112365742424e-05
-5.367421385847349e-06   -3.2839135782353895e-06   -5.167112365742424e-05
-5.367421385847349e-06   -3.2839135782353895e-06   -5.167112365742424e-05
-4.5340228896189325e-06   -5.87738600046385e-07   -2.1064191216141987e-05
-4.5340228896189325e-06   -5.87738600046385e-07   -2.1064191216141987e-05
-4.5340228896189325e-06   -5.87738600046385e-07   -2.1064191216141987e-05
-4.5340228896189325e-06   -5.87738600046385e-07   -2.1064191216141987e-05
1.3521144656122728e-05   -2.602435989022215e-06   -4.994731869232557e-05
1.3521144656122728e-05   -2.602435989022215e-06   -4.994731869232557e-05
1.3521144656122728e-05   -2.602435989022215e-06   -4.994731869232557e-05
1.3521144656122728e-05   -2.602435989022215e-06   -4.994731869232557e-05
4.106145671686781e-06   -1.5880151920167652e-06   -3.486430619646934e-05
4.106145671686781e-06   -1.5880151920167652e-06   -3.486430619646934e-05
4.106145671686781e-06   -1.5880151920167652e-06   -3.486430619646934e-05
4.106145671686781e-06   -1.5880151920167652e-06   -3.486430619646934e-05
1.3521144656122728e-05   -5.87738600046385e-07   -1.9855372782756316e-05
1.3521144656122728e-05   -5.87738600046385e-07   -1.9855372782756316e-05
1.3521144656122728e-05   -5.87738600046385e-07   -1.9855372782756316e-05
1.3521144656122728e-05   -5.87738600046385e-07   -1.9855372782756316e-05
-4.534022889618905e-06   -2.602435989022215e-06   -5.1156137125711295e-05
-4.534022889618905e-06   -2.602435989022215e-06   -5.1156137125711295e-05
-4.534022889618905e-06   -2.602435989022215e-06   -5.1156137125711295e-05
-4.534022889618905e-06   -2.602435989022215e-06   -5.1156137125711295e-05
-3.7382949619313823e-06   3.940762629223247e-07   -2.133457546147667e-05
-3.7382949619313823e-06   3.940762629223247e-07   -2.133457546147667e-05
-3.7382949619313823e-06   3.940762629223247e-07   -2.133457546147667e-05
-3.7382949619313823e-06   3.940762629223247e-07   -2.133457546147667e-05
1.451321372875468e-05   -1.7694014137125888e-06   -5.045567000663912e-05
1.451321372875468e-05   -1.7694014137125888e-06   -5.045567000663912e-05
1.451321372875468e-05   -1.7694014137125888e-06   -5.045567000663912e-05
1.451321372875468e-05   -1.7694014137125888e-06   -5.045567000663912e-05
4.76751823568084e-06   -9.853150357876095e-07   -3.468329601160372e-05
4.76751823568084e-06   -9.853150357876095e-07   -3.468329601160372e-05
4.76751823568084e-06   -9.853150357876095e-07   -3.468329601160372e-05
4.76751823568084e-06   -9.853150357876095e-07   -3.468329601160372e-05
1.4513213728754707e-05   3.940762629223247e-07   -2.0036488855495766e-05
1.4513213728754707e-05   3.940762629223247e-07   -2.0036488855495766e-05
1.4513213728754707e-05   3.940762629223247e-07   -2.0036488855495766e-05
1.4513213728754707e-05   3.940762629223247e-07   -2.0036488855495766e-05
-3.7382949619313823e-06   -1.7694014137125888e-06   -5.175375661262019e-05
-3.7382949619313823e-06   -1.7694014137125888e-06   -5.175375661262019e-05
-3.7382949619313823e-06   -1.7694014137125888e-06   -5.175375661262019e-05
-3.7382949619313823e-06   -1.7694014137125888e-06   -5.175375661262019e-05
-2.9908220692878562e-06   1.5567697046895215e-06   -2.206012857112528e-05
-2.9908220692878562e-06   1.5567697046895215e-06   -2.206012857112528e-05
-2.9908220692878562e-06   1.5567697046895215e-06   -2.206012857112528e-05
-2.9908220692878562e-06   1.5567697046895215e-06   -2.206012857112528e-05
1.5333432919472864e-05   -7.213022598924305e-07   -5.123371037364405e-05
1.5333432919472864e-05   -7.213022598924305e-07   -5.123371037364405e-05
1.5333432919472864e-05   -7.213022598924305e-07   -5.123371037364405e-05
1.5333432919472864e-05   -7.213022598924305e-07   -5.123371037364405e-05
5.5923905326288965e-06   -2.420398428184048e-07   -3.528619717914924e-05
5.5923905326288965e-06   -2.420398428184048e-07   -3.528619717914924e-05
5.5923905326288965e-06   -2.420398428184048e-07   -3.528619717914924e-05
5.5923905326288965e-06   -2.420398428184048e-07   -3.528619717914924e-05
-5.367421385847349e-06   1.1808060545244903e-06   -2.653831723503923e-05
-5.367421385847349e-06   1.1808060545244903e-06   -2.653831723503923e-05
-5.367421385847349e-06   1.1808060545244903e-06   -2.653831723503923e-05
-5.367421385847349e-06   1.1808060545244903e-06   -2.653831723503923e-05
-2.304347789938302e-05   5.960865089873167e-07   -5.634924315158765e-05
-2.304347789938302e-05   5.960865089873167e-07   -5.634924315158765e-05
-2.304347789938302e-05   5.960865089873167e-07   -5.634924315158765e-05
-2.304347789938302e-05   5.960865089873167e-07   -5.634924315158765e-05
-2.2146434201112742e-05   2.1853926356128588e-06   -2.63539394788168e-05
-2.2146434201112742e-05   2.1853926356128588e-06   -2.63539394788168e-05
-2.2146434201112742e-05   2.1853926356128588e-06   -2.63539394788168e-05
-2.2146434201112742e-05   2.1853926356128588e-06   -2.63539394788168e-05
-4.534022889618905e-06   1.3614469644286468e-06   -5.5213590928596123e-05
-4.534022889618905e-06   1.3614469644286468e-06   -5.5213590928596123e-05
-4.534022889618905e-06   1.3614469644286468e-06   -5.5213590928596123e-05
-4.534022889618905e-06   1.3614469644286468e-06   -5.5213590928596123e-05
-1.367851616876497e-05   1.618937406600799e-06   -4.0127263061989446e-05
-1.367851616876497e-05   1.618937406600799e-06   -4.0127263061989446e-05
-1.367851616876497e-05   1.618937406600799e-06   -4.0127263061989446e-05
-1.367851616876497e-05   1.618937406600799e-06   -4.0127263061989446e-05
-4.5340228896189325e-06   2.1853926356128588e-06   -2.5859572076106577e-05
-4.5340228896189325e-06   2.1853926356128588e-06   -2.5859572076106577e-05
-4.5340228896189325e-06   2.1853926356128588e-06   -2.5859572076106577e-05
-4.5340228896189325e-06   2.1853926356128588e-06   -2.5859572076106577e-05
-2.2146434201112742e-05   1.3614469644286468e-06   -5.5707958331306564e-05
-2.2146434201112742e-05   1.3614469644286468e-06   -5.5707958331306564e-05
-2.2146434201112742e-05   1.3614469644286468e-06   -5.5707958331306564e-05
-2.2146434201112742e-05   1.3614469644286468e-06   -5.5707958331306564e-05
-2.1281238322482437e-05   3.2489871432503543e-06   -2.631423685353065e-05
-2.1281238322482437e-05   3.2489871432503543e-06   -2.631423685353065e-05
-2.1281238322482437e-05   3.2489871432503543e-06   -2.631423685353065e-05
-2.1281238322482437e-05   3.2489871432503543e-06   -2.631423685353065e-05
-3.7382949619313823e-06   2.2478110879675488e-06   -5.495177015461266e-05
-3.7382949619313823e-06   2.2478110879675488e-06   -5.495177015461266e-05
-3.7382949619313823e-06   2.2478110879675488e-06   -5.495177015461266e-05
-3.7382949619313823e-06   2.2478110879675488e-06   -5.495177015461266e-05
-1.2906609687141483e-05   2.335466689052431e-06   -3.972383897324686e-05
-1.2906609687141483e-05   2.335466689052431e-06   -3.972383897324686e-05
-1.2906609687141483e-05   2.335466689052431e-06   -3.972383897324686e-05
-1.2906609687141483e-05   2.335466689052431e-06   -3.972383897324686e-05
-3.7382949619313823e-06   3.2489871432503543e-06   -2.5713531220360793e-05
-3.7382949619313823e-06   3.2489871432503543e-06   -2.5713531220360793e-05
-3.7382949619313823e-06   3.2489871432503543e-06   -2.5713531220360793e-05
-3.7382949619313823e-06   3.2489871432503543e-06   -2.5713531220360793e-05
-2.1281238322482437e-05   2.2478110879675488e-06   -5.55524757877826e-05
-2.1281238322482437e-05   2.2478110879675488e-06   -5.55524757877826e-05
-2.1281238322482437e-05   2.2478110879675488e-06   -5.55524757877826e-05
-2.1281238322482437e-05   2.2478110879675488e-06   -5.55524757877826e-05
-2.0481747499051896e-05   4.330963787515596e-06   -2.693316126677254e-05
-2.0481747499051896e-05   4.330963787515596e-06   -2.693316126677254e-05
-2.0481747499051896e-05   4.330963787515596e-06   -2.693316126677254e-05
-2.0481747499051896e-05   4.330963787515596e-06   -2.693316126677254e-05
-2.9908220692878562e-06   3.163850653312584e-06   -5.538443576919079e-05
-2.9908220692878562e-06   3.163850653312584e-06   -5.538443576919079e-05
-2.9908220692878562e-06   3.163850653312584e-06   -5.538443576919079e-05
-2.9908220692878562e-06   3.163850653312584e-06   -5.538443576919079e-05
-1.2216969244468539e-05   3.0706949099741643e-06   -3.9951630364554376e-05
-1.2216969244468539e-05   3.0706949099741643e-06   -3.9951630364554376e-05
-1.2216969244468539e-05   3.0706949099741643e-06   -3.9951630364554376e-05
-1.2216969244468539e-05   3.0706949099741643e-06   -3.9951630364554376e-05
-2.3043477899383067e-05   3.818858088819235e-06   -2.1530250490930155e-05
-2.3043477899383067e-05   3.818858088819235e-06   -2.1530250490930155e-05
-2.3043477899383067e-05   3.818858088819235e-06   -2.1530250490930155e-05
-2.3043477899383067e-05   3.818858088819235e-06   -2.1530250490930155e-05
-4.0391240315024316e-05   4.614886854444923e-06   -4.996557059095677e-05
-4.0391240315024316e-05   4.614886854444923e-06   -4.996557059095677e-05
-4.0391240315024316e-05   4.614886854444923e-06   -4.996557059095677e-05
-4.0391240315024316e-05   4.614886854444923e-06   -4.996557059095677e-05
-3.931007537366448e-05   4.891154212154254e-06   -2.0231956668030496e-05
-3.931007537366448e-05   4.891154212154254e-06   -2.0231956668030496e-05
-3.931007537366448e-05   4.891154212154254e-06   -2.0231956668030496e-05
-3.931007537366448e-05   4.891154212154254e-06   -2.0231956668030496e-05
-2.2146434201112776e-05   5.586886507912784e-06   -4.925546466640513e-05
-2.2146434201112776e-05   5.586886507912784e-06   -4.925546466640513e-05
-2.2146434201112776e-05   5.586886507912784e-06   -4.925546466640513e-05
-2.2146434201112776e-05   5.586886507912784e-06   -4.925546466640513e-05
-3.099467152323876e-05   4.9310701326667206e-06   -3.4114912637714444e-05
-3.099467152323876e-05   4.9310701326667206e-06   -3.4114912637714444e-05
-3.099467152323876e-05   4.9310701326667206e-06   -3.4114912637714444e-05
-3.099467152323876e-05   4.9310701326667206e-06   -3.4114912637714444e-05
-2.2146434201112776e-05   4.891154212154254e-06   -2.0649396045485657e-05
-2.2146434201112776e-05   4.891154212154254e-06   -2.0649396045485657e-05
-2.2146434201112776e-05   4.891154212154254e-06   -2.0649396045485657e-05
-2.2146434201112776e-05   4.891154212154254e-06   -2.0649396045485657e-05
-3.9310075373664546e-05   5.586886507912784e-06   -4.883802528895024e-05
-3.9310075373664546e-05   5.586886507912784e-06   -4.883802528895024e-05
-3.9310075373664546e-05   5.586886507912784e-06   -4.883802528895024e-05
-3.9310075373664546e-05   5.586886507912784e-06   -4.883802528895024e-05
-3.811383352721458e-05   5.857047341841339e-06   -1.950984238681462e-05
-3.811383352721458e-05   5.857047341841339e-06   -1.950984238681462e-05
-3.811383352721458e-05   5.857047341841339e-06   -1.950984238681462e-05
-3.811383352721458e-05   5.857047341841339e-06   -1.950984238681462e-05
-2.128123832248247e-05   6.4239832252791645e-06   -4.790432925809764e-05
-2.128123832248247e-05   6.4239832252791645e-06   -4.790432925809764e-05
-2.128123832248247e-05   6.4239832252791645e-06   -4.790432925809764e-05
-2.128123832248247e-05   6.4239832252791645e-06   -4.790432925809764e-05
-2.9901206094257966e-05   5.68781835392964e-06   -3.3096017382328795e-05
-2.9901206094257966e-05   5.68781835392964e-06   -3.3096017382328795e-05
-2.9901206094257966e-05   5.68781835392964e-06   -3.3096017382328795e-05
-2.9901206094257966e-05   5.68781835392964e-06   -3.3096017382328795e-05
-2.1281238322482458e-05   5.857047341841339e-06   -1.9850003916877315e-05
-2.1281238322482458e-05   5.857047341841339e-06   -1.9850003916877315e-05
-2.1281238322482458e-05   5.857047341841339e-06   -1.9850003916877315e-05
-2.1281238322482458e-05   5.857047341841339e-06   -1.9850003916877315e-05
-3.811383352721458e-05   6.4239832252791645e-06   -4.756416772803496e-05
-3.811383352721458e-05   6.4239832252791645e-06   -4.756416772803496e-05
-3.811383352721458e-05   6.4239832252791645e-06   -4.756416772803496e-05
-3.811383352721458e-05   6.4239832252791645e-06   -4.756416772803496e-05
-3.710298038569228e-05   6.937768637880603e-06   -1.99606944448216e-05
-3.710298038569228e-05   6.937768637880603e-06   -1.99606944448216e-05
-3.710298038569228e-05   6.937768637880603e-06   -1.99606944448216e-05
-3.710298038569228e-05   6.937768637880603e-06   -1.99606944448216e-05
-2.048174749905193e-05   7.350108021466489e-06   -4.791015288604045e-05
-2.048174749905193e-05   7.350108021466489e-06   -4.791015288604045e-05
-2.048174749905193e-05   7.350108021466489e-06   -4.791015288604045e-05
-2.048174749905193e-05   7.350108021466489e-06   -4.791015288604045e-05
-2.9220808291520428e-05   6.384885153887156e-06   -3.276591784471205e-05
-2.9220808291520428e-05   6.384885153887156e-06   -3.276591784471205e-05
-2.9220808291520428e-05   6.384885153887156e-06   -3.276591784471205e-05
-2.9220808291520428e-05   6.384885153887156e-06   -3.276591784471205e-05
-4.0391240315024316e-05   6.565499300351758e-06   -1.0789240379829737e-05
-4.0391240315024316e-05   6.565499300351758e-06   -1.0789240379829737e-05
-4.0391240315024316e-05   6.565499300351758e-06   -1.0789240379829737e-05
-4.0391240315024316e-05   6.565499300351758e-06   -1.0789240379829737e-05
-5.866276390514639e-05   9.071283455053085e-06   -3.97383092038794e-05
-5.866276390514639e-05   9.071283455053085e-06   -3.97383092038794e-05
-5.866276390514639e-05   9.071283455053085e-06   -3.97383092038794e-05
-5.866276390514639e-05   9.071283455053085e-06   -3.97383092038794e-05
-5.618026485703482e-05   7.678743552354131e-06   -3.4304112839758562e-06
-5.618026485703482e-05   7.678743552354131e-06   -3.4304112839758562e-06
-5.618026485703482e-05   7.678743552354131e-06   -3.4304112839758562e-06
-5.618026485703482e-05   7.678743552354131e-06   -3.4304112839758562e-06
-3.931007537366448e-05   1.0362746859110018e-05   -3.315779574031332e-05
-3.931007537366448e-05   1.0362746859110018e-05   -3.315779574031332e-05
-3.931007537366448e-05   1.0362746859110018e-05   -3.315779574031332e-05
-3.931007537366448e-05   1.0362746859110018e-05   -3.315779574031332e-05
-4.662532230826161e-05   8.642172679097695e-06   -1.993337300797756e-05
-4.662532230826161e-05   8.642172679097695e-06   -1.993337300797756e-05
-4.662532230826161e-05   8.642172679097695e-06   -1.993337300797756e-05
-4.662532230826161e-05   8.642172679097695e-06   -1.993337300797756e-05
-3.9310075373664505e-05   7.678743552354131e-06   -5.040813268029519e-06
-3.9310075373664505e-05   7.678743552354131e-06   -5.040813268029519e-06
-3.9310075373664505e-05   7.678743552354131e-06   -5.040813268029519e-06
-3.9310075373664505e-05   7.678743552354131e-06   -5.040813268029519e-06
-5.6180264857034695e-05   1.0362746859110018e-05   -3.1547393756259845e-05
-5.6180264857034695e-05   1.0362746859110018e-05   -3.1547393756259845e-05
-5.6180264857034695e-05   1.0362746859110018e-05   -3.1547393756259845e-05
-5.6180264857034695e-05   1.0362746859110018e-05   -3.1547393756259845e-05
-5.413742188984852e-05   8.077622778895942e-06   -3.579568500591303e-07
-5.413742188984852e-05   8.077622778895942e-06   -3.579568500591303e-07
-5.413742188984852e-05   8.077622778895942e-06   -3.579568500591303e-07
-5.413742188984852e-05   8.077622778895942e-06   -3.579568500591303e-07
-3.811383352721458e-05   1.0702409830333753e-05   -2.8638809685311914e-05
-3.811383352721458e-05   1.0702409830333753e-05   -2.8638809685311914e-05
-3.811383352721458e-05   1.0702409830333753e-05   -2.8638809685311914e-05
-3.811383352721458e-05   1.0702409830333753e-05   -2.8638809685311914e-05
-4.5779059890083354e-05   9.15642812039652e-06   -1.4935843387901392e-05
-4.5779059890083354e-05   9.15642812039652e-06   -1.4935843387901392e-05
-4.5779059890083354e-05   9.15642812039652e-06   -1.4935843387901392e-05
-4.5779059890083354e-05   9.15642812039652e-06   -1.4935843387901392e-05
-3.811383352721458e-05   8.077622778895942e-06   -1.9328290809220335e-06
-3.811383352721458e-05   8.077622778895942e-06   -1.9328290809220335e-06
-3.811383352721458e-05   8.077622778895942e-06   -1.9328290809220335e-06
-3.811383352721458e-05   8.077622778895942e-06   -1.9328290809220335e-06
-5.413742188984835e-05   1.0702409830334186e-05   -2.706393745444905e-05
-5.413742188984835e-05   1.0702409830334186e-05   -2.706393745444905e-05
-5.413742188984835e-05   1.0702409830334186e-05   -2.706393745444905e-05
-5.413742188984835e-05   1.0702409830334186e-05   -2.706393745444905e-05
-5.193373031472442e-05   8.583560092936598e-06   3.5435929161755243e-06
-5.193373031472442e-05   8.583560092936598e-06   3.5435929161755243e-06
-5.193373031472442e-05   8.583560092936598e-06   3.5435929161755243e-06
-5.193373031472442e-05   8.583560092936598e-06   3.5435929161755243e-06
-3.710298038569228e-05   1.099517333458212e-05   -2.2621291577198413e-05
-3.710298038569228e-05   1.099517333458212e-05   -2.2621291577198413e-05
-3.710298038569228e-05   1.099517333458212e-05   -2.2621291577198413e-05
-3.710298038569228e-05   1.099517333458212e-05   -2.2621291577198413e-05
-4.370838902536735e-05   9.240407279046629e-06   -1.0559417544419116e-05
-4.370838902536735e-05   9.240407279046629e-06   -1.0559417544419116e-05
-4.370838902536735e-05   9.240407279046629e-06   -1.0559417544419116e-05
-4.370838902536735e-05   9.240407279046629e-06   -1.0559417544419116e-05
5.0272444248069615e-05   -7.010542019943687e-06   9.95886109943331e-06
5.0272444248069615e-05   -7.010542019943687e-06   9.95886109943331e-06
5.0272444248069615e-05   -7.010542019943687e-06   9.95886109943331e-06
5.0272444248069615e-05   -7.010542019943687e-06   9.95886109943331e-06
2.4228834826249632e-05   -1.0381776875554184e-05   -3.546989551696613e-05
2.4228834826249632e-05   -1.0381776875554184e-05   -3.546989551696613e-05
2.4228834826249632e-05   -1.0381776875554184e-05   -3.546989551696613e-05
2.4228834826249632e-05   -1.0381776875554184e-05   -3.546989551696613e-05
2.522142903804326e-05   -6.519734932959511e-06   4.798369344777504e-06
2.522142903804326e-05   -6.519734932959511e-06   4.798369344777504e-06
2.522142903804326e-05   -6.519734932959511e-06   4.798369344777504e-06
2.522142903804326e-05   -6.519734932959511e-06   4.798369344777504e-06
5.25760784933232e-05   -1.0139180530882065e-05   -3.86210457219357e-05
5.25760784933232e-05   -1.0139180530882065e-05   -3.86210457219357e-05
5.25760784933232e-05   -1.0139180530882065e-05   -3.86210457219357e-05
5.25760784933232e-05   -1.0139180530882065e-05   -3.86210457219357e-05
3.6526796874665046e-05   -7.676271137577531e-06   -1.3349988660154623e-05
3.6526796874665046e-05   -7.676271137577531e-06   -1.3349988660154623e-05
3.6526796874665046e-05   -7.676271137577531e-06   -1.3349988660154623e-05
3.6526796874665046e-05   -7.676271137577531e-06   -1.3349988660154623e-05
5.257607849332326e-05   -6.519734932959511e-06   6.9700367035310795e-06
5.257607849332326e-05   -6.519734932959511e-06   6.9700367035310795e-06
5.257607849332326e-05   -6.519734932959511e-06   6.9700367035310795e-06
5.257607849332326e-05   -6.519734932959511e-06   6.9700367035310795e-06
2.5221429038043233e-05   -1.0139180530882065e-05   -4.079271308068911e-05
2.5221429038043233e-05   -1.0139180530882065e-05   -4.079271308068911e-05
2.5221429038043233e-05   -1.0139180530882065e-05   -4.079271308068911e-05
2.5221429038043233e-05   -1.0139180530882065e-05   -4.079271308068911e-05
2.620882510916104e-05   -6.098088041419595e-06   2.273989796379959e-06
2.620882510916104e-05   -6.098088041419595e-06   2.273989796379959e-06
2.620882510916104e-05   -6.098088041419595e-06   2.273989796379959e-06
2.620882510916104e-05   -6.098088041419595e-06   2.273989796379959e-06
5.434440865143117e-05   -9.787225813647545e-06   -4.240516677739959e-05
5.434440865143117e-05   -9.787225813647545e-06   -4.240516677739959e-05
5.434440865143117e-05   -9.787225813647545e-06   -4.240516677739959e-05
5.434440865143117e-05   -9.787225813647545e-06   -4.240516677739959e-05
3.846677158977984e-05   -7.650949989086199e-06   -1.7224203836051048e-05
3.846677158977984e-05   -7.650949989086199e-06   -1.7224203836051048e-05
3.846677158977984e-05   -7.650949989086199e-06   -1.7224203836051048e-05
3.846677158977984e-05   -7.650949989086199e-06   -1.7224203836051048e-05
5.434440865143117e-05   -6.098088041419595e-06   4.487472459717033e-06
5.434440865143117e-05   -6.098088041419595e-06   4.487472459717033e-06
5.434440865143117e-05   -6.098088041419595e-06   4.487472459717033e-06
5.434440865143117e-05   -6.098088041419595e-06   4.487472459717033e-06
2.620882510916104e-05   -9.787225813647979e-06   -4.461864944073704e-05
2.620882510916104e-05   -9.787225813647979e-06   -4.461864944073704e-05
2.620882510916104e-05   -9.787225813647979e-06   -4.461864944073704e-05
2.620882510916104e-05   -9.787225813647979e-06   -4.461864944073704e-05
2.6879596380713447e-05   -4.764490132023926e-06   -2.811245466020039e-06
2.6879596380713447e-05   -4.764490132023926e-06   -2.811245466020039e-06
2.6879596380713447e-05   -4.764490132023926e-06   -2.811245466020039e-06
2.6879596380713447e-05   -4.764490132023926e-06   -2.811245466020039e-06
5.621426001975615e-05   -8.414259369417428e-06   -4.951248998865543e-05
5.621426001975615e-05   -8.414259369417428e-06   -4.951248998865543e-05
5.621426001975615e-05   -8.414259369417428e-06   -4.951248998865543e-05
5.621426001975615e-05   -8.414259369417428e-06   -4.951248998865543e-05
3.9009801653224684e-05   -7.062996072482262e-06   -2.1649150689264556e-05
3.9009801653224684e-05   -7.062996072482262e-06   -2.1649150689264556e-05
3.9009801653224684e-05   -7.062996072482262e-06   -2.1649150689264556e-05
3.9009801653224684e-05   -7.062996072482262e-06   -2.1649150689264556e-05
2.422883482624966e-05   -3.2839135782358232e-06   -1.2254571334366273e-05
2.422883482624966e-05   -3.2839135782358232e-06   -1.2254571334366273e-05
2.422883482624966e-05   -3.2839135782358232e-06   -1.2254571334366273e-05
2.422883482624966e-05   -3.2839135782358232e-06   -1.2254571334366273e-05
-1.4625985591189706e-06   -6.730319769651227e-06   -5.714147069149655e-05
-1.4625985591189706e-06   -6.730319769651227e-06   -5.714147069149655e-05
-1.4625985591189706e-06   -6.730319769651227e-06   -5.714147069149655e-05
-1.4625985591189706e-06   -6.730319769651227e-06   -5.714147069149655e-05
-4.4362300658927923e-07   -2.602435989022215e-06   -1.3511191531011008e-05
-4.4362300658927923e-07   -2.602435989022215e-06   -1.3511191531011008e-05
-4.4362300658927923e-07   -2.602435989022215e-06   -1.3511191531011008e-05
-4.4362300658927923e-07   -2.602435989022215e-06   -1.3511191531011008e-05
2.522142903804326e-05   -6.40846160872852e-06   -5.400266290024169e-05
2.522142903804326e-05   -6.40846160872852e-06   -5.400266290024169e-05
2.522142903804326e-05   -6.40846160872852e-06   -5.400266290024169e-05
2.522142903804326e-05   -6.40846160872852e-06   -5.400266290024169e-05
1.1921889946379282e-05   -4.071702826802855e-06   -3.323881968329064e-05
1.1921889946379282e-05   -4.071702826802855e-06   -3.323881968329064e-05
1.1921889946379282e-05   -4.071702826802855e-06   -3.323881968329064e-05
1.1921889946379282e-05   -4.071702826802855e-06   -3.323881968329064e-05
2.522142903804326e-05   -2.602435989022215e-06   -1.1227576159187356e-05
2.522142903804326e-05   -2.602435989022215e-06   -1.1227576159187356e-05
2.522142903804326e-05   -2.602435989022215e-06   -1.1227576159187356e-05
2.522142903804326e-05   -2.602435989022215e-06   -1.1227576159187356e-05
-4.4362300658927923e-07   -6.40846160872852e-06   -5.628627827206534e-05
-4.4362300658927923e-07   -6.40846160872852e-06   -5.628627827206534e-05
-4.4362300658927923e-07   -6.40846160872852e-06   -5.628627827206534e-05
-4.4362300658927923e-07   -6.40846160872852e-06   -5.628627827206534e-05
4.5418979980824115e-07   -1.7694014137125888e-06   -1.3830356566633473e-05
4.5418979980824115e-07   -1.7694014137125888e-06   -1.3830356566633473e-05
4.5418979980824115e-07   -1.7694014137125888e-06   -1.3830356566633473e-05
4.5418979980824115e-07   -1.7694014137125888e-06   -1.3830356566633473e-05
2.620882510916104e-05   -5.808975220877952e-06   -5.433100446458909e-05
2.620882510916104e-05   -5.808975220877952e-06   -5.433100446458909e-05
2.620882510916104e-05   -5.808975220877952e-06   -5.433100446458909e-05
2.620882510916104e-05   -5.808975220877952e-06   -5.433100446458909e-05
1.2615732235038703e-05   -3.738021307886537e-06   -3.29184220221793e-05
1.2615732235038703e-05   -3.738021307886537e-06   -3.29184220221793e-05
1.2615732235038703e-05   -3.738021307886537e-06   -3.29184220221793e-05
1.2615732235038703e-05   -3.738021307886537e-06   -3.29184220221793e-05
2.620882510916104e-05   -1.7694014137121551e-06   -1.1406612282334255e-05
2.620882510916104e-05   -1.7694014137121551e-06   -1.1406612282334255e-05
2.620882510916104e-05   -1.7694014137121551e-06   -1.1406612282334255e-05
2.620882510916104e-05   -1.7694014137121551e-06   -1.1406612282334255e-05
4.5418979980826825e-07   -5.808975220877952e-06   -5.675474874888842e-05
4.5418979980826825e-07   -5.808975220877952e-06   -5.675474874888842e-05
4.5418979980826825e-07   -5.808975220877952e-06   -5.675474874888842e-05
4.5418979980826825e-07   -5.808975220877952e-06   -5.675474874888842e-05
1.0935106330996311e-06   -7.213022598924305e-07   -1.4375961845854114e-05
1.0935106330996311e-06   -7.213022598924305e-07   -1.4375961845854114e-05
1.0935106330996311e-06   -7.213022598924305e-07   -1.4375961845854114e-05
1.0935106330996311e-06   -7.213022598924305e-07   -1.4375961845854114e-05
2.6879596380713502e-05   -4.95606174345754e-06   -5.481191573507158e-05
2.6879596380713502e-05   -4.95606174345754e-06   -5.481191573507158e-05
2.6879596380713502e-05   -4.95606174345754e-06   -5.481191573507158e-05
2.6879596380713502e-05   -4.95606174345754e-06   -5.481191573507158e-05
1.3445989424988491e-05   -3.1498696782313734e-06   -3.350628604799951e-05
1.3445989424988491e-05   -3.1498696782313734e-06   -3.350628604799951e-05
1.3445989424988491e-05   -3.1498696782313734e-06   -3.350628604799951e-05
1.3445989424988491e-05   -3.1498696782313734e-06   -3.350628604799951e-05
-1.4625985591189706e-06   5.960865089873167e-07   -1.8649702816056577e-05
-1.4625985591189706e-06   5.960865089873167e-07   -1.8649702816056577e-05
-1.4625985591189706e-06   5.960865089873167e-07   -1.8649702816056577e-05
-1.4625985591189706e-06   5.960865089873167e-07   -1.8649702816056577e-05
-2.6774498299743317e-05   -3.538058946120099e-06   -6.33166896568285e-05
-2.6774498299743317e-05   -3.538058946120099e-06   -6.33166896568285e-05
-2.6774498299743317e-05   -3.538058946120099e-06   -6.33166896568285e-05
-2.6774498299743317e-05   -3.538058946120099e-06   -6.33166896568285e-05
-2.5551951601525822e-05   1.3614469644286468e-06   -2.028087750876738e-05
-2.5551951601525822e-05   1.3614469644286468e-06   -2.028087750876738e-05
-2.5551951601525822e-05   1.3614469644286468e-06   -2.028087750876738e-05
-2.5551951601525822e-05   1.3614469644286468e-06   -2.028087750876738e-05
-4.4362300658927923e-07   -3.158939993690591e-06   -5.9415859658790035e-05
-4.4362300658927923e-07   -3.158939993690591e-06   -5.9415859658790035e-05
-4.4362300658927923e-07   -3.158939993690591e-06   -5.9415859658790035e-05
-4.4362300658927923e-07   -3.158939993690591e-06   -5.9415859658790035e-05
-1.3397040854586377e-05   -6.867516898177717e-07   -3.9310142894451996e-05
-1.3397040854586377e-05   -6.867516898177717e-07   -3.9310142894451996e-05
-1.3397040854586377e-05   -6.867516898177717e-07   -3.9310142894451996e-05
-1.3397040854586377e-05   -6.867516898177717e-07   -3.9310142894451996e-05
-4.4362300658927923e-07   1.3614469644286468e-06   -1.7568645333895837e-05
-4.4362300658927923e-07   1.3614469644286468e-06   -1.7568645333895837e-05
-4.4362300658927923e-07   1.3614469644286468e-06   -1.7568645333895837e-05
-4.4362300658927923e-07   1.3614469644286468e-06   -1.7568645333895837e-05
-2.5551951601525822e-05   -3.158939993690591e-06   -6.21280918336616e-05
-2.5551951601525822e-05   -3.158939993690591e-06   -6.21280918336616e-05
-2.5551951601525822e-05   -3.158939993690591e-06   -6.21280918336616e-05
-2.5551951601525822e-05   -3.158939993690591e-06   -6.21280918336616e-05
-2.4430323527541537e-05   2.247811087967115e-06   -1.991807937049895e-05
-2.4430323527541537e-05   2.247811087967115e-06   -1.991807937049895e-05
-2.4430323527541537e-05   2.247811087967115e-06   -1.991807937049895e-05
-2.4430323527541537e-05   2.247811087967115e-06   -1.991807937049895e-05
4.5418979980826825e-07   -2.5683710151544643e-06   -5.8502558987542225e-05
4.5418979980826825e-07   -2.5683710151544643e-06   -5.8502558987542225e-05
4.5418979980826825e-07   -2.5683710151544643e-06   -5.8502558987542225e-05
4.5418979980826825e-07   -2.5683710151544643e-06   -5.8502558987542225e-05
-1.2401218372684829e-05   -2.525518220282408e-07   -3.846637021592933e-05
-1.2401218372684829e-05   -2.525518220282408e-07   -3.846637021592933e-05
-1.2401218372684829e-05   -2.525518220282408e-07   -3.846637021592933e-05
-1.2401218372684829e-05   -2.525518220282408e-07   -3.846637021592933e-05
4.5418979980826825e-07   2.247811087967115e-06   -1.7028370108625917e-05
4.5418979980826825e-07   2.247811087967115e-06   -1.7028370108625917e-05
4.5418979980826825e-07   2.247811087967115e-06   -1.7028370108625917e-05
4.5418979980826825e-07   2.247811087967115e-06   -1.7028370108625917e-05
-2.4430323527541584e-05   -2.5683710151544643e-06   -6.139226824941526e-05
-2.4430323527541584e-05   -2.5683710151544643e-06   -6.139226824941526e-05
-2.4430323527541584e-05   -2.5683710151544643e-06   -6.139226824941526e-05
-2.4430323527541584e-05   -2.5683710151544643e-06   -6.139226824941526e-05
-2.3674028990358234e-05   3.163850653312584e-06   -2.0263189782193615e-05
-2.3674028990358234e-05   3.163850653312584e-06   -2.0263189782193615e-05
-2.3674028990358234e-05   3.163850653312584e-06   -2.0263189782193615e-05
-2.3674028990358234e-05   3.163850653312584e-06   -2.0263189782193615e-05
1.0935106330996311e-06   -2.008392212590488e-06   -5.8439076768414976e-05
1.0935106330996311e-06   -2.008392212590488e-06   -5.8439076768414976e-05
1.0935106330996311e-06   -2.008392212590488e-06   -5.8439076768414976e-05
1.0935106330996311e-06   -2.008392212590488e-06   -5.8439076768414976e-05
-1.1690858643858375e-05   2.3497849984191466e-07   -3.847781706761168e-05
-1.1690858643858375e-05   2.3497849984191466e-07   -3.847781706761168e-05
-1.1690858643858375e-05   2.3497849984191466e-07   -3.847781706761168e-05
-1.1690858643858375e-05   2.3497849984191466e-07   -3.847781706761168e-05
-2.6774498299743276e-05   4.614886854445357e-06   -1.5224134787865861e-05
-2.6774498299743276e-05   4.614886854445357e-06   -1.5224134787865861e-05
-2.6774498299743276e-05   4.614886854445357e-06   -1.5224134787865861e-05
-2.6774498299743276e-05   4.614886854445357e-06   -1.5224134787865861e-05
-5.243879551080251e-05   8.894684213984691e-07   -6.023321453279217e-05
-5.243879551080251e-05   8.894684213984691e-07   -6.023321453279217e-05
-5.243879551080251e-05   8.894684213984691e-07   -6.023321453279217e-05
-5.243879551080251e-05   8.894684213984691e-07   -6.023321453279217e-05
-5.069840472841381e-05   5.58688650791235e-06   -1.6225887970527106e-05
-5.069840472841381e-05   5.58688650791235e-06   -1.6225887970527106e-05
-5.069840472841381e-05   5.58688650791235e-06   -1.6225887970527106e-05
-5.069840472841381e-05   5.58688650791235e-06   -1.6225887970527106e-05
-2.5551951601525768e-05   1.5910462968101412e-06   -5.5739139055345786e-05
-2.5551951601525768e-05   1.5910462968101412e-06   -5.5739139055345786e-05
-2.5551951601525768e-05   1.5910462968101412e-06   -5.5739139055345786e-05
-2.5551951601525768e-05   1.5910462968101412e-06   -5.5739139055345786e-05
-3.846228577924875e-05   3.504520876656137e-06   -3.5370000173714946e-05
-3.846228577924875e-05   3.504520876656137e-06   -3.5370000173714946e-05
-3.846228577924875e-05   3.504520876656137e-06   -3.5370000173714946e-05
-3.846228577924875e-05   3.504520876656137e-06   -3.5370000173714946e-05
-2.5551951601525768e-05   5.58688650791235e-06   -1.382838384386578e-05
-2.5551951601525768e-05   5.58688650791235e-06   -1.382838384386578e-05
-2.5551951601525768e-05   5.58688650791235e-06   -1.382838384386578e-05
-2.5551951601525768e-05   5.58688650791235e-06   -1.382838384386578e-05
-5.069840472841389e-05   1.5910462968101412e-06   -5.8136643182007085e-05
-5.069840472841389e-05   1.5910462968101412e-06   -5.8136643182007085e-05
-5.069840472841389e-05   1.5910462968101412e-06   -5.8136643182007085e-05
-5.069840472841389e-05   1.5910462968101412e-06   -5.8136643182007085e-05
-4.901615672152696e-05   6.4239832252791645e-06   -1.47821519721474e-05
-4.901615672152696e-05   6.4239832252791645e-06   -1.47821519721474e-05
-4.901615672152696e-05   6.4239832252791645e-06   -1.47821519721474e-05
-4.901615672152696e-05   6.4239832252791645e-06   -1.47821519721474e-05
-2.4430323527541584e-05   2.2369513397232227e-06   -5.324632149745665e-05
-2.4430323527541584e-05   2.2369513397232227e-06   -5.324632149745665e-05
-2.4430323527541584e-05   2.2369513397232227e-06   -5.324632149745665e-05
-2.4430323527541584e-05   2.2369513397232227e-06   -5.324632149745665e-05
-3.688960340771082e-05   4.1149315546515006e-06   -3.360764315946422e-05
-3.688960340771082e-05   4.1149315546515006e-06   -3.360764315946422e-05
-3.688960340771082e-05   4.1149315546515006e-06   -3.360764315946422e-05
-3.688960340771082e-05   4.1149315546515006e-06   -3.360764315946422e-05
-2.443032352754151e-05   6.4239832252791645e-06   -1.2269932840814008e-05
-2.443032352754151e-05   6.4239832252791645e-06   -1.2269932840814008e-05
-2.443032352754151e-05   6.4239832252791645e-06   -1.2269932840814008e-05
-2.443032352754151e-05   6.4239832252791645e-06   -1.2269932840814008e-05
-4.901615672152704e-05   2.2369513397236564e-06   -5.575854062879015e-05
-4.901615672152704e-05   2.2369513397236564e-06   -5.575854062879015e-05
-4.901615672152704e-05   2.2369513397236564e-06   -5.575854062879015e-05
-4.901615672152704e-05   2.2369513397236564e-06   -5.575854062879015e-05
-4.773979567107051e-05   7.350108021466923e-06   -1.4828637484081081e-05
-4.773979567107051e-05   7.350108021466923e-06   -1.4828637484081081e-05
-4.773979567107051e-05   7.350108021466923e-06   -1.4828637484081081e-05
-4.773979567107051e-05   7.350108021466923e-06   -1.4828637484081081e-05
-2.3674028990358275e-05   2.7834439122009606e-06   -5.2198250153041826e-05
-2.3674028990358275e-05   2.7834439122009606e-06   -5.2198250153041826e-05
-2.3674028990358275e-05   2.7834439122009606e-06   -5.2198250153041826e-05
-2.3674028990358275e-05   2.7834439122009606e-06   -5.2198250153041826e-05
-3.600807737769318e-05   4.540952249503134e-06   -3.269600784319812e-05
-3.600807737769318e-05   4.540952249503134e-06   -3.269600784319812e-05
-3.600807737769318e-05   4.540952249503134e-06   -3.269600784319812e-05
-3.600807737769318e-05   4.540952249503134e-06   -3.269600784319812e-05
-5.243879551080251e-05   9.071283455053085e-06   -8.73559495343716e-06
-5.243879551080251e-05   9.071283455053085e-06   -8.73559495343716e-06
-5.243879551080251e-05   9.071283455053085e-06   -8.73559495343716e-06
-5.243879551080251e-05   9.071283455053085e-06   -8.73559495343716e-06
-7.925101169813595e-05   8.562355015040522e-06   -5.3727978996334245e-05
-7.925101169813595e-05   8.562355015040522e-06   -5.3727978996334245e-05
-7.925101169813595e-05   8.562355015040522e-06   -5.3727978996334245e-05
-7.925101169813595e-05   8.562355015040522e-06   -5.3727978996334245e-05
-7.581905295166593e-05   1.0362746859110018e-05   -2.584155194070188e-07
-7.581905295166593e-05   1.0362746859110018e-05   -2.584155194070188e-07
-7.581905295166593e-05   1.0362746859110018e-05   -2.584155194070188e-07
-7.581905295166593e-05   1.0362746859110018e-05   -2.584155194070188e-07
-5.069840472841372e-05   1.0841485029915686e-05   -4.24134054606441e-05
-5.069840472841372e-05   1.0841485029915686e-05   -4.24134054606441e-05
-5.069840472841372e-05   1.0841485029915686e-05   -4.24134054606441e-05
-5.069840472841372e-05   1.0841485029915686e-05   -4.24134054606441e-05
-6.176782690009037e-05   1.022272765448468e-05   -2.3593114082591494e-05
-6.176782690009037e-05   1.022272765448468e-05   -2.3593114082591494e-05
-6.176782690009037e-05   1.022272765448468e-05   -2.3593114082591494e-05
-6.176782690009037e-05   1.022272765448468e-05   -2.3593114082591494e-05
-5.069840472841385e-05   1.0362746859110452e-05   -5.45658421890376e-07
-5.069840472841385e-05   1.0362746859110452e-05   -5.45658421890376e-07
-5.069840472841385e-05   1.0362746859110452e-05   -5.45658421890376e-07
-5.069840472841385e-05   1.0362746859110452e-05   -5.45658421890376e-07
-7.581905295166593e-05   1.0841485029915686e-05   -4.212616255816091e-05
-7.581905295166593e-05   1.0841485029915686e-05   -4.212616255816091e-05
-7.581905295166593e-05   1.0841485029915686e-05   -4.212616255816091e-05
-7.581905295166593e-05   1.0841485029915686e-05   -4.212616255816091e-05
-7.297239855630053e-05   1.0702409830334186e-05   4.533919309696651e-06
-7.297239855630053e-05   1.0702409830334186e-05   4.533919309696651e-06
-7.297239855630053e-05   1.0702409830334186e-05   4.533919309696651e-06
-7.297239855630053e-05   1.0702409830334186e-05   4.533919309696651e-06
-4.901615672152696e-05   1.1353598562202812e-05   -3.5783863654047224e-05
-4.901615672152696e-05   1.1353598562202812e-05   -3.5783863654047224e-05
-4.901615672152696e-05   1.1353598562202812e-05   -3.5783863654047224e-05
-4.901615672152696e-05   1.1353598562202812e-05   -3.5783863654047224e-05
-6.046741234031576e-05   1.0965589504263046e-05   -1.6465632187967895e-05
-6.046741234031576e-05   1.0965589504263046e-05   -1.6465632187967895e-05
-6.046741234031576e-05   1.0965589504263046e-05   -1.6465632187967895e-05
-6.046741234031576e-05   1.0965589504263046e-05   -1.6465632187967895e-05
-4.901615672152704e-05   1.0702409830333753e-05   4.143206070575389e-06
-4.901615672152704e-05   1.0702409830333753e-05   4.143206070575389e-06
-4.901615672152704e-05   1.0702409830333753e-05   4.143206070575389e-06
-4.901615672152704e-05   1.0702409830333753e-05   4.143206070575389e-06
-7.29723985563004e-05   1.1353598562202812e-05   -3.539315041492606e-05
-7.29723985563004e-05   1.1353598562202812e-05   -3.539315041492606e-05
-7.29723985563004e-05   1.1353598562202812e-05   -3.539315041492606e-05
-7.29723985563004e-05   1.1353598562202812e-05   -3.539315041492606e-05
-6.99954290963181e-05   1.099517333458212e-05   1.0955974733737077e-05
-6.99954290963181e-05   1.099517333458212e-05   1.0955974733737077e-05
-6.99954290963181e-05   1.099517333458212e-05   1.0955974733737077e-05
-6.99954290963181e-05   1.099517333458212e-05   1.0955974733737077e-05
-4.773979567107051e-05   1.2233764233128119e-05   -2.687990218080343e-05
-4.773979567107051e-05   1.2233764233128119e-05   -2.687990218080343e-05
-4.773979567107051e-05   1.2233764233128119e-05   -2.687990218080343e-05
-4.773979567107051e-05   1.2233764233128119e-05   -2.687990218080343e-05
-5.759398079651954e-05   1.121550960063878e-05   -9.845307525561953e-06
-5.759398079651954e-05   1.121550960063878e-05   -9.845307525561953e-06
-5.759398079651954e-05   1.121550960063878e-05   -9.845307525561953e-06
-5.759398079651954e-05   1.121550960063878e-05   -9.845307525561953e-06
6.911485445610665e-05   -1.0381776875554184e-05   2.3572088423315244e-05
6.911485445610665e-05   -1.0381776875554184e-05   2.3572088423315244e-05
6.911485445610665e-05   -1.0381776875554184e-05   2.3572088423315244e-05
6.911485445610665e-05   -1.0381776875554184e-05   2.3572088423315244e-05
3.474334606166858e-05   -1.3130406431335721e-05   -3.536293663421739e-05
3.474334606166858e-05   -1.3130406431335721e-05   -3.536293663421739e-05
3.474334606166858e-05   -1.3130406431335721e-05   -3.536293663421739e-05
3.474334606166858e-05   -1.3130406431335721e-05   -3.536293663421739e-05
3.559292580579068e-05   -1.0139180530882065e-05   1.6906749609514994e-05
3.559292580579068e-05   -1.0139180530882065e-05   1.6906749609514994e-05
3.559292580579068e-05   -1.0139180530882065e-05   1.6906749609514994e-05
3.559292580579068e-05   -1.0139180530882065e-05   1.6906749609514994e-05
7.083801876856866e-05   -1.3458870557782592e-05   -3.9843257978975006e-05
7.083801876856866e-05   -1.3458870557782592e-05   -3.9843257978975006e-05
7.083801876856866e-05   -1.3458870557782592e-05   -3.9843257978975006e-05
7.083801876856866e-05   -1.3458870557782592e-05   -3.9843257978975006e-05
5.0478230345827265e-05   -1.0604761644936785e-05   -7.622742622113315e-06
5.0478230345827265e-05   -1.0604761644936785e-05   -7.622742622113315e-06
5.0478230345827265e-05   -1.0604761644936785e-05   -7.622742622113315e-06
5.0478230345827265e-05   -1.0604761644936785e-05   -7.622742622113315e-06
7.083801876856866e-05   -1.0139180530882065e-05   1.8898563625654877e-05
7.083801876856866e-05   -1.0139180530882065e-05   1.8898563625654877e-05
7.083801876856866e-05   -1.0139180530882065e-05   1.8898563625654877e-05
7.083801876856866e-05   -1.0139180530882065e-05   1.8898563625654877e-05
3.559292580579068e-05   -1.3458870557782592e-05   -4.1835071995115e-05
3.559292580579068e-05   -1.3458870557782592e-05   -4.1835071995115e-05
3.559292580579068e-05   -1.3458870557782592e-05   -4.1835071995115e-05
3.559292580579068e-05   -1.3458870557782592e-05   -4.1835071995115e-05
3.6311046595693285e-05   -9.787225813647979e-06   1.3339384067002392e-05
3.6311046595693285e-05   -9.787225813647979e-06   1.3339384067002392e-05
3.6311046595693285e-05   -9.787225813647979e-06   1.3339384067002392e-05
3.6311046595693285e-05   -9.787225813647979e-06   1.3339384067002392e-05
7.191198311337819e-05   -1.3337077087052437e-05   -4.3865599365096374e-05
7.191198311337819e-05   -1.3337077087052437e-05   -4.3865599365096374e-05
7.191198311337819e-05   -1.3337077087052437e-05   -4.3865599365096374e-05
7.191198311337819e-05   -1.3337077087052437e-05   -4.3865599365096374e-05
5.22583854271736e-05   -1.0939888207371976e-05   -1.2547916549230514e-05
5.22583854271736e-05   -1.0939888207371976e-05   -1.2547916549230514e-05
5.22583854271736e-05   -1.0939888207371976e-05   -1.2547916549230514e-05
5.22583854271736e-05   -1.0939888207371976e-05   -1.2547916549230514e-05
7.191198311337819e-05   -9.787225813647979e-06   1.5469294831045154e-05
7.191198311337819e-05   -9.787225813647979e-06   1.5469294831045154e-05
7.191198311337819e-05   -9.787225813647979e-06   1.5469294831045154e-05
7.191198311337819e-05   -9.787225813647979e-06   1.5469294831045154e-05
3.6311046595693285e-05   -1.3337077087052437e-05   -4.599551012913908e-05
3.6311046595693285e-05   -1.3337077087052437e-05   -4.599551012913908e-05
3.6311046595693285e-05   -1.3337077087052437e-05   -4.599551012913908e-05
3.6311046595693285e-05   -1.3337077087052437e-05   -4.599551012913908e-05
3.70614201143769e-05   -8.414259369416994e-06   6.4166393326191545e-06
3.70614201143769e-05   -8.414259369416994e-06   6.4166393326191545e-06
3.70614201143769e-05   -8.414259369416994e-06   6.4166393326191545e-06
3.70614201143769e-05   -8.414259369416994e-06   6.4166393326191545e-06
7.296946000697331e-05   -1.2595519040152665e-05   -5.0921338019267195e-05
7.296946000697331e-05   -1.2595519040152665e-05   -5.0921338019267195e-05
7.296946000697331e-05   -1.2595519040152665e-05   -5.0921338019267195e-05
7.296946000697331e-05   -1.2595519040152665e-05   -5.0921338019267195e-05
5.2284960702643526e-05   -1.0528675197904198e-05   -1.7687278817400003e-05
5.2284960702643526e-05   -1.0528675197904198e-05   -1.7687278817400003e-05
5.2284960702643526e-05   -1.0528675197904198e-05   -1.7687278817400003e-05
5.2284960702643526e-05   -1.0528675197904198e-05   -1.7687278817400003e-05
3.474334606166858e-05   -6.730319769651227e-06   2.3191792301649732e-06
3.474334606166858e-05   -6.730319769651227e-06   2.3191792301649732e-06
3.474334606166858e-05   -6.730319769651227e-06   2.3191792301649732e-06
3.474334606166858e-05   -6.730319769651227e-06   2.3191792301649732e-06
4.128164898014594e-06   -1.3179457458203578e-05   -5.257560532238967e-05
4.128164898014594e-06   -1.3179457458203578e-05   -5.257560532238967e-05
4.128164898014594e-06   -1.3179457458203578e-05   -5.257560532238967e-05
4.128164898014594e-06   -1.3179457458203578e-05   -5.257560532238967e-05
5.118415518229905e-06   -6.408461608728086e-06   -3.2531346497491863e-07
5.118415518229905e-06   -6.408461608728086e-06   -3.2531346497491863e-07
5.118415518229905e-06   -6.408461608728086e-06   -3.2531346497491863e-07
5.118415518229905e-06   -6.408461608728086e-06   -3.2531346497491863e-07
3.5592925805790735e-05   -1.3111983700290607e-05   -4.7094050689305584e-05
3.5592925805790735e-05   -1.3111983700290607e-05   -4.7094050689305584e-05
3.5592925805790735e-05   -1.3111983700290607e-05   -4.7094050689305584e-05
3.5592925805790735e-05   -1.3111983700290607e-05   -4.7094050689305584e-05
1.997335549686638e-05   -8.891119898798809e-06   -2.3593951788660394e-05
1.997335549686638e-05   -8.891119898798809e-06   -2.3593951788660394e-05
1.997335549686638e-05   -8.891119898798809e-06   -2.3593951788660394e-05
1.997335549686638e-05   -8.891119898798809e-06   -2.3593951788660394e-05
3.5592925805790626e-05   -6.40846160872852e-06   3.6967997899624207e-06
3.5592925805790626e-05   -6.40846160872852e-06   3.6967997899624207e-06
3.5592925805790626e-05   -6.40846160872852e-06   3.6967997899624207e-06
3.5592925805790626e-05   -6.40846160872852e-06   3.6967997899624207e-06
5.118415518229905e-06   -1.3111983700290607e-05   -5.111616394424287e-05
5.118415518229905e-06   -1.3111983700290607e-05   -5.111616394424287e-05
5.118415518229905e-06   -1.3111983700290607e-05   -5.111616394424287e-05
5.118415518229905e-06   -1.3111983700290607e-05   -5.111616394424287e-05
6.012288610447752e-06   -5.808975220877952e-06   -6.492846829756795e-07
6.012288610447752e-06   -5.808975220877952e-06   -6.492846829756795e-07
6.012288610447752e-06   -5.808975220877952e-06   -6.492846829756795e-07
6.012288610447752e-06   -5.808975220877952e-06   -6.492846829756795e-07
3.6311046595693285e-05   -1.2936164764420707e-05   -4.687090093225899e-05
3.6311046595693285e-05   -1.2936164764420707e-05   -4.687090093225899e-05
3.6311046595693285e-05   -1.2936164764420707e-05   -4.687090093225899e-05
3.6311046595693285e-05   -1.2936164764420707e-05   -4.687090093225899e-05
2.053573839187208e-05   -8.989153208231303e-06   -2.2946927526270016e-05
2.053573839187208e-05   -8.989153208231303e-06   -2.2946927526270016e-05
2.053573839187208e-05   -8.989153208231303e-06   -2.2946927526270016e-05
2.053573839187208e-05   -8.989153208231303e-06   -2.2946927526270016e-05
3.6311046595693285e-05   -5.808975220877952e-06   3.6270290431502338e-06
3.6311046595693285e-05   -5.808975220877952e-06   3.6270290431502338e-06
3.6311046595693285e-05   -5.808975220877952e-06   3.6270290431502338e-06
3.6311046595693285e-05   -5.808975220877952e-06   3.6270290431502338e-06
6.012288610447725e-06   -1.2936164764420707e-05   -5.11472146583849e-05
6.012288610447725e-06   -1.2936164764420707e-05   -5.11472146583849e-05
6.012288610447725e-06   -1.2936164764420707e-05   -5.11472146583849e-05
6.012288610447725e-06   -1.2936164764420707e-05   -5.11472146583849e-05
7.346313496305176e-06   -4.95606174345754e-06   -1.2701596703407984e-06
7.346313496305176e-06   -4.95606174345754e-06   -1.2701596703407984e-06
7.346313496305176e-06   -4.95606174345754e-06   -1.2701596703407984e-06
7.346313496305176e-06   -4.95606174345754e-06   -1.2701596703407984e-06
3.706142011437687e-05   -1.258478640842357e-05   -4.621810256814728e-05
3.706142011437687e-05   -1.258478640842357e-05   -4.621810256814728e-05
3.706142011437687e-05   -1.258478640842357e-05   -4.621810256814728e-05
3.706142011437687e-05   -1.258478640842357e-05   -4.621810256814728e-05
2.1607776380726864e-05   -8.849887784320026e-06   -2.2702968853192647e-05
2.1607776380726864e-05   -8.849887784320026e-06   -2.2702968853192647e-05
2.1607776380726864e-05   -8.849887784320026e-06   -2.2702968853192647e-05
2.1607776380726864e-05   -8.849887784320026e-06   -2.2702968853192647e-05
4.128164898014594e-06   -3.538058946120533e-06   -5.245035075233375e-06
4.128164898014594e-06   -3.538058946120533e-06   -5.245035075233375e-06
4.128164898014594e-06   -3.538058946120533e-06   -5.245035075233375e-06
4.128164898014594e-06   -3.538058946120533e-06   -5.245035075233375e-06
-2.6170703398387755e-05   -1.5906275674192668e-05   -6.316407893941414e-05
-2.6170703398387755e-05   -1.5906275674192668e-05   -6.316407893941414e-05
-2.6170703398387755e-05   -1.5906275674192668e-05   -6.316407893941414e-05
-2.6170703398387755e-05   -1.5906275674192668e-05   -6.316407893941414e-05
-2.4628261156824568e-05   -3.158939993690591e-06   -1.1314532139245978e-05
-2.4628261156824568e-05   -3.158939993690591e-06   -1.1314532139245978e-05
-2.4628261156824568e-05   -3.158939993690591e-06   -1.1314532139245978e-05
-2.4628261156824568e-05   -3.158939993690591e-06   -1.1314532139245978e-05
5.118415518229905e-06   -1.6258335472934485e-05   -5.303268931012366e-05
5.118415518229905e-06   -1.6258335472934485e-05   -5.303268931012366e-05
5.118415518229905e-06   -1.6258335472934485e-05   -5.303268931012366e-05
5.118415518229905e-06   -1.6258335472934485e-05   -5.303268931012366e-05
-1.0038028330825087e-05   -8.99535757486027e-06   -3.212973630054331e-05
-1.0038028330825087e-05   -8.99535757486027e-06   -3.212973630054331e-05
-1.0038028330825087e-05   -8.99535757486027e-06   -3.212973630054331e-05
-1.0038028330825087e-05   -8.99535757486027e-06   -3.212973630054331e-05
5.118415518229905e-06   -3.158939993690591e-06   -3.4548948516994245e-06
5.118415518229905e-06   -3.158939993690591e-06   -3.4548948516994245e-06
5.118415518229905e-06   -3.158939993690591e-06   -3.4548948516994245e-06
5.118415518229905e-06   -3.158939993690591e-06   -3.4548948516994245e-06
-2.462826115682461e-05   -1.6258335472934485e-05   -6.089232659767002e-05
-2.462826115682461e-05   -1.6258335472934485e-05   -6.089232659767002e-05
-2.462826115682461e-05   -1.6258335472934485e-05   -6.089232659767002e-05
-2.462826115682461e-05   -1.6258335472934485e-05   -6.089232659767002e-05
-2.3299175840183284e-05   -2.5683710151540307e-06   -1.0565646152727818e-05
-2.3299175840183284e-05   -2.5683710151540307e-06   -1.0565646152727818e-05
-2.3299175840183284e-05   -2.5683710151540307e-06   -1.0565646152727818e-05
-2.3299175840183284e-05   -2.5683710151540307e-06   -1.0565646152727818e-05
6.012288610447725e-06   -1.6182623066984727e-05   -5.1249535672681515e-05
6.012288610447725e-06   -1.6182623066984727e-05   -5.1249535672681515e-05
6.012288610447725e-06   -1.6182623066984727e-05   -5.1249535672681515e-05
6.012288610447725e-06   -1.6182623066984727e-05   -5.1249535672681515e-05
-8.942717632802768e-06   -9.199455277985116e-06   -3.0514425940663748e-05
-8.942717632802768e-06   -9.199455277985116e-06   -3.0514425940663748e-05
-8.942717632802768e-06   -9.199455277985116e-06   -3.0514425940663748e-05
-8.942717632802768e-06   -9.199455277985116e-06   -3.0514425940663748e-05
6.012288610447725e-06   -2.5683710151540307e-06   -2.3970949216299206e-06
6.012288610447725e-06   -2.5683710151540307e-06   -2.3970949216299206e-06
6.012288610447725e-06   -2.5683710151540307e-06   -2.3970949216299206e-06
6.012288610447725e-06   -2.5683710151540307e-06   -2.3970949216299206e-06
-2.329917584018335e-05   -1.6182623066984293e-05   -5.9418086903779846e-05
-2.329917584018335e-05   -1.6182623066984293e-05   -5.9418086903779846e-05
-2.329917584018335e-05   -1.6182623066984293e-05   -5.9418086903779846e-05
-2.329917584018335e-05   -1.6182623066984293e-05   -5.9418086903779846e-05
-2.1006060821116e-05   -2.008392212590488e-06   -1.0520778407702418e-05
-2.1006060821116e-05   -2.008392212590488e-06   -1.0520778407702418e-05
-2.1006060821116e-05   -2.008392212590488e-06   -1.0520778407702418e-05
-2.1006060821116e-05   -2.008392212590488e-06   -1.0520778407702418e-05
7.346313496305176e-06   -1.5615581202852412e-05   -4.96104222092472e-05
7.346313496305176e-06   -1.5615581202852412e-05   -4.96104222092472e-05
7.346313496305176e-06   -1.5615581202852412e-05   -4.96104222092472e-05
7.346313496305176e-06   -1.5615581202852412e-05   -4.96104222092472e-05
-7.5193383019715875e-06   -8.995750639384341e-06   -2.880623421686675e-05
-7.5193383019715875e-06   -8.995750639384341e-06   -2.880623421686675e-05
-7.5193383019715875e-06   -8.995750639384341e-06   -2.880623421686675e-05
-7.5193383019715875e-06   -8.995750639384341e-06   -2.880623421686675e-05
-2.6170703398387715e-05   8.894684213984691e-07   -7.347238928212497e-06
-2.6170703398387715e-05   8.894684213984691e-07   -7.347238928212497e-06
-2.6170703398387715e-05   8.894684213984691e-07   -7.347238928212497e-06
-2.6170703398387715e-05   8.894684213984691e-07   -7.347238928212497e-06
-5.997730778733332e-05   -1.983978258540079e-05   -7.612913018053484e-05
-5.997730778733332e-05   -1.983978258540079e-05   -7.612913018053484e-05
-5.997730778733332e-05   -1.983978258540079e-05   -7.612913018053484e-05
-5.997730778733332e-05   -1.983978258540079e-05   -7.612913018053484e-05
-5.8135781285419266e-05   1.5910462968105749e-06   -1.9170340543739253e-05
-5.8135781285419266e-05   1.5910462968105749e-06   -1.9170340543739253e-05
-5.8135781285419266e-05   1.5910462968105749e-06   -1.9170340543739253e-05
-5.8135781285419266e-05   1.5910462968105749e-06   -1.9170340543739253e-05
-2.4628261156824568e-05   -2.215022234120477e-05   -6.0771446241921146e-05
-2.4628261156824568e-05   -2.215022234120477e-05   -6.0771446241921146e-05
-2.4628261156824568e-05   -2.215022234120477e-05   -6.0771446241921146e-05
-2.4628261156824568e-05   -2.215022234120477e-05   -6.0771446241921146e-05
-4.16201545649881e-05   -1.0093126700821357e-05   -3.968588127921196e-05
-4.16201545649881e-05   -1.0093126700821357e-05   -3.968588127921196e-05
-4.16201545649881e-05   -1.0093126700821357e-05   -3.968588127921196e-05
-4.16201545649881e-05   -1.0093126700821357e-05   -3.968588127921196e-05
-2.4628261156824568e-05   1.5910462968101412e-06   -4.925579360930132e-06
-2.4628261156824568e-05   1.5910462968101412e-06   -4.925579360930132e-06
-2.4628261156824568e-05   1.5910462968101412e-06   -4.925579360930132e-06
-2.4628261156824568e-05   1.5910462968101412e-06   -4.925579360930132e-06
-5.8135781285419266e-05   -2.215022234120477e-05   -7.501620742473018e-05
-5.8135781285419266e-05   -2.215022234120477e-05   -7.501620742473018e-05
-5.8135781285419266e-05   -2.215022234120477e-05   -7.501620742473018e-05
-5.8135781285419266e-05   -2.215022234120477e-05   -7.501620742473018e-05
-5.6370449981259235e-05   2.2369513397236564e-06   -1.7126367552531066e-05
-5.6370449981259235e-05   2.2369513397236564e-06   -1.7126367552531066e-05
-5.6370449981259235e-05   2.2369513397236564e-06   -1.7126367552531066e-05
-5.6370449981259235e-05   2.2369513397236564e-06   -1.7126367552531066e-05
-2.3299175840183324e-05   -2.2274162246546138e-05   -5.753848963589573e-05
-2.3299175840183324e-05   -2.2274162246546138e-05   -5.753848963589573e-05
-2.3299175840183324e-05   -2.2274162246546138e-05   -5.753848963589573e-05
-2.3299175840183324e-05   -2.2274162246546138e-05   -5.753848963589573e-05
-3.982459484877505e-05   -1.0127660008808423e-05   -3.72840259642189e-05
-3.982459484877505e-05   -1.0127660008808423e-05   -3.72840259642189e-05
-3.982459484877505e-05   -1.0127660008808423e-05   -3.72840259642189e-05
-3.982459484877505e-05   -1.0127660008808423e-05   -3.72840259642189e-05
-2.329917584018331e-05   2.2369513397236564e-06   -2.4196994007691028e-06
-2.329917584018331e-05   2.2369513397236564e-06   -2.4196994007691028e-06
-2.329917584018331e-05   2.2369513397236564e-06   -2.4196994007691028e-06
-2.329917584018331e-05   2.2369513397236564e-06   -2.4196994007691028e-06
-5.637044998125934e-05   -2.2274162246546138e-05   -7.224515778765758e-05
-5.637044998125934e-05   -2.2274162246546138e-05   -7.224515778765758e-05
-5.637044998125934e-05   -2.2274162246546138e-05   -7.224515778765758e-05
-5.637044998125934e-05   -2.2274162246546138e-05   -7.224515778765758e-05
-5.347730901547845e-05   2.783443912200527e-06   -1.5044528465387634e-05
-5.347730901547845e-05   2.783443912200527e-06   -1.5044528465387634e-05
-5.347730901547845e-05   2.783443912200527e-06   -1.5044528465387634e-05
-5.347730901547845e-05   2.783443912200527e-06   -1.5044528465387634e-05
-2.100606082111607e-05   -2.0329760075466462e-05   -5.5295353063391665e-05
-2.100606082111607e-05   -2.0329760075466462e-05   -5.5295353063391665e-05
-2.100606082111607e-05   -2.0329760075466462e-05   -5.5295353063391665e-05
-2.100606082111607e-05   -2.0329760075466462e-05   -5.5295353063391665e-05
-3.805122694958145e-05   -8.946647367468353e-06   -3.371661047408051e-05
-3.805122694958145e-05   -8.946647367468353e-06   -3.371661047408051e-05
-3.805122694958145e-05   -8.946647367468353e-06   -3.371661047408051e-05
-3.805122694958145e-05   -8.946647367468353e-06   -3.371661047408051e-05
-5.997730778733332e-05   8.562355015040522e-06   -1.2974196931826764e-05
-5.997730778733332e-05   8.562355015040522e-06   -1.2974196931826764e-05
-5.997730778733332e-05   8.562355015040522e-06   -1.2974196931826764e-05
-5.997730778733332e-05   8.562355015040522e-06   -1.2974196931826764e-05
-0.00010327728352272301   0.0   -9.02782361665007e-05
-0.00010327728352272301   0.0   -9.02782361665007e-05
-0.00010327728352272301   0.0   -9.02782361665007e-05
-0.00010327728352272301   0.0   -9.02782361665007e-05
-0.00010058238159632773   1.0841485029915686e-05   -9.951993840325588e-06
-0.00010058238159632773   1.0841485029915686e-05   -9.951993840325588e-06
-0.00010058238159632773   1.0841485029915686e-05   -9.951993840325588e-06
-0.00010058238159632773   1.0841485029915686e-05   -9.951993840325588e-06
-5.813578128541917e-05   0.0   -7.419143667389063e-05
-5.813578128541917e-05   0.0   -7.419143667389063e-05
-5.813578128541917e-05   0.0   -7.419143667389063e-05
-5.813578128541917e-05   0.0   -7.419143667389063e-05
-7.70729633786459e-05   3.312418950993795e-06   -4.461691788910905e-05
-7.70729633786459e-05   3.312418950993795e-06   -4.461691788910905e-05
-7.70729633786459e-05   3.312418950993795e-06   -4.461691788910905e-05
-7.70729633786459e-05   3.312418950993795e-06   -4.461691788910905e-05
-5.813578128541921e-05   1.0841485029915686e-05   -3.4471028223762197e-06
-5.813578128541921e-05   1.0841485029915686e-05   -3.4471028223762197e-06
-5.813578128541921e-05   1.0841485029915686e-05   -3.4471028223762197e-06
-5.813578128541921e-05   1.0841485029915686e-05   -3.4471028223762197e-06
-0.00010058238159632756   0.0   -8.06963276918397e-05
-0.00010058238159632756   0.0   -8.06963276918397e-05
-0.00010058238159632756   0.0   -8.06963276918397e-05
-0.00010058238159632756   0.0   -8.06963276918397e-05
-9.830287323205834e-05   1.1353598562202378e-05   -3.963849715109963e-06
-9.830287323205834e-05   1.1353598562202378e-05   -3.963849715109963e-06
-9.830287323205834e-05   1.1353598562202378e-05   -3.963849715109963e-06
-9.830287323205834e-05   1.1353598562202378e-05   -3.963849715109963e-06
-5.637044998125934e-05   0.0   -6.703906266245364e-05
-5.637044998125934e-05   0.0   -6.703906266245364e-05
-5.637044998125934e-05   0.0   -6.703906266245364e-05
-5.637044998125934e-05   0.0   -6.703906266245364e-05
-7.626913476245796e-05   5.24971800688976e-06   -3.702441883125557e-05
-7.626913476245796e-05   5.24971800688976e-06   -3.702441883125557e-05
-7.626913476245796e-05   5.24971800688976e-06   -3.702441883125557e-05
-7.626913476245796e-05   5.24971800688976e-06   -3.702441883125557e-05
-5.637044998125934e-05   1.1353598562202812e-05   2.8483094222115507e-06
-5.637044998125934e-05   1.1353598562202812e-05   2.8483094222115507e-06
-5.637044998125934e-05   1.1353598562202812e-05   2.8483094222115507e-06
-5.637044998125934e-05   1.1353598562202812e-05   2.8483094222115507e-06
-9.830287323205818e-05   0.0   -7.385122179977494e-05
-9.830287323205818e-05   0.0   -7.385122179977494e-05
-9.830287323205818e-05   0.0   -7.385122179977494e-05
-9.830287323205818e-05   0.0   -7.385122179977494e-05
-9.375503943391306e-05   1.2233764233128119e-05   5.673559432533377e-06
-9.375503943391306e-05   1.2233764233128119e-05   5.673559432533377e-06
-9.375503943391306e-05   1.2233764233128119e-05   5.673559432533377e-06
-9.375503943391306e-05   1.2233764233128119e-05   5.673559432533377e-06
-5.3477309015478546e-05   0.0   -5.4115732724980956e-05
-5.3477309015478546e-05   0.0   -5.4115732724980956e-05
-5.3477309015478546e-05   0.0   -5.4115732724980956e-05
-5.3477309015478546e-05   0.0   -5.4115732724980956e-05
-7.230062839042017e-05   6.475511080805425e-06   -2.6628840415227973e-05
-7.230062839042017e-05   6.475511080805425e-06   -2.6628840415227973e-05
-7.230062839042017e-05   6.475511080805425e-06   -2.6628840415227973e-05
-7.230062839042017e-05   6.475511080805425e-06   -2.6628840415227973e-05
7.646463340367295e-05   -1.3130406431335721e-05   4.564401507680619e-05
7.646463340367295e-05   -1.3130406431335721e-05   4.564401507680619e-05
7.646463340367295e-05   -1.3130406431335721e-05   4.564401507680619e-05
7.646463340367295e-05   -1.3130406431335721e-05   4.564401507680619e-05
3.9673371251702934e-05   -1.011739643315239e-05   -1.3866949177567239e-05
3.9673371251702934e-05   -1.011739643315239e-05   -1.3866949177567239e-05
3.9673371251702934e-05   -1.011739643315239e-05   -1.3866949177567239e-05
3.9673371251702934e-05   -1.011739643315239e-05   -1.3866949177567239e-05
3.867510036465618e-05   -1.3458870557782592e-05   4.0312854900287094e-05
3.867510036465618e-05   -1.3458870557782592e-05   4.0312854900287094e-05
3.867510036465618e-05   -1.3458870557782592e-05   4.0312854900287094e-05
3.867510036465618e-05   -1.3458870557782592e-05   4.0312854900287094e-05
7.564656239660588e-05   -1.1123821331371873e-05   -2.2707278022142185e-05
7.564656239660588e-05   -1.1123821331371873e-05   -2.2707278022142185e-05
7.564656239660588e-05   -1.1123821331371873e-05   -2.2707278022142185e-05
7.564656239660588e-05   -1.1123821331371873e-05   -2.2707278022142185e-05
5.525741481487321e-05   -1.1313794004738035e-05   1.1388618218098655e-05
5.525741481487321e-05   -1.1313794004738035e-05   1.1388618218098655e-05
5.525741481487321e-05   -1.1313794004738035e-05   1.1388618218098655e-05
5.525741481487321e-05   -1.1313794004738035e-05   1.1388618218098655e-05
7.564656239660588e-05   -1.3458870557782592e-05   3.891182536444062e-05
7.564656239660588e-05   -1.3458870557782592e-05   3.891182536444062e-05
7.564656239660588e-05   -1.3458870557782592e-05   3.891182536444062e-05
7.564656239660588e-05   -1.3458870557782592e-05   3.891182536444062e-05
3.867510036465618e-05   -1.1123821331371873e-05   -2.130624848629579e-05
3.867510036465618e-05   -1.1123821331371873e-05   -2.130624848629579e-05
3.867510036465618e-05   -1.1123821331371873e-05   -2.130624848629579e-05
3.867510036465618e-05   -1.1123821331371873e-05   -2.130624848629579e-05
3.777205570218678e-05   -1.3337077087052437e-05   3.619450594071361e-05
3.777205570218678e-05   -1.3337077087052437e-05   3.619450594071361e-05
3.777205570218678e-05   -1.3337077087052437e-05   3.619450594071361e-05
3.777205570218678e-05   -1.3337077087052437e-05   3.619450594071361e-05
7.470049839993462e-05   -1.1216454733889956e-05   -2.6625271967430357e-05
7.470049839993462e-05   -1.1216454733889956e-05   -2.6625271967430357e-05
7.470049839993462e-05   -1.1216454733889956e-05   -2.6625271967430357e-05
7.470049839993462e-05   -1.1216454733889956e-05   -2.6625271967430357e-05
5.521524001698549e-05   -1.151221491882664e-05   6.027614781780092e-06
5.521524001698549e-05   -1.151221491882664e-05   6.027614781780092e-06
5.521524001698549e-05   -1.151221491882664e-05   6.027614781780092e-06
5.521524001698549e-05   -1.151221491882664e-05   6.027614781780092e-06
7.470049839993474e-05   -1.3337077087052437e-05   3.492213252881621e-05
7.470049839993474e-05   -1.3337077087052437e-05   3.492213252881621e-05
7.470049839993474e-05   -1.3337077087052437e-05   3.492213252881621e-05
7.470049839993474e-05   -1.3337077087052437e-05   3.492213252881621e-05
3.777205570218678e-05   -1.1216454733889956e-05   -2.53528985555329e-05
3.777205570218678e-05   -1.1216454733889956e-05   -2.53528985555329e-05
3.777205570218678e-05   -1.1216454733889956e-05   -2.53528985555329e-05
3.777205570218678e-05   -1.1216454733889956e-05   -2.53528985555329e-05
3.6670325140907484e-05   -1.2595519040152665e-05   2.9494321613151393e-05
3.6670325140907484e-05   -1.2595519040152665e-05   2.9494321613151393e-05
3.6670325140907484e-05   -1.2595519040152665e-05   2.9494321613151393e-05
3.6670325140907484e-05   -1.2595519040152665e-05   2.9494321613151393e-05
7.32181885435329e-05   -1.0982500509927433e-05   -3.2386595176025704e-05
7.32181885435329e-05   -1.0982500509927433e-05   -3.2386595176025704e-05
7.32181885435329e-05   -1.0982500509927433e-05   -3.2386595176025704e-05
7.32181885435329e-05   -1.0982500509927433e-05   -3.2386595176025704e-05
5.333011917173131e-05   -1.0946994385851398e-05   7.388834358644123e-07
5.333011917173131e-05   -1.0946994385851398e-05   7.388834358644123e-07
5.333011917173131e-05   -1.0946994385851398e-05   7.388834358644123e-07
5.333011917173131e-05   -1.0946994385851398e-05   7.388834358644123e-07
3.9673371251702934e-05   -1.3179457458203578e-05   3.4108635000675664e-05
3.9673371251702934e-05   -1.3179457458203578e-05   3.4108635000675664e-05
3.9673371251702934e-05   -1.3179457458203578e-05   3.4108635000675664e-05
3.9673371251702934e-05   -1.3179457458203578e-05   3.4108635000675664e-05
8.453078254442946e-06   -6.256508088893931e-06   -1.3771417039838956e-05
8.453078254442946e-06   -6.256508088893931e-06   -1.3771417039838956e-05
8.453078254442946e-06   -6.256508088893931e-06   -1.3771417039838956e-05
8.453078254442946e-06   -6.256508088893931e-06   -1.3771417039838956e-05
6.873174973450591e-06   -1.3111983700290607e-05   3.893949521089897e-05
6.873174973450591e-06   -1.3111983700290607e-05   3.893949521089897e-05
6.873174973450591e-06   -1.3111983700290607e-05   3.893949521089897e-05
6.873174973450591e-06   -1.3111983700290607e-05   3.893949521089897e-05
3.867510036465618e-05   -6.635952025619424e-06   -1.7949332779246095e-05
3.867510036465618e-05   -6.635952025619424e-06   -1.7949332779246095e-05
3.867510036465618e-05   -6.635952025619424e-06   -1.7949332779246095e-05
3.867510036465618e-05   -6.635952025619424e-06   -1.7949332779246095e-05
2.3386083257540506e-05   -9.433365251182262e-06   9.210810334617388e-06
2.3386083257540506e-05   -9.433365251182262e-06   9.210810334617388e-06
2.3386083257540506e-05   -9.433365251182262e-06   9.210810334617388e-06
2.3386083257540506e-05   -9.433365251182262e-06   9.210810334617388e-06
3.867510036465622e-05   -1.3111983700290607e-05   3.5053876206096344e-05
3.867510036465622e-05   -1.3111983700290607e-05   3.5053876206096344e-05
3.867510036465622e-05   -1.3111983700290607e-05   3.5053876206096344e-05
3.867510036465622e-05   -1.3111983700290607e-05   3.5053876206096344e-05
6.873174973450591e-06   -6.635952025619424e-06   -1.4063713774443553e-05
6.873174973450591e-06   -6.635952025619424e-06   -1.4063713774443553e-05
6.873174973450591e-06   -6.635952025619424e-06   -1.4063713774443553e-05
6.873174973450591e-06   -6.635952025619424e-06   -1.4063713774443553e-05
5.74655331388719e-06   -1.2936164764420707e-05   3.899799769357948e-05
5.74655331388719e-06   -1.2936164764420707e-05   3.899799769357948e-05
5.74655331388719e-06   -1.2936164764420707e-05   3.899799769357948e-05
5.74655331388719e-06   -1.2936164764420707e-05   3.899799769357948e-05
3.777205570218678e-05   -6.804693837778042e-06   -1.8056722176238804e-05
3.777205570218678e-05   -6.804693837778042e-06   -1.8056722176238804e-05
3.777205570218678e-05   -6.804693837778042e-06   -1.8056722176238804e-05
3.777205570218678e-05   -6.804693837778042e-06   -1.8056722176238804e-05
2.203183417418213e-05   -9.240104478648592e-06   9.638226754958633e-06
2.203183417418213e-05   -9.240104478648592e-06   9.638226754958633e-06
2.203183417418213e-05   -9.240104478648592e-06   9.638226754958633e-06
2.203183417418213e-05   -9.240104478648592e-06   9.638226754958633e-06
3.777205570218683e-05   -1.2936164764421141e-05   3.531911513759349e-05
3.777205570218683e-05   -1.2936164764421141e-05   3.531911513759349e-05
3.777205570218683e-05   -1.2936164764421141e-05   3.531911513759349e-05
3.777205570218683e-05   -1.2936164764421141e-05   3.531911513759349e-05
5.74655331388719e-06   -6.804693837778042e-06   -1.4377839620253194e-05
5.74655331388719e-06   -6.804693837778042e-06   -1.4377839620253194e-05
5.74655331388719e-06   -6.804693837778042e-06   -1.4377839620253194e-05
5.74655331388719e-06   -6.804693837778042e-06   -1.4377839620253194e-05
4.493285107207671e-06   -1.258478640842357e-05   4.0266413621655546e-05
4.493285107207671e-06   -1.258478640842357e-05   4.0266413621655546e-05
4.493285107207671e-06   -1.258478640842357e-05   4.0266413621655546e-05
4.493285107207671e-06   -1.258478640842357e-05   4.0266413621655546e-05
3.667032514090744e-05   -6.6512851501850274e-06   -1.692208718945395e-05
3.667032514090744e-05   -6.6512851501850274e-06   -1.692208718945395e-05
3.667032514090744e-05   -6.6512851501850274e-06   -1.692208718945395e-05
3.667032514090744e-05   -6.6512851501850274e-06   -1.692208718945395e-05
2.120359242301179e-05   -8.83473245613317e-06   1.0165869057274517e-05
2.120359242301179e-05   -8.83473245613317e-06   1.0165869057274517e-05
2.120359242301179e-05   -8.83473245613317e-06   1.0165869057274517e-05
2.120359242301179e-05   -8.83473245613317e-06   1.0165869057274517e-05
8.453078254442919e-06   -1.5906275674192668e-05   3.509486104207992e-05
8.453078254442919e-06   -1.5906275674192668e-05   3.509486104207992e-05
8.453078254442919e-06   -1.5906275674192668e-05   3.509486104207992e-05
8.453078254442919e-06   -1.5906275674192668e-05   3.509486104207992e-05
-2.1537776925588853e-05   -2.6319434707055417e-06   -6.925298269214088e-06
-2.1537776925588853e-05   -2.6319434707055417e-06   -6.925298269214088e-06
-2.1537776925588853e-05   -2.6319434707055417e-06   -6.925298269214088e-06
-2.1537776925588853e-05   -2.6319434707055417e-06   -6.925298269214088e-06
-2.3995519175032965e-05   -1.6258335472934485e-05   4.511043755818381e-05
-2.3995519175032965e-05   -1.6258335472934485e-05   4.511043755818381e-05
-2.3995519175032965e-05   -1.6258335472934485e-05   4.511043755818381e-05
-2.3995519175032965e-05   -1.6258335472934485e-05   4.511043755818381e-05
6.873174973450618e-06   -2.7792226176583112e-06   -1.4424853735787925e-05
6.873174973450618e-06   -2.7792226176583112e-06   -1.4424853735787925e-05
6.873174973450618e-06   -2.7792226176583112e-06   -1.4424853735787925e-05
6.873174973450618e-06   -2.7792226176583112e-06   -1.4424853735787925e-05
-7.2831048510411706e-06   -9.091868502515699e-06   1.2956533502612804e-05
-7.2831048510411706e-06   -9.091868502515699e-06   1.2956533502612804e-05
-7.2831048510411706e-06   -9.091868502515699e-06   1.2956533502612804e-05
-7.2831048510411706e-06   -9.091868502515699e-06   1.2956533502612804e-05
6.873174973450591e-06   -1.6258335472934485e-05   3.702296984501815e-05
6.873174973450591e-06   -1.6258335472934485e-05   3.702296984501815e-05
6.873174973450591e-06   -1.6258335472934485e-05   3.702296984501815e-05
6.873174973450591e-06   -1.6258335472934485e-05   3.702296984501815e-05
-2.3995519175032924e-05   -2.779222617658745e-06   -6.337386022621993e-06
-2.3995519175032924e-05   -2.779222617658745e-06   -6.337386022621993e-06
-2.3995519175032924e-05   -2.779222617658745e-06   -6.337386022621993e-06
-2.3995519175032924e-05   -2.779222617658745e-06   -6.337386022621993e-06
-2.5497670847965804e-05   -1.6182623066984293e-05   4.6829485688493514e-05
-2.5497670847965804e-05   -1.6182623066984293e-05   4.6829485688493514e-05
-2.5497670847965804e-05   -1.6182623066984293e-05   4.6829485688493514e-05
-2.5497670847965804e-05   -1.6182623066984293e-05   4.6829485688493514e-05
5.74655331388719e-06   -2.9596080516332106e-06   -1.3178030257138891e-05
5.74655331388719e-06   -2.9596080516332106e-06   -1.3178030257138891e-05
5.74655331388719e-06   -2.9596080516332106e-06   -1.3178030257138891e-05
5.74655331388719e-06   -2.9596080516332106e-06   -1.3178030257138891e-05
-8.946979296871953e-06   -9.063017845912374e-06   1.497323663736058e-05
-8.946979296871953e-06   -9.063017845912374e-06   1.497323663736058e-05
-8.946979296871953e-06   -9.063017845912374e-06   1.497323663736058e-05
-8.946979296871953e-06   -9.063017845912374e-06   1.497323663736058e-05
5.7465533138871625e-06   -1.6182623066984293e-05   3.889567667928265e-05
5.7465533138871625e-06   -1.6182623066984293e-05   3.889567667928265e-05
5.7465533138871625e-06   -1.6182623066984293e-05   3.889567667928265e-05
5.7465533138871625e-06   -1.6182623066984293e-05   3.889567667928265e-05
-2.5497670847965764e-05   -2.9596080516332106e-06   -5.244221247928133e-06
-2.5497670847965764e-05   -2.9596080516332106e-06   -5.244221247928133e-06
-2.5497670847965764e-05   -2.9596080516332106e-06   -5.244221247928133e-06
-2.5497670847965764e-05   -2.9596080516332106e-06   -5.244221247928133e-06
-2.726445417286284e-05   -1.5615581202852412e-05   4.905536896159359e-05
-2.726445417286284e-05   -1.5615581202852412e-05   4.905536896159359e-05
-2.726445417286284e-05   -1.5615581202852412e-05   4.905536896159359e-05
-2.726445417286284e-05   -1.5615581202852412e-05   4.905536896159359e-05
4.493285107207685e-06   -2.9421808994223135e-06   -1.1478236687248754e-05
4.493285107207685e-06   -2.9421808994223135e-06   -1.1478236687248754e-05
4.493285107207685e-06   -2.9421808994223135e-06   -1.1478236687248754e-05
4.493285107207685e-06   -2.9421808994223135e-06   -1.1478236687248754e-05
-1.0301857559520305e-05   -8.702394316235668e-06   1.6636462474052755e-05
-1.0301857559520305e-05   -8.702394316235668e-06   1.6636462474052755e-05
-1.0301857559520305e-05   -8.702394316235668e-06   1.6636462474052755e-05
-1.0301857559520305e-05   -8.702394316235668e-06   1.6636462474052755e-05
-2.1537776925588867e-05   -1.983978258540079e-05   4.2531959727131266e-05
-2.1537776925588867e-05   -1.983978258540079e-05   4.2531959727131266e-05
-2.1537776925588867e-05   -1.983978258540079e-05   4.2531959727131266e-05
-2.1537776925588867e-05   -1.983978258540079e-05   4.2531959727131266e-05
-5.569044483099229e-05   2.8272690925819355e-06   -7.889224417517195e-07
-5.569044483099229e-05   2.8272690925819355e-06   -7.889224417517195e-07
-5.569044483099229e-05   2.8272690925819355e-06   -7.889224417517195e-07
-5.569044483099229e-05   2.8272690925819355e-06   -7.889224417517195e-07
-5.864375493204209e-05   -2.215022234120477e-05   6.0116364745274814e-05
-5.864375493204209e-05   -2.215022234120477e-05   6.0116364745274814e-05
-5.864375493204209e-05   -2.215022234120477e-05   6.0116364745274814e-05
-5.864375493204209e-05   -2.215022234120477e-05   6.0116364745274814e-05
-2.3995519175032924e-05   2.6581890443656657e-06   -1.251574168108227e-05
-2.3995519175032924e-05   2.6581890443656657e-06   -1.251574168108227e-05
-2.3995519175032924e-05   2.6581890443656657e-06   -1.251574168108227e-05
-2.3995519175032924e-05   2.6581890443656657e-06   -1.251574168108227e-05
-3.940813602172467e-05   -8.237525801213248e-06   1.970938197075095e-05
-3.940813602172467e-05   -8.237525801213248e-06   1.970938197075095e-05
-3.940813602172467e-05   -8.237525801213248e-06   1.970938197075095e-05
-3.940813602172467e-05   -8.237525801213248e-06   1.970938197075095e-05
-2.3995519175032965e-05   -2.215022234120477e-05   4.523131791393255e-05
-2.3995519175032965e-05   -2.215022234120477e-05   4.523131791393255e-05
-2.3995519175032965e-05   -2.215022234120477e-05   4.523131791393255e-05
-2.3995519175032965e-05   -2.215022234120477e-05   4.523131791393255e-05
-5.864375493204209e-05   2.6581890443656657e-06   2.3693051502597737e-06
-5.864375493204209e-05   2.6581890443656657e-06   2.3693051502597737e-06
-5.864375493204209e-05   2.6581890443656657e-06   2.3693051502597737e-06
-5.864375493204209e-05   2.6581890443656657e-06   2.3693051502597737e-06
-6.044385412438933e-05   -2.2274162246546138e-05   6.348160548645958e-05
-6.044385412438933e-05   -2.2274162246546138e-05   6.348160548645958e-05
-6.044385412438933e-05   -2.2274162246546138e-05   6.348160548645958e-05
-6.044385412438933e-05   -2.2274162246546138e-05   6.348160548645958e-05
-2.5497670847965764e-05   2.3467086369241726e-06   -9.534555837661604e-06
-2.5497670847965764e-05   2.3467086369241726e-06   -9.534555837661604e-06
-2.5497670847965764e-05   2.3467086369241726e-06   -9.534555837661604e-06
-2.5497670847965764e-05   2.3467086369241726e-06   -9.534555837661604e-06
-4.1326802935684884e-05   -9.483851855731154e-06   2.3945667270796602e-05
-4.1326802935684884e-05   -9.483851855731154e-06   2.3945667270796602e-05
-4.1326802935684884e-05   -9.483851855731154e-06   2.3945667270796602e-05
-4.1326802935684884e-05   -9.483851855731154e-06   2.3945667270796602e-05
-2.549767084796575e-05   -2.2274162246546138e-05   4.870908295637752e-05
-2.549767084796575e-05   -2.2274162246546138e-05   4.870908295637752e-05
-2.549767084796575e-05   -2.2274162246546138e-05   4.870908295637752e-05
-2.549767084796575e-05   -2.2274162246546138e-05   4.870908295637752e-05
-6.0443854124389234e-05   2.3467086369241726e-06   5.2379666924205065e-06
-6.0443854124389234e-05   2.3467086369241726e-06   5.2379666924205065e-06
-6.0443854124389234e-05   2.3467086369241726e-06   5.2379666924205065e-06
-6.0443854124389234e-05   2.3467086369241726e-06   5.2379666924205065e-06
-6.238335169417182e-05   -2.0329760075466462e-05   6.492904890145821e-05
-6.238335169417182e-05   -2.0329760075466462e-05   6.492904890145821e-05
-6.238335169417182e-05   -2.0329760075466462e-05   6.492904890145821e-05
-6.238335169417182e-05   -2.0329760075466462e-05   6.492904890145821e-05
-2.726445417286276e-05   1.9940689242863713e-06   -6.996744367241564e-06
-2.726445417286276e-05   1.9940689242863713e-06   -6.996744367241564e-06
-2.726445417286276e-05   1.9940689242863713e-06   -6.996744367241564e-06
-2.726445417286276e-05   1.9940689242863713e-06   -6.996744367241564e-06
-4.3303482819462533e-05   -9.554846350122957e-06   2.6664319208403986e-05
-4.3303482819462533e-05   -9.554846350122957e-06   2.6664319208403986e-05
-4.3303482819462533e-05   -9.554846350122957e-06   2.6664319208403986e-05
-4.3303482819462533e-05   -9.554846350122957e-06   2.6664319208403986e-05
-5.5690444830992086e-05   0.0   4.712049775697875e-05
-5.5690444830992086e-05   0.0   4.712049775697875e-05
-5.5690444830992086e-05   0.0   4.712049775697875e-05
-5.5690444830992086e-05   0.0   4.712049775697875e-05
-9.808630492296753e-05   1.2860704803446463e-05   -1.5822846180912637e-05
-9.808630492296753e-05   1.2860704803446463e-05   -1.5822846180912637e-05
-9.808630492296753e-05   1.2860704803446463e-05   -1.5822846180912637e-05
-9.808630492296753e-05   1.2860704803446463e-05   -1.5822846180912637e-05
-0.00010215946999455336   0.0   6.838857696419513e-05
-0.00010215946999455336   0.0   6.838857696419513e-05
-0.00010215946999455336   0.0   6.838857696419513e-05
-0.00010215946999455336   0.0   6.838857696419513e-05
-5.8643754932042e-05   1.2412402446801418e-05   -1.1585056274738225e-05
-5.8643754932042e-05   1.2412402446801418e-05   -1.1585056274738225e-05
-5.8643754932042e-05   1.2412402446801418e-05   -1.1585056274738225e-05
-5.8643754932042e-05   1.2412402446801418e-05   -1.1585056274738225e-05
-7.529138838734757e-05   7.630152046498879e-06   1.903034972428584e-05
-7.529138838734757e-05   7.630152046498879e-06   1.903034972428584e-05
-7.529138838734757e-05   7.630152046498879e-06   1.903034972428584e-05
-7.529138838734757e-05   7.630152046498879e-06   1.903034972428584e-05
-5.864375493204194e-05   0.0   6.094113549611445e-05
-5.864375493204194e-05   0.0   6.094113549611445e-05
-5.864375493204194e-05   0.0   6.094113549611445e-05
-5.864375493204194e-05   0.0   6.094113549611445e-05
-0.00010215946999455354   1.2412402446801418e-05   -4.137614806657168e-06
-0.00010215946999455354   1.2412402446801418e-05   -4.137614806657168e-06
-0.00010215946999455354   1.2412402446801418e-05   -4.137614806657168e-06
-0.00010215946999455354   1.2412402446801418e-05   -4.137614806657168e-06
-0.00010421087586172435   0.0   7.594410075120695e-05
-0.00010421087586172435   0.0   7.594410075120695e-05
-0.00010421087586172435   0.0   7.594410075120695e-05
-0.00010421087586172435   0.0   7.594410075120695e-05
-6.0443854124389234e-05   1.2094000232572462e-05   -4.257335617228775e-06
-6.0443854124389234e-05   1.2094000232572462e-05   -4.257335617228775e-06
-6.0443854124389234e-05   1.2094000232572462e-05   -4.257335617228775e-06
-6.0443854124389234e-05   1.2094000232572462e-05   -4.257335617228775e-06
-7.922003437054771e-05   6.37113486164553e-06   3.0470017348926005e-05
-7.922003437054771e-05   6.37113486164553e-06   3.0470017348926005e-05
-7.922003437054771e-05   6.37113486164553e-06   3.0470017348926005e-05
-7.922003437054771e-05   6.37113486164553e-06   3.0470017348926005e-05
-6.0443854124389234e-05   0.0   6.868770061166352e-05
-6.0443854124389234e-05   0.0   6.868770061166352e-05
-6.0443854124389234e-05   0.0   6.868770061166352e-05
-6.0443854124389234e-05   0.0   6.868770061166352e-05
-0.00010421087586172472   1.2094000232572462e-05   2.9990645223150654e-06
-0.00010421087586172472   1.2094000232572462e-05   2.9990645223150654e-06
-0.00010421087586172472   1.2094000232572462e-05   2.9990645223150654e-06
-0.00010421087586172472   1.2094000232572462e-05   2.9990645223150654e-06
-0.0001064953571685283   0.0   8.601932040022578e-05
-0.0001064953571685283   0.0   8.601932040022578e-05
-0.0001064953571685283   0.0   8.601932040022578e-05
-0.0001064953571685283   0.0   8.601932040022578e-05
-6.238335169417182e-05   1.0071214612928509e-05   6.456582508541003e-06
-6.238335169417182e-05   1.0071214612928509e-05   6.456582508541003e-06
-6.238335169417182e-05   1.0071214612928509e-05   6.456582508541003e-06
-6.238335169417182e-05   1.0071214612928509e-05   6.456582508541003e-06
-7.988014291311063e-05   4.472286675612225e-06   3.8977257969162026e-05
-7.988014291311063e-05   4.472286675612225e-06   3.8977257969162026e-05
-7.988014291311063e-05   4.472286675612225e-06   3.8977257969162026e-05
-7.988014291311063e-05   4.472286675612225e-06   3.8977257969162026e-05
6.725199076968439e-05   -1.011739643315239e-05   4.774843955853022e-05
6.725199076968439e-05   -1.011739643315239e-05   4.774843955853022e-05
6.725199076968439e-05   -1.011739643315239e-05   4.774843955853022e-05
6.725199076968439e-05   -1.011739643315239e-05   4.774843955853022e-05
3.40138660778634e-05   -7.630057605617982e-06   -6.156031631317574e-06
3.40138660778634e-05   -7.630057605617982e-06   -6.156031631317574e-06
3.40138660778634e-05   -7.630057605617982e-06   -6.156031631317574e-06
3.40138660778634e-05   -7.630057605617982e-06   -6.156031631317574e-06
3.311608614837198e-05   -1.1123821331371873e-05   4.167883841694076e-05
3.311608614837198e-05   -1.1123821331371873e-05   4.167883841694076e-05
3.311608614837198e-05   -1.1123821331371873e-05   4.167883841694076e-05
3.311608614837198e-05   -1.1123821331371873e-05   4.167883841694076e-05
6.564905978696763e-05   -8.647924561870288e-06   -1.4028322375752851e-05
6.564905978696763e-05   -8.647924561870288e-06   -1.4028322375752851e-05
6.564905978696763e-05   -8.647924561870288e-06   -1.4028322375752851e-05
6.564905978696763e-05   -8.647924561870288e-06   -1.4028322375752851e-05
4.7781486449747015e-05   -9.004854252250057e-06   1.5965124333842647e-05
4.7781486449747015e-05   -9.004854252250057e-06   1.5965124333842647e-05
4.7781486449747015e-05   -9.004854252250057e-06   1.5965124333842647e-05
4.7781486449747015e-05   -9.004854252250057e-06   1.5965124333842647e-05
6.564905978696751e-05   -1.1123821331371873e-05   4.019330035523981e-05
6.564905978696751e-05   -1.1123821331371873e-05   4.019330035523981e-05
6.564905978696751e-05   -1.1123821331371873e-05   4.019330035523981e-05
6.564905978696751e-05   -1.1123821331371873e-05   4.019330035523981e-05
3.311608614837203e-05   -8.647924561870288e-06   -1.2542784314052008e-05
3.311608614837203e-05   -8.647924561870288e-06   -1.2542784314052008e-05
3.311608614837203e-05   -8.647924561870288e-06   -1.2542784314052008e-05
3.311608614837203e-05   -8.647924561870288e-06   -1.2542784314052008e-05
3.195923911496013e-05   -1.1216454733889956e-05   3.741122188799192e-05
3.195923911496013e-05   -1.1216454733889956e-05   3.741122188799192e-05
3.195923911496013e-05   -1.1216454733889956e-05   3.741122188799192e-05
3.195923911496013e-05   -1.1216454733889956e-05   3.741122188799192e-05
6.402794130416667e-05   -8.799262132522592e-06   -1.7486930654839117e-05
6.402794130416667e-05   -8.799262132522592e-06   -1.7486930654839117e-05
6.402794130416667e-05   -8.799262132522592e-06   -1.7486930654839117e-05
6.402794130416667e-05   -8.799262132522592e-06   -1.7486930654839117e-05
4.7331590085653895e-05   -9.398094073920834e-06   1.0699620540854352e-05
4.7331590085653895e-05   -9.398094073920834e-06   1.0699620540854352e-05
4.7331590085653895e-05   -9.398094073920834e-06   1.0699620540854352e-05
4.7331590085653895e-05   -9.398094073920834e-06   1.0699620540854352e-05
6.402794130416667e-05   -1.1216454733889956e-05   3.596090632717176e-05
6.402794130416667e-05   -1.1216454733889956e-05   3.596090632717176e-05
6.402794130416667e-05   -1.1216454733889956e-05   3.596090632717176e-05
6.402794130416667e-05   -1.1216454733889956e-05   3.596090632717176e-05
3.195923911496013e-05   -8.799262132522592e-06   -1.6036615094018776e-05
3.195923911496013e-05   -8.799262132522592e-06   -1.6036615094018776e-05
3.195923911496013e-05   -8.799262132522592e-06   -1.6036615094018776e-05
3.195923911496013e-05   -8.799262132522592e-06   -1.6036615094018776e-05
3.07455134088228e-05   -1.0982500509927866e-05   3.108103843294614e-05
3.07455134088228e-05   -1.0982500509927866e-05   3.108103843294614e-05
3.07455134088228e-05   -1.0982500509927866e-05   3.108103843294614e-05
3.07455134088228e-05   -1.0982500509927866e-05   3.108103843294614e-05
6.199865789218826e-05   -8.743790107494046e-06   -2.235076194745647e-05
6.199865789218826e-05   -8.743790107494046e-06   -2.235076194745647e-05
6.199865789218826e-05   -8.743790107494046e-06   -2.235076194745647e-05
6.199865789218826e-05   -8.743790107494046e-06   -2.235076194745647e-05
4.5221724405366306e-05   -9.152137113960929e-06   5.8558020677945905e-06
4.5221724405366306e-05   -9.152137113960929e-06   5.8558020677945905e-06
4.5221724405366306e-05   -9.152137113960929e-06   5.8558020677945905e-06
4.5221724405366306e-05   -9.152137113960929e-06   5.8558020677945905e-06
3.4013866077863466e-05   -6.256508088893931e-06   4.518260537119344e-05
3.4013866077863466e-05   -6.256508088893931e-06   4.518260537119344e-05
3.4013866077863466e-05   -6.256508088893931e-06   4.518260537119344e-05
3.4013866077863466e-05   -6.256508088893931e-06   4.518260537119344e-05
3.7305101505702182e-06   -2.692384429172842e-06   -3.1511803117961583e-06
3.7305101505702182e-06   -2.692384429172842e-06   -3.1511803117961583e-06
3.7305101505702182e-06   -2.692384429172842e-06   -3.1511803117961583e-06
3.7305101505702182e-06   -2.692384429172842e-06   -3.1511803117961583e-06
2.8386846909661577e-06   -6.6359520256198574e-06   4.7073693447654674e-05
2.8386846909661577e-06   -6.6359520256198574e-06   4.7073693447654674e-05
2.8386846909661577e-06   -6.6359520256198574e-06   4.7073693447654674e-05
2.8386846909661577e-06   -6.6359520256198574e-06   4.7073693447654674e-05
3.311608614837203e-05   -3.239386486178931e-06   -5.426581638352877e-06
3.311608614837203e-05   -3.239386486178931e-06   -5.426581638352877e-06
3.311608614837203e-05   -3.239386486178931e-06   -5.426581638352877e-06
3.311608614837203e-05   -3.239386486178931e-06   -5.426581638352877e-06
1.8248269332405694e-05   -4.375862071291561e-06   2.0034998405991933e-05
1.8248269332405694e-05   -4.375862071291561e-06   2.0034998405991933e-05
1.8248269332405694e-05   -4.375862071291561e-06   2.0034998405991933e-05
1.8248269332405694e-05   -4.375862071291561e-06   2.0034998405991933e-05
3.3116086148372005e-05   -6.6359520256198574e-06   4.503575412399038e-05
3.3116086148372005e-05   -6.6359520256198574e-06   4.503575412399038e-05
3.3116086148372005e-05   -6.6359520256198574e-06   4.503575412399038e-05
3.3116086148372005e-05   -6.6359520256198574e-06   4.503575412399038e-05
2.8386846909661577e-06   -3.239386486178931e-06   -3.3886423146882016e-06
2.8386846909661577e-06   -3.239386486178931e-06   -3.3886423146882016e-06
2.8386846909661577e-06   -3.239386486178931e-06   -3.3886423146882016e-06
2.8386846909661577e-06   -3.239386486178931e-06   -3.3886423146882016e-06
1.7002242124053565e-06   -6.804693837778042e-06   4.663134613287897e-05
1.7002242124053565e-06   -6.804693837778042e-06   4.663134613287897e-05
1.7002242124053565e-06   -6.804693837778042e-06   4.663134613287897e-05
1.7002242124053565e-06   -6.804693837778042e-06   4.663134613287897e-05
3.195923911496013e-05   -3.598114061790017e-06   -5.7242932369718695e-06
3.195923911496013e-05   -3.598114061790017e-06   -5.7242932369718695e-06
3.195923911496013e-05   -3.598114061790017e-06   -5.7242932369718695e-06
3.195923911496013e-05   -3.598114061790017e-06   -5.7242932369718695e-06
1.711737401675214e-05   -4.582937469745432e-06   1.960304263814907e-05
1.711737401675214e-05   -4.582937469745432e-06   1.960304263814907e-05
1.711737401675214e-05   -4.582937469745432e-06   1.960304263814907e-05
1.711737401675214e-05   -4.582937469745432e-06   1.960304263814907e-05
3.1959239114960075e-05   -6.804693837778042e-06   4.4707398267285854e-05
3.1959239114960075e-05   -6.804693837778042e-06   4.4707398267285854e-05
3.1959239114960075e-05   -6.804693837778042e-06   4.4707398267285854e-05
3.1959239114960075e-05   -6.804693837778042e-06   4.4707398267285854e-05
1.7002242124053565e-06   -3.598114061790017e-06   -3.8003453713788323e-06
1.7002242124053565e-06   -3.598114061790017e-06   -3.8003453713788323e-06
1.7002242124053565e-06   -3.598114061790017e-06   -3.8003453713788323e-06
1.7002242124053565e-06   -3.598114061790017e-06   -3.8003453713788323e-06
4.4257989811962936e-07   -6.6512851501850274e-06   4.731739682145293e-05
4.4257989811962936e-07   -6.6512851501850274e-06   4.731739682145293e-05
4.4257989811962936e-07   -6.6512851501850274e-06   4.731739682145293e-05
4.4257989811962936e-07   -6.6512851501850274e-06   4.731739682145293e-05
3.074551340882277e-05   -3.7518492834020395e-06   -4.927153883122257e-06
3.074551340882277e-05   -3.7518492834020395e-06   -4.927153883122257e-06
3.074551340882277e-05   -3.7518492834020395e-06   -4.927153883122257e-06
3.074551340882277e-05   -3.7518492834020395e-06   -4.927153883122257e-06
1.6196062702154306e-05   -4.5395273533263905e-06   1.979453746994719e-05
1.6196062702154306e-05   -4.5395273533263905e-06   1.979453746994719e-05
1.6196062702154306e-05   -4.5395273533263905e-06   1.979453746994719e-05
1.6196062702154306e-05   -4.5395273533263905e-06   1.979453746994719e-05
3.7305101505702453e-06   -2.6319434707055417e-06   4.620259901555869e-05
3.7305101505702453e-06   -2.6319434707055417e-06   4.620259901555869e-05
3.7305101505702453e-06   -2.6319434707055417e-06   4.620259901555869e-05
3.7305101505702453e-06   -2.6319434707055417e-06   4.620259901555869e-05
-2.560730822160289e-05   2.392522163551479e-06   3.209144424909643e-07
-2.560730822160289e-05   2.392522163551479e-06   3.209144424909643e-07
-2.560730822160289e-05   2.392522163551479e-06   3.209144424909643e-07
-2.560730822160289e-05   2.392522163551479e-06   3.209144424909643e-07
-2.6612137614450077e-05   -2.7792226176583112e-06   4.956440459789294e-05
-2.6612137614450077e-05   -2.7792226176583112e-06   4.956440459789294e-05
-2.6612137614450077e-05   -2.7792226176583112e-06   4.956440459789294e-05
-2.6612137614450077e-05   -2.7792226176583112e-06   4.956440459789294e-05
2.8386846909661577e-06   1.9738625683116476e-06   -2.372150356049602e-06
2.8386846909661577e-06   1.9738625683116476e-06   -2.372150356049602e-06
2.8386846909661577e-06   1.9738625683116476e-06   -2.372150356049602e-06
2.8386846909661577e-06   1.9738625683116476e-06   -2.372150356049602e-06
-1.1391617606911942e-05   -4.073429509194107e-08   2.2553778258456187e-05
-1.1391617606911942e-05   -4.073429509194107e-08   2.2553778258456187e-05
-1.1391617606911942e-05   -4.073429509194107e-08   2.2553778258456187e-05
-1.1391617606911942e-05   -4.073429509194107e-08   2.2553778258456187e-05
2.8386846909661577e-06   -2.7792226176583112e-06   4.671255348631079e-05
2.8386846909661577e-06   -2.7792226176583112e-06   4.671255348631079e-05
2.8386846909661577e-06   -2.7792226176583112e-06   4.671255348631079e-05
2.8386846909661577e-06   -2.7792226176583112e-06   4.671255348631079e-05
-2.6612137614450077e-05   1.9738625683116476e-06   4.797007555326551e-07
-2.6612137614450077e-05   1.9738625683116476e-06   4.797007555326551e-07
-2.6612137614450077e-05   1.9738625683116476e-06   4.797007555326551e-07
-2.6612137614450077e-05   1.9738625683116476e-06   4.797007555326551e-07
-2.7959286559785918e-05   -2.9596080516332106e-06   5.055740340324062e-05
-2.7959286559785918e-05   -2.9596080516332106e-06   5.055740340324062e-05
-2.7959286559785918e-05   -2.9596080516332106e-06   5.055740340324062e-05
-2.7959286559785918e-05   -2.9596080516332106e-06   5.055740340324062e-05
1.7002242124053565e-06   1.5841384604455867e-06   -1.601362457658641e-06
1.7002242124053565e-06   1.5841384604455867e-06   -1.601362457658641e-06
1.7002242124053565e-06   1.5841384604455867e-06   -1.601362457658641e-06
1.7002242124053565e-06   1.5841384604455867e-06   -1.601362457658641e-06
-1.2382797300708939e-05   -1.5843938637374183e-07   2.291588677228991e-05
-1.2382797300708939e-05   -1.5843938637374183e-07   2.291588677228991e-05
-1.2382797300708939e-05   -1.5843938637374183e-07   2.291588677228991e-05
-1.2382797300708939e-05   -1.5843938637374183e-07   2.291588677228991e-05
1.7002242124053565e-06   -2.9596080516332106e-06   4.7831155495993384e-05
1.7002242124053565e-06   -2.9596080516332106e-06   4.7831155495993384e-05
1.7002242124053565e-06   -2.9596080516332106e-06   4.7831155495993384e-05
1.7002242124053565e-06   -2.9596080516332106e-06   4.7831155495993384e-05
-2.7959286559785864e-05   1.5841384604455867e-06   1.1248854495885668e-06
-2.7959286559785864e-05   1.5841384604455867e-06   1.1248854495885668e-06
-2.7959286559785864e-05   1.5841384604455867e-06   1.1248854495885668e-06
-2.7959286559785864e-05   1.5841384604455867e-06   1.1248854495885668e-06
-2.9394577182821554e-05   -2.9421808994223135e-06   5.174850965081602e-05
-2.9394577182821554e-05   -2.9421808994223135e-06   5.174850965081602e-05
-2.9394577182821554e-05   -2.9421808994223135e-06   5.174850965081602e-05
-2.9394577182821554e-05   -2.9421808994223135e-06   5.174850965081602e-05
4.4257989811962936e-07   1.3034242374128022e-06   -5.274485661867483e-07
4.4257989811962936e-07   1.3034242374128022e-06   -5.274485661867483e-07
4.4257989811962936e-07   1.3034242374128022e-06   -5.274485661867483e-07
4.4257989811962936e-07   1.3034242374128022e-06   -5.274485661867483e-07
-1.364684117434933e-05   -2.429196544486388e-07   2.38827262230457e-05
-1.364684117434933e-05   -2.429196544486388e-07   2.38827262230457e-05
-1.364684117434933e-05   -2.429196544486388e-07   2.38827262230457e-05
-1.364684117434933e-05   -2.429196544486388e-07   2.38827262230457e-05
-2.5607308221602782e-05   2.827269092581502e-06   4.175342321678568e-05
-2.5607308221602782e-05   2.827269092581502e-06   4.175342321678568e-05
-2.5607308221602782e-05   2.827269092581502e-06   4.175342321678568e-05
-2.5607308221602782e-05   2.827269092581502e-06   4.175342321678568e-05
-5.434848059732123e-05   7.794469639074361e-06   -3.1682104148491805e-06
-5.434848059732123e-05   7.794469639074361e-06   -3.1682104148491805e-06
-5.434848059732123e-05   7.794469639074361e-06   -3.1682104148491805e-06
-5.434848059732123e-05   7.794469639074361e-06   -3.1682104148491805e-06
-5.581198188205975e-05   2.6581890443656657e-06   4.621599193165753e-05
-5.581198188205975e-05   2.6581890443656657e-06   4.621599193165753e-05
-5.581198188205975e-05   2.6581890443656657e-06   4.621599193165753e-05
-5.581198188205975e-05   2.6581890443656657e-06   4.621599193165753e-05
-2.661213761444997e-05   7.374760698074072e-06   -5.280358173250204e-06
-2.661213761444997e-05   7.374760698074072e-06   -5.280358173250204e-06
-2.661213761444997e-05   7.374760698074072e-06   -5.280358173250204e-06
-2.661213761444997e-05   7.374760698074072e-06   -5.280358173250204e-06
-4.027479907054331e-05   5.253630827289045e-06   1.876342217604259e-05
-4.027479907054331e-05   5.253630827289045e-06   1.876342217604259e-05
-4.027479907054331e-05   5.253630827289045e-06   1.876342217604259e-05
-4.027479907054331e-05   5.253630827289045e-06   1.876342217604259e-05
-2.6612137614450023e-05   2.6581890443656657e-06   4.338604893943266e-05
-2.6612137614450023e-05   2.6581890443656657e-06   4.338604893943266e-05
-2.6612137614450023e-05   2.6581890443656657e-06   4.338604893943266e-05
-2.6612137614450023e-05   2.6581890443656657e-06   4.338604893943266e-05
-5.581198188205964e-05   7.374760698074072e-06   -2.4504151810253883e-06
-5.581198188205964e-05   7.374760698074072e-06   -2.4504151810253883e-06
-5.581198188205964e-05   7.374760698074072e-06   -2.4504151810253883e-06
-5.581198188205964e-05   7.374760698074072e-06   -2.4504151810253883e-06
-5.760549750960991e-05   2.346708636923739e-06   4.9050998108053374e-05
-5.760549750960991e-05   2.346708636923739e-06   4.9050998108053374e-05
-5.760549750960991e-05   2.346708636923739e-06   4.9050998108053374e-05
-5.760549750960991e-05   2.346708636923739e-06   4.9050998108053374e-05
-2.7959286559785864e-05   6.986590794501053e-06   -3.143282769533097e-06
-2.7959286559785864e-05   6.986590794501053e-06   -3.143282769533097e-06
-2.7959286559785864e-05   6.986590794501053e-06   -3.143282769533097e-06
-2.7959286559785864e-05   6.986590794501053e-06   -3.143282769533097e-06
-4.136490760771101e-05   5.156823274720616e-06   2.029727948887742e-05
-4.136490760771101e-05   5.156823274720616e-06   2.029727948887742e-05
-4.136490760771101e-05   5.156823274720616e-06   2.029727948887742e-05
-4.136490760771101e-05   5.156823274720616e-06   2.029727948887742e-05
-2.7959286559785837e-05   2.3467086369241726e-06   4.6267068813506985e-05
-2.7959286559785837e-05   2.3467086369241726e-06   4.6267068813506985e-05
-2.7959286559785837e-05   2.3467086369241726e-06   4.6267068813506985e-05
-2.7959286559785837e-05   2.3467086369241726e-06   4.6267068813506985e-05
-5.760549750960991e-05   6.986590794501486e-06   -3.5935347498660015e-07
-5.760549750960991e-05   6.986590794501486e-06   -3.5935347498660015e-07
-5.760549750960991e-05   6.986590794501486e-06   -3.5935347498660015e-07
-5.760549750960991e-05   6.986590794501486e-06   -3.5935347498660015e-07
-5.950320035268006e-05   1.9940689242863713e-06   5.130838107034489e-05
-5.950320035268006e-05   1.9940689242863713e-06   5.130838107034489e-05
-5.950320035268006e-05   1.9940689242863713e-06   5.130838107034489e-05
-5.950320035268006e-05   1.9940689242863713e-06   5.130838107034489e-05
-2.9394577182821445e-05   6.46476772691966e-06   -1.5550768276658463e-06
-2.9394577182821445e-05   6.46476772691966e-06   -1.5550768276658463e-06
-2.9394577182821445e-05   6.46476772691966e-06   -1.5550768276658463e-06
-2.9394577182821445e-05   6.46476772691966e-06   -1.5550768276658463e-06
-4.318057212706948e-05   4.841839746961424e-06   2.2395338200723643e-05
-4.318057212706948e-05   4.841839746961424e-06   2.2395338200723643e-05
-4.318057212706948e-05   4.841839746961424e-06   2.2395338200723643e-05
-4.318057212706948e-05   4.841839746961424e-06   2.2395338200723643e-05
-5.434848059732123e-05   1.2860704803446463e-05   2.198339692345238e-05
-5.434848059732123e-05   1.2860704803446463e-05   2.198339692345238e-05
-5.434848059732123e-05   1.2860704803446463e-05   2.198339692345238e-05
-5.434848059732123e-05   1.2860704803446463e-05   2.198339692345238e-05
-8.18738387992658e-05   1.2676334538368889e-05   -2.4002822238835143e-05
-8.18738387992658e-05   1.2676334538368889e-05   -2.4002822238835143e-05
-8.18738387992658e-05   1.2676334538368889e-05   -2.4002822238835143e-05
-8.18738387992658e-05   1.2676334538368889e-05   -2.4002822238835143e-05
-8.450096985622955e-05   1.2412402446801418e-05   3.256590136233701e-05
-8.450096985622955e-05   1.2412402446801418e-05   3.256590136233701e-05
-8.450096985622955e-05   1.2412402446801418e-05   3.256590136233701e-05
-8.450096985622955e-05   1.2412402446801418e-05   3.256590136233701e-05
-5.581198188205964e-05   1.2919520539597228e-05   -1.5553349450290717e-05
-5.581198188205964e-05   1.2919520539597228e-05   -1.5553349450290717e-05
-5.581198188205964e-05   1.2919520539597228e-05   -1.5553349450290717e-05
-5.581198188205964e-05   1.2919520539597228e-05   -1.5553349450290717e-05
-6.635108368661824e-05   1.2917414157090443e-05   2.0130840534776477e-06
-6.635108368661824e-05   1.2917414157090443e-05   2.0130840534776477e-06
-6.635108368661824e-05   1.2917414157090443e-05   2.0130840534776477e-06
-6.635108368661824e-05   1.2917414157090443e-05   2.0130840534776477e-06
-5.5811981882059584e-05   1.2412402446801418e-05   3.226163050665948e-05
-5.5811981882059584e-05   1.2412402446801418e-05   3.226163050665948e-05
-5.5811981882059584e-05   1.2412402446801418e-05   3.226163050665948e-05
-5.5811981882059584e-05   1.2412402446801418e-05   3.226163050665948e-05
-8.450096985622955e-05   1.2919520539597228e-05   -1.5249078594612971e-05
-8.450096985622955e-05   1.2919520539597228e-05   -1.5249078594612971e-05
-8.450096985622955e-05   1.2919520539597228e-05   -1.5249078594612971e-05
-8.450096985622955e-05   1.2919520539597228e-05   -1.5249078594612971e-05
-8.707726732349436e-05   1.2094000232572896e-05   3.999516512663407e-05
-8.707726732349436e-05   1.2094000232572896e-05   3.999516512663407e-05
-8.707726732349436e-05   1.2094000232572896e-05   3.999516512663407e-05
-8.707726732349436e-05   1.2094000232572896e-05   3.999516512663407e-05
-5.7605497509609805e-05   1.2826449112955662e-05   -9.56392055807007e-06
-5.7605497509609805e-05   1.2826449112955662e-05   -9.56392055807007e-06
-5.7605497509609805e-05   1.2826449112955662e-05   -9.56392055807007e-06
-5.7605497509609805e-05   1.2826449112955662e-05   -9.56392055807007e-06
-6.936299691385335e-05   1.2915514387099817e-05   9.978472617849809e-06
-6.936299691385335e-05   1.2915514387099817e-05   9.978472617849809e-06
-6.936299691385335e-05   1.2915514387099817e-05   9.978472617849809e-06
-6.936299691385335e-05   1.2915514387099817e-05   9.978472617849809e-06
-5.7605497509609805e-05   1.2094000232572462e-05   3.955569579840428e-05
-5.7605497509609805e-05   1.2094000232572462e-05   3.955569579840428e-05
-5.7605497509609805e-05   1.2094000232572462e-05   3.955569579840428e-05
-5.7605497509609805e-05   1.2094000232572462e-05   3.955569579840428e-05
-8.707726732349436e-05   1.2826449112955662e-05   -9.124451229840496e-06
-8.707726732349436e-05   1.2826449112955662e-05   -9.124451229840496e-06
-8.707726732349436e-05   1.2826449112955662e-05   -9.124451229840496e-06
-8.707726732349436e-05   1.2826449112955662e-05   -9.124451229840496e-06
-9.011563306867199e-05   1.0071214612928075e-05   5.240926192405428e-05
-9.011563306867199e-05   1.0071214612928075e-05   5.240926192405428e-05
-9.011563306867199e-05   1.0071214612928075e-05   5.240926192405428e-05
-9.011563306867199e-05   1.0071214612928075e-05   5.240926192405428e-05
-5.950320035267984e-05   1.1807633575891801e-05   3.466893529557131e-07
-5.950320035267984e-05   1.1807633575891801e-05   3.466893529557131e-07
-5.950320035267984e-05   1.1807633575891801e-05   3.466893529557131e-07
-5.950320035267984e-05   1.1807633575891801e-05   3.466893529557131e-07
-7.044359442430346e-05   1.2302326791800277e-05   1.828386354278417e-05
-7.044359442430346e-05   1.2302326791800277e-05   1.828386354278417e-05
-7.044359442430346e-05   1.2302326791800277e-05   1.828386354278417e-05
-7.044359442430346e-05   1.2302326791800277e-05   1.828386354278417e-05
5.4539697284973706e-05   -7.630057605617982e-06   4.2088426061840994e-05
5.4539697284973706e-05   -7.630057605617982e-06   4.2088426061840994e-05
5.4539697284973706e-05   -7.630057605617982e-06   4.2088426061840994e-05
5.4539697284973706e-05   -7.630057605617982e-06   4.2088426061840994e-05
2.700276739064909e-05   -5.593705539795775e-06   -2.584645855873693e-06
2.700276739064909e-05   -5.593705539795775e-06   -2.584645855873693e-06
2.700276739064909e-05   -5.593705539795775e-06   -2.584645855873693e-06
2.700276739064909e-05   -5.593705539795775e-06   -2.584645855873693e-06
2.59686094238413e-05   -8.647924561870288e-06   3.660039065241701e-05
2.59686094238413e-05   -8.647924561870288e-06   3.660039065241701e-05
2.59686094238413e-05   -8.647924561870288e-06   3.660039065241701e-05
2.59686094238413e-05   -8.647924561870288e-06   3.660039065241701e-05
5.263773808420639e-05   -6.490404331577389e-06   -9.142669253033578e-06
5.263773808420639e-05   -6.490404331577389e-06   -9.142669253033578e-06
5.263773808420639e-05   -6.490404331577389e-06   -9.142669253033578e-06
5.263773808420639e-05   -6.490404331577389e-06   -9.142669253033578e-06
3.820417687173898e-05   -7.017974806407257e-06   1.5229808385976498e-05
3.820417687173898e-05   -7.017974806407257e-06   1.5229808385976498e-05
3.820417687173898e-05   -7.017974806407257e-06   1.5229808385976498e-05
3.820417687173898e-05   -7.017974806407257e-06   1.5229808385976498e-05
5.26377380842063e-05   -8.647924561870288e-06   3.530587851424119e-05
5.26377380842063e-05   -8.647924561870288e-06   3.530587851424119e-05
5.26377380842063e-05   -8.647924561870288e-06   3.530587851424119e-05
5.26377380842063e-05   -8.647924561870288e-06   3.530587851424119e-05
2.5968609423841394e-05   -6.490404331577389e-06   -7.848157114857769e-06
2.5968609423841394e-05   -6.490404331577389e-06   -7.848157114857769e-06
2.5968609423841394e-05   -6.490404331577389e-06   -7.848157114857769e-06
2.5968609423841394e-05   -6.490404331577389e-06   -7.848157114857769e-06
2.481948329245223e-05   -8.799262132523026e-06   3.280088186007231e-05
2.481948329245223e-05   -8.799262132523026e-06   3.280088186007231e-05
2.481948329245223e-05   -8.799262132523026e-06   3.280088186007231e-05
2.481948329245223e-05   -8.799262132523026e-06   3.280088186007231e-05
5.0915497371672774e-05   -6.670585767177238e-06   -1.1969680757835821e-05
5.0915497371672774e-05   -6.670585767177238e-06   -1.1969680757835821e-05
5.0915497371672774e-05   -6.670585767177238e-06   -1.1969680757835821e-05
5.0915497371672774e-05   -6.670585767177238e-06   -1.1969680757835821e-05
3.748818704771388e-05   -7.365469335073038e-06   1.0826099922832508e-05
3.748818704771388e-05   -7.365469335073038e-06   1.0826099922832508e-05
3.748818704771388e-05   -7.365469335073038e-06   1.0826099922832508e-05
3.748818704771388e-05   -7.365469335073038e-06   1.0826099922832508e-05
5.09154973716726e-05   -8.799262132522592e-06   3.1523676040865097e-05
5.09154973716726e-05   -8.799262132522592e-06   3.1523676040865097e-05
5.09154973716726e-05   -8.799262132522592e-06   3.1523676040865097e-05
5.09154973716726e-05   -8.799262132522592e-06   3.1523676040865097e-05
2.4819483292452262e-05   -6.670585767177238e-06   -1.0692474938628653e-05
2.4819483292452262e-05   -6.670585767177238e-06   -1.0692474938628653e-05
2.4819483292452262e-05   -6.670585767177238e-06   -1.0692474938628653e-05
2.4819483292452262e-05   -6.670585767177238e-06   -1.0692474938628653e-05
2.3714272992905954e-05   -8.74379010749448e-06   2.7502803438717678e-05
2.3714272992905954e-05   -8.74379010749448e-06   2.7502803438717678e-05
2.3714272992905954e-05   -8.74379010749448e-06   2.7502803438717678e-05
2.3714272992905954e-05   -8.74379010749448e-06   2.7502803438717678e-05
4.896495729940796e-05   -6.743614587079172e-06   -1.5781775717701347e-05
4.896495729940796e-05   -6.743614587079172e-06   -1.5781775717701347e-05
4.896495729940796e-05   -6.743614587079172e-06   -1.5781775717701347e-05
4.896495729940796e-05   -6.743614587079172e-06   -1.5781775717701347e-05
3.5557661084081396e-05   -7.2410752378860785e-06   6.862194364994317e-06
3.5557661084081396e-05   -7.2410752378860785e-06   6.862194364994317e-06
3.5557661084081396e-05   -7.2410752378860785e-06   6.862194364994317e-06
3.5557661084081396e-05   -7.2410752378860785e-06   6.862194364994317e-06
2.700276739064909e-05   -2.692384429172842e-06   4.417661442502295e-05
2.700276739064909e-05   -2.692384429172842e-06   4.417661442502295e-05
2.700276739064909e-05   -2.692384429172842e-06   4.417661442502295e-05
2.700276739064909e-05   -2.692384429172842e-06   4.417661442502295e-05
1.1552241681105318e-06   -1.0698245899816092e-06   2.0709116243069255e-06
1.1552241681105318e-06   -1.0698245899816092e-06   2.0709116243069255e-06
1.1552241681105318e-06   -1.0698245899816092e-06   2.0709116243069255e-06
1.1552241681105318e-06   -1.0698245899816092e-06   2.0709116243069255e-06
1.6248443079092145e-07   -3.239386486178931e-06   4.4636797578079344e-05
1.6248443079092145e-07   -3.239386486178931e-06   4.4636797578079344e-05
1.6248443079092145e-07   -3.239386486178931e-06   4.4636797578079344e-05
1.6248443079092145e-07   -3.239386486178931e-06   4.4636797578079344e-05
2.5968609423841394e-05   -1.7057127362405354e-06   7.063850063654013e-07
2.5968609423841394e-05   -1.7057127362405354e-06   7.063850063654013e-07
2.5968609423841394e-05   -1.7057127362405354e-06   7.063850063654013e-07
2.5968609423841394e-05   -1.7057127362405354e-06   7.063850063654013e-07
1.3407597093654582e-05   -2.0962083382802636e-06   2.1875702917900728e-05
1.3407597093654582e-05   -2.0962083382802636e-06   2.1875702917900728e-05
1.3407597093654582e-05   -2.0962083382802636e-06   2.1875702917900728e-05
1.3407597093654582e-05   -2.0962083382802636e-06   2.1875702917900728e-05
2.5968609423841367e-05   -3.2393864861793645e-06   4.3716593328116306e-05
2.5968609423841367e-05   -3.2393864861793645e-06   4.3716593328116306e-05
2.5968609423841367e-05   -3.2393864861793645e-06   4.3716593328116306e-05
2.5968609423841367e-05   -3.2393864861793645e-06   4.3716593328116306e-05
1.6248443079092145e-07   -1.7057127362405354e-06   1.6265892563286418e-06
1.6248443079092145e-07   -1.7057127362405354e-06   1.6265892563286418e-06
1.6248443079092145e-07   -1.7057127362405354e-06   1.6265892563286418e-06
1.6248443079092145e-07   -1.7057127362405354e-06   1.6265892563286418e-06
-8.694037356554436e-07   -3.5981140617895833e-06   4.396518788892163e-05
-8.694037356554436e-07   -3.5981140617895833e-06   4.396518788892163e-05
-8.694037356554436e-07   -3.5981140617895833e-06   4.396518788892163e-05
-8.694037356554436e-07   -3.5981140617895833e-06   4.396518788892163e-05
2.4819483292452262e-05   -2.1781404421186874e-06   2.9839200360639033e-07
2.4819483292452262e-05   -2.1781404421186874e-06   2.9839200360639033e-07
2.4819483292452262e-05   -2.1781404421186874e-06   2.9839200360639033e-07
2.4819483292452262e-05   -2.1781404421186874e-06   2.9839200360639033e-07
1.2268014957881947e-05   -2.4293995671709895e-06   2.1368261369588966e-05
1.2268014957881947e-05   -2.4293995671709895e-06   2.1368261369588966e-05
1.2268014957881947e-05   -2.4293995671709895e-06   2.1368261369588966e-05
1.2268014957881947e-05   -2.4293995671709895e-06   2.1368261369588966e-05
2.481948329245223e-05   -3.5981140617895833e-06   4.311320371711935e-05
2.481948329245223e-05   -3.5981140617895833e-06   4.311320371711935e-05
2.481948329245223e-05   -3.5981140617895833e-06   4.311320371711935e-05
2.481948329245223e-05   -3.5981140617895833e-06   4.311320371711935e-05
-8.694037356554436e-07   -2.1781404421186874e-06   1.1503761754088574e-06
-8.694037356554436e-07   -2.1781404421186874e-06   1.1503761754088574e-06
-8.694037356554436e-07   -2.1781404421186874e-06   1.1503761754088574e-06
-8.694037356554436e-07   -2.1781404421186874e-06   1.1503761754088574e-06
-1.94367096466781e-06   -3.7518492834020395e-06   4.4303762304166716e-05
-1.94367096466781e-06   -3.7518492834020395e-06   4.4303762304166716e-05
-1.94367096466781e-06   -3.7518492834020395e-06   4.4303762304166716e-05
-1.94367096466781e-06   -3.7518492834020395e-06   4.4303762304166716e-05
2.3714272992906015e-05   -2.5508875457769253e-06   8.199453323019877e-07
2.3714272992906015e-05   -2.5508875457769253e-06   8.199453323019877e-07
2.3714272992906015e-05   -2.5508875457769253e-06   8.199453323019877e-07
2.3714272992906015e-05   -2.5508875457769253e-06   8.199453323019877e-07
1.1411100055432408e-05   -2.6083881043336907e-06   2.1359733896559392e-05
1.1411100055432408e-05   -2.6083881043336907e-06   2.1359733896559392e-05
1.1411100055432408e-05   -2.6083881043336907e-06   2.1359733896559392e-05
1.1411100055432408e-05   -2.6083881043336907e-06   2.1359733896559392e-05
1.1552241681105318e-06   2.3925221635510453e-06   4.560756570227043e-05
1.1552241681105318e-06   2.3925221635510453e-06   4.560756570227043e-05
1.1552241681105318e-06   2.3925221635510453e-06   4.560756570227043e-05
1.1552241681105318e-06   2.3925221635510453e-06   4.560756570227043e-05
-2.393720965656202e-05   3.4732712552213406e-06   4.4352921161514795e-06
-2.393720965656202e-05   3.4732712552213406e-06   4.4352921161514795e-06
-2.393720965656202e-05   3.4732712552213406e-06   4.4352921161514795e-06
-2.393720965656202e-05   3.4732712552213406e-06   4.4352921161514795e-06
-2.4974456331289225e-05   1.9738625683116476e-06   4.623541173806871e-05
-2.4974456331289225e-05   1.9738625683116476e-06   4.623541173806871e-05
-2.4974456331289225e-05   1.9738625683116476e-06   4.623541173806871e-05
-2.4974456331289225e-05   1.9738625683116476e-06   4.623541173806871e-05
1.6248443079092145e-07   2.9440662372291933e-06   3.758388266584655e-06
1.6248443079092145e-07   2.9440662372291933e-06   3.758388266584655e-06
1.6248443079092145e-07   2.9440662372291933e-06   3.758388266584655e-06
1.6248443079092145e-07   2.9440662372291933e-06   3.758388266584655e-06
-1.191692192318295e-05   2.726691400189909e-06   2.402115709209795e-05
-1.191692192318295e-05   2.726691400189909e-06   2.402115709209795e-05
-1.191692192318295e-05   2.726691400189909e-06   2.402115709209795e-05
-1.191692192318295e-05   2.726691400189909e-06   2.402115709209795e-05
1.6248443079092145e-07   1.9738625683116476e-06   4.565328953671827e-05
1.6248443079092145e-07   1.9738625683116476e-06   4.565328953671827e-05
1.6248443079092145e-07   1.9738625683116476e-06   4.565328953671827e-05
1.6248443079092145e-07   1.9738625683116476e-06   4.565328953671827e-05
-2.4974456331289225e-05   2.9440662372291933e-06   4.340510467935096e-06
-2.4974456331289225e-05   2.9440662372291933e-06   4.340510467935096e-06
-2.4974456331289225e-05   2.9440662372291933e-06   4.340510467935096e-06
-2.4974456331289225e-05   2.9440662372291933e-06   4.340510467935096e-06
-2.6069777361384285e-05   1.584138460445153e-06   4.6671811076482534e-05
-2.6069777361384285e-05   1.584138460445153e-06   4.6671811076482534e-05
-2.6069777361384285e-05   1.584138460445153e-06   4.6671811076482534e-05
-2.6069777361384285e-05   1.584138460445153e-06   4.6671811076482534e-05
-8.694037356554707e-07   2.430205583513201e-06   4.163548093093786e-06
-8.694037356554707e-07   2.430205583513201e-06   4.163548093093786e-06
-8.694037356554707e-07   2.430205583513201e-06   4.163548093093786e-06
-8.694037356554707e-07   2.430205583513201e-06   4.163548093093786e-06
-1.2880487064983288e-05   2.4245479077560604e-06   2.418541491409443e-05
-1.2880487064983288e-05   2.4245479077560604e-06   2.418541491409443e-05
-1.2880487064983288e-05   2.4245479077560604e-06   2.418541491409443e-05
-1.2880487064983288e-05   2.4245479077560604e-06   2.418541491409443e-05
-8.694037356554436e-07   1.584138460445153e-06   4.616417080264201e-05
-8.694037356554436e-07   1.584138460445153e-06   4.616417080264201e-05
-8.694037356554436e-07   1.584138460445153e-06   4.616417080264201e-05
-8.694037356554436e-07   1.584138460445153e-06   4.616417080264201e-05
-2.606977736138434e-05   2.430205583513201e-06   4.671188366934392e-06
-2.606977736138434e-05   2.430205583513201e-06   4.671188366934392e-06
-2.606977736138434e-05   2.430205583513201e-06   4.671188366934392e-06
-2.606977736138434e-05   2.430205583513201e-06   4.671188366934392e-06
-2.720006545752171e-05   1.3034242374128022e-06   4.736543398575592e-05
-2.720006545752171e-05   1.3034242374128022e-06   4.736543398575592e-05
-2.720006545752171e-05   1.3034242374128022e-06   4.736543398575592e-05
-2.720006545752171e-05   1.3034242374128022e-06   4.736543398575592e-05
-1.94367096466781e-06   1.972804045285905e-06   4.869815279609052e-06
-1.94367096466781e-06   1.972804045285905e-06   4.869815279609052e-06
-1.94367096466781e-06   1.972804045285905e-06   4.869815279609052e-06
-1.94367096466781e-06   1.972804045285905e-06   4.869815279609052e-06
-1.392322244010481e-05   2.135078011292202e-06   2.473837002573429e-05
-1.392322244010481e-05   2.135078011292202e-06   2.473837002573429e-05
-1.392322244010481e-05   2.135078011292202e-06   2.473837002573429e-05
-1.392322244010481e-05   2.135078011292202e-06   2.473837002573429e-05
-2.39372096565621e-05   7.794469639074795e-06   3.978656997203657e-05
-2.39372096565621e-05   7.794469639074795e-06   3.978656997203657e-05
-2.39372096565621e-05   7.794469639074795e-06   3.978656997203657e-05
-2.39372096565621e-05   7.794469639074795e-06   3.978656997203657e-05
-4.823865248202263e-05   7.893106341946236e-06   -6.566527153415488e-07
-4.823865248202263e-05   7.893106341946236e-06   -6.566527153415488e-07
-4.823865248202263e-05   7.893106341946236e-06   -6.566527153415488e-07
-4.823865248202263e-05   7.893106341946236e-06   -6.566527153415488e-07
-4.944283468123913e-05   7.374760698073638e-06   4.048310892481883e-05
-4.944283468123913e-05   7.374760698073638e-06   4.048310892481883e-05
-4.944283468123913e-05   7.374760698073638e-06   4.048310892481883e-05
-4.944283468123913e-05   7.374760698073638e-06   4.048310892481883e-05
-2.4974456331289252e-05   7.387687557295578e-06   -3.052777739640726e-07
-2.4974456331289252e-05   7.387687557295578e-06   -3.052777739640726e-07
-2.4974456331289252e-05   7.387687557295578e-06   -3.052777739640726e-07
-2.4974456331289252e-05   7.387687557295578e-06   -3.052777739640726e-07
-3.648451213355819e-05   7.594203086608818e-06   1.875423924556309e-05
-3.648451213355819e-05   7.594203086608818e-06   1.875423924556309e-05
-3.648451213355819e-05   7.594203086608818e-06   1.875423924556309e-05
-3.648451213355819e-05   7.594203086608818e-06   1.875423924556309e-05
-2.4974456331289252e-05   7.374760698073638e-06   4.047535280928601e-05
-2.4974456331289252e-05   7.374760698073638e-06   4.047535280928601e-05
-2.4974456331289252e-05   7.374760698073638e-06   4.047535280928601e-05
-2.4974456331289252e-05   7.374760698073638e-06   4.047535280928601e-05
-4.944283468123905e-05   7.387687557295578e-06   -2.975216584310929e-07
-4.944283468123905e-05   7.387687557295578e-06   -2.975216584310929e-07
-4.944283468123905e-05   7.387687557295578e-06   -2.975216584310929e-07
-4.944283468123905e-05   7.387687557295578e-06   -2.975216584310929e-07
-5.077748029737322e-05   6.986590794501053e-06   4.236477247631255e-05
-5.077748029737322e-05   6.986590794501053e-06   4.236477247631255e-05
-5.077748029737322e-05   6.986590794501053e-06   4.236477247631255e-05
-5.077748029737322e-05   6.986590794501053e-06   4.236477247631255e-05
-2.606977736138434e-05   6.921806826086421e-06   1.2241379640466816e-06
-2.606977736138434e-05   6.921806826086421e-06   1.2241379640466816e-06
-2.606977736138434e-05   6.921806826086421e-06   1.2241379640466816e-06
-2.606977736138434e-05   6.921806826086421e-06   1.2241379640466816e-06
-3.7355241701119416e-05   7.308729320999567e-06   1.980109169999087e-05
-3.7355241701119416e-05   7.308729320999567e-06   1.980109169999087e-05
-3.7355241701119416e-05   7.308729320999567e-06   1.980109169999087e-05
-3.7355241701119416e-05   7.308729320999567e-06   1.980109169999087e-05
-2.6069777361384313e-05   6.986590794501053e-06   4.240364285736163e-05
-2.6069777361384313e-05   6.986590794501053e-06   4.240364285736163e-05
-2.6069777361384313e-05   6.986590794501053e-06   4.240364285736163e-05
-2.6069777361384313e-05   6.986590794501053e-06   4.240364285736163e-05
-5.077748029737314e-05   6.921806826086421e-06   1.1852675829977614e-06
-5.077748029737314e-05   6.921806826086421e-06   1.1852675829977614e-06
-5.077748029737314e-05   6.921806826086421e-06   1.1852675829977614e-06
-5.077748029737314e-05   6.921806826086421e-06   1.1852675829977614e-06
-5.2049474303718563e-05   6.464767726919226e-06   4.3723328779669574e-05
-5.2049474303718563e-05   6.464767726919226e-06   4.3723328779669574e-05
-5.2049474303718563e-05   6.464767726919226e-06   4.3723328779669574e-05
-5.2049474303718563e-05   6.464767726919226e-06   4.3723328779669574e-05
-2.7200065457521792e-05   6.352911289408784e-06   2.374761231848201e-06
-2.7200065457521792e-05   6.352911289408784e-06   2.374761231848201e-06
-2.7200065457521792e-05   6.352911289408784e-06   2.374761231848201e-06
-2.7200065457521792e-05   6.352911289408784e-06   2.374761231848201e-06
-3.874016061340517e-05   6.938014142784336e-06   2.1257191446296753e-05
-3.874016061340517e-05   6.938014142784336e-06   2.1257191446296753e-05
-3.874016061340517e-05   6.938014142784336e-06   2.1257191446296753e-05
-3.874016061340517e-05   6.938014142784336e-06   2.1257191446296753e-05
-4.823865248202255e-05   1.2676334538368889e-05   1.9121762328820277e-05
-4.823865248202255e-05   1.2676334538368889e-05   1.9121762328820277e-05
-4.823865248202255e-05   1.2676334538368889e-05   1.9121762328820277e-05
-4.823865248202255e-05   1.2676334538368889e-05   1.9121762328820277e-05
-7.132865632784299e-05   1.136338765972151e-05   -2.0149345541402145e-05
-7.132865632784299e-05   1.136338765972151e-05   -2.0149345541402145e-05
-7.132865632784299e-05   1.136338765972151e-05   -2.0149345541402145e-05
-7.132865632784299e-05   1.136338765972151e-05   -2.0149345541402145e-05
-7.322495478497205e-05   1.2919520539597228e-05   2.6518647475209413e-05
-7.322495478497205e-05   1.2919520539597228e-05   2.6518647475209413e-05
-7.322495478497205e-05   1.2919520539597228e-05   2.6518647475209413e-05
-7.322495478497205e-05   1.2919520539597228e-05   2.6518647475209413e-05
-4.944283468123913e-05   1.1483641905690126e-05   -1.2256692184001562e-05
-4.944283468123913e-05   1.1483641905690126e-05   -1.2256692184001562e-05
-4.944283468123913e-05   1.1483641905690126e-05   -1.2256692184001562e-05
-4.944283468123913e-05   1.1483641905690126e-05   -1.2256692184001562e-05
-5.8239976979452805e-05   1.2040257788627738e-05   2.071242116592157e-06
-5.8239976979452805e-05   1.2040257788627738e-05   2.071242116592157e-06
-5.8239976979452805e-05   1.2040257788627738e-05   2.071242116592157e-06
-5.8239976979452805e-05   1.2040257788627738e-05   2.071242116592157e-06
-4.944283468123902e-05   1.2919520539597228e-05   2.73801746555535e-05
-4.944283468123902e-05   1.2919520539597228e-05   2.73801746555535e-05
-4.944283468123902e-05   1.2919520539597228e-05   2.73801746555535e-05
-4.944283468123902e-05   1.2919520539597228e-05   2.73801746555535e-05
-7.322495478497232e-05   1.1483641905690126e-05   -1.3118219364345813e-05
-7.322495478497232e-05   1.1483641905690126e-05   -1.3118219364345813e-05
-7.322495478497232e-05   1.1483641905690126e-05   -1.3118219364345813e-05
-7.322495478497232e-05   1.1483641905690126e-05   -1.3118219364345813e-05
-7.507663855891222e-05   1.2826449112955662e-05   3.2278640391058926e-05
-7.507663855891222e-05   1.2826449112955662e-05   3.2278640391058926e-05
-7.507663855891222e-05   1.2826449112955662e-05   3.2278640391058926e-05
-7.507663855891222e-05   1.2826449112955662e-05   3.2278640391058926e-05
-5.077748029737322e-05   1.135717410933896e-05   -7.3383917093363706e-06
-5.077748029737322e-05   1.135717410933896e-05   -7.3383917093363706e-06
-5.077748029737322e-05   1.135717410933896e-05   -7.3383917093363706e-06
-5.077748029737322e-05   1.135717410933896e-05   -7.3383917093363706e-06
-6.0569499851009266e-05   1.2259937469569129e-05   8.439982863919868e-06
-6.0569499851009266e-05   1.2259937469569129e-05   8.439982863919868e-06
-6.0569499851009266e-05   1.2259937469569129e-05   8.439982863919868e-06
-6.0569499851009266e-05   1.2259937469569129e-05   8.439982863919868e-06
-5.077748029737322e-05   1.2826449112955662e-05   3.316020539322886e-05
-5.077748029737322e-05   1.2826449112955662e-05   3.316020539322886e-05
-5.077748029737322e-05   1.2826449112955662e-05   3.316020539322886e-05
-5.077748029737322e-05   1.2826449112955662e-05   3.316020539322886e-05
-7.507663855891244e-05   1.135717410933896e-05   -8.219956711506414e-06
-7.507663855891244e-05   1.135717410933896e-05   -8.219956711506414e-06
-7.507663855891244e-05   1.135717410933896e-05   -8.219956711506414e-06
-7.507663855891244e-05   1.135717410933896e-05   -8.219956711506414e-06
-7.723922847593386e-05   1.1807633575891801e-05   4.2146846104096575e-05
-7.723922847593386e-05   1.1807633575891801e-05   4.2146846104096575e-05
-7.723922847593386e-05   1.1807633575891801e-05   4.2146846104096575e-05
-7.723922847593386e-05   1.1807633575891801e-05   4.2146846104096575e-05
-5.2049474303718563e-05   1.0481250951534411e-05   9.597520583520922e-07
-5.2049474303718563e-05   1.0481250951534411e-05   9.597520583520922e-07
-5.2049474303718563e-05   1.0481250951534411e-05   9.597520583520922e-07
-5.2049474303718563e-05   1.0481250951534411e-05   9.597520583520922e-07
-6.11617149728697e-05   1.189857689852655e-05   1.5296424272076385e-05
-6.11617149728697e-05   1.189857689852655e-05   1.5296424272076385e-05
-6.11617149728697e-05   1.189857689852655e-05   1.5296424272076385e-05
-6.11617149728697e-05   1.189857689852655e-05   1.5296424272076385e-05
4.1397709009446555e-05   -5.593705539795775e-06   3.5136467193892795e-05
4.1397709009446555e-05   -5.593705539795775e-06   3.5136467193892795e-05
4.1397709009446555e-05   -5.593705539795775e-06   3.5136467193892795e-05
4.1397709009446555e-05   -5.593705539795775e-06   3.5136467193892795e-05
1.948955670588073e-05   -3.696036123353088e-06   -2.385183288510385e-07
1.948955670588073e-05   -3.696036123353088e-06   -2.385183288510385e-07
1.948955670588073e-05   -3.696036123353088e-06   -2.385183288510385e-07
1.948955670588073e-05   -3.696036123353088e-06   -2.385183288510385e-07
1.8565970713760996e-05   -6.490404331577389e-06   3.08736954675393e-05
1.8565970713760996e-05   -6.490404331577389e-06   3.08736954675393e-05
1.8565970713760996e-05   -6.490404331577389e-06   3.08736954675393e-05
1.8565970713760996e-05   -6.490404331577389e-06   3.08736954675393e-05
3.961081788834797e-05   -4.486289501648075e-06   -5.403518721396581e-06
3.961081788834797e-05   -4.486289501648075e-06   -5.403518721396581e-06
3.961081788834797e-05   -4.486289501648075e-06   -5.403518721396581e-06
3.961081788834797e-05   -4.486289501648075e-06   -5.403518721396581e-06
2.8365763995915092e-05   -5.10526508073518e-06   1.3709623113443642e-05
2.8365763995915092e-05   -5.10526508073518e-06   1.3709623113443642e-05
2.8365763995915092e-05   -5.10526508073518e-06   1.3709623113443642e-05
2.8365763995915092e-05   -5.10526508073518e-06   1.3709623113443642e-05
3.961081788834797e-05   -6.490404331576955e-06   2.9671226569581667e-05
3.961081788834797e-05   -6.490404331576955e-06   2.9671226569581667e-05
3.961081788834797e-05   -6.490404331576955e-06   2.9671226569581667e-05
3.961081788834797e-05   -6.490404331576955e-06   2.9671226569581667e-05
1.856597071376103e-05   -4.486289501648075e-06   -4.201049823438895e-06
1.856597071376103e-05   -4.486289501648075e-06   -4.201049823438895e-06
1.856597071376103e-05   -4.486289501648075e-06   -4.201049823438895e-06
1.856597071376103e-05   -4.486289501648075e-06   -4.201049823438895e-06
1.7546621475618056e-05   -6.670585767177238e-06   2.7877229945419413e-05
1.7546621475618056e-05   -6.670585767177238e-06   2.7877229945419413e-05
1.7546621475618056e-05   -6.670585767177238e-06   2.7877229945419413e-05
1.7546621475618056e-05   -6.670585767177238e-06   2.7877229945419413e-05
3.8044878734276015e-05   -4.697452104296396e-06   -7.4704123500720645e-06
3.8044878734276015e-05   -4.697452104296396e-06   -7.4704123500720645e-06
3.8044878734276015e-05   -4.697452104296396e-06   -7.4704123500720645e-06
3.8044878734276015e-05   -4.697452104296396e-06   -7.4704123500720645e-06
2.762485333193985e-05   -5.425863486058571e-06   1.033334348287914e-05
2.762485333193985e-05   -5.425863486058571e-06   1.033334348287914e-05
2.762485333193985e-05   -5.425863486058571e-06   1.033334348287914e-05
2.762485333193985e-05   -5.425863486058571e-06   1.033334348287914e-05
3.804487873427595e-05   -6.670585767177238e-06   2.6693349747691254e-05
3.804487873427595e-05   -6.670585767177238e-06   2.6693349747691254e-05
3.804487873427595e-05   -6.670585767177238e-06   2.6693349747691254e-05
3.804487873427595e-05   -6.670585767177238e-06   2.6693349747691254e-05
1.754662147561809e-05   -4.697452104296396e-06   -6.2865321523437705e-06
1.754662147561809e-05   -4.697452104296396e-06   -6.2865321523437705e-06
1.754662147561809e-05   -4.697452104296396e-06   -6.2865321523437705e-06
1.754662147561809e-05   -4.697452104296396e-06   -6.2865321523437705e-06
1.660542608843495e-05   -6.743614587079172e-06   2.3819424231306128e-05
1.660542608843495e-05   -6.743614587079172e-06   2.3819424231306128e-05
1.660542608843495e-05   -6.743614587079172e-06   2.3819424231306128e-05
1.660542608843495e-05   -6.743614587079172e-06   2.3819424231306128e-05
3.629538231775594e-05   -4.8950148941991414e-06   -1.010632929995677e-05
3.629538231775594e-05   -4.8950148941991414e-06   -1.010632929995677e-05
3.629538231775594e-05   -4.8950148941991414e-06   -1.010632929995677e-05
3.629538231775594e-05   -4.8950148941991414e-06   -1.010632929995677e-05
2.5990593199506792e-05   -5.3949291856465395e-06   7.368267805327286e-06
2.5990593199506792e-05   -5.3949291856465395e-06   7.368267805327286e-06
2.5990593199506792e-05   -5.3949291856465395e-06   7.368267805327286e-06
2.5990593199506792e-05   -5.3949291856465395e-06   7.368267805327286e-06
1.9489556705880656e-05   -1.0698245899816092e-06   3.995709042042437e-05
1.9489556705880656e-05   -1.0698245899816092e-06   3.995709042042437e-05
1.9489556705880656e-05   -1.0698245899816092e-06   3.995709042042437e-05
1.9489556705880656e-05   -1.0698245899816092e-06   3.995709042042437e-05
-1.2472289831674528e-06   -1.854581296173441e-08   6.026548204889157e-06
-1.2472289831674528e-06   -1.854581296173441e-08   6.026548204889157e-06
-1.2472289831674528e-06   -1.854581296173441e-08   6.026548204889157e-06
-1.2472289831674528e-06   -1.854581296173441e-08   6.026548204889157e-06
-2.115492385289919e-06   -1.7057127362405354e-06   4.002805517251337e-05
-2.115492385289919e-06   -1.7057127362405354e-06   4.002805517251337e-05
-2.115492385289919e-06   -1.7057127362405354e-06   4.002805517251337e-05
-2.115492385289919e-06   -1.7057127362405354e-06   4.002805517251337e-05
1.856597071376103e-05   -7.060167633225582e-07   4.959132423677836e-06
1.856597071376103e-05   -7.060167633225582e-07   4.959132423677836e-06
1.856597071376103e-05   -7.060167633225582e-07   4.959132423677836e-06
1.856597071376103e-05   -7.060167633225582e-07   4.959132423677836e-06
8.532712457974028e-06   -8.999655299220255e-07   2.179759877661558e-05
8.532712457974028e-06   -8.999655299220255e-07   2.179759877661558e-05
8.532712457974028e-06   -8.999655299220255e-07   2.179759877661558e-05
8.532712457974028e-06   -8.999655299220255e-07   2.179759877661558e-05
1.8565970713760976e-05   -1.7057127362405354e-06   3.9428237588762455e-05
1.8565970713760976e-05   -1.7057127362405354e-06   3.9428237588762455e-05
1.8565970713760976e-05   -1.7057127362405354e-06   3.9428237588762455e-05
1.8565970713760976e-05   -1.7057127362405354e-06   3.9428237588762455e-05
-2.115492385289919e-06   -7.060167633225582e-07   5.558950007428535e-06
-2.115492385289919e-06   -7.060167633225582e-07   5.558950007428535e-06
-2.115492385289919e-06   -7.060167633225582e-07   5.558950007428535e-06
-2.115492385289919e-06   -7.060167633225582e-07   5.558950007428535e-06
-3.002214184408676e-06   -2.1781404421186874e-06   3.94261727356376e-05
-3.002214184408676e-06   -2.1781404421186874e-06   3.94261727356376e-05
-3.002214184408676e-06   -2.1781404421186874e-06   3.94261727356376e-05
-3.002214184408676e-06   -2.1781404421186874e-06   3.94261727356376e-05
1.754662147561809e-05   -1.2480140288138354e-06   4.620037454276408e-06
1.754662147561809e-05   -1.2480140288138354e-06   4.620037454276408e-06
1.754662147561809e-05   -1.2480140288138354e-06   4.620037454276408e-06
1.754662147561809e-05   -1.2480140288138354e-06   4.620037454276408e-06
7.558909360936532e-06   -1.3242892341726667e-06   2.1311989435295942e-05
7.558909360936532e-06   -1.3242892341726667e-06   2.1311989435295942e-05
7.558909360936532e-06   -1.3242892341726667e-06   2.1311989435295942e-05
7.558909360936532e-06   -1.3242892341726667e-06   2.1311989435295942e-05
1.7546621475618056e-05   -2.178140442119121e-06   3.886809688765443e-05
1.7546621475618056e-05   -2.178140442119121e-06   3.886809688765443e-05
1.7546621475618056e-05   -2.178140442119121e-06   3.886809688765443e-05
1.7546621475618056e-05   -2.178140442119121e-06   3.886809688765443e-05
-3.002214184408676e-06   -1.2480140288138354e-06   5.178113302259715e-06
-3.002214184408676e-06   -1.2480140288138354e-06   5.178113302259715e-06
-3.002214184408676e-06   -1.2480140288138354e-06   5.178113302259715e-06
-3.002214184408676e-06   -1.2480140288138354e-06   5.178113302259715e-06
-3.893737464039662e-06   -2.5508875457769253e-06   3.970150990596408e-05
-3.893737464039662e-06   -2.5508875457769253e-06   3.970150990596408e-05
-3.893737464039662e-06   -2.5508875457769253e-06   3.970150990596408e-05
-3.893737464039662e-06   -2.5508875457769253e-06   3.970150990596408e-05
1.6605426088434962e-05   -1.7501043176044832e-06   5.055767381602596e-06
1.6605426088434962e-05   -1.7501043176044832e-06   5.055767381602596e-06
1.6605426088434962e-05   -1.7501043176044832e-06   5.055767381602596e-06
1.6605426088434962e-05   -1.7501043176044832e-06   5.055767381602596e-06
6.815107432596336e-06   -1.6385182198199073e-06   2.1306013482663678e-05
6.815107432596336e-06   -1.6385182198199073e-06   2.1306013482663678e-05
6.815107432596336e-06   -1.6385182198199073e-06   2.1306013482663678e-05
6.815107432596336e-06   -1.6385182198199073e-06   2.1306013482663678e-05
-1.2472289831674528e-06   3.4732712552213406e-06   4.230378872347872e-05
-1.2472289831674528e-06   3.4732712552213406e-06   4.230378872347872e-05
-1.2472289831674528e-06   3.4732712552213406e-06   4.230378872347872e-05
-1.2472289831674528e-06   3.4732712552213406e-06   4.230378872347872e-05
-2.1548963766084873e-05   3.57481602795192e-06   8.528490948921542e-06
-2.1548963766084873e-05   3.57481602795192e-06   8.528490948921542e-06
-2.1548963766084873e-05   3.57481602795192e-06   8.528490948921542e-06
-2.1548963766084873e-05   3.57481602795192e-06   8.528490948921542e-06
-2.2421866087233162e-05   2.9440662372291933e-06   4.217579482760454e-05
-2.2421866087233162e-05   2.9440662372291933e-06   4.217579482760454e-05
-2.2421866087233162e-05   2.9440662372291933e-06   4.217579482760454e-05
-2.2421866087233162e-05   2.9440662372291933e-06   4.217579482760454e-05
-2.115492385289919e-06   2.9706339786214793e-06   8.315898012863809e-06
-2.115492385289919e-06   2.9706339786214793e-06   8.315898012863809e-06
-2.115492385289919e-06   2.9706339786214793e-06   8.315898012863809e-06
-2.115492385289919e-06   2.9706339786214793e-06   8.315898012863809e-06
-1.1864106845497693e-05   3.184116361600736e-06   2.4435499350089224e-05
-1.1864106845497693e-05   3.184116361600736e-06   2.4435499350089224e-05
-1.1864106845497693e-05   3.184116361600736e-06   2.4435499350089224e-05
-1.1864106845497693e-05   3.184116361600736e-06   2.4435499350089224e-05
-2.115492385289919e-06   2.9440662372291933e-06   4.2159854182769385e-05
-2.115492385289919e-06   2.9440662372291933e-06   4.2159854182769385e-05
-2.115492385289919e-06   2.9440662372291933e-06   4.2159854182769385e-05
-2.115492385289919e-06   2.9440662372291933e-06   4.2159854182769385e-05
-2.2421866087233162e-05   2.9706339786214793e-06   8.331838657699153e-06
-2.2421866087233162e-05   2.9706339786214793e-06   8.331838657699153e-06
-2.2421866087233162e-05   2.9706339786214793e-06   8.331838657699153e-06
-2.2421866087233162e-05   2.9706339786214793e-06   8.331838657699153e-06
-2.3316585544378126e-05   2.430205583513201e-06   4.2406842757795014e-05
-2.3316585544378126e-05   2.430205583513201e-06   4.2406842757795014e-05
-2.3316585544378126e-05   2.430205583513201e-06   4.2406842757795014e-05
-2.3316585544378126e-05   2.430205583513201e-06   4.2406842757795014e-05
-3.002214184408676e-06   2.376035757633947e-06   8.582059053373364e-06
-3.002214184408676e-06   2.376035757633947e-06   8.582059053373364e-06
-3.002214184408676e-06   2.376035757633947e-06   8.582059053373364e-06
-3.002214184408676e-06   2.376035757633947e-06   8.582059053373364e-06
-1.2674595996344976e-05   2.777840365979743e-06   2.446161264159385e-05
-1.2674595996344976e-05   2.777840365979743e-06   2.446161264159385e-05
-1.2674595996344976e-05   2.777840365979743e-06   2.446161264159385e-05
-1.2674595996344976e-05   2.777840365979743e-06   2.446161264159385e-05
-3.002214184408676e-06   2.430205583513201e-06   4.243934465332261e-05
-3.002214184408676e-06   2.430205583513201e-06   4.243934465332261e-05
-3.002214184408676e-06   2.430205583513201e-06   4.243934465332261e-05
-3.002214184408676e-06   2.430205583513201e-06   4.243934465332261e-05
-2.3316585544378126e-05   2.376035757633947e-06   8.549557157845958e-06
-2.3316585544378126e-05   2.376035757633947e-06   8.549557157845958e-06
-2.3316585544378126e-05   2.376035757633947e-06   8.549557157845958e-06
-2.3316585544378126e-05   2.376035757633947e-06   8.549557157845958e-06
-2.4210966378939694e-05   1.972804045285905e-06   4.293420215805235e-05
-2.4210966378939694e-05   1.972804045285905e-06   4.293420215805235e-05
-2.4210966378939694e-05   1.972804045285905e-06   4.293420215805235e-05
-2.4210966378939694e-05   1.972804045285905e-06   4.293420215805235e-05
-3.893737464039662e-06   1.8118029575472407e-06   9.168754619195735e-06
-3.893737464039662e-06   1.8118029575472407e-06   9.168754619195735e-06
-3.893737464039662e-06   1.8118029575472407e-06   9.168754619195735e-06
-3.893737464039662e-06   1.8118029575472407e-06   9.168754619195735e-06
-1.3523088558752968e-05   2.3819368380056938e-06   2.487559278211034e-05
-1.3523088558752968e-05   2.3819368380056938e-06   2.487559278211034e-05
-1.3523088558752968e-05   2.3819368380056938e-06   2.487559278211034e-05
-1.3523088558752968e-05   2.3819368380056938e-06   2.487559278211034e-05
-2.154896376608482e-05   7.893106341946236e-06   3.7213588733900956e-05
-2.154896376608482e-05   7.893106341946236e-06   3.7213588733900956e-05
-2.154896376608482e-05   7.893106341946236e-06   3.7213588733900956e-05
-2.154896376608482e-05   7.893106341946236e-06   3.7213588733900956e-05
-4.1401282138432184e-05   7.032656431223746e-06   3.6101215002219125e-06
-4.1401282138432184e-05   7.032656431223746e-06   3.6101215002219125e-06
-4.1401282138432184e-05   7.032656431223746e-06   3.6101215002219125e-06
-4.1401282138432184e-05   7.032656431223746e-06   3.6101215002219125e-06
-4.2340513014687024e-05   7.387687557295578e-06   3.696975009822613e-05
-4.2340513014687024e-05   7.387687557295578e-06   3.696975009822613e-05
-4.2340513014687024e-05   7.387687557295578e-06   3.696975009822613e-05
-4.2340513014687024e-05   7.387687557295578e-06   3.696975009822613e-05
-2.2421866087233216e-05   6.4539267448297626e-06   4.332261706615917e-06
-2.2421866087233216e-05   6.4539267448297626e-06   4.332261706615917e-06
-2.2421866087233216e-05   6.4539267448297626e-06   4.332261706615917e-06
-2.2421866087233216e-05   6.4539267448297626e-06   4.332261706615917e-06
-3.18226961172882e-05   7.098191772397962e-06   1.9613752740166507e-05
-3.18226961172882e-05   7.098191772397962e-06   1.9613752740166507e-05
-3.18226961172882e-05   7.098191772397962e-06   1.9613752740166507e-05
-3.18226961172882e-05   7.098191772397962e-06   1.9613752740166507e-05
-2.2421866087233162e-05   7.3876875572951445e-06   3.753000658570575e-05
-2.2421866087233162e-05   7.3876875572951445e-06   3.753000658570575e-05
-2.2421866087233162e-05   7.3876875572951445e-06   3.753000658570575e-05
-2.2421866087233162e-05   7.3876875572951445e-06   3.753000658570575e-05
-4.2340513014687024e-05   6.4539267448297626e-06   3.772005219136623e-06
-4.2340513014687024e-05   6.4539267448297626e-06   3.772005219136623e-06
-4.2340513014687024e-05   6.4539267448297626e-06   3.772005219136623e-06
-4.2340513014687024e-05   6.4539267448297626e-06   3.772005219136623e-06
-4.33745145671654e-05   6.921806826086421e-06   3.835558707616341e-05
-4.33745145671654e-05   6.921806826086421e-06   3.835558707616341e-05
-4.33745145671654e-05   6.921806826086421e-06   3.835558707616341e-05
-4.33745145671654e-05   6.921806826086421e-06   3.835558707616341e-05
-2.3316585544378153e-05   5.9147980281809565e-06   5.529910650261573e-06
-2.3316585544378153e-05   5.9147980281809565e-06   5.529910650261573e-06
-2.3316585544378153e-05   5.9147980281809565e-06   5.529910650261573e-06
-2.3316585544378153e-05   5.9147980281809565e-06   5.529910650261573e-06
-3.2497126007006936e-05   6.728663377650237e-06   2.0342492211628622e-05
-3.2497126007006936e-05   6.728663377650237e-06   2.0342492211628622e-05
-3.2497126007006936e-05   6.728663377650237e-06   2.0342492211628622e-05
-3.2497126007006936e-05   6.728663377650237e-06   2.0342492211628622e-05
-2.3316585544378153e-05   6.921806826086421e-06   3.895979235490703e-05
-2.3316585544378153e-05   6.921806826086421e-06   3.895979235490703e-05
-2.3316585544378153e-05   6.921806826086421e-06   3.895979235490703e-05
-2.3316585544378153e-05   6.921806826086421e-06   3.895979235490703e-05
-4.33745145671654e-05   5.9147980281809565e-06   4.925705371518056e-06
-4.33745145671654e-05   5.9147980281809565e-06   4.925705371518056e-06
-4.33745145671654e-05   5.9147980281809565e-06   4.925705371518056e-06
-4.33745145671654e-05   5.9147980281809565e-06   4.925705371518056e-06
-4.432002480869512e-05   6.352911289408784e-06   3.9398017886238665e-05
-4.432002480869512e-05   6.352911289408784e-06   3.9398017886238665e-05
-4.432002480869512e-05   6.352911289408784e-06   3.9398017886238665e-05
-4.432002480869512e-05   6.352911289408784e-06   3.9398017886238665e-05
-2.4210966378939748e-05   5.28707405719319e-06   6.5224228426422645e-06
-2.4210966378939748e-05   5.28707405719319e-06   6.5224228426422645e-06
-2.4210966378939748e-05   5.28707405719319e-06   6.5224228426422645e-06
-2.4210966378939748e-05   5.28707405719319e-06   6.5224228426422645e-06
-3.356969291249422e-05   6.311957378185573e-06   2.150537040597277e-05
-3.356969291249422e-05   6.311957378185573e-06   2.150537040597277e-05
-3.356969291249422e-05   6.311957378185573e-06   2.150537040597277e-05
-3.356969291249422e-05   6.311957378185573e-06   2.150537040597277e-05
-4.1401282138432184e-05   1.136338765972151e-05   1.7992394088595402e-05
-4.1401282138432184e-05   1.136338765972151e-05   1.7992394088595402e-05
-4.1401282138432184e-05   1.136338765972151e-05   1.7992394088595402e-05
-4.1401282138432184e-05   1.136338765972151e-05   1.7992394088595402e-05
-6.0250629685455336e-05   9.690686282891325e-06   -1.4426805982541342e-05
-6.0250629685455336e-05   9.690686282891325e-06   -1.4426805982541342e-05
-6.0250629685455336e-05   9.690686282891325e-06   -1.4426805982541342e-05
-6.0250629685455336e-05   9.690686282891325e-06   -1.4426805982541342e-05
-6.19384645377339e-05   1.1483641905690126e-05   2.3905470882759497e-05
-6.19384645377339e-05   1.1483641905690126e-05   2.3905470882759497e-05
-6.19384645377339e-05   1.1483641905690126e-05   2.3905470882759497e-05
-6.19384645377339e-05   1.1483641905690126e-05   2.3905470882759497e-05
-4.2340513014687024e-05   9.641794089196645e-06   -7.652672965756282e-06
-4.2340513014687024e-05   9.641794089196645e-06   -7.652672965756282e-06
-4.2340513014687024e-05   9.641794089196645e-06   -7.652672965756282e-06
-4.2340513014687024e-05   9.641794089196645e-06   -7.652672965756282e-06
-4.952410481299491e-05   1.039061065259781e-05   3.870690093383156e-06
-4.952410481299491e-05   1.039061065259781e-05   3.870690093383156e-06
-4.952410481299491e-05   1.039061065259781e-05   3.870690093383156e-06
-4.952410481299491e-05   1.039061065259781e-05   3.870690093383156e-06
-4.2340513014687024e-05   1.148364190569056e-05   2.5010579572655282e-05
-4.2340513014687024e-05   1.148364190569056e-05   2.5010579572655282e-05
-4.2340513014687024e-05   1.148364190569056e-05   2.5010579572655282e-05
-4.2340513014687024e-05   1.148364190569056e-05   2.5010579572655282e-05
-6.193846453773406e-05   9.641794089196645e-06   -8.757781655652284e-06
-6.193846453773406e-05   9.641794089196645e-06   -8.757781655652284e-06
-6.193846453773406e-05   9.641794089196645e-06   -8.757781655652284e-06
-6.193846453773406e-05   9.641794089196645e-06   -8.757781655652284e-06
-6.344979712761482e-05   1.135717410933896e-05   2.868472363651395e-05
-6.344979712761482e-05   1.135717410933896e-05   2.868472363651395e-05
-6.344979712761482e-05   1.135717410933896e-05   2.868472363651395e-05
-6.344979712761482e-05   1.135717410933896e-05   2.868472363651395e-05
-4.33745145671654e-05   9.445167197147039e-06   -3.6268764835868357e-06
-4.33745145671654e-05   9.445167197147039e-06   -3.6268764835868357e-06
-4.33745145671654e-05   9.445167197147039e-06   -3.6268764835868357e-06
-4.33745145671654e-05   9.445167197147039e-06   -3.6268764835868357e-06
-5.146343738098754e-05   1.0505201143610945e-05   9.21864117157359e-06
-5.146343738098754e-05   1.0505201143610945e-05   9.21864117157359e-06
-5.146343738098754e-05   1.0505201143610945e-05   9.21864117157359e-06
-5.146343738098754e-05   1.0505201143610945e-05   9.21864117157359e-06
-4.33745145671654e-05   1.1357174109339393e-05   2.9831927783829492e-05
-4.33745145671654e-05   1.1357174109339393e-05   2.9831927783829492e-05
-4.33745145671654e-05   1.1357174109339393e-05   2.9831927783829492e-05
-4.33745145671654e-05   1.1357174109339393e-05   2.9831927783829492e-05
-6.344979712761493e-05   9.445167197147039e-06   -4.774080630901944e-06
-6.344979712761493e-05   9.445167197147039e-06   -4.774080630901944e-06
-6.344979712761493e-05   9.445167197147039e-06   -4.774080630901944e-06
-6.344979712761493e-05   9.445167197147039e-06   -4.774080630901944e-06
-6.518651443696477e-05   1.0481250951534411e-05   3.6908268098395257e-05
-6.518651443696477e-05   1.0481250951534411e-05   3.6908268098395257e-05
-6.518651443696477e-05   1.0481250951534411e-05   3.6908268098395257e-05
-6.518651443696477e-05   1.0481250951534411e-05   3.6908268098395257e-05
-4.432002480869512e-05   8.578160156778869e-06   3.2726398614658057e-06
-4.432002480869512e-05   8.578160156778869e-06   3.2726398614658057e-06
-4.432002480869512e-05   8.578160156778869e-06   3.2726398614658057e-06
-4.432002480869512e-05   8.578160156778869e-06   3.2726398614658057e-06
-5.187917304361951e-05   1.0145769852449617e-05   1.4930654435604904e-05
-5.187917304361951e-05   1.0145769852449617e-05   1.4930654435604904e-05
-5.187917304361951e-05   1.0145769852449617e-05   1.4930654435604904e-05
-5.187917304361951e-05   1.0145769852449617e-05   1.4930654435604904e-05
2.8516015824632867e-05   -3.6960361233526542e-06   2.8599720180977383e-05
2.8516015824632867e-05   -3.6960361233526542e-06   2.8599720180977383e-05
2.8516015824632867e-05   -3.6960361233526542e-06   2.8599720180977383e-05
2.8516015824632867e-05   -3.6960361233526542e-06   2.8599720180977383e-05
1.183204322557517e-05   -1.8160226701289823e-06   1.9211072544822027e-06
1.183204322557517e-05   -1.8160226701289823e-06   1.9211072544822027e-06
1.183204322557517e-05   -1.8160226701289823e-06   1.9211072544822027e-06
1.183204322557517e-05   -1.8160226701289823e-06   1.9211072544822027e-06
1.1089302335988583e-05   -4.486289501648075e-06   2.5714378133212925e-05
1.1089302335988583e-05   -4.486289501648075e-06   2.5714378133212925e-05
1.1089302335988583e-05   -4.486289501648075e-06   2.5714378133212925e-05
1.1089302335988583e-05   -4.486289501648075e-06   2.5714378133212925e-05
2.693512871099912e-05   -2.5227267598435226e-06   -1.8734701368873204e-06
2.693512871099912e-05   -2.5227267598435226e-06   -1.8734701368873204e-06
2.693512871099912e-05   -2.5227267598435226e-06   -1.8734701368873204e-06
2.693512871099912e-05   -2.5227267598435226e-06   -1.8734701368873204e-06
1.8618235779111482e-05   -3.2055497934163537e-06   1.2397711903069627e-05
1.8618235779111482e-05   -3.2055497934163537e-06   1.2397711903069627e-05
1.8618235779111482e-05   -3.2055497934163537e-06   1.2397711903069627e-05
1.8618235779111482e-05   -3.2055497934163537e-06   1.2397711903069627e-05
2.6935128710999167e-05   -4.486289501648075e-06   2.453624048813041e-05
2.6935128710999167e-05   -4.486289501648075e-06   2.453624048813041e-05
2.6935128710999167e-05   -4.486289501648075e-06   2.453624048813041e-05
2.6935128710999167e-05   -4.486289501648075e-06   2.453624048813041e-05
1.1089302335988545e-05   -2.5227267598435226e-06   -6.953324918046976e-07
1.1089302335988545e-05   -2.5227267598435226e-06   -6.953324918046976e-07
1.1089302335988545e-05   -2.5227267598435226e-06   -6.953324918046976e-07
1.1089302335988545e-05   -2.5227267598435226e-06   -6.953324918046976e-07
1.0255171914442997e-05   -4.697452104296396e-06   2.3571584395645382e-05
1.0255171914442997e-05   -4.697452104296396e-06   2.3571584395645382e-05
1.0255171914442997e-05   -4.697452104296396e-06   2.3571584395645382e-05
1.0255171914442997e-05   -4.697452104296396e-06   2.3571584395645382e-05
2.5578123015493447e-05   -2.766102218647575e-06   -3.125477370828015e-06
2.5578123015493447e-05   -2.766102218647575e-06   -3.125477370828015e-06
2.5578123015493447e-05   -2.766102218647575e-06   -3.125477370828015e-06
2.5578123015493447e-05   -2.766102218647575e-06   -3.125477370828015e-06
1.791457892064246e-05   -3.5052747909347995e-06   1.009059966396316e-05
1.791457892064246e-05   -3.5052747909347995e-06   1.009059966396316e-05
1.791457892064246e-05   -3.5052747909347995e-06   1.009059966396316e-05
1.791457892064246e-05   -3.5052747909347995e-06   1.009059966396316e-05
2.5578123015493487e-05   -4.697452104296396e-06   2.241277446425583e-05
2.5578123015493487e-05   -4.697452104296396e-06   2.241277446425583e-05
2.5578123015493487e-05   -4.697452104296396e-06   2.241277446425583e-05
2.5578123015493487e-05   -4.697452104296396e-06   2.241277446425583e-05
1.025517191444298e-05   -2.766102218647575e-06   -1.9666674394387337e-06
1.025517191444298e-05   -2.766102218647575e-06   -1.9666674394387337e-06
1.025517191444298e-05   -2.766102218647575e-06   -1.9666674394387337e-06
1.025517191444298e-05   -2.766102218647575e-06   -1.9666674394387337e-06
9.507492425712096e-06   -4.8950148941991414e-06   2.078983261079282e-05
9.507492425712096e-06   -4.8950148941991414e-06   2.078983261079282e-05
9.507492425712096e-06   -4.8950148941991414e-06   2.078983261079282e-05
9.507492425712096e-06   -4.8950148941991414e-06   2.078983261079282e-05
2.4039124350544765e-05   -3.0881253134354587e-06   -4.513687679053149e-06
2.4039124350544765e-05   -3.0881253134354587e-06   -4.513687679053149e-06
2.4039124350544765e-05   -3.0881253134354587e-06   -4.513687679053149e-06
2.4039124350544765e-05   -3.0881253134354587e-06   -4.513687679053149e-06
1.661239902342261e-05   -3.5642164405219265e-06   8.149842542402321e-06
1.661239902342261e-05   -3.5642164405219265e-06   8.149842542402321e-06
1.661239902342261e-05   -3.5642164405219265e-06   8.149842542402321e-06
1.661239902342261e-05   -3.5642164405219265e-06   8.149842542402321e-06
1.1832043225575206e-05   -1.854581296173441e-08   3.5362027520440074e-05
1.1832043225575206e-05   -1.854581296173441e-08   3.5362027520440074e-05
1.1832043225575206e-05   -1.854581296173441e-08   3.5362027520440074e-05
1.1832043225575206e-05   -1.854581296173441e-08   3.5362027520440074e-05
-3.824699613338652e-06   9.356405988702587e-07   9.839967969349408e-06
-3.824699613338652e-06   9.356405988702587e-07   9.839967969349408e-06
-3.824699613338652e-06   9.356405988702587e-07   9.839967969349408e-06
-3.824699613338652e-06   9.356405988702587e-07   9.839967969349408e-06
-4.507141798585273e-06   -7.060167633225582e-07   3.5430192020986925e-05
-4.507141798585273e-06   -7.060167633225582e-07   3.5430192020986925e-05
-4.507141798585273e-06   -7.060167633225582e-07   3.5430192020986925e-05
-4.507141798585273e-06   -7.060167633225582e-07   3.5430192020986925e-05
1.1089302335988545e-05   2.2003597110629644e-07   8.880486822706777e-06
1.1089302335988545e-05   2.2003597110629644e-07   8.880486822706777e-06
1.1089302335988545e-05   2.2003597110629644e-07   8.880486822706777e-06
1.1089302335988545e-05   2.2003597110629644e-07   8.880486822706777e-06
3.5357923061722127e-06   4.63513715443474e-08   2.157388096547157e-05
3.5357923061722127e-06   4.63513715443474e-08   2.157388096547157e-05
3.5357923061722127e-06   4.63513715443474e-08   2.157388096547157e-05
3.5357923061722127e-06   4.63513715443474e-08   2.157388096547157e-05
1.1089302335988573e-05   -7.060167633225582e-07   3.4874560380329656e-05
1.1089302335988573e-05   -7.060167633225582e-07   3.4874560380329656e-05
1.1089302335988573e-05   -7.060167633225582e-07   3.4874560380329656e-05
1.1089302335988573e-05   -7.060167633225582e-07   3.4874560380329656e-05
-4.5071417985853e-06   2.200359711060796e-07   9.436118463363938e-06
-4.5071417985853e-06   2.200359711060796e-07   9.436118463363938e-06
-4.5071417985853e-06   2.200359711060796e-07   9.436118463363938e-06
-4.5071417985853e-06   2.200359711060796e-07   9.436118463363938e-06
-5.204871151244918e-06   -1.2480140288138354e-06   3.500758250117781e-05
-5.204871151244918e-06   -1.2480140288138354e-06   3.500758250117781e-05
-5.204871151244918e-06   -1.2480140288138354e-06   3.500758250117781e-05
-5.204871151244918e-06   -1.2480140288138354e-06   3.500758250117781e-05
1.025517191444298e-05   -3.6563319729321017e-07   8.711415559452509e-06
1.025517191444298e-05   -3.6563319729321017e-07   8.711415559452509e-06
1.025517191444298e-05   -3.6563319729321017e-07   8.711415559452509e-06
1.025517191444298e-05   -3.6563319729321017e-07   8.711415559452509e-06
2.7855604081442993e-06   -4.310103391726161e-07   2.1199994355079136e-05
2.7855604081442993e-06   -4.310103391726161e-07   2.1199994355079136e-05
2.7855604081442993e-06   -4.310103391726161e-07   2.1199994355079136e-05
2.7855604081442993e-06   -4.310103391726161e-07   2.1199994355079136e-05
1.0255171914443014e-05   -1.2480140288138354e-06   3.447815400226548e-05
1.0255171914443014e-05   -1.2480140288138354e-06   3.447815400226548e-05
1.0255171914443014e-05   -1.2480140288138354e-06   3.447815400226548e-05
1.0255171914443014e-05   -1.2480140288138354e-06   3.447815400226548e-05
-5.204871151244918e-06   -3.6563319729299333e-07   9.240844058364638e-06
-5.204871151244918e-06   -3.6563319729299333e-07   9.240844058364638e-06
-5.204871151244918e-06   -3.6563319729299333e-07   9.240844058364638e-06
-5.204871151244918e-06   -3.6563319729299333e-07   9.240844058364638e-06
-5.896724619476861e-06   -1.7501043176044832e-06   3.532707569432357e-05
-5.896724619476861e-06   -1.7501043176044832e-06   3.532707569432357e-05
-5.896724619476861e-06   -1.7501043176044832e-06   3.532707569432357e-05
-5.896724619476861e-06   -1.7501043176044832e-06   3.532707569432357e-05
9.507492425712052e-06   -9.429272881048955e-07   9.169074401309318e-06
9.507492425712052e-06   -9.429272881048955e-07   9.169074401309318e-06
9.507492425712052e-06   -9.429272881048955e-07   9.169074401309318e-06
9.507492425712052e-06   -9.429272881048955e-07   9.169074401309318e-06
2.1927251280662506e-06   -8.291285425582589e-07   2.1292073983390607e-05
2.1927251280662506e-06   -8.291285425582589e-07   2.1292073983390607e-05
2.1927251280662506e-06   -8.291285425582589e-07   2.1292073983390607e-05
2.1927251280662506e-06   -8.291285425582589e-07   2.1292073983390607e-05
-3.824699613338625e-06   3.57481602795192e-06   3.837555524793313e-05
-3.824699613338625e-06   3.57481602795192e-06   3.837555524793313e-05
-3.824699613338625e-06   3.57481602795192e-06   3.837555524793313e-05
-3.824699613338625e-06   3.57481602795192e-06   3.837555524793313e-05
-1.9223806994512544e-05   3.517540992524406e-06   1.2676011258053502e-05
-1.9223806994512544e-05   3.517540992524406e-06   1.2676011258053502e-05
-1.9223806994512544e-05   3.517540992524406e-06   1.2676011258053502e-05
-1.9223806994512544e-05   3.517540992524406e-06   1.2676011258053502e-05
-1.989705153037006e-05   2.9706339786214793e-06   3.8125048333771845e-05
-1.989705153037006e-05   2.9706339786214793e-06   3.8125048333771845e-05
-1.989705153037006e-05   2.9706339786214793e-06   3.8125048333771845e-05
-1.989705153037006e-05   2.9706339786214793e-06   3.8125048333771845e-05
-4.507141798585273e-06   2.8671478242044135e-06   1.253729047344775e-05
-4.507141798585273e-06   2.8671478242044135e-06   1.253729047344775e-05
-4.507141798585273e-06   2.8671478242044135e-06   1.253729047344775e-05
-4.507141798585273e-06   2.8671478242044135e-06   1.253729047344775e-05
-1.1892754341664668e-05   3.1525213798487724e-06   2.4675420578527507e-05
-1.1892754341664668e-05   3.1525213798487724e-06   2.4675420578527507e-05
-1.1892754341664668e-05   3.1525213798487724e-06   2.4675420578527507e-05
-1.1892754341664668e-05   3.1525213798487724e-06   2.4675420578527507e-05
-4.507141798585273e-06   2.9706339786214793e-06   3.818714002642239e-05
-4.507141798585273e-06   2.9706339786214793e-06   3.818714002642239e-05
-4.507141798585273e-06   2.9706339786214793e-06   3.818714002642239e-05
-4.507141798585273e-06   2.9706339786214793e-06   3.818714002642239e-05
-1.989705153037006e-05   2.8671478242044135e-06   1.247519878079756e-05
-1.989705153037006e-05   2.8671478242044135e-06   1.247519878079756e-05
-1.989705153037006e-05   2.8671478242044135e-06   1.247519878079756e-05
-1.989705153037006e-05   2.8671478242044135e-06   1.247519878079756e-05
-2.0586506459634277e-05   2.376035757633947e-06   3.832043356067445e-05
-2.0586506459634277e-05   2.376035757633947e-06   3.832043356067445e-05
-2.0586506459634277e-05   2.376035757633947e-06   3.832043356067445e-05
-2.0586506459634277e-05   2.376035757633947e-06   3.832043356067445e-05
-5.204871151244891e-06   2.2242112716053513e-06   1.277546940497615e-05
-5.204871151244891e-06   2.2242112716053513e-06   1.277546940497615e-05
-5.204871151244891e-06   2.2242112716053513e-06   1.277546940497615e-05
-5.204871151244891e-06   2.2242112716053513e-06   1.277546940497615e-05
-1.2509379989633805e-05   2.6804013147944603e-06   2.4675936776378138e-05
-1.2509379989633805e-05   2.6804013147944603e-06   2.4675936776378138e-05
-1.2509379989633805e-05   2.6804013147944603e-06   2.4675936776378138e-05
-1.2509379989633805e-05   2.6804013147944603e-06   2.4675936776378138e-05
-5.204871151244918e-06   2.376035757633947e-06   3.841152825229143e-05
-5.204871151244918e-06   2.376035757633947e-06   3.841152825229143e-05
-5.204871151244918e-06   2.376035757633947e-06   3.841152825229143e-05
-5.204871151244918e-06   2.376035757633947e-06   3.841152825229143e-05
-2.0586506459634277e-05   2.2242112716053513e-06   1.2684374713358977e-05
-2.0586506459634277e-05   2.2242112716053513e-06   1.2684374713358977e-05
-2.0586506459634277e-05   2.2242112716053513e-06   1.2684374713358977e-05
-2.0586506459634277e-05   2.2242112716053513e-06   1.2684374713358977e-05
-2.1267953492597267e-05   1.8118029575472407e-06   3.8835641664643596e-05
-2.1267953492597267e-05   1.8118029575472407e-06   3.8835641664643596e-05
-2.1267953492597267e-05   1.8118029575472407e-06   3.8835641664643596e-05
-2.1267953492597267e-05   1.8118029575472407e-06   3.8835641664643596e-05
-5.896724619476834e-06   1.605217406930792e-06   1.3340878206479439e-05
-5.896724619476834e-06   1.605217406930792e-06   1.3340878206479439e-05
-5.896724619476834e-06   1.605217406930792e-06   1.3340878206479439e-05
-5.896724619476834e-06   1.605217406930792e-06   1.3340878206479439e-05
-1.3154339376465125e-05   2.219366797172849e-06   2.506841316731465e-05
-1.3154339376465125e-05   2.219366797172849e-06   2.506841316731465e-05
-1.3154339376465125e-05   2.219366797172849e-06   2.506841316731465e-05
-1.3154339376465125e-05   2.219366797172849e-06   2.506841316731465e-05
-1.9223806994512544e-05   7.032656431223746e-06   3.3939090724410814e-05
-1.9223806994512544e-05   7.032656431223746e-06   3.3939090724410814e-05
-1.9223806994512544e-05   7.032656431223746e-06   3.3939090724410814e-05
-1.9223806994512544e-05   7.032656431223746e-06   3.3939090724410814e-05
-3.4363137288044034e-05   6.029208863805868e-06   8.104805028074356e-06
-3.4363137288044034e-05   6.029208863805868e-06   8.104805028074356e-06
-3.4363137288044034e-05   6.029208863805868e-06   8.104805028074356e-06
-3.4363137288044034e-05   6.029208863805868e-06   8.104805028074356e-06
-3.508525667753228e-05   6.4539267448297626e-06   3.3489361018630833e-05
-3.508525667753228e-05   6.4539267448297626e-06   3.3489361018630833e-05
-3.508525667753228e-05   6.4539267448297626e-06   3.3489361018630833e-05
-3.508525667753228e-05   6.4539267448297626e-06   3.3489361018630833e-05
-1.9897051530370007e-05   5.3937428047326746e-06   8.811796137418748e-06
-1.9897051530370007e-05   5.3937428047326746e-06   8.811796137418748e-06
-1.9897051530370007e-05   5.3937428047326746e-06   8.811796137418748e-06
-1.9897051530370007e-05   5.3937428047326746e-06   8.811796137418748e-06
-2.7065653840477907e-05   6.1216335122539316e-06   2.0322732229753203e-05
-2.7065653840477907e-05   6.1216335122539316e-06   2.0322732229753203e-05
-2.7065653840477907e-05   6.1216335122539316e-06   2.0322732229753203e-05
-2.7065653840477907e-05   6.1216335122539316e-06   2.0322732229753203e-05
-1.989705153037006e-05   6.4539267448297626e-06   3.412547138268904e-05
-1.989705153037006e-05   6.4539267448297626e-06   3.412547138268904e-05
-1.989705153037006e-05   6.4539267448297626e-06   3.412547138268904e-05
-1.989705153037006e-05   6.4539267448297626e-06   3.412547138268904e-05
-3.508525667753222e-05   5.393742804732891e-06   8.175685773360755e-06
-3.508525667753222e-05   5.393742804732891e-06   8.175685773360755e-06
-3.508525667753222e-05   5.393742804732891e-06   8.175685773360755e-06
-3.508525667753222e-05   5.393742804732891e-06   8.175685773360755e-06
-3.589800299740059e-05   5.9147980281809565e-06   3.463542667311945e-05
-3.589800299740059e-05   5.9147980281809565e-06   3.463542667311945e-05
-3.589800299740059e-05   5.9147980281809565e-06   3.463542667311945e-05
-3.589800299740059e-05   5.9147980281809565e-06   3.463542667311945e-05
-2.0586506459634196e-05   4.805864061563055e-06   9.78162615681297e-06
-2.0586506459634196e-05   4.805864061563055e-06   9.78162615681297e-06
-2.0586506459634196e-05   4.805864061563055e-06   9.78162615681297e-06
-2.0586506459634196e-05   4.805864061563055e-06   9.78162615681297e-06
-2.756610399135966e-05   5.688704927071797e-06   2.0884584190384583e-05
-2.756610399135966e-05   5.688704927071797e-06   2.0884584190384583e-05
-2.756610399135966e-05   5.688704927071797e-06   2.0884584190384583e-05
-2.756610399135966e-05   5.688704927071797e-06   2.0884584190384583e-05
-2.058650645963425e-05   5.9147980281809565e-06   3.5300787053090064e-05
-2.058650645963425e-05   5.9147980281809565e-06   3.5300787053090064e-05
-2.058650645963425e-05   5.9147980281809565e-06   3.5300787053090064e-05
-2.058650645963425e-05   5.9147980281809565e-06   3.5300787053090064e-05
-3.589800299740048e-05   4.805864061563272e-06   9.116265776842468e-06
-3.589800299740048e-05   4.805864061563272e-06   9.116265776842468e-06
-3.589800299740048e-05   4.805864061563272e-06   9.116265776842468e-06
-3.589800299740048e-05   4.805864061563272e-06   9.116265776842468e-06
-3.662069327098528e-05   5.28707405719319e-06   3.560294993725909e-05
-3.662069327098528e-05   5.28707405719319e-06   3.560294993725909e-05
-3.662069327098528e-05   5.28707405719319e-06   3.560294993725909e-05
-3.662069327098528e-05   5.28707405719319e-06   3.560294993725909e-05
-2.1267953492597186e-05   4.148806384736154e-06   1.0698010910086973e-05
-2.1267953492597186e-05   4.148806384736154e-06   1.0698010910086973e-05
-2.1267953492597186e-05   4.148806384736154e-06   1.0698010910086973e-05
-2.1267953492597186e-05   4.148806384736154e-06   1.0698010910086973e-05
-2.8380552304751395e-05   5.2331618890554335e-06   2.190172896108627e-05
-2.8380552304751395e-05   5.2331618890554335e-06   2.190172896108627e-05
-2.8380552304751395e-05   5.2331618890554335e-06   2.190172896108627e-05
-2.8380552304751395e-05   5.2331618890554335e-06   2.190172896108627e-05
-3.4363137288044034e-05   9.690686282891325e-06   1.6303715527294814e-05
-3.4363137288044034e-05   9.690686282891325e-06   1.6303715527294814e-05
-3.4363137288044034e-05   9.690686282891325e-06   1.6303715527294814e-05
-3.4363137288044034e-05   9.690686282891325e-06   1.6303715527294814e-05
-4.855527238485478e-05   7.90676326942988e-06   -8.420196775466558e-06
-4.855527238485478e-05   7.90676326942988e-06   -8.420196775466558e-06
-4.855527238485478e-05   7.90676326942988e-06   -8.420196775466558e-06
-4.855527238485478e-05   7.90676326942988e-06   -8.420196775466558e-06
-5.006487937473259e-05   9.641794089196645e-06   2.0901153350991013e-05
-5.006487937473259e-05   9.641794089196645e-06   2.0901153350991013e-05
-5.006487937473259e-05   9.641794089196645e-06   2.0901153350991013e-05
-5.006487937473259e-05   9.641794089196645e-06   2.0901153350991013e-05
-3.508525667753217e-05   7.702578284618598e-06   -2.901354994929318e-06
-3.508525667753217e-05   7.702578284618598e-06   -2.901354994929318e-06
-3.508525667753217e-05   7.702578284618598e-06   -2.901354994929318e-06
-3.508525667753217e-05   7.702578284618598e-06   -2.901354994929318e-06
-4.0442541794312095e-05   8.576697991691078e-06   5.502981708794337e-06
-4.0442541794312095e-05   8.576697991691078e-06   5.502981708794337e-06
-4.0442541794312095e-05   8.576697991691078e-06   5.502981708794337e-06
-4.0442541794312095e-05   8.576697991691078e-06   5.502981708794337e-06
-3.508525667753222e-05   9.641794089196645e-06   2.2064682833737928e-05
-3.508525667753222e-05   9.641794089196645e-06   2.2064682833737928e-05
-3.508525667753222e-05   9.641794089196645e-06   2.2064682833737928e-05
-3.508525667753222e-05   9.641794089196645e-06   2.2064682833737928e-05
-5.0064879374732646e-05   7.70257828461838e-06   -4.0648844776763416e-06
-5.0064879374732646e-05   7.70257828461838e-06   -4.0648844776763416e-06
-5.0064879374732646e-05   7.70257828461838e-06   -4.0648844776763416e-06
-5.0064879374732646e-05   7.70257828461838e-06   -4.0648844776763416e-06
-5.138214823614037e-05   9.445167197147039e-06   2.4887774765205246e-05
-5.138214823614037e-05   9.445167197147039e-06   2.4887774765205246e-05
-5.138214823614037e-05   9.445167197147039e-06   2.4887774765205246e-05
-5.138214823614037e-05   9.445167197147039e-06   2.4887774765205246e-05
-3.5898002997400424e-05   7.453383775798614e-06   2.759360867814328e-07
-3.5898002997400424e-05   7.453383775798614e-06   2.759360867814328e-07
-3.5898002997400424e-05   7.453383775798614e-06   2.759360867814328e-07
-3.5898002997400424e-05   7.453383775798614e-06   2.759360867814328e-07
-4.204065028537416e-05   8.582023443112286e-06   9.836497766350753e-06
-4.204065028537416e-05   8.582023443112286e-06   9.836497766350753e-06
-4.204065028537416e-05   8.582023443112286e-06   9.836497766350753e-06
-4.204065028537416e-05   8.582023443112286e-06   9.836497766350753e-06
-3.589800299740059e-05   9.445167197147039e-06   2.608284481801456e-05
-3.589800299740059e-05   9.445167197147039e-06   2.608284481801456e-05
-3.589800299740059e-05   9.445167197147039e-06   2.608284481801456e-05
-3.589800299740059e-05   9.445167197147039e-06   2.608284481801456e-05
-5.138214823614037e-05   7.453383775798614e-06   -9.191339660276658e-07
-5.138214823614037e-05   7.453383775798614e-06   -9.191339660276658e-07
-5.138214823614037e-05   7.453383775798614e-06   -9.191339660276658e-07
-5.138214823614037e-05   7.453383775798614e-06   -9.191339660276658e-07
-5.2910319795334724e-05   8.578160156778435e-06   3.181624306263994e-05
-5.2910319795334724e-05   8.578160156778435e-06   3.181624306263994e-05
-5.2910319795334724e-05   8.578160156778435e-06   3.181624306263994e-05
-5.2910319795334724e-05   8.578160156778435e-06   3.181624306263994e-05
-3.662069327098517e-05   6.6174497688254764e-06   5.843291754829448e-06
-3.662069327098517e-05   6.6174497688254764e-06   5.843291754829448e-06
-3.662069327098517e-05   6.6174497688254764e-06   5.843291754829448e-06
-3.662069327098517e-05   6.6174497688254764e-06   5.843291754829448e-06
-4.239842347183217e-05   8.218001312663243e-06   1.4512511163271378e-05
-4.239842347183217e-05   8.218001312663243e-06   1.4512511163271378e-05
-4.239842347183217e-05   8.218001312663243e-06   1.4512511163271378e-05
-4.239842347183217e-05   8.218001312663243e-06   1.4512511163271378e-05
1.5827533726124992e-05   -1.8160226701289823e-06   2.2497872652221546e-05
1.5827533726124992e-05   -1.8160226701289823e-06   2.2497872652221546e-05
1.5827533726124992e-05   -1.8160226701289823e-06   2.2497872652221546e-05
1.5827533726124992e-05   -1.8160226701289823e-06   2.2497872652221546e-05
4.135216406075033e-06   4.4204545816524735e-08   4.126813448371942e-06
4.135216406075033e-06   4.4204545816524735e-08   4.126813448371942e-06
4.135216406075033e-06   4.4204545816524735e-08   4.126813448371942e-06
4.135216406075033e-06   4.4204545816524735e-08   4.126813448371942e-06
3.5798024537512855e-06   -2.5227267598433058e-06   2.097734312484184e-05
3.5798024537512855e-06   -2.5227267598433058e-06   2.097734312484184e-05
3.5798024537512855e-06   -2.5227267598433058e-06   2.097734312484184e-05
3.5798024537512855e-06   -2.5227267598433058e-06   2.097734312484184e-05
1.4454761729990845e-05   -5.889673715779586e-07   1.6921553648169014e-06
1.4454761729990845e-05   -5.889673715779586e-07   1.6921553648169014e-06
1.4454761729990845e-05   -5.889673715779586e-07   1.6921553648169014e-06
1.4454761729990845e-05   -5.889673715779586e-07   1.6921553648169014e-06
8.938317900762458e-06   -1.3105099067572522e-06   1.1319153934639047e-05
8.938317900762458e-06   -1.3105099067572522e-06   1.1319153934639047e-05
8.938317900762458e-06   -1.3105099067572522e-06   1.1319153934639047e-05
8.938317900762458e-06   -1.3105099067572522e-06   1.1319153934639047e-05
1.4454761729990872e-05   -2.5227267598433058e-06   1.9817087491882544e-05
1.4454761729990872e-05   -2.5227267598433058e-06   1.9817087491882544e-05
1.4454761729990872e-05   -2.5227267598433058e-06   1.9817087491882544e-05
1.4454761729990872e-05   -2.5227267598433058e-06   1.9817087491882544e-05
3.5798024537512787e-06   -5.889673715779586e-07   2.8524109977759796e-06
3.5798024537512787e-06   -5.889673715779586e-07   2.8524109977759796e-06
3.5798024537512787e-06   -5.889673715779586e-07   2.8524109977759796e-06
3.5798024537512787e-06   -5.889673715779586e-07   2.8524109977759796e-06
2.9326200990014627e-06   -2.766102218647575e-06   1.9689018938853775e-05
2.9326200990014627e-06   -2.766102218647575e-06   1.9689018938853775e-05
2.9326200990014627e-06   -2.766102218647575e-06   1.9689018938853775e-05
2.9326200990014627e-06   -2.766102218647575e-06   1.9689018938853775e-05
1.3292577719515653e-05   -8.621093753587248e-07   1.2800271986903363e-06
1.3292577719515653e-05   -8.621093753587248e-07   1.2800271986903363e-06
1.3292577719515653e-05   -8.621093753587248e-07   1.2800271986903363e-06
1.3292577719515653e-05   -8.621093753587248e-07   1.2800271986903363e-06
8.2745571593976e-06   -1.586877852606831e-06   1.0078255885235968e-05
8.2745571593976e-06   -1.586877852606831e-06   1.0078255885235968e-05
8.2745571593976e-06   -1.586877852606831e-06   1.0078255885235968e-05
8.2745571593976e-06   -1.586877852606831e-06   1.0078255885235968e-05
1.329257771951568e-05   -2.7661022186473583e-06   1.8546623232880595e-05
1.329257771951568e-05   -2.7661022186473583e-06   1.8546623232880595e-05
1.329257771951568e-05   -2.7661022186473583e-06   1.8546623232880595e-05
1.329257771951568e-05   -2.7661022186473583e-06   1.8546623232880595e-05
2.932620099001449e-06   -8.621093753587248e-07   2.4224229046637333e-06
2.932620099001449e-06   -8.621093753587248e-07   2.4224229046637333e-06
2.932620099001449e-06   -8.621093753587248e-07   2.4224229046637333e-06
2.932620099001449e-06   -8.621093753587248e-07   2.4224229046637333e-06
2.3719483399699495e-06   -3.0881253134354587e-06   1.820100643585849e-05
2.3719483399699495e-06   -3.0881253134354587e-06   1.820100643585849e-05
2.3719483399699495e-06   -3.0881253134354587e-06   1.820100643585849e-05
2.3719483399699495e-06   -3.0881253134354587e-06   1.820100643585849e-05
1.1931842974263694e-05   -1.3173594742821836e-06   1.2053892085439198e-06
1.1931842974263694e-05   -1.3173594742821836e-06   1.2053892085439198e-06
1.1931842974263694e-05   -1.3173594742821836e-06   1.2053892085439198e-06
1.1931842974263694e-05   -1.3173594742821836e-06   1.2053892085439198e-06
7.2975139206715215e-06   -1.7297135716945813e-06   9.176683422978536e-06
7.2975139206715215e-06   -1.7297135716945813e-06   9.176683422978536e-06
7.2975139206715215e-06   -1.7297135716945813e-06   9.176683422978536e-06
7.2975139206715215e-06   -1.7297135716945813e-06   9.176683422978536e-06
4.135216406075043e-06   9.356405988700418e-07   3.096035784955686e-05
4.135216406075043e-06   9.356405988700418e-07   3.096035784955686e-05
4.135216406075043e-06   9.356405988700418e-07   3.096035784955686e-05
4.135216406075043e-06   9.356405988700418e-07   3.096035784955686e-05
-6.517574098440952e-06   1.7776562088709941e-06   1.3710916374697372e-05
-6.517574098440952e-06   1.7776562088709941e-06   1.3710916374697372e-05
-6.517574098440952e-06   1.7776562088709941e-06   1.3710916374697372e-05
-6.517574098440952e-06   1.7776562088709941e-06   1.3710916374697372e-05
-7.0054288489604984e-06   2.2003597110629644e-07   3.105832703997565e-05
-7.0054288489604984e-06   2.2003597110629644e-07   3.105832703997565e-05
-7.0054288489604984e-06   2.2003597110629644e-07   3.105832703997565e-05
-7.0054288489604984e-06   2.2003597110629644e-07   3.105832703997565e-05
3.5798024537512787e-06   1.0619769721437102e-06   1.2911110268166958e-05
3.5798024537512787e-06   1.0619769721437102e-06   1.2911110268166958e-05
3.5798024537512787e-06   1.0619769721437102e-06   1.2911110268166958e-05
3.5798024537512787e-06   1.0619769721437102e-06   1.2911110268166958e-05
-1.5316152765954834e-06   9.275599857632311e-07   2.151079001057435e-05
-1.5316152765954834e-06   9.275599857632311e-07   2.151079001057435e-05
-1.5316152765954834e-06   9.275599857632311e-07   2.151079001057435e-05
-1.5316152765954834e-06   9.275599857632311e-07   2.151079001057435e-05
3.5798024537512787e-06   2.2003597110629644e-07   3.0553162439353205e-05
3.5798024537512787e-06   2.2003597110629644e-07   3.0553162439353205e-05
3.5798024537512787e-06   2.2003597110629644e-07   3.0553162439353205e-05
3.5798024537512787e-06   2.2003597110629644e-07   3.0553162439353205e-05
-7.0054288489604984e-06   1.0619769721437102e-06   1.3416274868789549e-05
-7.0054288489604984e-06   1.0619769721437102e-06   1.3416274868789549e-05
-7.0054288489604984e-06   1.0619769721437102e-06   1.3416274868789549e-05
-7.0054288489604984e-06   1.0619769721437102e-06   1.3416274868789549e-05
-7.507503080011807e-06   -3.6563319729321017e-07   3.085966298882188e-05
-7.507503080011807e-06   -3.6563319729321017e-07   3.085966298882188e-05
-7.507503080011807e-06   -3.6563319729321017e-07   3.085966298882188e-05
-7.507503080011807e-06   -3.6563319729321017e-07   3.085966298882188e-05
2.932620099001449e-06   4.5530188783515953e-07   1.2966896639389592e-05
2.932620099001449e-06   4.5530188783515953e-07   1.2966896639389592e-05
2.932620099001449e-06   4.5530188783515953e-07   1.2966896639389592e-05
2.932620099001449e-06   4.5530188783515953e-07   1.2966896639389592e-05
-2.0523049629148234e-06   4.2832587197655543e-07   2.129129068543232e-05
-2.0523049629148234e-06   4.2832587197655543e-07   2.129129068543232e-05
-2.0523049629148234e-06   4.2832587197655543e-07   2.129129068543232e-05
-2.0523049629148234e-06   4.2832587197655543e-07   2.129129068543232e-05
2.9326200990014627e-06   -3.6563319729299333e-07   3.036710193774503e-05
2.9326200990014627e-06   -3.6563319729299333e-07   3.036710193774503e-05
2.9326200990014627e-06   -3.6563319729299333e-07   3.036710193774503e-05
2.9326200990014627e-06   -3.6563319729299333e-07   3.036710193774503e-05
-7.507503080011834e-06   4.5530188783515953e-07   1.3459457690466752e-05
-7.507503080011834e-06   4.5530188783515953e-07   1.3459457690466752e-05
-7.507503080011834e-06   4.5530188783515953e-07   1.3459457690466752e-05
-7.507503080011834e-06   4.5530188783515953e-07   1.3459457690466752e-05
-8.002056545118233e-06   -9.429272881048955e-07   3.126648603056872e-05
-8.002056545118233e-06   -9.429272881048955e-07   3.126648603056872e-05
-8.002056545118233e-06   -9.429272881048955e-07   3.126648603056872e-05
-8.002056545118233e-06   -9.429272881048955e-07   3.126648603056872e-05
2.371948339969946e-06   -1.648418500948233e-07   1.3509626625949475e-05
2.371948339969946e-06   -1.648418500948233e-07   1.3509626625949475e-05
2.371948339969946e-06   -1.648418500948233e-07   1.3509626625949475e-05
2.371948339969946e-06   -1.648418500948233e-07   1.3509626625949475e-05
-2.4933037322257494e-06   -1.983375099139789e-08   2.153137522014698e-05
-2.4933037322257494e-06   -1.983375099139789e-08   2.153137522014698e-05
-2.4933037322257494e-06   -1.983375099139789e-08   2.153137522014698e-05
-2.4933037322257494e-06   -1.983375099139789e-08   2.153137522014698e-05
-6.517574098440952e-06   3.517540992524406e-06   3.4335975525517926e-05
-6.517574098440952e-06   3.517540992524406e-06   3.4335975525517926e-05
-6.517574098440952e-06   3.517540992524406e-06   3.4335975525517926e-05
-6.517574098440952e-06   3.517540992524406e-06   3.4335975525517926e-05
-1.6990410869580558e-05   3.315448726992241e-06   1.6759992214299092e-05
-1.6990410869580558e-05   3.315448726992241e-06   1.6759992214299092e-05
-1.6990410869580558e-05   3.315448726992241e-06   1.6759992214299092e-05
-1.6990410869580558e-05   3.315448726992241e-06   1.6759992214299092e-05
-1.7458444636924428e-05   2.8671478242044135e-06   3.403251124624003e-05
-1.7458444636924428e-05   2.8671478242044135e-06   3.403251124624003e-05
-1.7458444636924428e-05   2.8671478242044135e-06   3.403251124624003e-05
-1.7458444636924428e-05   2.8671478242044135e-06   3.403251124624003e-05
-7.0054288489604984e-06   2.6555014845052426e-06   1.6737806070119763e-05
-7.0054288489604984e-06   2.6555014845052426e-06   1.6737806070119763e-05
-7.0054288489604984e-06   2.6555014845052426e-06   1.6737806070119763e-05
-7.0054288489604984e-06   2.6555014845052426e-06   1.6737806070119763e-05
-1.2015289312798449e-05   3.0152351342895185e-06   2.4871733319980246e-05
-1.2015289312798449e-05   3.0152351342895185e-06   2.4871733319980246e-05
-1.2015289312798449e-05   3.0152351342895185e-06   2.4871733319980246e-05
-1.2015289312798449e-05   3.0152351342895185e-06   2.4871733319980246e-05
-7.0054288489604984e-06   2.8671478242044135e-06   3.415949905005949e-05
-7.0054288489604984e-06   2.8671478242044135e-06   3.415949905005949e-05
-7.0054288489604984e-06   2.8671478242044135e-06   3.415949905005949e-05
-7.0054288489604984e-06   2.8671478242044135e-06   3.415949905005949e-05
-1.7458444636924428e-05   2.6555014845052426e-06   1.6610818266300223e-05
-1.7458444636924428e-05   2.6555014845052426e-06   1.6610818266300223e-05
-1.7458444636924428e-05   2.6555014845052426e-06   1.6610818266300223e-05
-1.7458444636924428e-05   2.6555014845052426e-06   1.6610818266300223e-05
-1.79418464296658e-05   2.2242112716051345e-06   3.425911909742661e-05
-1.79418464296658e-05   2.2242112716051345e-06   3.425911909742661e-05
-1.79418464296658e-05   2.2242112716051345e-06   3.425911909742661e-05
-1.79418464296658e-05   2.2242112716051345e-06   3.425911909742661e-05
-7.507503080011807e-06   1.9989292082607003e-06   1.700371608601023e-05
-7.507503080011807e-06   1.9989292082607003e-06   1.700371608601023e-05
-7.507503080011807e-06   1.9989292082607003e-06   1.700371608601023e-05
-7.507503080011807e-06   1.9989292082607003e-06   1.700371608601023e-05
-1.2432056288139452e-05   2.5131925007839707e-06   2.4902746790708848e-05
-1.2432056288139452e-05   2.5131925007839707e-06   2.4902746790708848e-05
-1.2432056288139452e-05   2.5131925007839707e-06   2.4902746790708848e-05
-1.2432056288139452e-05   2.5131925007839707e-06   2.4902746790708848e-05
-7.507503080011834e-06   2.2242112716051345e-06   3.439428833543353e-05
-7.507503080011834e-06   2.2242112716051345e-06   3.439428833543353e-05
-7.507503080011834e-06   2.2242112716051345e-06   3.439428833543353e-05
-7.507503080011834e-06   2.2242112716051345e-06   3.439428833543353e-05
-1.7941846429665774e-05   1.9989292082607003e-06   1.6868546848003473e-05
-1.7941846429665774e-05   1.9989292082607003e-06   1.6868546848003473e-05
-1.7941846429665774e-05   1.9989292082607003e-06   1.6868546848003473e-05
-1.7941846429665774e-05   1.9989292082607003e-06   1.6868546848003473e-05
-1.841771365716354e-05   1.605217406930792e-06   3.4812975328179065e-05
-1.841771365716354e-05   1.605217406930792e-06   3.4812975328179065e-05
-1.841771365716354e-05   1.605217406930792e-06   3.4812975328179065e-05
-1.841771365716354e-05   1.605217406930792e-06   3.4812975328179065e-05
-8.00205654511826e-06   1.3702035904967786e-06   1.759455509796432e-05
-8.00205654511826e-06   1.3702035904967786e-06   1.759455509796432e-05
-8.00205654511826e-06   1.3702035904967786e-06   1.759455509796432e-05
-8.00205654511826e-06   1.3702035904967786e-06   1.759455509796432e-05
-1.2875332205497216e-05   2.021186380194752e-06   2.532609152477777e-05
-1.2875332205497216e-05   2.021186380194752e-06   2.532609152477777e-05
-1.2875332205497216e-05   2.021186380194752e-06   2.532609152477777e-05
-1.2875332205497216e-05   2.021186380194752e-06   2.532609152477777e-05
-1.6990410869580558e-05   6.029208863805868e-06   3.0245582476669903e-05
-1.6990410869580558e-05   6.029208863805868e-06   3.0245582476669903e-05
-1.6990410869580558e-05   6.029208863805868e-06   3.0245582476669903e-05
-1.6990410869580558e-05   6.029208863805868e-06   3.0245582476669903e-05
-2.727189176396171e-05   4.923798490445632e-06   1.2446534762018463e-05
-2.727189176396171e-05   4.923798490445632e-06   1.2446534762018463e-05
-2.727189176396171e-05   4.923798490445632e-06   1.2446534762018463e-05
-2.727189176396171e-05   4.923798490445632e-06   1.2446534762018463e-05
-2.7781970545593543e-05   5.393742804732891e-06   2.968776891471513e-05
-2.7781970545593543e-05   5.393742804732891e-06   2.968776891471513e-05
-2.7781970545593543e-05   5.393742804732891e-06   2.968776891471513e-05
-2.7781970545593543e-05   5.393742804732891e-06   2.968776891471513e-05
-1.74584446369244e-05   4.258176657823175e-06   1.3163232088412788e-05
-1.74584446369244e-05   4.258176657823175e-06   1.3163232088412788e-05
-1.74584446369244e-05   4.258176657823175e-06   1.3163232088412788e-05
-1.74584446369244e-05   4.258176657823175e-06   1.3163232088412788e-05
-2.2321750138857855e-05   5.067629619505496e-06   2.0783069481293732e-05
-2.2321750138857855e-05   5.067629619505496e-06   2.0783069481293732e-05
-2.2321750138857855e-05   5.067629619505496e-06   2.0783069481293732e-05
-2.2321750138857855e-05   5.067629619505496e-06   2.0783069481293732e-05
-1.7458444636924428e-05   5.393742804732891e-06   3.036910860286122e-05
-1.7458444636924428e-05   5.393742804732891e-06   3.036910860286122e-05
-1.7458444636924428e-05   5.393742804732891e-06   3.036910860286122e-05
-1.7458444636924428e-05   5.393742804732891e-06   3.036910860286122e-05
-2.7781970545593434e-05   4.258176657823175e-06   1.2481892400267132e-05
-2.7781970545593434e-05   4.258176657823175e-06   1.2481892400267132e-05
-2.7781970545593434e-05   4.258176657823175e-06   1.2481892400267132e-05
-2.7781970545593434e-05   4.258176657823175e-06   1.2481892400267132e-05
-2.8386130550956854e-05   4.805864061563272e-06   3.06647373105374e-05
-2.8386130550956854e-05   4.805864061563272e-06   3.06647373105374e-05
-2.8386130550956854e-05   4.805864061563272e-06   3.06647373105374e-05
-2.8386130550956854e-05   4.805864061563272e-06   3.06647373105374e-05
-1.7941846429665747e-05   3.6531420109908036e-06   1.3949230338729073e-05
-1.7941846429665747e-05   3.6531420109908036e-06   1.3949230338729073e-05
-1.7941846429665747e-05   3.6531420109908036e-06   1.3949230338729073e-05
-1.7941846429665747e-05   3.6531420109908036e-06   1.3949230338729073e-05
-2.265251001671705e-05   4.59677853059063e-06   2.123415440538802e-05
-2.265251001671705e-05   4.59677853059063e-06   2.123415440538802e-05
-2.265251001671705e-05   4.59677853059063e-06   2.123415440538802e-05
-2.265251001671705e-05   4.59677853059063e-06   2.123415440538802e-05
-1.7941846429665774e-05   4.805864061563272e-06   3.135637054088049e-05
-1.7941846429665774e-05   4.805864061563272e-06   3.135637054088049e-05
-1.7941846429665774e-05   4.805864061563272e-06   3.135637054088049e-05
-1.7941846429665774e-05   4.805864061563272e-06   3.135637054088049e-05
-2.83861305509568e-05   3.6531420109908036e-06   1.3257597108385765e-05
-2.83861305509568e-05   3.6531420109908036e-06   1.3257597108385765e-05
-2.83861305509568e-05   3.6531420109908036e-06   1.3257597108385765e-05
-2.83861305509568e-05   3.6531420109908036e-06   1.3257597108385765e-05
-2.8904679543592627e-05   4.148806384736371e-06   3.160879514383123e-05
-2.8904679543592627e-05   4.148806384736371e-06   3.160879514383123e-05
-2.8904679543592627e-05   4.148806384736371e-06   3.160879514383123e-05
-2.8904679543592627e-05   4.148806384736371e-06   3.160879514383123e-05
-1.841771365716343e-05   3.006699354194623e-06   1.4815782884774694e-05
-1.841771365716343e-05   3.006699354194623e-06   1.4815782884774694e-05
-1.841771365716343e-05   3.006699354194623e-06   1.4815782884774694e-05
-1.841771365716343e-05   3.006699354194623e-06   1.4815782884774694e-05
-2.3220837046381723e-05   4.125394780477845e-06   2.2149771277702845e-05
-2.3220837046381723e-05   4.125394780477845e-06   2.2149771277702845e-05
-2.3220837046381723e-05   4.125394780477845e-06   2.2149771277702845e-05
-2.3220837046381723e-05   4.125394780477845e-06   2.2149771277702845e-05
-2.7271891763961764e-05   7.906763269430097e-06   1.4127688257189802e-05
-2.7271891763961764e-05   7.906763269430097e-06   1.4127688257189802e-05
-2.7271891763961764e-05   7.906763269430097e-06   1.4127688257189802e-05
-2.7271891763961764e-05   7.906763269430097e-06   1.4127688257189802e-05
-3.654006182189629e-05   6.05567425797566e-06   -2.429915246240314e-06
-3.654006182189629e-05   6.05567425797566e-06   -2.429915246240314e-06
-3.654006182189629e-05   6.05567425797566e-06   -2.429915246240314e-06
-3.654006182189629e-05   6.05567425797566e-06   -2.429915246240314e-06
-3.784750993114351e-05   7.70257828461838e-06   1.741772352660499e-05
-3.784750993114351e-05   7.70257828461838e-06   1.741772352660499e-05
-3.784750993114351e-05   7.70257828461838e-06   1.741772352660499e-05
-3.784750993114351e-05   7.70257828461838e-06   1.741772352660499e-05
-2.778197054559338e-05   5.714237251584677e-06   1.8348291705088749e-06
-2.778197054559338e-05   5.714237251584677e-06   1.8348291705088749e-06
-2.778197054559338e-05   5.714237251584677e-06   1.8348291705088749e-06
-2.778197054559338e-05   5.714237251584677e-06   1.8348291705088749e-06
-3.1181978110671204e-05   6.719359232423621e-06   6.898435257136405e-06
-3.1181978110671204e-05   6.719359232423621e-06   6.898435257136405e-06
-3.1181978110671204e-05   6.719359232423621e-06   6.898435257136405e-06
-3.1181978110671204e-05   6.719359232423621e-06   6.898435257136405e-06
-2.7781970545593434e-05   7.702578284618598e-06   1.8610728146425167e-05
-2.7781970545593434e-05   7.702578284618598e-06   1.8610728146425167e-05
-2.7781970545593434e-05   7.702578284618598e-06   1.8610728146425167e-05
-2.7781970545593434e-05   7.702578284618598e-06   1.8610728146425167e-05
-3.7847509931143676e-05   5.714237251584677e-06   6.418245506884792e-07
-3.7847509931143676e-05   5.714237251584677e-06   6.418245506884792e-07
-3.7847509931143676e-05   5.714237251584677e-06   6.418245506884792e-07
-3.7847509931143676e-05   5.714237251584677e-06   6.418245506884792e-07
-3.897338246316176e-05   7.453383775798397e-06   2.0609916046899568e-05
-3.897338246316176e-05   7.453383775798397e-06   2.0609916046899568e-05
-3.897338246316176e-05   7.453383775798397e-06   2.0609916046899568e-05
-3.897338246316176e-05   7.453383775798397e-06   2.0609916046899568e-05
-2.83861305509568e-05   5.429231153170544e-06   4.178987766801268e-06
-2.83861305509568e-05   5.429231153170544e-06   4.178987766801268e-06
-2.83861305509568e-05   5.429231153170544e-06   4.178987766801268e-06
-2.83861305509568e-05   5.429231153170544e-06   4.178987766801268e-06
-3.243688560368519e-05   6.63066288979176e-06   1.020938714604337e-05
-3.243688560368519e-05   6.63066288979176e-06   1.020938714604337e-05
-3.243688560368519e-05   6.63066288979176e-06   1.020938714604337e-05
-3.243688560368519e-05   6.63066288979176e-06   1.020938714604337e-05
-2.83861305509568e-05   7.453383775798614e-06   2.1824407620476367e-05
-2.83861305509568e-05   7.453383775798614e-06   2.1824407620476367e-05
-2.83861305509568e-05   7.453383775798614e-06   2.1824407620476367e-05
-2.83861305509568e-05   7.453383775798614e-06   2.1824407620476367e-05
-3.897338246316187e-05   5.429231153170544e-06   2.96449619322474e-06
-3.897338246316187e-05   5.429231153170544e-06   2.96449619322474e-06
-3.897338246316187e-05   5.429231153170544e-06   2.96449619322474e-06
-3.897338246316187e-05   5.429231153170544e-06   2.96449619322474e-06
-4.0321069371467835e-05   6.61744976882526e-06   2.6259258803898282e-05
-4.0321069371467835e-05   6.61744976882526e-06   2.6259258803898282e-05
-4.0321069371467835e-05   6.61744976882526e-06   2.6259258803898282e-05
-4.0321069371467835e-05   6.61744976882526e-06   2.6259258803898282e-05
-2.890467954359252e-05   4.654486788575798e-06   8.409720212256065e-06
-2.890467954359252e-05   4.654486788575798e-06   8.409720212256065e-06
-2.890467954359252e-05   4.654486788575798e-06   8.409720212256065e-06
-2.890467954359252e-05   4.654486788575798e-06   8.409720212256065e-06
-3.275060267948169e-05   6.278355864801138e-06   1.3845270659669767e-05
-3.275060267948169e-05   6.278355864801138e-06   1.3845270659669767e-05
-3.275060267948169e-05   6.278355864801138e-06   1.3845270659669767e-05
-3.275060267948169e-05   6.278355864801138e-06   1.3845270659669767e-05
3.1480159320188244e-06   4.4204545816524735e-08   1.6781568495852716e-05
3.1480159320188244e-06   4.4204545816524735e-08   1.6781568495852716e-05
3.1480159320188244e-06   4.4204545816524735e-08   1.6781568495852716e-05
3.1480159320188244e-06   4.4204545816524735e-08   1.6781568495852716e-05
-3.5354704579382374e-06   1.829606928416879e-06   6.713665942151129e-06
-3.5354704579382374e-06   1.829606928416879e-06   6.713665942151129e-06
-3.5354704579382374e-06   1.829606928416879e-06   6.713665942151129e-06
-3.5354704579382374e-06   1.829606928416879e-06   6.713665942151129e-06
-3.9284654561126924e-06   -5.889673715779586e-07   1.6555433298906324e-05
-3.9284654561126924e-06   -5.889673715779586e-07   1.6555433298906324e-05
-3.9284654561126924e-06   -5.889673715779586e-07   1.6555433298906324e-05
-3.9284654561126924e-06   -5.889673715779586e-07   1.6555433298906324e-05
1.9516767593064e-06   1.2389627891884122e-06   5.658438176748133e-06
1.9516767593064e-06   1.2389627891884122e-06   5.658438176748133e-06
1.9516767593064e-06   1.2389627891884122e-06   5.658438176748133e-06
1.9516767593064e-06   1.2389627891884122e-06   5.658438176748133e-06
-7.468959293174336e-07   5.299258320819872e-07   1.0581481498718296e-05
-7.468959293174336e-07   5.299258320819872e-07   1.0581481498718296e-05
-7.468959293174336e-07   5.299258320819872e-07   1.0581481498718296e-05
-7.468959293174336e-07   5.299258320819872e-07   1.0581481498718296e-05
1.9516767593064e-06   -5.889673715779586e-07   1.5458675202446566e-05
1.9516767593064e-06   -5.889673715779586e-07   1.5458675202446566e-05
1.9516767593064e-06   -5.889673715779586e-07   1.5458675202446566e-05
1.9516767593064e-06   -5.889673715779586e-07   1.5458675202446566e-05
-3.9284654561126924e-06   1.2389627891884122e-06   6.755196273207863e-06
-3.9284654561126924e-06   1.2389627891884122e-06   6.755196273207863e-06
-3.9284654561126924e-06   1.2389627891884122e-06   6.755196273207863e-06
-3.9284654561126924e-06   1.2389627891884122e-06   6.755196273207863e-06
-4.4138784293522715e-06   -8.621093753587248e-07   1.6124425871586324e-05
-4.4138784293522715e-06   -8.621093753587248e-07   1.6124425871586324e-05
-4.4138784293522715e-06   -8.621093753587248e-07   1.6124425871586324e-05
-4.4138784293522715e-06   -8.621093753587248e-07   1.6124425871586324e-05
9.137205427151842e-07   9.136206553575759e-07   6.179656233044206e-06
9.137205427151842e-07   9.136206553575759e-07   6.179656233044206e-06
9.137205427151842e-07   9.136206553575759e-07   6.179656233044206e-06
9.137205427151842e-07   9.136206553575759e-07   6.179656233044206e-06
-1.3927337622588131e-06   2.7823420424783266e-07   1.040497861200002e-05
-1.3927337622588131e-06   2.7823420424783266e-07   1.040497861200002e-05
-1.3927337622588131e-06   2.7823420424783266e-07   1.040497861200002e-05
-1.3927337622588131e-06   2.7823420424783266e-07   1.040497861200002e-05
9.137205427151842e-07   -8.621093753589416e-07   1.5058987853156566e-05
9.137205427151842e-07   -8.621093753589416e-07   1.5058987853156566e-05
9.137205427151842e-07   -8.621093753589416e-07   1.5058987853156566e-05
9.137205427151842e-07   -8.621093753589416e-07   1.5058987853156566e-05
-4.413878429352261e-06   9.136206553575759e-07   7.245094251473938e-06
-4.413878429352261e-06   9.136206553575759e-07   7.245094251473938e-06
-4.413878429352261e-06   9.136206553575759e-07   7.245094251473938e-06
-4.413878429352261e-06   9.136206553575759e-07   7.245094251473938e-06
-4.819463241074087e-06   -1.3173594742819667e-06   1.5974258633027843e-05
-4.819463241074087e-06   -1.3173594742819667e-06   1.5974258633027843e-05
-4.819463241074087e-06   -1.3173594742819667e-06   1.5974258633027843e-05
-4.819463241074087e-06   -1.3173594742819667e-06   1.5974258633027843e-05
-3.883368071071441e-07   2.233763255526846e-07   7.664606429848856e-06
-3.883368071071441e-07   2.233763255526846e-07   7.664606429848856e-06
-3.883368071071441e-07   2.233763255526846e-07   7.664606429848856e-06
-3.883368071071441e-07   2.233763255526846e-07   7.664606429848856e-06
-2.0875889651405167e-06   4.7206824964254185e-08   1.0602395060257475e-05
-2.0875889651405167e-06   4.7206824964254185e-08   1.0602395060257475e-05
-2.0875889651405167e-06   4.7206824964254185e-08   1.0602395060257475e-05
-2.0875889651405167e-06   4.7206824964254185e-08   1.0602395060257475e-05
-3.5354704579382374e-06   1.7776562088709941e-06   2.6931703485737874e-05
-3.5354704579382374e-06   1.7776562088709941e-06   2.6931703485737874e-05
-3.5354704579382374e-06   1.7776562088709941e-06   2.6931703485737874e-05
-3.5354704579382374e-06   1.7776562088709941e-06   2.6931703485737874e-05
-9.130057487985633e-06   2.1295042133685597e-06   1.781850057169061e-05
-9.130057487985633e-06   2.1295042133685597e-06   1.781850057169061e-05
-9.130057487985633e-06   2.1295042133685597e-06   1.781850057169061e-05
-9.130057487985633e-06   2.1295042133685597e-06   1.781850057169061e-05
-9.42630686736202e-06   1.0619769721437102e-06   2.685882073277942e-05
-9.42630686736202e-06   1.0619769721437102e-06   2.685882073277942e-05
-9.42630686736202e-06   1.0619769721437102e-06   2.685882073277942e-05
-9.42630686736202e-06   1.0619769721437102e-06   2.685882073277942e-05
-3.9284654561126924e-06   1.4697905779468938e-06   1.745106355054853e-05
-3.9284654561126924e-06   1.4697905779468938e-06   1.745106355054853e-05
-3.9284654561126924e-06   1.4697905779468938e-06   1.745106355054853e-05
-3.9284654561126924e-06   1.4697905779468938e-06   1.745106355054853e-05
-6.543618116900766e-06   1.5333294470717962e-06   2.1771527997053867e-05
-6.543618116900766e-06   1.5333294470717962e-06   2.1771527997053867e-05
-6.543618116900766e-06   1.5333294470717962e-06   2.1771527997053867e-05
-6.543618116900766e-06   1.5333294470717962e-06   2.1771527997053867e-05
-3.928465456112696e-06   1.0619769721437102e-06   2.6614132569297228e-05
-3.928465456112696e-06   1.0619769721437102e-06   2.6614132569297228e-05
-3.928465456112696e-06   1.0619769721437102e-06   2.6614132569297228e-05
-3.928465456112696e-06   1.0619769721437102e-06   2.6614132569297228e-05
-9.426306867361993e-06   1.4697905779468938e-06   1.7695751714030513e-05
-9.426306867361993e-06   1.4697905779468938e-06   1.7695751714030513e-05
-9.426306867361993e-06   1.4697905779468938e-06   1.7695751714030513e-05
-9.426306867361993e-06   1.4697905779468938e-06   1.7695751714030513e-05
-9.731852711336998e-06   4.5530188783515953e-07   2.691208247954807e-05
-9.731852711336998e-06   4.5530188783515953e-07   2.691208247954807e-05
-9.731852711336998e-06   4.5530188783515953e-07   2.691208247954807e-05
-9.731852711336998e-06   4.5530188783515953e-07   2.691208247954807e-05
-4.413878429352261e-06   8.606066765610813e-07   1.7805609136337843e-05
-4.413878429352261e-06   8.606066765610813e-07   1.7805609136337843e-05
-4.413878429352261e-06   8.606066765610813e-07   1.7805609136337843e-05
-4.413878429352261e-06   8.606066765610813e-07   1.7805609136337843e-05
-6.846059671660161e-06   1.0510993216853847e-06   2.1744948953110238e-05
-6.846059671660161e-06   1.0510993216853847e-06   2.1744948953110238e-05
-6.846059671660161e-06   1.0510993216853847e-06   2.1744948953110238e-05
-6.846059671660161e-06   1.0510993216853847e-06   2.1744948953110238e-05
-4.4138784293522715e-06   4.5530188783515953e-07   2.6668899606312386e-05
-4.4138784293522715e-06   4.5530188783515953e-07   2.6668899606312386e-05
-4.4138784293522715e-06   4.5530188783515953e-07   2.6668899606312386e-05
-4.4138784293522715e-06   4.5530188783515953e-07   2.6668899606312386e-05
-9.731852711336998e-06   8.606066765610813e-07   1.8048792009573485e-05
-9.731852711336998e-06   8.606066765610813e-07   1.8048792009573485e-05
-9.731852711336998e-06   8.606066765610813e-07   1.8048792009573485e-05
-9.731852711336998e-06   8.606066765610813e-07   1.8048792009573485e-05
-1.003152726467639e-05   -1.6484185009504014e-07   2.7435186059416054e-05
-1.003152726467639e-05   -1.6484185009504014e-07   2.7435186059416054e-05
-1.003152726467639e-05   -1.6484185009504014e-07   2.7435186059416054e-05
-1.003152726467639e-05   -1.6484185009504014e-07   2.7435186059416054e-05
-4.819463241074083e-06   2.0040733736295495e-07   1.8529263174270914e-05
-4.819463241074083e-06   2.0040733736295495e-07   1.8529263174270914e-05
-4.819463241074083e-06   2.0040733736295495e-07   1.8529263174270914e-05
-4.819463241074083e-06   2.0040733736295495e-07   1.8529263174270914e-05
-7.148229209219149e-06   5.769308470257237e-07   2.2184625682048398e-05
-7.148229209219149e-06   5.769308470257237e-07   2.2184625682048398e-05
-7.148229209219149e-06   5.769308470257237e-07   2.2184625682048398e-05
-7.148229209219149e-06   5.769308470257237e-07   2.2184625682048398e-05
-9.130057487985606e-06   3.315448726992241e-06   3.0313143487357324e-05
-9.130057487985606e-06   3.315448726992241e-06   3.0313143487357324e-05
-9.130057487985606e-06   3.315448726992241e-06   3.0313143487357324e-05
-9.130057487985606e-06   3.315448726992241e-06   3.0313143487357324e-05
-1.4706627827753887e-05   2.552329235209474e-06   2.0560987892674057e-05
-1.4706627827753887e-05   2.552329235209474e-06   2.0560987892674057e-05
-1.4706627827753887e-05   2.552329235209474e-06   2.0560987892674057e-05
-1.4706627827753887e-05   2.552329235209474e-06   2.0560987892674057e-05
-1.4957271722573708e-05   2.6555014845052426e-06   2.9751537121864733e-05
-1.4957271722573708e-05   2.6555014845052426e-06   2.9751537121864733e-05
-1.4957271722573708e-05   2.6555014845052426e-06   2.9751537121864733e-05
-1.4957271722573708e-05   2.6555014845052426e-06   2.9751537121864733e-05
-9.426306867361993e-06   1.9408101307638766e-06   2.0962077175423408e-05
-9.426306867361993e-06   1.9408101307638766e-06   2.0962077175423408e-05
-9.426306867361993e-06   1.9408101307638766e-06   2.0962077175423408e-05
-9.426306867361993e-06   1.9408101307638766e-06   2.0962077175423408e-05
-1.2061034058807592e-05   2.565718283193503e-06   2.4978344269708326e-05
-1.2061034058807592e-05   2.565718283193503e-06   2.4978344269708326e-05
-1.2061034058807592e-05   2.565718283193503e-06   2.4978344269708326e-05
-1.2061034058807592e-05   2.565718283193503e-06   2.4978344269708326e-05
-9.426306867361993e-06   2.6555014845052426e-06   3.018035193410966e-05
-9.426306867361993e-06   2.6555014845052426e-06   3.018035193410966e-05
-9.426306867361993e-06   2.6555014845052426e-06   3.018035193410966e-05
-9.426306867361993e-06   2.6555014845052426e-06   3.018035193410966e-05
-1.4957271722573708e-05   1.9408101307638766e-06   2.0533262363178534e-05
-1.4957271722573708e-05   1.9408101307638766e-06   2.0533262363178534e-05
-1.4957271722573708e-05   1.9408101307638766e-06   2.0533262363178534e-05
-1.4957271722573708e-05   1.9408101307638766e-06   2.0533262363178534e-05
-1.522588666202023e-05   1.9989292082607003e-06   3.004854962738437e-05
-1.522588666202023e-05   1.9989292082607003e-06   3.004854962738437e-05
-1.522588666202023e-05   1.9989292082607003e-06   3.004854962738437e-05
-1.522588666202023e-05   1.9989292082607003e-06   3.004854962738437e-05
-9.731852711336998e-06   1.3192771287483945e-06   2.1299617623953134e-05
-9.731852711336998e-06   1.3192771287483945e-06   2.1299617623953134e-05
-9.731852711336998e-06   1.3192771287483945e-06   2.1299617623953134e-05
-9.731852711336998e-06   1.3192771287483945e-06   2.1299617623953134e-05
-1.2275179194362447e-05   2.075942395421285e-06   2.5084495935658404e-05
-1.2275179194362447e-05   2.075942395421285e-06   2.5084495935658404e-05
-1.2275179194362447e-05   2.075942395421285e-06   2.5084495935658404e-05
-1.2275179194362447e-05   2.075942395421285e-06   2.5084495935658404e-05
-9.731852711336998e-06   1.9989292082607003e-06   3.0456340875091603e-05
-9.731852711336998e-06   1.9989292082607003e-06   3.0456340875091603e-05
-9.731852711336998e-06   1.9989292082607003e-06   3.0456340875091603e-05
-9.731852711336998e-06   1.9989292082607003e-06   3.0456340875091603e-05
-1.5225886662020177e-05   1.3192771287481777e-06   2.089182637624563e-05
-1.5225886662020177e-05   1.3192771287481777e-06   2.089182637624563e-05
-1.5225886662020177e-05   1.3192771287481777e-06   2.089182637624563e-05
-1.5225886662020177e-05   1.3192771287481777e-06   2.089182637624563e-05
-1.5488953211012534e-05   1.3702035904969954e-06   3.066913045968048e-05
-1.5488953211012534e-05   1.3702035904969954e-06   3.066913045968048e-05
-1.5488953211012534e-05   1.3702035904969954e-06   3.066913045968048e-05
-1.5488953211012534e-05   1.3702035904969954e-06   3.066913045968048e-05
-1.0031527264676364e-05   7.299822422559415e-07   2.1957553358064902e-05
-1.0031527264676364e-05   7.299822422559415e-07   2.1957553358064902e-05
-1.0031527264676364e-05   7.299822422559415e-07   2.1957553358064902e-05
-1.0031527264676364e-05   7.299822422559415e-07   2.1957553358064902e-05
-1.2513783679279965e-05   1.5935041590506988e-06   2.557653423232724e-05
-1.2513783679279965e-05   1.5935041590506988e-06   2.557653423232724e-05
-1.2513783679279965e-05   1.5935041590506988e-06   2.557653423232724e-05
-1.2513783679279965e-05   1.5935041590506988e-06   2.557653423232724e-05
-1.4706627827753887e-05   4.923798490445849e-06   2.620506056402337e-05
-1.4706627827753887e-05   4.923798490445849e-06   2.620506056402337e-05
-1.4706627827753887e-05   4.923798490445849e-06   2.620506056402337e-05
-1.4706627827753887e-05   4.923798490445849e-06   2.620506056402337e-05
-2.0190847703620415e-05   3.4496145231565235e-06   1.618018372387224e-05
-2.0190847703620415e-05   3.4496145231565235e-06   1.618018372387224e-05
-2.0190847703620415e-05   3.4496145231565235e-06   1.618018372387224e-05
-2.0190847703620415e-05   3.4496145231565235e-06   1.618018372387224e-05
-2.0466220252376088e-05   4.258176657823175e-06   2.5432779869044055e-05
-2.0466220252376088e-05   4.258176657823175e-06   2.5432779869044055e-05
-2.0466220252376088e-05   4.258176657823175e-06   2.5432779869044055e-05
-2.0466220252376088e-05   4.258176657823175e-06   2.5432779869044055e-05
-1.4957271722573708e-05   2.806224866267479e-06   1.7122370060973296e-05
-1.4957271722573708e-05   2.806224866267479e-06   1.7122370060973296e-05
-1.4957271722573708e-05   2.806224866267479e-06   1.7122370060973296e-05
-1.4957271722573708e-05   2.806224866267479e-06   1.7122370060973296e-05
-1.7543005978479774e-05   3.8268146016927004e-06   2.0819573312894925e-05
-1.7543005978479774e-05   3.8268146016927004e-06   2.0819573312894925e-05
-1.7543005978479774e-05   3.8268146016927004e-06   2.0819573312894925e-05
-1.7543005978479774e-05   3.8268146016927004e-06   2.0819573312894925e-05
-1.4957271722573708e-05   4.258176657823175e-06   2.63039509439773e-05
-1.4957271722573708e-05   4.258176657823175e-06   2.63039509439773e-05
-1.4957271722573708e-05   4.258176657823175e-06   2.63039509439773e-05
-1.4957271722573708e-05   4.258176657823175e-06   2.63039509439773e-05
-2.0466220252376088e-05   2.8062248662672623e-06   1.6251198986039943e-05
-2.0466220252376088e-05   2.8062248662672623e-06   1.6251198986039943e-05
-2.0466220252376088e-05   2.8062248662672623e-06   1.6251198986039943e-05
-2.0466220252376088e-05   2.8062248662672623e-06   1.6251198986039943e-05
-2.0846938600980395e-05   3.6531420109908036e-06   2.6277712817138763e-05
-2.0846938600980395e-05   3.6531420109908036e-06   2.6277712817138763e-05
-2.0846938600980395e-05   3.6531420109908036e-06   2.6277712817138763e-05
-2.0846938600980395e-05   3.6531420109908036e-06   2.6277712817138763e-05
-1.522588666202023e-05   2.233941509372341e-06   1.7760813219843048e-05
-1.522588666202023e-05   2.233941509372341e-06   1.7760813219843048e-05
-1.522588666202023e-05   2.233941509372341e-06   1.7760813219843048e-05
-1.522588666202023e-05   2.233941509372341e-06   1.7760813219843048e-05
-1.7692706690864497e-05   3.3521318095065377e-06   2.1201265754503028e-05
-1.7692706690864497e-05   3.3521318095065377e-06   2.1201265754503028e-05
-1.7692706690864497e-05   3.3521318095065377e-06   2.1201265754503028e-05
-1.7692706690864497e-05   3.3521318095065377e-06   2.1201265754503028e-05
-1.5225886662020177e-05   3.6531420109910204e-06   2.7129233118109537e-05
-1.5225886662020177e-05   3.6531420109910204e-06   2.7129233118109537e-05
-1.5225886662020177e-05   3.6531420109910204e-06   2.7129233118109537e-05
-1.5225886662020177e-05   3.6531420109910204e-06   2.7129233118109537e-05
-2.084693860098034e-05   2.2339415093725577e-06   1.6909292918871894e-05
-2.084693860098034e-05   2.2339415093725577e-06   1.6909292918871894e-05
-2.084693860098034e-05   2.2339415093725577e-06   1.6909292918871894e-05
-2.084693860098034e-05   2.2339415093725577e-06   1.6909292918871894e-05
-2.115218849093345e-05   3.0066993541944063e-06   2.7217981816456864e-05
-2.115218849093345e-05   3.0066993541944063e-06   2.7217981816456864e-05
-2.115218849093345e-05   3.0066993541944063e-06   2.7217981816456864e-05
-2.115218849093345e-05   3.0066993541944063e-06   2.7217981816456864e-05
-1.5488953211012534e-05   1.651058154370725e-06   1.859264106981621e-05
-1.5488953211012534e-05   1.651058154370725e-06   1.859264106981621e-05
-1.5488953211012534e-05   1.651058154370725e-06   1.859264106981621e-05
-1.5488953211012534e-05   1.651058154370725e-06   1.859264106981621e-05
-1.8007952518798352e-05   2.900863882108985e-06   2.204108981281711e-05
-1.8007952518798352e-05   2.900863882108985e-06   2.204108981281711e-05
-1.8007952518798352e-05   2.900863882108985e-06   2.204108981281711e-05
-1.8007952518798352e-05   2.900863882108985e-06   2.204108981281711e-05
-2.0190847703620415e-05   6.055674257975877e-06   1.1554753582263314e-05
-2.0190847703620415e-05   6.055674257975877e-06   1.1554753582263314e-05
-2.0190847703620415e-05   6.055674257975877e-06   1.1554753582263314e-05
-2.0190847703620415e-05   6.055674257975877e-06   1.1554753582263314e-05
-2.449164444478174e-05   4.074079296322074e-06   3.197802036669002e-06
-2.449164444478174e-05   4.074079296322074e-06   3.197802036669002e-06
-2.449164444478174e-05   4.074079296322074e-06   3.197802036669002e-06
-2.449164444478174e-05   4.074079296322074e-06   3.197802036669002e-06
-2.5537150508025323e-05   5.714237251584894e-06   1.3544730065451118e-05
-2.5537150508025323e-05   5.714237251584894e-06   1.3544730065451118e-05
-2.5537150508025323e-05   5.714237251584894e-06   1.3544730065451118e-05
-2.5537150508025323e-05   5.714237251584894e-06   1.3544730065451118e-05
-2.0466220252376088e-05   3.645926295194014e-06   6.334166213203449e-06
-2.0466220252376088e-05   3.645926295194014e-06   6.334166213203449e-06
-2.0466220252376088e-05   3.645926295194014e-06   6.334166213203449e-06
-2.0466220252376088e-05   3.645926295194014e-06   6.334166213203449e-06
-2.188496103274924e-05   4.823719287787905e-06   7.992058384935735e-06
-2.188496103274924e-05   4.823719287787905e-06   7.992058384935735e-06
-2.188496103274924e-05   4.823719287787905e-06   7.992058384935735e-06
-2.188496103274924e-05   4.823719287787905e-06   7.992058384935735e-06
-2.0466220252376088e-05   5.714237251584677e-06   1.4785716639285364e-05
-2.0466220252376088e-05   5.714237251584677e-06   1.4785716639285364e-05
-2.0466220252376088e-05   5.714237251584677e-06   1.4785716639285364e-05
-2.0466220252376088e-05   5.714237251584677e-06   1.4785716639285364e-05
-2.5537150508025378e-05   3.645926295194231e-06   5.093179639369059e-06
-2.5537150508025378e-05   3.645926295194231e-06   5.093179639369059e-06
-2.5537150508025378e-05   3.645926295194231e-06   5.093179639369059e-06
-2.5537150508025378e-05   3.645926295194231e-06   5.093179639369059e-06
-2.643488815420544e-05   5.429231153170327e-06   1.5952767955825084e-05
-2.643488815420544e-05   5.429231153170327e-06   1.5952767955825084e-05
-2.643488815420544e-05   5.429231153170327e-06   1.5952767955825084e-05
-2.643488815420544e-05   5.429231153170327e-06   1.5952767955825084e-05
-2.0846938600980395e-05   3.3520052869549875e-06   7.885854220179194e-06
-2.0846938600980395e-05   3.3520052869549875e-06   7.885854220179194e-06
-2.0846938600980395e-05   3.3520052869549875e-06   7.885854220179194e-06
-2.0846938600980395e-05   3.3520052869549875e-06   7.885854220179194e-06
-2.2770619565925853e-05   4.6555696401474455e-06   1.0309850549840099e-05
-2.2770619565925853e-05   4.6555696401474455e-06   1.0309850549840099e-05
-2.2770619565925853e-05   4.6555696401474455e-06   1.0309850549840099e-05
-2.2770619565925853e-05   4.6555696401474455e-06   1.0309850549840099e-05
-2.0846938600980395e-05   5.429231153170544e-06   1.7199103475554266e-05
-2.0846938600980395e-05   5.429231153170544e-06   1.7199103475554266e-05
-2.0846938600980395e-05   5.429231153170544e-06   1.7199103475554266e-05
-2.0846938600980395e-05   5.429231153170544e-06   1.7199103475554266e-05
-2.6434888154205655e-05   3.3520052869547706e-06   6.639518700449895e-06
-2.6434888154205655e-05   3.3520052869547706e-06   6.639518700449895e-06
-2.6434888154205655e-05   3.3520052869547706e-06   6.639518700449895e-06
-2.6434888154205655e-05   3.3520052869547706e-06   6.639518700449895e-06
-2.7578288084137707e-05   4.654486788575798e-06   2.0311100376012043e-05
-2.7578288084137707e-05   4.654486788575798e-06   2.0311100376012043e-05
-2.7578288084137707e-05   4.654486788575798e-06   2.0311100376012043e-05
-2.7578288084137707e-05   4.654486788575798e-06   2.0311100376012043e-05
-2.1152188490933396e-05   2.677681811490704e-06   1.0787017373589496e-05
-2.1152188490933396e-05   2.677681811490704e-06   1.0787017373589496e-05
-2.1152188490933396e-05   2.677681811490704e-06   1.0787017373589496e-05
-2.1152188490933396e-05   2.677681811490704e-06   1.0787017373589496e-05
-2.30241850186636e-05   4.333999932656018e-06   1.2913220713773785e-05
-2.30241850186636e-05   4.333999932656018e-06   1.2913220713773785e-05
-2.30241850186636e-05   4.333999932656018e-06   1.2913220713773785e-05
-2.30241850186636e-05   4.333999932656018e-06   1.2913220713773785e-05
-1.0077063995210422e-05   1.829606928416879e-06   1.1964905305554205e-05
-1.0077063995210422e-05   1.829606928416879e-06   1.1964905305554205e-05
-1.0077063995210422e-05   1.829606928416879e-06   1.1964905305554205e-05
-1.0077063995210422e-05   1.829606928416879e-06   1.1964905305554205e-05
-1.0998038711992629e-05   3.451692646806357e-06   1.1403198875284295e-05
-1.0998038711992629e-05   3.451692646806357e-06   1.1403198875284295e-05
-1.0998038711992629e-05   3.451692646806357e-06   1.1403198875284295e-05
-1.0998038711992629e-05   3.451692646806357e-06   1.1403198875284295e-05
-1.1279775139745164e-05   1.2389627891884122e-06   1.2859005369722672e-05
-1.1279775139745164e-05   1.2389627891884122e-06   1.2859005369722672e-05
-1.1279775139745164e-05   1.2389627891884122e-06   1.2859005369722672e-05
-1.1279775139745164e-05   1.2389627891884122e-06   1.2859005369722672e-05
-1.1264915828839448e-05   2.697498002371618e-06   1.1959118723636498e-05
-1.1264915828839448e-05   2.697498002371618e-06   1.1959118723636498e-05
-1.1264915828839448e-05   2.697498002371618e-06   1.1959118723636498e-05
-1.1264915828839448e-05   2.697498002371618e-06   1.1959118723636498e-05
-1.0633418647479308e-05   2.154365690058401e-06   1.12325028087577e-05
-1.0633418647479308e-05   2.154365690058401e-06   1.12325028087577e-05
-1.0633418647479308e-05   2.154365690058401e-06   1.12325028087577e-05
-1.0633418647479308e-05   2.154365690058401e-06   1.12325028087577e-05
-1.1264915828839461e-05   1.2389627891884122e-06   1.1983884241812607e-05
-1.1264915828839461e-05   1.2389627891884122e-06   1.1983884241812607e-05
-1.1264915828839461e-05   1.2389627891884122e-06   1.1983884241812607e-05
-1.1264915828839461e-05   1.2389627891884122e-06   1.1983884241812607e-05
-1.1279775139745164e-05   2.697498002371618e-06   1.283423985154659e-05
-1.1279775139745164e-05   2.697498002371618e-06   1.283423985154659e-05
-1.1279775139745164e-05   2.697498002371618e-06   1.283423985154659e-05
-1.1279775139745164e-05   2.697498002371618e-06   1.283423985154659e-05
-1.1645483820035956e-05   9.136206553575759e-07   1.3269227291093442e-05
-1.1645483820035956e-05   9.136206553575759e-07   1.3269227291093442e-05
-1.1645483820035956e-05   9.136206553575759e-07   1.3269227291093442e-05
-1.1645483820035956e-05   9.136206553575759e-07   1.3269227291093442e-05
-1.2419954895656705e-05   2.175809427865864e-06   1.3802699153622869e-05
-1.2419954895656705e-05   2.175809427865864e-06   1.3802699153622869e-05
-1.2419954895656705e-05   2.175809427865864e-06   1.3802699153622869e-05
-1.2419954895656705e-05   2.175809427865864e-06   1.3802699153622869e-05
-1.1340561129997776e-05   1.828970112117208e-06   1.2211813133639992e-05
-1.1340561129997776e-05   1.828970112117208e-06   1.2211813133639992e-05
-1.1340561129997776e-05   1.828970112117208e-06   1.2211813133639992e-05
-1.1340561129997776e-05   1.828970112117208e-06   1.2211813133639992e-05
-1.2419954895656732e-05   9.136206553575759e-07   1.251191402758809e-05
-1.2419954895656732e-05   9.136206553575759e-07   1.251191402758809e-05
-1.2419954895656732e-05   9.136206553575759e-07   1.251191402758809e-05
-1.2419954895656732e-05   9.136206553575759e-07   1.251191402758809e-05
-1.1645483820035956e-05   2.175809427865864e-06   1.4560012417127815e-05
-1.1645483820035956e-05   2.175809427865864e-06   1.4560012417127815e-05
-1.1645483820035956e-05   2.175809427865864e-06   1.4560012417127815e-05
-1.1645483820035956e-05   2.175809427865864e-06   1.4560012417127815e-05
-1.1877840772271535e-05   2.2337632555290143e-07   1.4589841938104974e-05
-1.1877840772271535e-05   2.2337632555290143e-07   1.4589841938104974e-05
-1.1877840772271535e-05   2.2337632555290143e-07   1.4589841938104974e-05
-1.1877840772271535e-05   2.2337632555290143e-07   1.4589841938104974e-05
-1.3649591248331955e-05   8.924943011286244e-07   1.7141288612859934e-05
-1.3649591248331955e-05   8.924943011286244e-07   1.7141288612859934e-05
-1.3649591248331955e-05   8.924943011286244e-07   1.7141288612859934e-05
-1.3649591248331955e-05   8.924943011286244e-07   1.7141288612859934e-05
-1.1835379180874929e-05   1.429219935081597e-06   1.3795566453392858e-05
-1.1835379180874929e-05   1.429219935081597e-06   1.3795566453392858e-05
-1.1835379180874929e-05   1.429219935081597e-06   1.3795566453392858e-05
-1.1835379180874929e-05   1.429219935081597e-06   1.3795566453392858e-05
-1.0998038711992608e-05   2.1295042133685597e-06   2.3831882563429005e-05
-1.0998038711992608e-05   2.1295042133685597e-06   2.3831882563429005e-05
-1.0998038711992608e-05   2.1295042133685597e-06   2.3831882563429005e-05
-1.0998038711992608e-05   2.1295042133685597e-06   2.3831882563429005e-05
-1.113448065212088e-05   8.932313093700612e-07   2.2862715587482674e-05
-1.113448065212088e-05   8.932313093700612e-07   2.2862715587482674e-05
-1.113448065212088e-05   8.932313093700612e-07   2.2862715587482674e-05
-1.113448065212088e-05   8.932313093700612e-07   2.2862715587482674e-05
-1.1220971519883413e-05   1.4697905779468938e-06   2.2930214721393876e-05
-1.1220971519883413e-05   1.4697905779468938e-06   2.2930214721393876e-05
-1.1220971519883413e-05   1.4697905779468938e-06   2.2930214721393876e-05
-1.1220971519883413e-05   1.4697905779468938e-06   2.2930214721393876e-05
-1.1279775139745164e-05   4.2869403516431707e-07   2.365287868016622e-05
-1.1279775139745164e-05   4.2869403516431707e-07   2.365287868016622e-05
-1.1279775139745164e-05   4.2869403516431707e-07   2.365287868016622e-05
-1.1279775139745164e-05   4.2869403516431707e-07   2.365287868016622e-05
-1.1123861760789645e-05   1.0881370963273466e-06   2.299735721187596e-05
-1.1123861760789645e-05   1.0881370963273466e-06   2.299735721187596e-05
-1.1123861760789645e-05   1.0881370963273466e-06   2.299735721187596e-05
-1.1123861760789645e-05   1.0881370963273466e-06   2.299735721187596e-05
-1.1279775139745154e-05   1.4697905779468938e-06   2.3554872647062967e-05
-1.1279775139745154e-05   1.4697905779468938e-06   2.3554872647062967e-05
-1.1279775139745154e-05   1.4697905779468938e-06   2.3554872647062967e-05
-1.1279775139745154e-05   1.4697905779468938e-06   2.3554872647062967e-05
-1.1220971519883413e-05   4.2869403516431707e-07   2.3028220754496738e-05
-1.1220971519883413e-05   4.2869403516431707e-07   2.3028220754496738e-05
-1.1220971519883413e-05   4.2869403516431707e-07   2.3028220754496738e-05
-1.1220971519883413e-05   4.2869403516431707e-07   2.3028220754496738e-05
-1.132825404777103e-05   8.606066765612982e-07   2.3247170584505725e-05
-1.132825404777103e-05   8.606066765612982e-07   2.3247170584505725e-05
-1.132825404777103e-05   8.606066765612982e-07   2.3247170584505725e-05
-1.132825404777103e-05   8.606066765612982e-07   2.3247170584505725e-05
-1.1645483820035956e-05   -1.1034597585809439e-07   2.4358458463065295e-05
-1.1645483820035956e-05   -1.1034597585809439e-07   2.4358458463065295e-05
-1.1645483820035956e-05   -1.1034597585809439e-07   2.4358458463065295e-05
-1.1645483820035956e-05   -1.1034597585809439e-07   2.4358458463065295e-05
-1.1229981617061117e-05   7.031330842970649e-07   2.3177867355347252e-05
-1.1229981617061117e-05   7.031330842970649e-07   2.3177867355347252e-05
-1.1229981617061117e-05   7.031330842970649e-07   2.3177867355347252e-05
-1.1229981617061117e-05   7.031330842970649e-07   2.3177867355347252e-05
-1.1645483820035956e-05   8.606066765612982e-07   2.3829742175956927e-05
-1.1645483820035956e-05   8.606066765612982e-07   2.3829742175956927e-05
-1.1645483820035956e-05   8.606066765612982e-07   2.3829742175956927e-05
-1.1645483820035956e-05   8.606066765612982e-07   2.3829742175956927e-05
-1.1328254047770976e-05   -1.1034597585809439e-07   2.3775886871613768e-05
-1.1328254047770976e-05   -1.1034597585809439e-07   2.3775886871613768e-05
-1.1328254047770976e-05   -1.1034597585809439e-07   2.3775886871613768e-05
-1.1328254047770976e-05   -1.1034597585809439e-07   2.3775886871613768e-05
-1.140595950649916e-05   2.0040733736295495e-07   2.391846010218687e-05
-1.140595950649916e-05   2.0040733736295495e-07   2.391846010218687e-05
-1.140595950649916e-05   2.0040733736295495e-07   2.391846010218687e-05
-1.140595950649916e-05   2.0040733736295495e-07   2.391846010218687e-05
-1.1877840772271522e-05   -8.189211633695187e-07   2.5316525978913323e-05
-1.1877840772271522e-05   -8.189211633695187e-07   2.5316525978913323e-05
-1.1877840772271522e-05   -8.189211633695187e-07   2.5316525978913323e-05
-1.1877840772271522e-05   -8.189211633695187e-07   2.5316525978913323e-05
-1.1398292896281164e-05   2.504698149682124e-07   2.387564493192622e-05
-1.1398292896281164e-05   2.504698149682124e-07   2.387564493192622e-05
-1.1398292896281164e-05   2.504698149682124e-07   2.387564493192622e-05
-1.1398292896281164e-05   2.504698149682124e-07   2.387564493192622e-05
-1.1134480652120934e-05   2.552329235209691e-06   2.629047783708283e-05
-1.1134480652120934e-05   2.552329235209691e-06   2.629047783708283e-05
-1.1134480652120934e-05   2.552329235209691e-06   2.629047783708283e-05
-1.1134480652120934e-05   2.552329235209691e-06   2.629047783708283e-05
-1.1979988079204083e-05   2.4822680814388237e-07   2.3498837335704785e-05
-1.1979988079204083e-05   2.4822680814388237e-07   2.3498837335704785e-05
-1.1979988079204083e-05   2.4822680814388237e-07   2.3498837335704785e-05
-1.1979988079204083e-05   2.4822680814388237e-07   2.3498837335704785e-05
-1.2008394345272512e-05   1.9408101307638766e-06   2.4945412079009546e-05
-1.2008394345272512e-05   1.9408101307638766e-06   2.4945412079009546e-05
-1.2008394345272512e-05   1.9408101307638766e-06   2.4945412079009546e-05
-1.2008394345272512e-05   1.9408101307638766e-06   2.4945412079009546e-05
-1.1220971519883413e-05   -1.4440337553120984e-07   2.4884168807138164e-05
-1.1220971519883413e-05   -1.4440337553120984e-07   2.4884168807138164e-05
-1.1220971519883413e-05   -1.4440337553120984e-07   2.4884168807138164e-05
-1.1220971519883413e-05   -1.4440337553120984e-07   2.4884168807138164e-05
-1.156600420994636e-05   1.1105890825080554e-06   2.4706227815752906e-05
-1.156600420994636e-05   1.1105890825080554e-06   2.4706227815752906e-05
-1.156600420994636e-05   1.1105890825080554e-06   2.4706227815752906e-05
-1.156600420994636e-05   1.1105890825080554e-06   2.4706227815752906e-05
-1.1220971519883413e-05   1.9408101307638766e-06   2.6196540182786554e-05
-1.1220971519883413e-05   1.9408101307638766e-06   2.6196540182786554e-05
-1.1220971519883413e-05   1.9408101307638766e-06   2.6196540182786554e-05
-1.1220971519883413e-05   1.9408101307638766e-06   2.6196540182786554e-05
-1.2008394345272458e-05   -1.4440337553120984e-07   2.36330407033611e-05
-1.2008394345272458e-05   -1.4440337553120984e-07   2.36330407033611e-05
-1.2008394345272458e-05   -1.4440337553120984e-07   2.36330407033611e-05
-1.2008394345272458e-05   -1.4440337553120984e-07   2.36330407033611e-05
-1.2060785640407754e-05   1.3192771287483945e-06   2.5337679910691826e-05
-1.2060785640407754e-05   1.3192771287483945e-06   2.5337679910691826e-05
-1.2060785640407754e-05   1.3192771287483945e-06   2.5337679910691826e-05
-1.2060785640407754e-05   1.3192771287483945e-06   2.5337679910691826e-05
-1.132825404777103e-05   -6.145833515742039e-07   2.5277110211157294e-05
-1.132825404777103e-05   -6.145833515742039e-07   2.5277110211157294e-05
-1.132825404777103e-05   -6.145833515742039e-07   2.5277110211157294e-05
-1.132825404777103e-05   -6.145833515742039e-07   2.5277110211157294e-05
-1.157149555755265e-05   7.215961180292562e-07   2.4880805045697225e-05
-1.157149555755265e-05   7.215961180292562e-07   2.4880805045697225e-05
-1.157149555755265e-05   7.215961180292562e-07   2.4880805045697225e-05
-1.157149555755265e-05   7.215961180292562e-07   2.4880805045697225e-05
-1.132825404777103e-05   1.3192771287481777e-06   2.6497996198884886e-05
-1.132825404777103e-05   1.3192771287481777e-06   2.6497996198884886e-05
-1.132825404777103e-05   1.3192771287481777e-06   2.6497996198884886e-05
-1.132825404777103e-05   1.3192771287481777e-06   2.6497996198884886e-05
-1.20607856404077e-05   -6.145833515740955e-07   2.411679392296372e-05
-1.20607856404077e-05   -6.145833515740955e-07   2.411679392296372e-05
-1.20607856404077e-05   -6.145833515740955e-07   2.411679392296372e-05
-1.20607856404077e-05   -6.145833515740955e-07   2.411679392296372e-05
-1.2093933514676226e-05   7.299822422557247e-07   2.6037493568884028e-05
-1.2093933514676226e-05   7.299822422557247e-07   2.6037493568884028e-05
-1.2093933514676226e-05   7.299822422557247e-07   2.6037493568884028e-05
-1.2093933514676226e-05   7.299822422557247e-07   2.6037493568884028e-05
-1.140595950649916e-05   -1.0868630987809994e-06   2.59809774265441e-05
-1.140595950649916e-05   -1.0868630987809994e-06   2.59809774265441e-05
-1.140595950649916e-05   -1.0868630987809994e-06   2.59809774265441e-05
-1.140595950649916e-05   -1.0868630987809994e-06   2.59809774265441e-05
-1.1596170497155296e-05   3.2164614919942547e-07   2.5452890195515256e-05
-1.1596170497155296e-05   3.2164614919942547e-07   2.5452890195515256e-05
-1.1596170497155296e-05   3.2164614919942547e-07   2.5452890195515256e-05
-1.1596170497155296e-05   3.2164614919942547e-07   2.5452890195515256e-05
-1.1979988079204083e-05   3.4496145231565235e-06   2.141172259241509e-05
-1.1979988079204083e-05   3.4496145231565235e-06   2.141172259241509e-05
-1.1979988079204083e-05   3.4496145231565235e-06   2.141172259241509e-05
-1.1979988079204083e-05   3.4496145231565235e-06   2.141172259241509e-05
-1.3206410140074662e-05   1.1323812350705733e-06   1.7977345851446143e-05
-1.3206410140074662e-05   1.1323812350705733e-06   1.7977345851446143e-05
-1.3206410140074662e-05   1.1323812350705733e-06   1.7977345851446143e-05
-1.3206410140074662e-05   1.1323812350705733e-06   1.7977345851446143e-05
-1.3227127071421352e-05   2.8062248662672623e-06   2.021989299784226e-05
-1.3227127071421352e-05   2.8062248662672623e-06   2.021989299784226e-05
-1.3227127071421352e-05   2.8062248662672623e-06   2.021989299784226e-05
-1.3227127071421352e-05   2.8062248662672623e-06   2.021989299784226e-05
-1.2008394345272512e-05   6.151802346635992e-07   1.950329856655633e-05
-1.2008394345272512e-05   6.151802346635992e-07   1.950329856655633e-05
-1.2008394345272512e-05   6.151802346635992e-07   1.950329856655633e-05
-1.2008394345272512e-05   6.151802346635992e-07   1.950329856655633e-05
-1.2572503840695403e-05   2.0484679919642373e-06   1.9583508404547403e-05
-1.2572503840695403e-05   2.0484679919642373e-06   1.9583508404547403e-05
-1.2572503840695403e-05   2.0484679919642373e-06   1.9583508404547403e-05
-1.2572503840695403e-05   2.0484679919642373e-06   1.9583508404547403e-05
-1.2008394345272512e-05   2.806224866267479e-06   2.1534519776804308e-05
-1.2008394345272512e-05   2.806224866267479e-06   2.1534519776804308e-05
-1.2008394345272512e-05   2.806224866267479e-06   2.1534519776804308e-05
-1.2008394345272512e-05   2.806224866267479e-06   2.1534519776804308e-05
-1.3227127071421352e-05   6.151802346634908e-07   1.8188671787594174e-05
-1.3227127071421352e-05   6.151802346634908e-07   1.8188671787594174e-05
-1.3227127071421352e-05   6.151802346634908e-07   1.8188671787594174e-05
-1.3227127071421352e-05   6.151802346634908e-07   1.8188671787594174e-05
-1.3369765340998747e-05   2.233941509372341e-06   2.096971896469184e-05
-1.3369765340998747e-05   2.233941509372341e-06   2.096971896469184e-05
-1.3369765340998747e-05   2.233941509372341e-06   2.096971896469184e-05
-1.3369765340998747e-05   2.233941509372341e-06   2.096971896469184e-05
-1.20607856404077e-05   1.723618600434464e-07   2.0025033919970523e-05
-1.20607856404077e-05   1.723618600434464e-07   2.0025033919970523e-05
-1.20607856404077e-05   1.723618600434464e-07   2.0025033919970523e-05
-1.20607856404077e-05   1.723618600434464e-07   2.0025033919970523e-05
-1.2535733076801968e-05   1.6234526045761808e-06   1.994595853390714e-05
-1.2535733076801968e-05   1.6234526045761808e-06   1.994595853390714e-05
-1.2535733076801968e-05   1.6234526045761808e-06   1.994595853390714e-05
-1.2535733076801968e-05   1.6234526045761808e-06   1.994595853390714e-05
-1.20607856404077e-05   2.233941509372341e-06   2.220666675428859e-05
-1.20607856404077e-05   2.233941509372341e-06   2.220666675428859e-05
-1.20607856404077e-05   2.233941509372341e-06   2.220666675428859e-05
-1.20607856404077e-05   2.233941509372341e-06   2.220666675428859e-05
-1.3369765340998747e-05   1.723618600434464e-07   1.8788086130373243e-05
-1.3369765340998747e-05   1.723618600434464e-07   1.8788086130373243e-05
-1.3369765340998747e-05   1.723618600434464e-07   1.8788086130373243e-05
-1.3369765340998747e-05   1.723618600434464e-07   1.8788086130373243e-05
-1.3454534534330302e-05   1.6510581543709418e-06   2.1901682781811727e-05
-1.3454534534330302e-05   1.6510581543709418e-06   2.1901682781811727e-05
-1.3454534534330302e-05   1.6510581543709418e-06   2.1901682781811727e-05
-1.3454534534330302e-05   1.6510581543709418e-06   2.1901682781811727e-05
-1.2093933514676226e-05   -2.739940252431553e-07   2.0789045723489672e-05
-1.2093933514676226e-05   -2.739940252431553e-07   2.0789045723489672e-05
-1.2093933514676226e-05   -2.739940252431553e-07   2.0789045723489672e-05
-1.2093933514676226e-05   -2.739940252431553e-07   2.0789045723489672e-05
-1.2597666700170943e-05   1.2439204459232037e-06   2.07178523499472e-05
-1.2597666700170943e-05   1.2439204459232037e-06   2.07178523499472e-05
-1.2597666700170943e-05   1.2439204459232037e-06   2.07178523499472e-05
-1.2597666700170943e-05   1.2439204459232037e-06   2.07178523499472e-05
-1.3206410140074608e-05   4.074079296322074e-06   8.227957909352508e-06
-1.3206410140074608e-05   4.074079296322074e-06   8.227957909352508e-06
-1.3206410140074608e-05   4.074079296322074e-06   8.227957909352508e-06
-1.3206410140074608e-05   4.074079296322074e-06   8.227957909352508e-06
-1.3029545845104698e-05   1.8648063990344289e-06   7.1971679959298765e-06
-1.3029545845104698e-05   1.8648063990344289e-06   7.1971679959298765e-06
-1.3029545845104698e-05   1.8648063990344289e-06   7.1971679959298765e-06
-1.3029545845104698e-05   1.8648063990344289e-06   7.1971679959298765e-06
-1.3699486131734414e-05   3.645926295194014e-06   9.014693760298889e-06
-1.3699486131734414e-05   3.645926295194014e-06   9.014693760298889e-06
-1.3699486131734414e-05   3.645926295194014e-06   9.014693760298889e-06
-1.3699486131734414e-05   3.645926295194014e-06   9.014693760298889e-06
-1.3227127071421298e-05   1.498982187349198e-06   9.515595124483635e-06
-1.3227127071421298e-05   1.498982187349198e-06   9.515595124483635e-06
-1.3227127071421298e-05   1.498982187349198e-06   9.515595124483635e-06
-1.3227127071421298e-05   1.498982187349198e-06   9.515595124483635e-06
-1.2858976820074973e-05   2.8656956831309014e-06   8.081983274770802e-06
-1.2858976820074973e-05   2.8656956831309014e-06   8.081983274770802e-06
-1.2858976820074973e-05   2.8656956831309014e-06   8.081983274770802e-06
-1.2858976820074973e-05   2.8656956831309014e-06   8.081983274770802e-06
-1.3227127071421243e-05   3.645926295194014e-06   1.030286022500528e-05
-1.3227127071421243e-05   3.645926295194014e-06   1.030286022500528e-05
-1.3227127071421243e-05   3.645926295194014e-06   1.030286022500528e-05
-1.3227127071421243e-05   3.645926295194014e-06   1.030286022500528e-05
-1.3699486131734523e-05   1.4989821873493065e-06   8.227428659776865e-06
-1.3699486131734523e-05   1.4989821873493065e-06   8.227428659776865e-06
-1.3699486131734523e-05   1.4989821873493065e-06   8.227428659776865e-06
-1.3699486131734523e-05   1.4989821873493065e-06   8.227428659776865e-06
-1.4287854828241267e-05   3.3520052869547706e-06   1.0690914329926707e-05
-1.4287854828241267e-05   3.3520052869547706e-06   1.0690914329926707e-05
-1.4287854828241267e-05   3.3520052869547706e-06   1.0690914329926707e-05
-1.4287854828241267e-05   3.3520052869547706e-06   1.0690914329926707e-05
-1.3369765340998747e-05   1.2597287268341752e-06   1.0416131120594705e-05
-1.3369765340998747e-05   1.2597287268341752e-06   1.0416131120594705e-05
-1.3369765340998747e-05   1.2597287268341752e-06   1.0416131120594705e-05
-1.3369765340998747e-05   1.2597287268341752e-06   1.0416131120594705e-05
-1.333606596125425e-05   2.651719243572251e-06   9.524771177643891e-06
-1.333606596125425e-05   2.651719243572251e-06   9.524771177643891e-06
-1.333606596125425e-05   2.651719243572251e-06   9.524771177643891e-06
-1.333606596125425e-05   2.651719243572251e-06   9.524771177643891e-06
-1.3369765340998693e-05   3.3520052869547706e-06   1.194628026599876e-05
-1.3369765340998693e-05   3.3520052869547706e-06   1.194628026599876e-05
-1.3369765340998693e-05   3.3520052869547706e-06   1.194628026599876e-05
-1.3369765340998693e-05   3.3520052869547706e-06   1.194628026599876e-05
-1.4287854828241267e-05   1.2597287268341752e-06   9.160765184522299e-06
-1.4287854828241267e-05   1.2597287268341752e-06   9.160765184522299e-06
-1.4287854828241267e-05   1.2597287268341752e-06   9.160765184522299e-06
-1.4287854828241267e-05   1.2597287268341752e-06   9.160765184522299e-06
-1.5163507739463433e-05   2.677681811490487e-06   1.3770294891024114e-05
-1.5163507739463433e-05   2.677681811490487e-06   1.3770294891024114e-05
-1.5163507739463433e-05   2.677681811490487e-06   1.3770294891024114e-05
-1.5163507739463433e-05   2.677681811490487e-06   1.3770294891024114e-05
-1.3454534534330302e-05   7.791002873993843e-07   1.2061155130256682e-05
-1.3454534534330302e-05   7.791002873993843e-07   1.2061155130256682e-05
-1.3454534534330302e-05   7.791002873993843e-07   1.2061155130256682e-05
-1.3454534534330302e-05   7.791002873993843e-07   1.2061155130256682e-05
-1.3497283236325164e-05   2.3977632258931954e-06   1.1161205203817463e-05
-1.3497283236325164e-05   2.3977632258931954e-06   1.1161205203817463e-05
-1.3497283236325164e-05   2.3977632258931954e-06   1.1161205203817463e-05
-1.3497283236325164e-05   2.3977632258931954e-06   1.1161205203817463e-05
-2.606918849494132e-05   3.451692646806357e-06   9.999595072098324e-06
-2.606918849494132e-05   3.451692646806357e-06   9.999595072098324e-06
-2.606918849494132e-05   3.451692646806357e-06   9.999595072098324e-06
-2.606918849494132e-05   3.451692646806357e-06   9.999595072098324e-06
-1.7586193046642044e-05   4.7811633300904265e-06   2.493560322923427e-05
-1.7586193046642044e-05   4.7811633300904265e-06   2.493560322923427e-05
-1.7586193046642044e-05   4.7811633300904265e-06   2.493560322923427e-05
-1.7586193046642044e-05   4.7811633300904265e-06   2.493560322923427e-05
-1.757681432459542e-05   2.697498002371618e-06   1.1372200377507988e-05
-1.757681432459542e-05   2.697498002371618e-06   1.1372200377507988e-05
-1.757681432459542e-05   2.697498002371618e-06   1.1372200377507988e-05
-1.757681432459542e-05   2.697498002371618e-06   1.1372200377507988e-05
-2.8707534521799904e-05   1.9441771723423696e-06   3.0375393204199933e-05
-2.8707534521799904e-05   1.9441771723423696e-06   3.0375393204199933e-05
-2.8707534521799904e-05   1.9441771723423696e-06   3.0375393204199933e-05
-2.8707534521799904e-05   1.9441771723423696e-06   3.0375393204199933e-05
-2.132494278683168e-05   2.834936904273083e-06   1.753661780676106e-05
-2.132494278683168e-05   2.834936904273083e-06   1.753661780676106e-05
-2.132494278683168e-05   2.834936904273083e-06   1.753661780676106e-05
-2.132494278683168e-05   2.834936904273083e-06   1.753661780676106e-05
-2.870753452179996e-05   2.697498002371618e-06   1.1824192875525624e-05
-2.870753452179996e-05   2.697498002371618e-06   1.1824192875525624e-05
-2.870753452179996e-05   2.697498002371618e-06   1.1824192875525624e-05
-2.870753452179996e-05   2.697498002371618e-06   1.1824192875525624e-05
-1.757681432459542e-05   1.9441771723423696e-06   2.9923400706182324e-05
-1.757681432459542e-05   1.9441771723423696e-06   2.9923400706182324e-05
-1.757681432459542e-05   1.9441771723423696e-06   2.9923400706182324e-05
-1.757681432459542e-05   1.9441771723423696e-06   2.9923400706182324e-05
-1.7814113698210402e-05   2.175809427865864e-06   1.2726440722880946e-05
-1.7814113698210402e-05   2.175809427865864e-06   1.2726440722880946e-05
-1.7814113698210402e-05   2.175809427865864e-06   1.2726440722880946e-05
-1.7814113698210402e-05   2.175809427865864e-06   1.2726440722880946e-05
-2.8806329071014282e-05   1.3976918656643557e-06   3.151367021487487e-05
-2.8806329071014282e-05   1.3976918656643557e-06   3.151367021487487e-05
-2.8806329071014282e-05   1.3976918656643557e-06   3.151367021487487e-05
-2.8806329071014282e-05   1.3976918656643557e-06   3.151367021487487e-05
-2.2751520222302007e-05   1.7737938998499923e-06   2.1196660913176148e-05
-2.2751520222302007e-05   1.7737938998499923e-06   2.1196660913176148e-05
-2.2751520222302007e-05   1.7737938998499923e-06   2.1196660913176148e-05
-2.2751520222302007e-05   1.7737938998499923e-06   2.1196660913176148e-05
-2.8806329071014336e-05   2.175809427865864e-06   1.3193311260201851e-05
-2.8806329071014336e-05   2.175809427865864e-06   1.3193311260201851e-05
-2.8806329071014336e-05   2.175809427865864e-06   1.3193311260201851e-05
-2.8806329071014336e-05   2.175809427865864e-06   1.3193311260201851e-05
-1.7814113698210375e-05   1.3976918656643557e-06   3.104679967755401e-05
-1.7814113698210375e-05   1.3976918656643557e-06   3.104679967755401e-05
-1.7814113698210375e-05   1.3976918656643557e-06   3.104679967755401e-05
-1.7814113698210375e-05   1.3976918656643557e-06   3.104679967755401e-05
-1.7621517812714805e-05   8.924943011286244e-07   1.509561601987483e-05
-1.7621517812714805e-05   8.924943011286244e-07   1.509561601987483e-05
-1.7621517812714805e-05   8.924943011286244e-07   1.509561601987483e-05
-1.7621517812714805e-05   8.924943011286244e-07   1.509561601987483e-05
-2.911422565272904e-05   -9.247742790589658e-07   3.534049023467769e-05
-2.911422565272904e-05   -9.247742790589658e-07   3.534049023467769e-05
-2.911422565272904e-05   -9.247742790589658e-07   3.534049023467769e-05
-2.911422565272904e-05   -9.247742790589658e-07   3.534049023467769e-05
-2.2401765088555543e-05   8.634104050329102e-07   2.3080145150600038e-05
-2.2401765088555543e-05   8.634104050329102e-07   2.3080145150600038e-05
-2.2401765088555543e-05   8.634104050329102e-07   2.3080145150600038e-05
-2.2401765088555543e-05   8.634104050329102e-07   2.3080145150600038e-05
-1.7586193046642078e-05   8.932313093699528e-07   2.29985579366662e-05
-1.7586193046642078e-05   8.932313093699528e-07   2.29985579366662e-05
-1.7586193046642078e-05   8.932313093699528e-07   2.29985579366662e-05
-1.7586193046642078e-05   8.932313093699528e-07   2.29985579366662e-05
-1.078422313205451e-05   -5.375510332303443e-06   3.0573929475974804e-05
-1.078422313205451e-05   -5.375510332303443e-06   3.0573929475974804e-05
-1.078422313205451e-05   -5.375510332303443e-06   3.0573929475974804e-05
-1.078422313205451e-05   -5.375510332303443e-06   3.0573929475974804e-05
-1.0804553010561416e-05   4.2869403516431707e-07   1.9293463888892448e-05
-1.0804553010561416e-05   4.2869403516431707e-07   1.9293463888892448e-05
-1.0804553010561416e-05   4.2869403516431707e-07   1.9293463888892448e-05
-1.0804553010561416e-05   4.2869403516431707e-07   1.9293463888892448e-05
-1.757681432459542e-05   -4.4002648268946245e-06   3.347794139618456e-05
-1.757681432459542e-05   -4.4002648268946245e-06   3.347794139618456e-05
-1.757681432459542e-05   -4.4002648268946245e-06   3.347794139618456e-05
-1.757681432459542e-05   -4.4002648268946245e-06   3.347794139618456e-05
-1.4112106893458335e-05   -2.6579105207202207e-06   2.6658016427251582e-05
-1.4112106893458335e-05   -2.6579105207202207e-06   2.6658016427251582e-05
-1.4112106893458335e-05   -2.6579105207202207e-06   2.6658016427251582e-05
-1.4112106893458335e-05   -2.6579105207202207e-06   2.6658016427251582e-05
-1.757681432459543e-05   4.2869403516431707e-07   2.2190839206127607e-05
-1.757681432459543e-05   4.2869403516431707e-07   2.2190839206127607e-05
-1.757681432459543e-05   4.2869403516431707e-07   2.2190839206127607e-05
-1.757681432459543e-05   4.2869403516431707e-07   2.2190839206127607e-05
-1.0804553010561416e-05   -4.4002648268946245e-06   3.058056607894928e-05
-1.0804553010561416e-05   -4.4002648268946245e-06   3.058056607894928e-05
-1.0804553010561416e-05   -4.4002648268946245e-06   3.058056607894928e-05
-1.0804553010561416e-05   -4.4002648268946245e-06   3.058056607894928e-05
-1.0844852978606102e-05   -1.1034597585809439e-07   1.989079386495446e-05
-1.0844852978606102e-05   -1.1034597585809439e-07   1.989079386495446e-05
-1.0844852978606102e-05   -1.1034597585809439e-07   1.989079386495446e-05
-1.0844852978606102e-05   -1.1034597585809439e-07   1.989079386495446e-05
-1.7814113698210375e-05   -4.500500815631425e-06   3.4140321301492094e-05
-1.7814113698210375e-05   -4.500500815631425e-06   3.4140321301492094e-05
-1.7814113698210375e-05   -4.500500815631425e-06   3.4140321301492094e-05
-1.7814113698210375e-05   -4.500500815631425e-06   3.4140321301492094e-05
-1.4007587598702192e-05   -2.3221027904876245e-06   2.6489072320558786e-05
-1.4007587598702192e-05   -2.3221027904876245e-06   2.6489072320558786e-05
-1.4007587598702192e-05   -2.3221027904876245e-06   2.6489072320558786e-05
-1.4007587598702192e-05   -2.3221027904876245e-06   2.6489072320558786e-05
-1.7814113698210402e-05   -1.1034597585809439e-07   2.252488676881848e-05
-1.7814113698210402e-05   -1.1034597585809439e-07   2.252488676881848e-05
-1.7814113698210402e-05   -1.1034597585809439e-07   2.252488676881848e-05
-1.7814113698210402e-05   -1.1034597585809439e-07   2.252488676881848e-05
-1.0844852978606102e-05   -4.500500815631425e-06   3.1506228397628114e-05
-1.0844852978606102e-05   -4.500500815631425e-06   3.1506228397628114e-05
-1.0844852978606102e-05   -4.500500815631425e-06   3.1506228397628114e-05
-1.0844852978606102e-05   -4.500500815631425e-06   3.1506228397628114e-05
-1.0736426471797696e-05   -8.189211633695187e-07   2.063516867990454e-05
-1.0736426471797696e-05   -8.189211633695187e-07   2.063516867990454e-05
-1.0736426471797696e-05   -8.189211633695187e-07   2.063516867990454e-05
-1.0736426471797696e-05   -8.189211633695187e-07   2.063516867990454e-05
-1.7621517812714757e-05   -4.54261103116654e-06   3.434453483544436e-05
-1.7621517812714757e-05   -4.54261103116654e-06   3.434453483544436e-05
-1.7621517812714757e-05   -4.54261103116654e-06   3.434453483544436e-05
-1.7621517812714757e-05   -4.54261103116654e-06   3.434453483544436e-05
-1.4070515571263913e-05   -2.6081611818757613e-06   2.726552785678517e-05
-1.4070515571263913e-05   -2.6081611818757613e-06   2.726552785678517e-05
-1.4070515571263913e-05   -2.6081611818757613e-06   2.726552785678517e-05
-1.4070515571263913e-05   -2.6081611818757613e-06   2.726552785678517e-05
-1.078422313205451e-05   2.4822680814388237e-07   2.1255896156123673e-05
-1.078422313205451e-05   2.4822680814388237e-07   2.1255896156123673e-05
-1.078422313205451e-05   2.4822680814388237e-07   2.1255896156123673e-05
-1.078422313205451e-05   2.4822680814388237e-07   2.1255896156123673e-05
-7.929017542289613e-06   -4.199176875603443e-06   2.3346129928816834e-05
-7.929017542289613e-06   -4.199176875603443e-06   2.3346129928816834e-05
-7.929017542289613e-06   -4.199176875603443e-06   2.3346129928816834e-05
-7.929017542289613e-06   -4.199176875603443e-06   2.3346129928816834e-05
-7.856690979084159e-06   -1.4440337553120984e-07   1.876160862449212e-05
-7.856690979084159e-06   -1.4440337553120984e-07   1.876160862449212e-05
-7.856690979084159e-06   -1.4440337553120984e-07   1.876160862449212e-05
-7.856690979084159e-06   -1.4440337553120984e-07   1.876160862449212e-05
-1.0804553010561416e-05   -4.124075570600657e-06   2.6062515327329348e-05
-1.0804553010561416e-05   -4.124075570600657e-06   2.6062515327329348e-05
-1.0804553010561416e-05   -4.124075570600657e-06   2.6062515327329348e-05
-1.0804553010561416e-05   -4.124075570600657e-06   2.6062515327329348e-05
-9.285981465971947e-06   -2.122426753379072e-06   2.2330573462680918e-05
-9.285981465971947e-06   -2.122426753379072e-06   2.2330573462680918e-05
-9.285981465971947e-06   -2.122426753379072e-06   2.2330573462680918e-05
-9.285981465971947e-06   -2.122426753379072e-06   2.2330573462680918e-05
-1.0804553010561416e-05   -1.4440337553120984e-07   2.1149411941533765e-05
-1.0804553010561416e-05   -1.4440337553120984e-07   2.1149411941533765e-05
-1.0804553010561416e-05   -1.4440337553120984e-07   2.1149411941533765e-05
-1.0804553010561416e-05   -1.4440337553120984e-07   2.1149411941533765e-05
-7.856690979084159e-06   -4.124075570600657e-06   2.3674712010287762e-05
-7.856690979084159e-06   -4.124075570600657e-06   2.3674712010287762e-05
-7.856690979084159e-06   -4.124075570600657e-06   2.3674712010287762e-05
-7.856690979084159e-06   -4.124075570600657e-06   2.3674712010287762e-05
-7.794151123521019e-06   -6.145833515742039e-07   1.9210613286896826e-05
-7.794151123521019e-06   -6.145833515742039e-07   1.9210613286896826e-05
-7.794151123521019e-06   -6.145833515742039e-07   1.9210613286896826e-05
-7.794151123521019e-06   -6.145833515742039e-07   1.9210613286896826e-05
-1.0844852978606102e-05   -4.250256547576228e-06   2.6476520296306305e-05
-1.0844852978606102e-05   -4.250256547576228e-06   2.6476520296306305e-05
-1.0844852978606102e-05   -4.250256547576228e-06   2.6476520296306305e-05
-1.0844852978606102e-05   -4.250256547576228e-06   2.6476520296306305e-05
-9.202523428072096e-06   -2.264127350665038e-06   2.2547626860602475e-05
-9.202523428072096e-06   -2.264127350665038e-06   2.2547626860602475e-05
-9.202523428072096e-06   -2.264127350665038e-06   2.2547626860602475e-05
-9.202523428072096e-06   -2.264127350665038e-06   2.2547626860602475e-05
-1.0844852978606102e-05   -6.145833515740955e-07   2.1392017204497932e-05
-1.0844852978606102e-05   -6.145833515740955e-07   2.1392017204497932e-05
-1.0844852978606102e-05   -6.145833515740955e-07   2.1392017204497932e-05
-1.0844852978606102e-05   -6.145833515740955e-07   2.1392017204497932e-05
-7.794151123521019e-06   -4.250256547576228e-06   2.429511637870511e-05
-7.794151123521019e-06   -4.250256547576228e-06   2.429511637870511e-05
-7.794151123521019e-06   -4.250256547576228e-06   2.429511637870511e-05
-7.794151123521019e-06   -4.250256547576228e-06   2.429511637870511e-05
-7.639245249044583e-06   -1.0868630987809994e-06   1.990567857117025e-05
-7.639245249044583e-06   -1.0868630987809994e-06   1.990567857117025e-05
-7.639245249044583e-06   -1.0868630987809994e-06   1.990567857117025e-05
-7.639245249044583e-06   -1.0868630987809994e-06   1.990567857117025e-05
-1.0736426471797696e-05   -4.429427526788461e-06   2.7073185932562983e-05
-1.0736426471797696e-05   -4.429427526788461e-06   2.7073185932562983e-05
-1.0736426471797696e-05   -4.429427526788461e-06   2.7073185932562983e-05
-1.0736426471797696e-05   -4.429427526788461e-06   2.7073185932562983e-05
-9.104847037527208e-06   -2.470455631556649e-06   2.3178503738306494e-05
-9.104847037527208e-06   -2.470455631556649e-06   2.3178503738306494e-05
-9.104847037527208e-06   -2.470455631556649e-06   2.3178503738306494e-05
-9.104847037527208e-06   -2.470455631556649e-06   2.3178503738306494e-05
-7.929017542289613e-06   1.1323812350705733e-06   1.4456302434468187e-05
-7.929017542289613e-06   1.1323812350705733e-06   1.4456302434468187e-05
-7.929017542289613e-06   1.1323812350705733e-06   1.4456302434468187e-05
-7.929017542289613e-06   1.1323812350705733e-06   1.4456302434468187e-05
-6.605031508810557e-06   -1.7225713314601774e-06   1.4949974283681478e-05
-6.605031508810557e-06   -1.7225713314601774e-06   1.4949974283681478e-05
-6.605031508810557e-06   -1.7225713314601774e-06   1.4949974283681478e-05
-6.605031508810557e-06   -1.7225713314601774e-06   1.4949974283681478e-05
-6.461456019836182e-06   6.151802346635992e-07   1.305262110100282e-05
-6.461456019836182e-06   6.151802346635992e-07   1.305262110100282e-05
-6.461456019836182e-06   6.151802346635992e-07   1.305262110100282e-05
-6.461456019836182e-06   6.151802346635992e-07   1.305262110100282e-05
-7.856690979084159e-06   -2.0168954098109424e-06   1.695725808643423e-05
-7.856690979084159e-06   -2.0168954098109424e-06   1.695725808643423e-05
-7.856690979084159e-06   -2.0168954098109424e-06   1.695725808643423e-05
-7.856690979084159e-06   -2.0168954098109424e-06   1.695725808643423e-05
-7.160338379084768e-06   -3.9289371518193023e-07   1.4822269402991507e-05
-7.160338379084768e-06   -3.9289371518193023e-07   1.4822269402991507e-05
-7.160338379084768e-06   -3.9289371518193023e-07   1.4822269402991507e-05
-7.160338379084768e-06   -3.9289371518193023e-07   1.4822269402991507e-05
-7.856690979084159e-06   6.151802346635992e-07   1.4631866487687512e-05
-7.856690979084159e-06   6.151802346635992e-07   1.4631866487687512e-05
-7.856690979084159e-06   6.151802346635992e-07   1.4631866487687512e-05
-7.856690979084159e-06   6.151802346635992e-07   1.4631866487687512e-05
-6.461456019836182e-06   -2.0168954098109424e-06   1.537801269974959e-05
-6.461456019836182e-06   -2.0168954098109424e-06   1.537801269974959e-05
-6.461456019836182e-06   -2.0168954098109424e-06   1.537801269974959e-05
-6.461456019836182e-06   -2.0168954098109424e-06   1.537801269974959e-05
-6.3957998519653366e-06   1.723618600434464e-07   1.3670211503935049e-05
-6.3957998519653366e-06   1.723618600434464e-07   1.3670211503935049e-05
-6.3957998519653366e-06   1.723618600434464e-07   1.3670211503935049e-05
-6.3957998519653366e-06   1.723618600434464e-07   1.3670211503935049e-05
-7.794151123521019e-06   -2.2420411065706314e-06   1.7449438736496137e-05
-7.794151123521019e-06   -2.2420411065706314e-06   1.7449438736496137e-05
-7.794151123521019e-06   -2.2420411065706314e-06   1.7449438736496137e-05
-7.794151123521019e-06   -2.2420411065706314e-06   1.7449438736496137e-05
-7.0180221364122164e-06   -7.082283255313137e-07   1.5235602756023749e-05
-7.0180221364122164e-06   -7.082283255313137e-07   1.5235602756023749e-05
-7.0180221364122164e-06   -7.082283255313137e-07   1.5235602756023749e-05
-7.0180221364122164e-06   -7.082283255313137e-07   1.5235602756023749e-05
-7.794151123520965e-06   1.723618600434464e-07   1.5118853283903279e-05
-7.794151123520965e-06   1.723618600434464e-07   1.5118853283903279e-05
-7.794151123520965e-06   1.723618600434464e-07   1.5118853283903279e-05
-7.794151123520965e-06   1.723618600434464e-07   1.5118853283903279e-05
-6.3957998519653366e-06   -2.242041106570577e-06   1.6000796956527582e-05
-6.3957998519653366e-06   -2.242041106570577e-06   1.6000796956527582e-05
-6.3957998519653366e-06   -2.242041106570577e-06   1.6000796956527582e-05
-6.3957998519653366e-06   -2.242041106570577e-06   1.6000796956527582e-05
-6.2884309132185375e-06   -2.739940252431553e-07   1.4445787263871798e-05
-6.2884309132185375e-06   -2.739940252431553e-07   1.4445787263871798e-05
-6.2884309132185375e-06   -2.739940252431553e-07   1.4445787263871798e-05
-6.2884309132185375e-06   -2.739940252431553e-07   1.4445787263871798e-05
-7.639245249044583e-06   -2.5374387066866397e-06   1.805521129911433e-05
-7.639245249044583e-06   -2.5374387066866397e-06   1.805521129911433e-05
-7.639245249044583e-06   -2.5374387066866397e-06   1.805521129911433e-05
-7.639245249044583e-06   -2.5374387066866397e-06   1.805521129911433e-05
-6.907108290703207e-06   -9.844342316995235e-07   1.590318035022038e-05
-6.907108290703207e-06   -9.844342316995235e-07   1.590318035022038e-05
-6.907108290703207e-06   -9.844342316995235e-07   1.590318035022038e-05
-6.907108290703207e-06   -9.844342316995235e-07   1.590318035022038e-05
-6.605031508810557e-06   1.8648063990343204e-06   3.288716777406146e-06
-6.605031508810557e-06   1.8648063990343204e-06   3.288716777406146e-06
-6.605031508810557e-06   1.8648063990343204e-06   3.288716777406146e-06
-6.605031508810557e-06   1.8648063990343204e-06   3.288716777406146e-06
-3.8110477743417146e-06   -1.9358968180420303e-07   6.7103186863510665e-06
-3.8110477743417146e-06   -1.9358968180420303e-07   6.7103186863510665e-06
-3.8110477743417146e-06   -1.9358968180420303e-07   6.7103186863510665e-06
-3.8110477743417146e-06   -1.9358968180420303e-07   6.7103186863510665e-06
-4.026172185380718e-06   1.4989821873493065e-06   3.3184166446981102e-06
-4.026172185380718e-06   1.4989821873493065e-06   3.3184166446981102e-06
-4.026172185380718e-06   1.4989821873493065e-06   3.3184166446981102e-06
-4.026172185380718e-06   1.4989821873493065e-06   3.3184166446981102e-06
-6.461456019836182e-06   -2.6956413464108075e-07   8.438350828651547e-06
-6.461456019836182e-06   -2.6956413464108075e-07   8.438350828651547e-06
-6.461456019836182e-06   -2.6956413464108075e-07   8.438350828651547e-06
-6.461456019836182e-06   -2.6956413464108075e-07   8.438350828651547e-06
-5.046242208907613e-06   9.58422965413033e-07   5.342868883738373e-06
-5.046242208907613e-06   9.58422965413033e-07   5.342868883738373e-06
-5.046242208907613e-06   9.58422965413033e-07   5.342868883738373e-06
-5.046242208907613e-06   9.58422965413033e-07   5.342868883738373e-06
-6.461456019836236e-06   1.498982187349198e-06   4.379544437892169e-06
-6.461456019836236e-06   1.498982187349198e-06   4.379544437892169e-06
-6.461456019836236e-06   1.498982187349198e-06   4.379544437892169e-06
-6.461456019836236e-06   1.498982187349198e-06   4.379544437892169e-06
-4.026172185380718e-06   -2.6956413464108075e-07   7.377223035457488e-06
-4.026172185380718e-06   -2.6956413464108075e-07   7.377223035457488e-06
-4.026172185380718e-06   -2.6956413464108075e-07   7.377223035457488e-06
-4.026172185380718e-06   -2.6956413464108075e-07   7.377223035457488e-06
-4.202522553794423e-06   1.2597287268341752e-06   4.318901767782525e-06
-4.202522553794423e-06   1.2597287268341752e-06   4.318901767782525e-06
-4.202522553794423e-06   1.2597287268341752e-06   4.318901767782525e-06
-4.202522553794423e-06   1.2597287268341752e-06   4.318901767782525e-06
-6.3957998519653366e-06   -3.725291504557142e-07   8.953718657774587e-06
-6.3957998519653366e-06   -3.725291504557142e-07   8.953718657774587e-06
-6.3957998519653366e-06   -3.725291504557142e-07   8.953718657774587e-06
-6.3957998519653366e-06   -3.725291504557142e-07   8.953718657774587e-06
-5.133429511702944e-06   7.772649677992034e-07   6.159891619717233e-06
-5.133429511702944e-06   7.772649677992034e-07   6.159891619717233e-06
-5.133429511702944e-06   7.772649677992034e-07   6.159891619717233e-06
-5.133429511702944e-06   7.772649677992034e-07   6.159891619717233e-06
-6.3957998519653366e-06   1.2597287268341752e-06   5.298256494156578e-06
-6.3957998519653366e-06   1.2597287268341752e-06   5.298256494156578e-06
-6.3957998519653366e-06   1.2597287268341752e-06   5.298256494156578e-06
-6.3957998519653366e-06   1.2597287268341752e-06   5.298256494156578e-06
-4.202522553794423e-06   -3.725291504557142e-07   7.974363931400642e-06
-4.202522553794423e-06   -3.725291504557142e-07   7.974363931400642e-06
-4.202522553794423e-06   -3.725291504557142e-07   7.974363931400642e-06
-4.202522553794423e-06   -3.725291504557142e-07   7.974363931400642e-06
-4.639403091219658e-06   7.791002873993843e-07   6.1072175600845185e-06
-4.639403091219658e-06   7.791002873993843e-07   6.1072175600845185e-06
-4.639403091219658e-06   7.791002873993843e-07   6.1072175600845185e-06
-4.639403091219658e-06   7.791002873993843e-07   6.1072175600845185e-06
-6.2884309132185375e-06   -4.970837431388531e-07   9.621307681738833e-06
-6.2884309132185375e-06   -4.970837431388531e-07   9.621307681738833e-06
-6.2884309132185375e-06   -4.970837431388531e-07   9.621307681738833e-06
-6.2884309132185375e-06   -4.970837431388531e-07   9.621307681738833e-06
-5.143690026631877e-06   6.549058260550038e-07   7.022212462578213e-06
-5.143690026631877e-06   6.549058260550038e-07   7.022212462578213e-06
-5.143690026631877e-06   6.549058260550038e-07   7.022212462578213e-06
-5.143690026631877e-06   6.549058260550038e-07   7.022212462578213e-06
-6.098859511400899e-05   4.7811633300904265e-06   2.603582482354382e-05
-6.098859511400899e-05   4.7811633300904265e-06   2.603582482354382e-05
-6.098859511400899e-05   4.7811633300904265e-06   2.603582482354382e-05
-6.098859511400899e-05   4.7811633300904265e-06   2.603582482354382e-05
-1.4349225814240598e-05   -2.9680192924384273e-05   8.30912932371397e-05
-1.4349225814240598e-05   -2.9680192924384273e-05   8.30912932371397e-05
-1.4349225814240598e-05   -2.9680192924384273e-05   8.30912932371397e-05
-1.4349225814240598e-05   -2.9680192924384273e-05   8.30912932371397e-05
-1.683448723898311e-05   1.9441771723423696e-06   1.4301904430374043e-05
-1.683448723898311e-05   1.9441771723423696e-06   1.4301904430374043e-05
-1.683448723898311e-05   1.9441771723423696e-06   1.4301904430374043e-05
-1.683448723898311e-05   1.9441771723423696e-06   1.4301904430374043e-05
-5.56232825736291e-05   -2.305047247147836e-05   9.394668644107631e-05
-5.56232825736291e-05   -2.305047247147836e-05   9.394668644107631e-05
-5.56232825736291e-05   -2.305047247147836e-05   9.394668644107631e-05
-5.56232825736291e-05   -2.305047247147836e-05   9.394668644107631e-05
-3.708962017910666e-05   -1.147648840250668e-05   5.6112858675489234e-05
-3.708962017910666e-05   -1.147648840250668e-05   5.6112858675489234e-05
-3.708962017910666e-05   -1.147648840250668e-05   5.6112858675489234e-05
-3.708962017910666e-05   -1.147648840250668e-05   5.6112858675489234e-05
-5.5623282573629e-05   1.9441771723423696e-06   2.9298694216666415e-05
-5.5623282573629e-05   1.9441771723423696e-06   2.9298694216666415e-05
-5.5623282573629e-05   1.9441771723423696e-06   2.9298694216666415e-05
-5.5623282573629e-05   1.9441771723423696e-06   2.9298694216666415e-05
-1.6834487238983144e-05   -2.305047247147836e-05   7.89498966547839e-05
-1.6834487238983144e-05   -2.305047247147836e-05   7.89498966547839e-05
-1.6834487238983144e-05   -2.305047247147836e-05   7.89498966547839e-05
-1.6834487238983144e-05   -2.305047247147836e-05   7.89498966547839e-05
-1.7211229576906796e-05   1.3976918656643557e-06   1.5715402905922568e-05
-1.7211229576906796e-05   1.3976918656643557e-06   1.5715402905922568e-05
-1.7211229576906796e-05   1.3976918656643557e-06   1.5715402905922568e-05
-1.7211229576906796e-05   1.3976918656643557e-06   1.5715402905922568e-05
-5.24812434083602e-05   -1.9853446787539865e-05   8.724944248360064e-05
-5.24812434083602e-05   -1.9853446787539865e-05   8.724944248360064e-05
-5.24812434083602e-05   -1.9853446787539865e-05   8.724944248360064e-05
-5.24812434083602e-05   -1.9853446787539865e-05   8.724944248360064e-05
-3.597720459976501e-05   -1.0870840116346806e-05   5.4353147133226195e-05
-3.597720459976501e-05   -1.0870840116346806e-05   5.4353147133226195e-05
-3.597720459976501e-05   -1.0870840116346806e-05   5.4353147133226195e-05
-3.597720459976501e-05   -1.0870840116346806e-05   5.4353147133226195e-05
-5.248124340836011e-05   1.3976918656643557e-06   2.846608609784502e-05
-5.248124340836011e-05   1.3976918656643557e-06   2.846608609784502e-05
-5.248124340836011e-05   1.3976918656643557e-06   2.846608609784502e-05
-5.248124340836011e-05   1.3976918656643557e-06   2.846608609784502e-05
-1.7211229576906817e-05   -1.9853446787539865e-05   7.449875929167813e-05
-1.7211229576906817e-05   -1.9853446787539865e-05   7.449875929167813e-05
-1.7211229576906817e-05   -1.9853446787539865e-05   7.449875929167813e-05
-1.7211229576906817e-05   -1.9853446787539865e-05   7.449875929167813e-05
-1.88449910467454e-05   -9.247742790589658e-07   1.9683011892548396e-05
-1.88449910467454e-05   -9.247742790589658e-07   1.9683011892548396e-05
-1.88449910467454e-05   -9.247742790589658e-07   1.9683011892548396e-05
-1.88449910467454e-05   -9.247742790589658e-07   1.9683011892548396e-05
-4.8454966558808774e-05   -1.560939509752866e-05   7.784374357040237e-05
-4.8454966558808774e-05   -1.560939509752866e-05   7.784374357040237e-05
-4.8454966558808774e-05   -1.560939509752866e-05   7.784374357040237e-05
-4.8454966558808774e-05   -1.560939509752866e-05   7.784374357040237e-05
-3.460071264063856e-05   -1.0033893563650648e-05   5.1408019453125254e-05
-3.460071264063856e-05   -1.0033893563650648e-05   5.1408019453125254e-05
-3.460071264063856e-05   -1.0033893563650648e-05   5.1408019453125254e-05
-3.460071264063856e-05   -1.0033893563650648e-05   5.1408019453125254e-05
-1.4349225814240571e-05   -5.375510332303443e-06   1.4758582302603566e-05
-1.4349225814240571e-05   -5.375510332303443e-06   1.4758582302603566e-05
-1.4349225814240571e-05   -5.375510332303443e-06   1.4758582302603566e-05
-1.4349225814240571e-05   -5.375510332303443e-06   1.4758582302603566e-05
-5.001780296772618e-06   -9.167081577048111e-06   2.8062715418203482e-05
-5.001780296772618e-06   -9.167081577048111e-06   2.8062715418203482e-05
-5.001780296772618e-06   -9.167081577048111e-06   2.8062715418203482e-05
-5.001780296772618e-06   -9.167081577048111e-06   2.8062715418203482e-05
-5.582892924764607e-06   -4.4002648268946245e-06   1.3195764825107135e-05
-5.582892924764607e-06   -4.4002648268946245e-06   1.3195764825107135e-05
-5.582892924764607e-06   -4.4002648268946245e-06   1.3195764825107135e-05
-5.582892924764607e-06   -4.4002648268946245e-06   1.3195764825107135e-05
-1.6834487238983144e-05   -1.2168065319009962e-05   3.6609102310740475e-05
-1.6834487238983144e-05   -1.2168065319009962e-05   3.6609102310740475e-05
-1.6834487238983144e-05   -1.2168065319009962e-05   3.6609102310740475e-05
-1.6834487238983144e-05   -1.2168065319009962e-05   3.6609102310740475e-05
-9.897647534635948e-06   -6.380268352142431e-06   2.1575024623374543e-05
-9.897647534635948e-06   -6.380268352142431e-06   2.1575024623374543e-05
-9.897647534635948e-06   -6.380268352142431e-06   2.1575024623374543e-05
-9.897647534635948e-06   -6.380268352142431e-06   2.1575024623374543e-05
-1.6834487238983103e-05   -4.4002648268946245e-06   1.7856445120376145e-05
-1.6834487238983103e-05   -4.4002648268946245e-06   1.7856445120376145e-05
-1.6834487238983103e-05   -4.4002648268946245e-06   1.7856445120376145e-05
-1.6834487238983103e-05   -4.4002648268946245e-06   1.7856445120376145e-05
-5.582892924764607e-06   -1.2168065319009962e-05   3.1948422015471274e-05
-5.582892924764607e-06   -1.2168065319009962e-05   3.1948422015471274e-05
-5.582892924764607e-06   -1.2168065319009962e-05   3.1948422015471274e-05
-5.582892924764607e-06   -1.2168065319009962e-05   3.1948422015471274e-05
-6.0804078220849905e-06   -4.500500815631425e-06   1.4836764439597999e-05
-6.0804078220849905e-06   -4.500500815631425e-06   1.4836764439597999e-05
-6.0804078220849905e-06   -4.500500815631425e-06   1.4836764439597999e-05
-6.0804078220849905e-06   -4.500500815631425e-06   1.4836764439597999e-05
-1.7211229576906817e-05   -1.1120767632736e-05   3.736029412123031e-05
-1.7211229576906817e-05   -1.1120767632736e-05   3.736029412123031e-05
-1.7211229576906817e-05   -1.1120767632736e-05   3.736029412123031e-05
-1.7211229576906817e-05   -1.1120767632736e-05   3.736029412123031e-05
-1.1155701774850333e-05   -7.804966043255084e-06   2.5278266830781128e-05
-1.1155701774850333e-05   -7.804966043255084e-06   2.5278266830781128e-05
-1.1155701774850333e-05   -7.804966043255084e-06   2.5278266830781128e-05
-1.1155701774850333e-05   -7.804966043255084e-06   2.5278266830781128e-05
-1.7211229576906796e-05   -4.500500815631425e-06   1.880892452986075e-05
-1.7211229576906796e-05   -4.500500815631425e-06   1.880892452986075e-05
-1.7211229576906796e-05   -4.500500815631425e-06   1.880892452986075e-05
-1.7211229576906796e-05   -4.500500815631425e-06   1.880892452986075e-05
-6.0804078220849905e-06   -1.1120767632736e-05   3.338813403096757e-05
-6.0804078220849905e-06   -1.1120767632736e-05   3.338813403096757e-05
-6.0804078220849905e-06   -1.1120767632736e-05   3.338813403096757e-05
-6.0804078220849905e-06   -1.1120767632736e-05   3.338813403096757e-05
-6.888929965688311e-06   -4.54261103116654e-06   1.6226365226341673e-05
-6.888929965688311e-06   -4.54261103116654e-06   1.6226365226341673e-05
-6.888929965688311e-06   -4.54261103116654e-06   1.6226365226341673e-05
-6.888929965688311e-06   -4.54261103116654e-06   1.6226365226341673e-05
-1.8844991046745413e-05   -1.0461031722976609e-05   3.9704186109856094e-05
-1.8844991046745413e-05   -1.0461031722976609e-05   3.9704186109856094e-05
-1.8844991046745413e-05   -1.0461031722976609e-05   3.9704186109856094e-05
-1.8844991046745413e-05   -1.0461031722976609e-05   3.9704186109856094e-05
-1.188740994690102e-05   -7.125549299655265e-06   2.6106928156122594e-05
-1.188740994690102e-05   -7.125549299655265e-06   2.6106928156122594e-05
-1.188740994690102e-05   -7.125549299655265e-06   2.6106928156122594e-05
-1.188740994690102e-05   -7.125549299655265e-06   2.6106928156122594e-05
-5.001780296772618e-06   -4.199176875603443e-06   7.924282218847115e-06
-5.001780296772618e-06   -4.199176875603443e-06   7.924282218847115e-06
-5.001780296772618e-06   -4.199176875603443e-06   7.924282218847115e-06
-5.001780296772618e-06   -4.199176875603443e-06   7.924282218847115e-06
-2.78854487991689e-06   -2.5420481605351543e-06   1.2607285142647758e-05
-2.78854487991689e-06   -2.5420481605351543e-06   1.2607285142647758e-05
-2.78854487991689e-06   -2.5420481605351543e-06   1.2607285142647758e-05
-2.78854487991689e-06   -2.5420481605351543e-06   1.2607285142647758e-05
-2.677995890590021e-06   -4.124075570600657e-06   9.151940467469846e-06
-2.677995890590021e-06   -4.124075570600657e-06   9.151940467469846e-06
-2.677995890590021e-06   -4.124075570600657e-06   9.151940467469846e-06
-2.677995890590021e-06   -4.124075570600657e-06   9.151940467469846e-06
-5.582892924764607e-06   -3.333698247296527e-06   1.351920913044471e-05
-5.582892924764607e-06   -3.333698247296527e-06   1.351920913044471e-05
-5.582892924764607e-06   -3.333698247296527e-06   1.351920913044471e-05
-5.582892924764607e-06   -3.333698247296527e-06   1.351920913044471e-05
-3.759084283227752e-06   -3.3630327116210518e-06   1.0497128739811175e-05
-3.759084283227752e-06   -3.3630327116210518e-06   1.0497128739811175e-05
-3.759084283227752e-06   -3.3630327116210518e-06   1.0497128739811175e-05
-3.759084283227752e-06   -3.3630327116210518e-06   1.0497128739811175e-05
-5.58289292476458e-06   -4.124075570600657e-06   8.677714073487282e-06
-5.58289292476458e-06   -4.124075570600657e-06   8.677714073487282e-06
-5.58289292476458e-06   -4.124075570600657e-06   8.677714073487282e-06
-5.58289292476458e-06   -4.124075570600657e-06   8.677714073487282e-06
-2.677995890590075e-06   -3.333698247296527e-06   1.39934355244273e-05
-2.677995890590075e-06   -3.333698247296527e-06   1.39934355244273e-05
-2.677995890590075e-06   -3.333698247296527e-06   1.39934355244273e-05
-2.677995890590075e-06   -3.333698247296527e-06   1.39934355244273e-05
-2.6805063541268897e-06   -4.250256547576228e-06   9.783889768176643e-06
-2.6805063541268897e-06   -4.250256547576228e-06   9.783889768176643e-06
-2.6805063541268897e-06   -4.250256547576228e-06   9.783889768176643e-06
-2.6805063541268897e-06   -4.250256547576228e-06   9.783889768176643e-06
-6.0804078220849905e-06   -4.288867497742081e-06   1.5473558784872762e-05
-6.0804078220849905e-06   -4.288867497742081e-06   1.5473558784872762e-05
-6.0804078220849905e-06   -4.288867497742081e-06   1.5473558784872762e-05
-6.0804078220849905e-06   -4.288867497742081e-06   1.5473558784872762e-05
-3.983451088672714e-06   -3.677154510105772e-06   1.1611603103270688e-05
-3.983451088672714e-06   -3.677154510105772e-06   1.1611603103270688e-05
-3.983451088672714e-06   -3.677154510105772e-06   1.1611603103270688e-05
-3.983451088672714e-06   -3.677154510105772e-06   1.1611603103270688e-05
-6.0804078220849905e-06   -4.250256547576174e-06   9.807056338276136e-06
-6.0804078220849905e-06   -4.250256547576174e-06   9.807056338276136e-06
-6.0804078220849905e-06   -4.250256547576174e-06   9.807056338276136e-06
-6.0804078220849905e-06   -4.250256547576174e-06   9.807056338276136e-06
-2.6805063541268897e-06   -4.288867497742081e-06   1.545039221477327e-05
-2.6805063541268897e-06   -4.288867497742081e-06   1.545039221477327e-05
-2.6805063541268897e-06   -4.288867497742081e-06   1.545039221477327e-05
-2.6805063541268897e-06   -4.288867497742081e-06   1.545039221477327e-05
-2.7176399650339364e-06   -4.429427526788461e-06   1.0728727171961097e-05
-2.7176399650339364e-06   -4.429427526788461e-06   1.0728727171961097e-05
-2.7176399650339364e-06   -4.429427526788461e-06   1.0728727171961097e-05
-2.7176399650339364e-06   -4.429427526788461e-06   1.0728727171961097e-05
-6.888929965688311e-06   -5.196932647084232e-06   1.8141380245229077e-05
-6.888929965688311e-06   -5.196932647084232e-06   1.8141380245229077e-05
-6.888929965688311e-06   -5.196932647084232e-06   1.8141380245229077e-05
-6.888929965688311e-06   -5.196932647084232e-06   1.8141380245229077e-05
-4.238582133427301e-06   -4.017454565034199e-06   1.3016447008897371e-05
-4.238582133427301e-06   -4.017454565034199e-06   1.3016447008897371e-05
-4.238582133427301e-06   -4.017454565034199e-06   1.3016447008897371e-05
-4.238582133427301e-06   -4.017454565034199e-06   1.3016447008897371e-05
-2.78854487991689e-06   -1.7225713314602317e-06   2.2353753426712587e-06
-2.78854487991689e-06   -1.7225713314602317e-06   2.2353753426712587e-06
-2.78854487991689e-06   -1.7225713314602317e-06   2.2353753426712587e-06
-2.78854487991689e-06   -1.7225713314602317e-06   2.2353753426712587e-06
-2.0668766648919965e-06   4.5919593721727386e-07   4.747216062252549e-06
-2.0668766648919965e-06   4.5919593721727386e-07   4.747216062252549e-06
-2.0668766648919965e-06   4.5919593721727386e-07   4.747216062252549e-06
-2.0668766648919965e-06   4.5919593721727386e-07   4.747216062252549e-06
-1.6709559376995521e-06   -2.0168954098109424e-06   3.7508846087465613e-06
-1.6709559376995521e-06   -2.0168954098109424e-06   3.7508846087465613e-06
-1.6709559376995521e-06   -2.0168954098109424e-06   3.7508846087465613e-06
-1.6709559376995521e-06   -2.0168954098109424e-06   3.7508846087465613e-06
-2.677995890590075e-06   1.7710136540597966e-07   4.112886465100236e-06
-2.677995890590075e-06   1.7710136540597966e-07   4.112886465100236e-06
-2.677995890590075e-06   1.7710136540597966e-07   4.112886465100236e-06
-2.677995890590075e-06   1.7710136540597966e-07   4.112886465100236e-06
-2.159227543945631e-06   -8.027058290802384e-07   3.836156870717705e-06
-2.159227543945631e-06   -8.027058290802384e-07   3.836156870717705e-06
-2.159227543945631e-06   -8.027058290802384e-07   3.836156870717705e-06
-2.159227543945631e-06   -8.027058290802384e-07   3.836156870717705e-06
-2.677995890590075e-06   -2.0168954098109424e-06   2.4344865436164013e-06
-2.677995890590075e-06   -2.0168954098109424e-06   2.4344865436164013e-06
-2.677995890590075e-06   -2.0168954098109424e-06   2.4344865436164013e-06
-2.677995890590075e-06   -2.0168954098109424e-06   2.4344865436164013e-06
-1.6709559376995521e-06   1.7710136540597966e-07   5.429284530230423e-06
-1.6709559376995521e-06   1.7710136540597966e-07   5.429284530230423e-06
-1.6709559376995521e-06   1.7710136540597966e-07   5.429284530230423e-06
-1.6709559376995521e-06   1.7710136540597966e-07   5.429284530230423e-06
-1.453099203572875e-06   -2.2420411065706314e-06   4.120364308644593e-06
-1.453099203572875e-06   -2.2420411065706314e-06   4.120364308644593e-06
-1.453099203572875e-06   -2.2420411065706314e-06   4.120364308644593e-06
-1.453099203572875e-06   -2.2420411065706314e-06   4.120364308644593e-06
-2.6805063541268897e-06   -2.717874687758334e-07   4.983890710224344e-06
-2.6805063541268897e-06   -2.717874687758334e-07   4.983890710224344e-06
-2.6805063541268897e-06   -2.717874687758334e-07   4.983890710224344e-06
-2.6805063541268897e-06   -2.717874687758334e-07   4.983890710224344e-06
-1.9557661118150367e-06   -1.0295185519627827e-06   4.230628956283463e-06
-1.9557661118150367e-06   -1.0295185519627827e-06   4.230628956283463e-06
-1.9557661118150367e-06   -1.0295185519627827e-06   4.230628956283463e-06
-1.9557661118150367e-06   -1.0295185519627827e-06   4.230628956283463e-06
-2.680506354126944e-06   -2.2420411065706314e-06   2.9382121259674987e-06
-2.680506354126944e-06   -2.2420411065706314e-06   2.9382121259674987e-06
-2.680506354126944e-06   -2.2420411065706314e-06   2.9382121259674987e-06
-2.680506354126944e-06   -2.2420411065706314e-06   2.9382121259674987e-06
-1.453099203572875e-06   -2.717874687758334e-07   6.166042892901194e-06
-1.453099203572875e-06   -2.717874687758334e-07   6.166042892901194e-06
-1.453099203572875e-06   -2.717874687758334e-07   6.166042892901194e-06
-1.453099203572875e-06   -2.717874687758334e-07   6.166042892901194e-06
-1.118845776757534e-06   -2.5374387066866397e-06   4.5212309393995e-06
-1.118845776757534e-06   -2.5374387066866397e-06   4.5212309393995e-06
-1.118845776757534e-06   -2.5374387066866397e-06   4.5212309393995e-06
-1.118845776757534e-06   -2.5374387066866397e-06   4.5212309393995e-06
-2.7176399650339364e-06   -1.195872466548827e-06   6.380948175777263e-06
-2.7176399650339364e-06   -1.195872466548827e-06   6.380948175777263e-06
-2.7176399650339364e-06   -1.195872466548827e-06   6.380948175777263e-06
-2.7176399650339364e-06   -1.195872466548827e-06   6.380948175777263e-06
-1.7892618056404596e-06   -1.377263839328637e-06   4.94248606712315e-06
-1.7892618056404596e-06   -1.377263839328637e-06   4.94248606712315e-06
-1.7892618056404596e-06   -1.377263839328637e-06   4.94248606712315e-06
-1.7892618056404596e-06   -1.377263839328637e-06   4.94248606712315e-06
-2.0668766648919965e-06   -1.9358968180420303e-07   -3.4601822449495433e-06
-2.0668766648919965e-06   -1.9358968180420303e-07   -3.4601822449495433e-06
-2.0668766648919965e-06   -1.9358968180420303e-07   -3.4601822449495433e-06
-2.0668766648919965e-06   -1.9358968180420303e-07   -3.4601822449495433e-06
-3.8034526127564416e-07   2.976064703395995e-07   -3.5457888096935425e-07
-3.8034526127564416e-07   2.976064703395995e-07   -3.5457888096935425e-07
-3.8034526127564416e-07   2.976064703395995e-07   -3.5457888096935425e-07
-3.8034526127564416e-07   2.976064703395995e-07   -3.5457888096935425e-07
8.590902419460499e-09   -2.6956413464108075e-07   -2.71772479612715e-06
8.590902419460499e-09   -2.6956413464108075e-07   -2.71772479612715e-06
8.590902419460499e-09   -2.6956413464108075e-07   -2.71772479612715e-06
8.590902419460499e-09   -2.6956413464108075e-07   -2.71772479612715e-06
-1.6709559376995521e-06   5.155233090661221e-07   -3.895325288201393e-07
-1.6709559376995521e-06   5.155233090661221e-07   -3.895325288201393e-07
-1.6709559376995521e-06   5.155233090661221e-07   -3.895325288201393e-07
-1.6709559376995521e-06   5.155233090661221e-07   -3.895325288201393e-07
-9.391331930549323e-07   1.3711072084754525e-07   -1.3821895502969753e-06
-9.391331930549323e-07   1.3711072084754525e-07   -1.3821895502969753e-06
-9.391331930549323e-07   1.3711072084754525e-07   -1.3821895502969753e-06
-9.391331930549323e-07   1.3711072084754525e-07   -1.3821895502969753e-06
-1.6709559376995521e-06   -2.6956413464102654e-07   -3.1887772623517547e-06
-1.6709559376995521e-06   -2.6956413464102654e-07   -3.1887772623517547e-06
-1.6709559376995521e-06   -2.6956413464102654e-07   -3.1887772623517547e-06
-1.6709559376995521e-06   -2.6956413464102654e-07   -3.1887772623517547e-06
8.590902419352078e-09   5.155233090661221e-07   8.151993740419458e-08
8.590902419352078e-09   5.155233090661221e-07   8.151993740419458e-08
8.590902419352078e-09   5.155233090661221e-07   8.151993740419458e-08
8.590902419352078e-09   5.155233090661221e-07   8.151993740419458e-08
2.1295177070595334e-07   -3.725291504557142e-07   -2.437385520819794e-06
2.1295177070595334e-07   -3.725291504557142e-07   -2.437385520819794e-06
2.1295177070595334e-07   -3.725291504557142e-07   -2.437385520819794e-06
2.1295177070595334e-07   -3.725291504557142e-07   -2.437385520819794e-06
-1.453099203572875e-06   4.430182983586125e-07   -1.4996236631051752e-07
-1.453099203572875e-06   4.430182983586125e-07   -1.4996236631051752e-07
-1.453099203572875e-06   4.430182983586125e-07   -1.4996236631051752e-07
-1.453099203572875e-06   4.430182983586125e-07   -1.4996236631051752e-07
-6.514455765266618e-07   8.967840047828198e-08   -1.2740478059923479e-06
-6.514455765266618e-07   8.967840047828198e-08   -1.2740478059923479e-06
-6.514455765266618e-07   8.967840047828198e-08   -1.2740478059923479e-06
-6.514455765266618e-07   8.967840047828198e-08   -1.2740478059923479e-06
-1.453099203572875e-06   -3.725291504557142e-07   -2.9267139901084562e-06
-1.453099203572875e-06   -3.725291504557142e-07   -2.9267139901084562e-06
-1.453099203572875e-06   -3.725291504557142e-07   -2.9267139901084562e-06
-1.453099203572875e-06   -3.725291504557142e-07   -2.9267139901084562e-06
2.1295177070595334e-07   4.430182983586125e-07   3.393661029780365e-07
2.1295177070595334e-07   4.430182983586125e-07   3.393661029780365e-07
2.1295177070595334e-07   4.430182983586125e-07   3.393661029780365e-07
2.1295177070595334e-07   4.430182983586125e-07   3.393661029780365e-07
4.676672140114515e-07   -4.970837431388531e-07   -2.0265530920683715e-06
4.676672140114515e-07   -4.970837431388531e-07   -2.0265530920683715e-06
4.676672140114515e-07   -4.970837431388531e-07   -2.0265530920683715e-06
4.676672140114515e-07   -4.970837431388531e-07   -2.0265530920683715e-06
-1.118845776757534e-06   3.830042185969408e-07   8.958244883828376e-08
-1.118845776757534e-06   3.830042185969408e-07   8.958244883828376e-08
-1.118845776757534e-06   3.830042185969408e-07   8.958244883828376e-08
-1.118845776757534e-06   3.830042185969408e-07   8.958244883828376e-08
-3.909292879060813e-07   3.258678247315856e-08   -9.133612375732299e-07
-3.909292879060813e-07   3.258678247315856e-08   -9.133612375732299e-07
-3.909292879060813e-07   3.258678247315856e-08   -9.133612375732299e-07
-3.909292879060813e-07   3.258678247315856e-08   -9.133612375732299e-07
              </DataArray>   
             <DataArray type="Float64" NumberOfComponents="3" Name="Stress" format="ascii">   
-3.164314113412045   -0.7910785283530113   -0.7910785283530113
-3.164314113412045   -0.7910785283530113   -0.7910785283530113
-3.164314113412045   -0.7910785283530113   -0.7910785283530113
-3.164314113412045   -0.7910785283530113   -0.7910785283530113
-1.8311574830631254   -0.058020382197102705   -0.03671574003645264
-1.8311574830631254   -0.058020382197102705   -0.03671574003645264
-1.8311574830631254   -0.058020382197102705   -0.03671574003645264
-1.8311574830631254   -0.058020382197102705   -0.03671574003645264
-1.9737872631292561   -0.49344681578231403   -0.49344681578231403
-1.9737872631292561   -0.49344681578231403   -0.49344681578231403
-1.9737872631292561   -0.49344681578231403   -0.49344681578231403
-1.9737872631292561   -0.49344681578231403   -0.49344681578231403
-3.049737971837774   -0.25045310551777655   -0.09578207696291569
-3.049737971837774   -0.25045310551777655   -0.09578207696291569
-3.049737971837774   -0.25045310551777655   -0.09578207696291569
-3.049737971837774   -0.25045310551777655   -0.09578207696291569
-2.391894472241587   -0.3921392386038902   -0.00660502538613697
-2.391894472241587   -0.3921392386038902   -0.00660502538613697
-2.391894472241587   -0.3921392386038902   -0.00660502538613697
-2.391894472241587   -0.3921392386038902   -0.00660502538613697
-3.3116565948240453   -0.8279141487060113   -0.8279141487060113
-3.3116565948240453   -0.8279141487060113   -0.8279141487060113
-3.3116565948240453   -0.8279141487060113   -0.8279141487060113
-3.3116565948240453   -0.8279141487060113   -0.8279141487060113
-1.773983544086547   0.021899323462363618   -0.009774359813445876
-1.773983544086547   0.021899323462363618   -0.009774359813445876
-1.773983544086547   0.021899323462363618   -0.009774359813445876
-1.773983544086547   0.021899323462363618   -0.009774359813445876
-1.979399267494546   -0.4948498168736365   -0.4948498168736365
-1.979399267494546   -0.4948498168736365   -0.4948498168736365
-1.979399267494546   -0.4948498168736365   -0.4948498168736365
-1.979399267494546   -0.4948498168736365   -0.4948498168736365
-3.152285019260179   -0.25286973643014377   -0.1403592170722665
-3.152285019260179   -0.25286973643014377   -0.1403592170722665
-3.152285019260179   -0.25286973643014377   -0.1403592170722665
-3.152285019260179   -0.25286973643014377   -0.1403592170722665
-2.481155567002937   -0.36922160090153555   -0.1316805438963385
-2.481155567002937   -0.36922160090153555   -0.1316805438963385
-2.481155567002937   -0.36922160090153555   -0.1316805438963385
-2.481155567002937   -0.36922160090153555   -0.1316805438963385
-3.415154698399669   -0.8537886745999173   -0.8537886745999173
-3.415154698399669   -0.8537886745999173   -0.8537886745999173
-3.415154698399669   -0.8537886745999173   -0.8537886745999173
-3.415154698399669   -0.8537886745999173   -0.8537886745999173
-1.7688699787370028   0.05372873091419528   0.009218079126248432
-1.7688699787370028   0.05372873091419528   0.009218079126248432
-1.7688699787370028   0.05372873091419528   0.009218079126248432
-1.7688699787370028   0.05372873091419528   0.009218079126248432
-1.9784102272881263   -0.4946025568220316   -0.4946025568220316
-1.9784102272881263   -0.4946025568220316   -0.4946025568220316
-1.9784102272881263   -0.4946025568220316   -0.4946025568220316
-1.9784102272881263   -0.4946025568220316   -0.4946025568220316
-3.335468311705062   -0.22182775190813508   -0.08418576448407028
-3.335468311705062   -0.22182775190813508   -0.08418576448407028
-3.335468311705062   -0.22182775190813508   -0.08418576448407028
-3.335468311705062   -0.22182775190813508   -0.08418576448407028
-2.547401420930787   -0.36348993722276696   -0.23799608463364902
-2.547401420930787   -0.36348993722276696   -0.23799608463364902
-2.547401420930787   -0.36348993722276696   -0.23799608463364902
-2.547401420930787   -0.36348993722276696   -0.23799608463364902
-2.013566954018242   -0.5033917385045605   -0.5033917385045605
-2.013566954018242   -0.5033917385045605   -0.5033917385045605
-2.013566954018242   -0.5033917385045605   -0.5033917385045605
-2.013566954018242   -0.5033917385045605   -0.5033917385045605
-0.8400561150157331   -0.05589939881092562   -0.018166587798454405
-0.8400561150157331   -0.05589939881092562   -0.018166587798454405
-0.8400561150157331   -0.05589939881092562   -0.018166587798454405
-0.8400561150157331   -0.05589939881092562   -0.018166587798454405
-0.8819410450650602   -0.22048526126626505   -0.22048526126626505
-0.8819410450650602   -0.22048526126626505   -0.22048526126626505
-0.8819410450650602   -0.22048526126626505   -0.22048526126626505
-0.8819410450650602   -0.22048526126626505   -0.22048526126626505
-1.8332638876142764   -0.2156198412353893   -0.06865691275433937
-1.8332638876142764   -0.2156198412353893   -0.06865691275433937
-1.8332638876142764   -0.2156198412353893   -0.06865691275433937
-1.8332638876142764   -0.2156198412353893   -0.06865691275433937
-1.3520916366048659   -0.256138062674117   0.010572877587205595
-1.3520916366048659   -0.256138062674117   0.010572877587205595
-1.3520916366048659   -0.256138062674117   0.010572877587205595
-1.3520916366048659   -0.256138062674117   0.010572877587205595
-1.9737872631292543   -0.4934468157823136   -0.4934468157823136
-1.9737872631292543   -0.4934468157823136   -0.4934468157823136
-1.9737872631292543   -0.4934468157823136   -0.4934468157823136
-1.9737872631292543   -0.4934468157823136   -0.4934468157823136
-0.792608383272792   0.006150999557947956   -0.0004582131291373387
-0.792608383272792   0.006150999557947956   -0.0004582131291373387
-0.792608383272792   0.006150999557947956   -0.0004582131291373387
-0.792608383272792   0.006150999557947956   -0.0004582131291373387
-0.862305107751159   -0.21557627693778975   -0.21557627693778975
-0.862305107751159   -0.21557627693778975   -0.21557627693778975
-0.862305107751159   -0.21557627693778975   -0.21557627693778975
-0.862305107751159   -0.21557627693778975   -0.21557627693778975
-1.8286976873087522   -0.1759122330566206   -0.06027949976168378
-1.8286976873087522   -0.1759122330566206   -0.06027949976168378
-1.8286976873087522   -0.1759122330566206   -0.06027949976168378
-1.8286976873087522   -0.1759122330566206   -0.06027949976168378
-1.3333136009740956   -0.2156441524473816   -0.0697160179421737
-1.3333136009740956   -0.2156441524473816   -0.0697160179421737
-1.3333136009740956   -0.2156441524473816   -0.0697160179421737
-1.3333136009740956   -0.2156441524473816   -0.0697160179421737
-1.979399267494546   -0.4948498168736365   -0.4948498168736365
-1.979399267494546   -0.4948498168736365   -0.4948498168736365
-1.979399267494546   -0.4948498168736365   -0.4948498168736365
-1.979399267494546   -0.4948498168736365   -0.4948498168736365
-0.761184343587095   0.05378049085749648   0.020670776087244304
-0.761184343587095   0.05378049085749648   0.020670776087244304
-0.761184343587095   0.05378049085749648   0.020670776087244304
-0.761184343587095   0.05378049085749648   0.020670776087244304
-0.8444325775148266   -0.21110814437870665   -0.21110814437870665
-0.8444325775148266   -0.21110814437870665   -0.21110814437870665
-0.8444325775148266   -0.21110814437870665   -0.21110814437870665
-0.8444325775148266   -0.21110814437870665   -0.21110814437870665
-1.8153126524184247   -0.13575086458558505   -0.03796637470999237
-1.8153126524184247   -0.13575086458558505   -0.03796637470999237
-1.8153126524184247   -0.13575086458558505   -0.03796637470999237
-1.8153126524184247   -0.13575086458558505   -0.03796637470999237
-1.3399596606171842   -0.19084565299533873   -0.15533099881949558
-1.3399596606171842   -0.19084565299533873   -0.15533099881949558
-1.3399596606171842   -0.19084565299533873   -0.15533099881949558
-1.3399596606171842   -0.19084565299533873   -0.15533099881949558
-0.9169365752153983   -0.22923414380384957   -0.22923414380384957
-0.9169365752153983   -0.22923414380384957   -0.22923414380384957
-0.9169365752153983   -0.22923414380384957   -0.22923414380384957
-0.9169365752153983   -0.22923414380384957   -0.22923414380384957
0.10889658196220245   0.007137996014977138   0.0008905788196145337
0.10889658196220245   0.007137996014977138   0.0008905788196145337
0.10889658196220245   0.007137996014977138   0.0008905788196145337
0.10889658196220245   0.007137996014977138   0.0008905788196145337
0.14152853705663784   0.03538213426415946   0.03538213426415946
0.14152853705663784   0.03538213426415946   0.03538213426415946
0.14152853705663784   0.03538213426415946   0.03538213426415946
0.14152853705663784   0.03538213426415946   0.03538213426415946
-0.829099146910181   -0.1433047644524858   -0.03345626730565548
-0.829099146910181   -0.1433047644524858   -0.03345626730565548
-0.829099146910181   -0.1433047644524858   -0.03345626730565548
-0.829099146910181   -0.1433047644524858   -0.03345626730565548
-0.3548870021705392   -0.09002875665367198   0.06026183165817976
-0.3548870021705392   -0.09002875665367198   0.06026183165817976
-0.3548870021705392   -0.09002875665367198   0.06026183165817976
-0.3548870021705392   -0.09002875665367198   0.06026183165817976
-0.8819410450650602   -0.22048526126626505   -0.22048526126626505
-0.8819410450650602   -0.22048526126626505   -0.22048526126626505
-0.8819410450650602   -0.22048526126626505   -0.22048526126626505
-0.8819410450650602   -0.22048526126626505   -0.22048526126626505
0.1440452149413503   0.06223741080777301   0.0211102471441071
0.1440452149413503   0.06223741080777301   0.0211102471441071
0.1440452149413503   0.06223741080777301   0.0211102471441071
0.1440452149413503   0.06223741080777301   0.0211102471441071
0.15913608010199792   0.03978402002549948   0.03978402002549948
0.15913608010199792   0.03978402002549948   0.03978402002549948
0.15913608010199792   0.03978402002549948   0.03978402002549948
0.15913608010199792   0.03978402002549948   0.03978402002549948
-0.7998599490162348   -0.09649002834296366   -0.022436731858008416
-0.7998599490162348   -0.09649002834296366   -0.022436731858008416
-0.7998599490162348   -0.09649002834296366   -0.022436731858008416
-0.7998599490162348   -0.09649002834296366   -0.022436731858008416
-0.34050696782337136   -0.05565155110168374   -0.020572116848286276
-0.34050696782337136   -0.05565155110168374   -0.020572116848286276
-0.34050696782337136   -0.05565155110168374   -0.020572116848286276
-0.34050696782337136   -0.05565155110168374   -0.020572116848286276
-0.862305107751159   -0.21557627693778975   -0.21557627693778975
-0.862305107751159   -0.21557627693778975   -0.21557627693778975
-0.862305107751159   -0.21557627693778975   -0.21557627693778975
-0.862305107751159   -0.21557627693778975   -0.21557627693778975
0.17226882377978378   0.10955785356318956   0.0356739048767373
0.17226882377978378   0.10955785356318956   0.0356739048767373
0.17226882377978378   0.10955785356318956   0.0356739048767373
0.17226882377978378   0.10955785356318956   0.0356739048767373
0.18284224229729168   0.04571056057432292   0.04571056057432292
0.18284224229729168   0.04571056057432292   0.04571056057432292
0.18284224229729168   0.04571056057432292   0.04571056057432292
0.18284224229729168   0.04571056057432292   0.04571056057432292
-0.7680379346929825   -0.04065586195230819   0.000412787304105669
-0.7680379346929825   -0.04065586195230819   0.000412787304105669
-0.7680379346929825   -0.04065586195230819   0.000412787304105669
-0.7680379346929825   -0.04065586195230819   0.000412787304105669
-0.3303973493075225   -0.02251089103232505   -0.1006844082340892
-0.3303973493075225   -0.02251089103232505   -0.1006844082340892
-0.3303973493075225   -0.02251089103232505   -0.1006844082340892
-0.3303973493075225   -0.02251089103232505   -0.1006844082340892
0.11921207443920478   0.029803018609801196   0.029803018609801196
0.11921207443920478   0.029803018609801196   0.029803018609801196
0.11921207443920478   0.029803018609801196   0.029803018609801196
0.11921207443920478   0.029803018609801196   0.029803018609801196
1.1476365923468173   0.10529172806488013   0.035354815527189026
1.1476365923468173   0.10529172806488013   0.035354815527189026
1.1476365923468173   0.10529172806488013   0.035354815527189026
1.1476365923468173   0.10529172806488013   0.035354815527189026
1.2460325791907418   0.31150814479768546   0.31150814479768546
1.2460325791907418   0.31150814479768546   0.31150814479768546
1.2460325791907418   0.31150814479768546   0.31150814479768546
1.2460325791907418   0.31150814479768546   0.31150814479768546
0.10782974159038475   -0.08081610028767033   -0.016913608515278504
0.10782974159038475   -0.08081610028767033   -0.016913608515278504
0.10782974159038475   -0.08081610028767033   -0.016913608515278504
0.10782974159038475   -0.08081610028767033   -0.016913608515278504
0.6544349404943929   0.08147347210661894   0.1189007596979655
0.6544349404943929   0.08147347210661894   0.1189007596979655
0.6544349404943929   0.08147347210661894   0.1189007596979655
0.6544349404943929   0.08147347210661894   0.1189007596979655
0.14152853705663834   0.035382134264159586   0.035382134264159586
0.14152853705663834   0.035382134264159586   0.035382134264159586
0.14152853705663834   0.035382134264159586   0.035382134264159586
0.14152853705663834   0.035382134264159586   0.035382134264159586
1.1611809986455386   0.14415712516690576   0.054601261702448334
1.1611809986455386   0.14415712516690576   0.054601261702448334
1.1611809986455386   0.14415712516690576   0.054601261702448334
1.1611809986455386   0.14415712516690576   0.054601261702448334
1.2406302823142648   0.3101575705785662   0.3101575705785662
1.2406302823142648   0.3101575705785662   0.3101575705785662
1.2406302823142648   0.3101575705785662   0.3101575705785662
1.2406302823142648   0.3101575705785662   0.3101575705785662
0.13623260706319987   -0.03504130712492924   9.198198193656124e-05
0.13623260706319987   -0.03504130712492924   9.198198193656124e-05
0.13623260706319987   -0.03504130712492924   9.198198193656124e-05
0.13623260706319987   -0.03504130712492924   9.198198193656124e-05
0.6495383147426688   0.10690208595385411   0.03093214417495796
0.6495383147426688   0.10690208595385411   0.03093214417495796
0.6495383147426688   0.10690208595385411   0.03093214417495796
0.6495383147426688   0.10690208595385411   0.03093214417495796
0.15913608010199806   0.039784020025499515   0.039784020025499515
0.15913608010199806   0.039784020025499515   0.039784020025499515
0.15913608010199806   0.039784020025499515   0.039784020025499515
0.15913608010199806   0.039784020025499515   0.039784020025499515
1.1670652466765088   0.1846706808291798   0.06781928213917286
1.1670652466765088   0.1846706808291798   0.06781928213917286
1.1670652466765088   0.1846706808291798   0.06781928213917286
1.1670652466765088   0.1846706808291798   0.06781928213917286
1.2645944095366184   0.3161486023841546   0.3161486023841546
1.2645944095366184   0.3161486023841546   0.3161486023841546
1.2645944095366184   0.3161486023841546   0.3161486023841546
1.2645944095366184   0.3161486023841546   0.3161486023841546
0.17348482147149233   0.025523736097672008   0.019110280921975493
0.17348482147149233   0.025523736097672008   0.019110280921975493
0.17348482147149233   0.025523736097672008   0.019110280921975493
0.17348482147149233   0.025523736097672008   0.019110280921975493
0.6595531380768281   0.1450068414369674   -0.05063475273971133
0.6595531380768281   0.1450068414369674   -0.05063475273971133
0.6595531380768281   0.1450068414369674   -0.05063475273971133
0.6595531380768281   0.1450068414369674   -0.05063475273971133
1.243896981809337   0.31097424545233426   0.31097424545233426
1.243896981809337   0.31097424545233426   0.31097424545233426
1.243896981809337   0.31097424545233426   0.31097424545233426
1.243896981809337   0.31097424545233426   0.31097424545233426
2.579883825628661   0.19663383265109763   0.06736200700837573
2.579883825628661   0.19663383265109763   0.06736200700837573
2.579883825628661   0.19663383265109763   0.06736200700837573
2.579883825628661   0.19663383265109763   0.06736200700837573
2.6369457326819337   0.6592364331704834   0.6592364331704834
2.6369457326819337   0.6592364331704834   0.6592364331704834
2.6369457326819337   0.6592364331704834   0.6592364331704834
2.6369457326819337   0.6592364331704834   0.6592364331704834
1.1075770267314535   -0.0629550245768421   -0.006306448124228342
1.1075770267314535   -0.0629550245768421   -0.006306448124228342
1.1075770267314535   -0.0629550245768421   -0.006306448124228342
1.1075770267314535   -0.0629550245768421   -0.006306448124228342
1.8400060884520377   0.2604026027461146   0.2077317319087152
1.8400060884520377   0.2604026027461146   0.2077317319087152
1.8400060884520377   0.2604026027461146   0.2077317319087152
1.8400060884520377   0.2604026027461146   0.2077317319087152
1.2460325791907407   0.3115081447976852   0.3115081447976852
1.2460325791907407   0.3115081447976852   0.3115081447976852
1.2460325791907407   0.3115081447976852   0.3115081447976852
1.2460325791907407   0.3115081447976852   0.3115081447976852
2.4436625335467212   0.22994561712003941   0.12211125354490567
2.4436625335467212   0.22994561712003941   0.12211125354490567
2.4436625335467212   0.22994561712003941   0.12211125354490567
2.4436625335467212   0.22994561712003941   0.12211125354490567
2.5580951842456776   0.6395237960614194   0.6395237960614194
2.5580951842456776   0.6395237960614194   0.6395237960614194
2.5580951842456776   0.6395237960614194   0.6395237960614194
2.5580951842456776   0.6395237960614194   0.6395237960614194
1.111388999714155   -0.03475225727183906   0.008860985428422466
1.111388999714155   -0.03475225727183906   0.008860985428422466
1.111388999714155   -0.03475225727183906   0.008860985428422466
1.111388999714155   -0.03475225727183906   0.008860985428422466
1.7853602039748568   0.2679010680791145   0.09961248406323031
1.7853602039748568   0.2679010680791145   0.09961248406323031
1.7853602039748568   0.2679010680791145   0.09961248406323031
1.7853602039748568   0.2679010680791145   0.09961248406323031
1.2406302823142648   0.3101575705785662   0.3101575705785662
1.2406302823142648   0.3101575705785662   0.3101575705785662
1.2406302823142648   0.3101575705785662   0.3101575705785662
1.2406302823142648   0.3101575705785662   0.3101575705785662
2.364923228419022   0.2306832949844756   0.08250451800512515
2.364923228419022   0.2306832949844756   0.08250451800512515
2.364923228419022   0.2306832949844756   0.08250451800512515
2.364923228419022   0.2306832949844756   0.08250451800512515
2.4407548313322978   0.6101887078330744   0.6101887078330744
2.4407548313322978   0.6101887078330744   0.6101887078330744
2.4407548313322978   0.6101887078330744   0.6101887078330744
2.4407548313322978   0.6101887078330744   0.6101887078330744
1.1524505590427323   0.036346453210247265   0.035231499088630824
1.1524505590427323   0.036346453210247265   0.035231499088630824
1.1524505590427323   0.036346453210247265   0.035231499088630824
1.1524505590427323   0.036346453210247265   0.035231499088630824
1.709488755565833   0.290453752638795   -0.026126480514405966
1.709488755565833   0.290453752638795   -0.026126480514405966
1.709488755565833   0.290453752638795   -0.026126480514405966
1.709488755565833   0.290453752638795   -0.026126480514405966
-2.501493896281112   -0.17911775519064133   0.028133808213842953
-2.501493896281112   -0.17911775519064133   0.028133808213842953
-2.501493896281112   -0.17911775519064133   0.028133808213842953
-2.501493896281112   -0.17911775519064133   0.028133808213842953
-1.5922125482062879   -0.03670607849667623   -0.010287721384411058
-1.5922125482062879   -0.03670607849667623   -0.010287721384411058
-1.5922125482062879   -0.03670607849667623   -0.010287721384411058
-1.5922125482062879   -0.03670607849667623   -0.010287721384411058
-1.603025917968207   0.06473817763865614   0.03346228494968241
-1.603025917968207   0.06473817763865614   0.03346228494968241
-1.603025917968207   0.06473817763865614   0.03346228494968241
-1.603025917968207   0.06473817763865614   0.03346228494968241
-2.538750140074143   -0.17316223861013852   -0.030049916989744588
-2.538750140074143   -0.17316223861013852   -0.030049916989744588
-2.538750140074143   -0.17316223861013852   -0.030049916989744588
-2.538750140074143   -0.17316223861013852   -0.030049916989744588
-1.9778492878656146   -0.06753689644469102   -0.007826637131513894
-1.9778492878656146   -0.06753689644469102   -0.007826637131513894
-1.9778492878656146   -0.06753689644469102   -0.007826637131513894
-1.9778492878656146   -0.06753689644469102   -0.007826637131513894
-2.520307832641252   -0.12300898831081247   0.012008369875383965
-2.520307832641252   -0.12300898831081247   0.012008369875383965
-2.520307832641252   -0.12300898831081247   0.012008369875383965
-2.520307832641252   -0.12300898831081247   0.012008369875383965
-1.6241333498938746   0.01191980284655797   -0.019256499886530234
-1.6241333498938746   0.01191980284655797   -0.019256499886530234
-1.6241333498938746   0.01191980284655797   -0.019256499886530234
-1.6241333498938746   0.01191980284655797   -0.019256499886530234
-1.6049657936931578   0.09228730959610942   0.0381067874919801
-1.6049657936931578   0.09228730959610942   0.0381067874919801
-1.6049657936931578   0.09228730959610942   0.0381067874919801
-1.6049657936931578   0.09228730959610942   0.0381067874919801
-2.554180757754307   -0.15253642701238795   -0.03967202988162967
-2.554180757754307   -0.15253642701238795   -0.03967202988162967
-2.554180757754307   -0.15253642701238795   -0.03967202988162967
-2.554180757754307   -0.15253642701238795   -0.03967202988162967
-2.0334277279042388   -0.04522448970398585   -0.019277067878085488
-2.0334277279042388   -0.04522448970398585   -0.019277067878085488
-2.0334277279042388   -0.04522448970398585   -0.019277067878085488
-2.0334277279042388   -0.04522448970398585   -0.019277067878085488
-2.508339918451968   -0.07384143744209759   0.11083717705975504
-2.508339918451968   -0.07384143744209759   0.11083717705975504
-2.508339918451968   -0.07384143744209759   0.11083717705975504
-2.508339918451968   -0.07384143744209759   0.11083717705975504
-1.6317067327546049   0.032692220266710315   -0.03600281848584004
-1.6317067327546049   0.032692220266710315   -0.03600281848584004
-1.6317067327546049   0.032692220266710315   -0.03600281848584004
-1.6317067327546049   0.032692220266710315   -0.03600281848584004
-1.5758052072685773   0.1607907076285353   0.06924342876280076
-1.5758052072685773   0.1607907076285353   0.06924342876280076
-1.5758052072685773   0.1607907076285353   0.06924342876280076
-1.5758052072685773   0.1607907076285353   0.06924342876280076
-2.483653710934268   -0.12310322273321078   -0.06490716154527658
-2.483653710934268   -0.12310322273321078   -0.06490716154527658
-2.483653710934268   -0.12310322273321078   -0.06490716154527658
-2.483653710934268   -0.12310322273321078   -0.06490716154527658
-1.955707707037341   0.018213560264766837   0.043334366722648815
-1.955707707037341   0.018213560264766837   0.043334366722648815
-1.955707707037341   0.018213560264766837   0.043334366722648815
-1.955707707037341   0.018213560264766837   0.043334366722648815
-1.6317750494868828   -0.21630927450189774   -0.028497031782163507
-1.6317750494868828   -0.21630927450189774   -0.028497031782163507
-1.6317750494868828   -0.21630927450189774   -0.028497031782163507
-1.6317750494868828   -0.21630927450189774   -0.028497031782163507
-0.7517120161776809   -0.0166927490100669   0.007983095904451835
-0.7517120161776809   -0.0166927490100669   0.007983095904451835
-0.7517120161776809   -0.0166927490100669   0.007983095904451835
-0.7517120161776809   -0.0166927490100669   0.007983095904451835
-0.7627454159601179   0.01448991875133443   0.01137341552512082
-0.7627454159601179   0.01448991875133443   0.01137341552512082
-0.7627454159601179   0.01448991875133443   0.01137341552512082
-0.7627454159601179   0.01448991875133443   0.01137341552512082
-1.6641332675598535   -0.15833802984508716   -0.04899825552480634
-1.6641332675598535   -0.15833802984508716   -0.04899825552480634
-1.6641332675598535   -0.15833802984508716   -0.04899825552480634
-1.6641332675598535   -0.15833802984508716   -0.04899825552480634
-1.2025567578281222   -0.0976306204615939   -0.027559129403349876
-1.2025567578281222   -0.0976306204615939   -0.027559129403349876
-1.2025567578281222   -0.0976306204615939   -0.027559129403349876
-1.2025567578281222   -0.0976306204615939   -0.027559129403349876
-1.6625714552204913   -0.1730461807836522   -0.026481042889438908
-1.6625714552204913   -0.1730461807836522   -0.026481042889438908
-1.6625714552204913   -0.1730461807836522   -0.026481042889438908
-1.6625714552204913   -0.1730461807836522   -0.026481042889438908
-0.7613410216535598   0.03216427633581953   0.0007210294734334571
-0.7613410216535598   0.03216427633581953   0.0007210294734334571
-0.7613410216535598   0.03216427633581953   0.0007210294734334571
-0.7613410216535598   0.03216427633581953   0.0007210294734334571
-0.7599003698228001   0.052993508669542166   0.015451891383179692
-0.7599003698228001   0.052993508669542166   0.015451891383179692
-0.7599003698228001   0.052993508669542166   0.015451891383179692
-0.7599003698228001   0.052993508669542166   0.015451891383179692
-1.6648527296073505   -0.11604687173694567   -0.05299371074592728
-1.6648527296073505   -0.11604687173694567   -0.05299371074592728
-1.6648527296073505   -0.11604687173694567   -0.05299371074592728
-1.6648527296073505   -0.11604687173694567   -0.05299371074592728
-1.2002543644943446   -0.054339738141857497   -0.013101302309991292
-1.2002543644943446   -0.054339738141857497   -0.013101302309991292
-1.2002543644943446   -0.054339738141857497   -0.013101302309991292
-1.2002543644943446   -0.054339738141857497   -0.013101302309991292
-1.658346922054119   -0.13090707416391717   -0.005604470552798044
-1.658346922054119   -0.13090707416391717   -0.005604470552798044
-1.658346922054119   -0.13090707416391717   -0.005604470552798044
-1.658346922054119   -0.13090707416391717   -0.005604470552798044
-0.7608986568708047   0.0733612316017441   -0.009907266789032004
-0.7608986568708047   0.0733612316017441   -0.009907266789032004
-0.7608986568708047   0.0733612316017441   -0.009907266789032004
-0.7608986568708047   0.0733612316017441   -0.009907266789032004
-0.7472022305365023   0.09167366128955268   0.031045832783773902
-0.7472022305365023   0.09167366128955268   0.031045832783773902
-0.7472022305365023   0.09167366128955268   0.031045832783773902
-0.7472022305365023   0.09167366128955268   0.031045832783773902
-1.64705826319894   -0.06718297886036212   -0.059048164400121964
-1.64705826319894   -0.06718297886036212   -0.059048164400121964
-1.64705826319894   -0.06718297886036212   -0.059048164400121964
-1.64705826319894   -0.06718297886036212   -0.059048164400121964
-1.195272155785964   -0.013373666093103753   0.006001890750848199
-1.195272155785964   -0.013373666093103753   0.006001890750848199
-1.195272155785964   -0.013373666093103753   0.006001890750848199
-1.195272155785964   -0.013373666093103753   0.006001890750848199
-0.7926875731668708   -0.18006203198756227   -0.03352540606400928
-0.7926875731668708   -0.18006203198756227   -0.03352540606400928
-0.7926875731668708   -0.18006203198756227   -0.03352540606400928
-0.7926875731668708   -0.18006203198756227   -0.03352540606400928
0.0822904627056233   0.01870670129168171   0.030880706559978488
0.0822904627056233   0.01870670129168171   0.030880706559978488
0.0822904627056233   0.01870670129168171   0.030880706559978488
0.0822904627056233   0.01870670129168171   0.030880706559978488
0.07852257605787466   0.045404655509799136   0.002469109537713376
0.07852257605787466   0.045404655509799136   0.002469109537713376
0.07852257605787466   0.045404655509799136   0.002469109537713376
0.07852257605787466   0.045404655509799136   0.002469109537713376
-0.7960582603333589   -0.11929440372089907   -0.0214064838688502
-0.7960582603333589   -0.11929440372089907   -0.0214064838688502
-0.7960582603333589   -0.11929440372089907   -0.0214064838688502
-0.7960582603333589   -0.11929440372089907   -0.0214064838688502
-0.36043517608174613   -0.059693387601561974   -0.011398934587672526
-0.36043517608174613   -0.059693387601561974   -0.011398934587672526
-0.36043517608174613   -0.059693387601561974   -0.011398934587672526
-0.36043517608174613   -0.059693387601561974   -0.011398934587672526
-0.8015646525714232   -0.13729431823301474   -0.030938530547056326
-0.8015646525714232   -0.13729431823301474   -0.030938530547056326
-0.8015646525714232   -0.13729431823301474   -0.030938530547056326
-0.8015646525714232   -0.13729431823301474   -0.030938530547056326
0.087089907954086   0.06646550968006021   0.024244914848508943
0.087089907954086   0.06646550968006021   0.024244914848508943
0.087089907954086   0.06646550968006021   0.024244914848508943
0.087089907954086   0.06646550968006021   0.024244914848508943
0.08472554541053977   0.08778560742632396   0.014355952561655182
0.08472554541053977   0.08778560742632396   0.014355952561655182
0.08472554541053977   0.08778560742632396   0.014355952561655182
0.08472554541053977   0.08778560742632396   0.014355952561655182
-0.7934947397337052   -0.07281990007670328   -0.026706549425100194
-0.7934947397337052   -0.07281990007670328   -0.026706549425100194
-0.7934947397337052   -0.07281990007670328   -0.026706549425100194
-0.7934947397337052   -0.07281990007670328   -0.026706549425100194
-0.35480481811873   -0.014652988244314623   0.004244908261045366
-0.35480481811873   -0.014652988244314623   0.004244908261045366
-0.35480481811873   -0.014652988244314623   0.004244908261045366
-0.35480481811873   -0.014652988244314623   0.004244908261045366
-0.795621373574536   -0.0943224088535114   -0.01583720985244584
-0.795621373574536   -0.0943224088535114   -0.01583720985244584
-0.795621373574536   -0.0943224088535114   -0.01583720985244584
-0.795621373574536   -0.0943224088535114   -0.01583720985244584
0.0901456619870549   0.11258159893881503   0.016660543931739054
0.0901456619870549   0.11258159893881503   0.016660543931739054
0.0901456619870549   0.11258159893881503   0.016660543931739054
0.0901456619870549   0.11258159893881503   0.016660543931739054
0.08669011035923438   0.13493386238886662   0.023633363957762825
0.08669011035923438   0.13493386238886662   0.023633363957762825
0.08669011035923438   0.13493386238886662   0.023633363957762825
0.08669011035923438   0.13493386238886662   0.023633363957762825
-0.7831029669170056   -0.0231365105921377   -0.03364767723704894
-0.7831029669170056   -0.0231365105921377   -0.03364767723704894
-0.7831029669170056   -0.0231365105921377   -0.03364767723704894
-0.7831029669170056   -0.0231365105921377   -0.03364767723704894
-0.34591725615015545   0.03244893497690984   0.02137107422323782
-0.34591725615015545   0.03244893497690984   0.02137107422323782
-0.34591725615015545   0.03244893497690984   0.02137107422323782
-0.34591725615015545   0.03244893497690984   0.02137107422323782
0.03774139840428415   -0.1319915471333925   -0.04116636652164306
0.03774139840428415   -0.1319915471333925   -0.04116636652164306
0.03774139840428415   -0.1319915471333925   -0.04116636652164306
0.03774139840428415   -0.1319915471333925   -0.04116636652164306
0.9441803340469225   0.06517205220886349   0.05667198444981505
0.9441803340469225   0.06517205220886349   0.05667198444981505
0.9441803340469225   0.06517205220886349   0.05667198444981505
0.9441803340469225   0.06517205220886349   0.05667198444981505
0.9430481017320332   0.08779796646038238   -0.009061634916667123
0.9430481017320332   0.08779796646038238   -0.009061634916667123
0.9430481017320332   0.08779796646038238   -0.009061634916667123
0.9430481017320332   0.08779796646038238   -0.009061634916667123
0.05422173434070518   -0.07929672013916123   0.005666276600826272
0.05422173434070518   -0.07929672013916123   0.005666276600826272
0.05422173434070518   -0.07929672013916123   0.005666276600826272
0.05422173434070518   -0.07929672013916123   0.005666276600826272
0.4887009087109973   -0.011309020642396556   0.001035969581988927
0.4887009087109973   -0.011309020642396556   0.001035969581988927
0.4887009087109973   -0.011309020642396556   0.001035969581988927
0.4887009087109973   -0.011309020642396556   0.001035969581988927
0.04351269091252204   -0.09644326738003065   -0.030732393299219285
0.04351269091252204   -0.09644326738003065   -0.030732393299219285
0.04351269091252204   -0.09644326738003065   -0.030732393299219285
0.04351269091252204   -0.09644326738003065   -0.030732393299219285
0.9592583299621665   0.11044569850319896   0.04934177419117344
0.9592583299621665   0.11044569850319896   0.04934177419117344
0.9592583299621665   0.11044569850319896   0.04934177419117344
0.9592583299621665   0.11044569850319896   0.04934177419117344
0.9505231476758376   0.12971464364191332   0.009581195203509866
0.9505231476758376   0.12971464364191332   0.009581195203509866
0.9505231476758376   0.12971464364191332   0.009581195203509866
0.9505231476758376   0.12971464364191332   0.009581195203509866
0.056188987700199845   -0.03776071452120013   -0.002780514042520353
0.056188987700199845   -0.03776071452120013   -0.002780514042520353
0.056188987700199845   -0.03776071452120013   -0.002780514042520353
0.056188987700199845   -0.03776071452120013   -0.002780514042520353
0.4952555049545889   0.028757776338804802   0.020262380870455277
0.4952555049545889   0.028757776338804802   0.020262380870455277
0.4952555049545889   0.028757776338804802   0.020262380870455277
0.4952555049545889   0.028757776338804802   0.020262380870455277
0.048386466146100454   -0.05711641580964989   -0.022437420524567257
0.048386466146100454   -0.05711641580964989   -0.022437420524567257
0.048386466146100454   -0.05711641580964989   -0.022437420524567257
0.048386466146100454   -0.05711641580964989   -0.022437420524567257
0.9623065303386795   0.15305120603910274   0.04516154612051431
0.9623065303386795   0.15305120603910274   0.04516154612051431
0.9623065303386795   0.15305120603910274   0.04516154612051431
0.9623065303386795   0.15305120603910274   0.04516154612051431
0.9352894128519951   0.17809228544902528   0.020148436298239196
0.9352894128519951   0.17809228544902528   0.020148436298239196
0.9352894128519951   0.17809228544902528   0.020148436298239196
0.9352894128519951   0.17809228544902528   0.020148436298239196
0.05571101472427451   0.013678711233675117   -0.010006963061845005
0.05571101472427451   0.013678711233675117   -0.010006963061845005
0.05571101472427451   0.013678711233675117   -0.010006963061845005
0.05571101472427451   0.013678711233675117   -0.010006963061845005
0.5026099617202331   0.07456322129167328   0.03805991120988855
0.5026099617202331   0.07456322129167328   0.03805991120988855
0.5026099617202331   0.07456322129167328   0.03805991120988855
0.5026099617202331   0.07456322129167328   0.03805991120988855
0.8697777567859131   -0.1740779603736673   -0.07609088927270087
0.8697777567859131   -0.1740779603736673   -0.07609088927270087
0.8697777567859131   -0.1740779603736673   -0.07609088927270087
0.8697777567859131   -0.1740779603736673   -0.07609088927270087
1.790966787680503   0.11829648141478227   0.05520432934310403
1.790966787680503   0.11829648141478227   0.05520432934310403
1.790966787680503   0.11829648141478227   0.05520432934310403
1.790966787680503   0.11829648141478227   0.05520432934310403
1.8112565630801098   0.05615013532440022   -0.1144601849666748
1.8112565630801098   0.05615013532440022   -0.1144601849666748
1.8112565630801098   0.05615013532440022   -0.1144601849666748
1.8112565630801098   0.05615013532440022   -0.1144601849666748
0.9267591336134674   -0.03571820247540147   0.033009693426270637
0.9267591336134674   -0.03571820247540147   0.033009693426270637
0.9267591336134674   -0.03571820247540147   0.033009693426270637
0.9267591336134674   -0.03571820247540147   0.033009693426270637
1.2825909791339818   -0.022399404101821396   -0.03208210972190527
1.2825909791339818   -0.022399404101821396   -0.03208210972190527
1.2825909791339818   -0.022399404101821396   -0.03208210972190527
1.2825909791339818   -0.022399404101821396   -0.03208210972190527
0.8943132884263439   -0.1144450246749707   -0.0504927103097655
0.8943132884263439   -0.1144450246749707   -0.0504927103097655
0.8943132884263439   -0.1144450246749707   -0.0504927103097655
0.8943132884263439   -0.1144450246749707   -0.0504927103097655
1.8601480751845385   0.15132262444127675   0.0348248864385908
1.8601480751845385   0.15132262444127675   0.0348248864385908
1.8601480751845385   0.15132262444127675   0.0348248864385908
1.8601480751845385   0.15132262444127675   0.0348248864385908
1.8312461654124574   0.10226536466765229   -0.025908070572425265
1.8312461654124574   0.10226536466765229   -0.025908070572425265
1.8312461654124574   0.10226536466765229   -0.025908070572425265
1.8312461654124574   0.10226536466765229   -0.025908070572425265
0.9230650510171395   -0.015007185958009123   0.017012541509926003
0.9230650510171395   -0.015007185958009123   0.017012541509926003
0.9230650510171395   -0.015007185958009123   0.017012541509926003
0.9230650510171395   -0.015007185958009123   0.017012541509926003
1.3497651548256306   0.033717232006631404   0.022178253089268643
1.3497651548256306   0.033717232006631404   0.022178253089268643
1.3497651548256306   0.033717232006631404   0.022178253089268643
1.3497651548256306   0.033717232006631404   0.022178253089268643
0.8970349338790835   -0.08752026129350648   -0.04062496884484906
0.8970349338790835   -0.08752026129350648   -0.04062496884484906
0.8970349338790835   -0.08752026129350648   -0.04062496884484906
0.8970349338790835   -0.08752026129350648   -0.04062496884484906
1.8550989028552098   0.17260106030784775   0.023019921001140163
1.8550989028552098   0.17260106030784775   0.023019921001140163
1.8550989028552098   0.17260106030784775   0.023019921001140163
1.8550989028552098   0.17260106030784775   0.023019921001140163
1.8282235937500977   0.15652119453008698   -0.03966782901953817
1.8282235937500977   0.15652119453008698   -0.03966782901953817
1.8282235937500977   0.15652119453008698   -0.03966782901953817
1.8282235937500977   0.15652119453008698   -0.03966782901953817
0.9040773914050795   0.03272928115558099   0.009451333357089954
0.9040773914050795   0.03272928115558099   0.009451333357089954
0.9040773914050795   0.03272928115558099   0.009451333357089954
0.9040773914050795   0.03272928115558099   0.009451333357089954
1.3152797121139923   0.05910246232868374   0.01643892715980736
1.3152797121139923   0.05910246232868374   0.01643892715980736
1.3152797121139923   0.05910246232868374   0.01643892715980736
1.3152797121139923   0.05910246232868374   0.01643892715980736
-1.966524081693043   -0.08927634628692116   0.10117247315111924
-1.966524081693043   -0.08927634628692116   0.10117247315111924
-1.966524081693043   -0.08927634628692116   0.10117247315111924
-1.966524081693043   -0.08927634628692116   0.10117247315111924
-1.3059055857839692   -0.04957405895378181   -0.026325477892585145
-1.3059055857839692   -0.04957405895378181   -0.026325477892585145
-1.3059055857839692   -0.04957405895378181   -0.026325477892585145
-1.3059055857839692   -0.04957405895378181   -0.026325477892585145
-1.2588494893114495   0.10580530849909109   0.08488716779371012
-1.2588494893114495   0.10580530849909109   0.08488716779371012
-1.2588494893114495   0.10580530849909109   0.08488716779371012
-1.2588494893114495   0.10580530849909109   0.08488716779371012
-1.97559154744319   -0.14102939556121158   -0.041253728168020504
-1.97559154744319   -0.14102939556121158   -0.041253728168020504
-1.97559154744319   -0.14102939556121158   -0.041253728168020504
-1.97559154744319   -0.14102939556121158   -0.041253728168020504
-1.5606580147518085   -0.02413174146659819   -0.0028509404114461095
-1.5606580147518085   -0.02413174146659819   -0.0028509404114461095
-1.5606580147518085   -0.02413174146659819   -0.0028509404114461095
-1.5606580147518085   -0.02413174146659819   -0.0028509404114461095
-1.9206306974763963   -0.020853451226410802   0.11337457733114752
-1.9206306974763963   -0.020853451226410802   0.11337457733114752
-1.9206306974763963   -0.020853451226410802   0.11337457733114752
-1.9206306974763963   -0.020853451226410802   0.11337457733114752
-1.3051533820768055   -0.005713678634269692   -0.03511330889971061
-1.3051533820768055   -0.005713678634269692   -0.03511330889971061
-1.3051533820768055   -0.005713678634269692   -0.03511330889971061
-1.3051533820768055   -0.005713678634269692   -0.03511330889971061
-1.2537143116595122   0.1312291016886487   0.07868916752875925
-1.2537143116595122   0.1312291016886487   0.07868916752875925
-1.2537143116595122   0.1312291016886487   0.07868916752875925
-1.2537143116595122   0.1312291016886487   0.07868916752875925
-1.945000647718288   -0.11798370738781533   -0.05648762628668791
-1.945000647718288   -0.11798370738781533   -0.05648762628668791
-1.945000647718288   -0.11798370738781533   -0.05648762628668791
-1.945000647718288   -0.11798370738781533   -0.05648762628668791
-1.5639854586033075   0.005739062663180694   0.018040254606795356
-1.5639854586033075   0.005739062663180694   0.018040254606795356
-1.5639854586033075   0.005739062663180694   0.018040254606795356
-1.5639854586033075   0.005739062663180694   0.018040254606795356
-1.8938186578418144   0.003131768406674562   0.07830684730119074
-1.8938186578418144   0.003131768406674562   0.07830684730119074
-1.8938186578418144   0.003131768406674562   0.07830684730119074
-1.8938186578418144   0.003131768406674562   0.07830684730119074
-1.302043137774942   0.012966789655204314   -0.04469265101493575
-1.302043137774942   0.012966789655204314   -0.04469265101493575
-1.302043137774942   0.012966789655204314   -0.04469265101493575
-1.302043137774942   0.012966789655204314   -0.04469265101493575
-1.2549265290486435   0.1481110433264285   0.0624369868672955
-1.2549265290486435   0.1481110433264285   0.0624369868672955
-1.2549265290486435   0.1481110433264285   0.0624369868672955
-1.2549265290486435   0.1481110433264285   0.0624369868672955
-1.905290804502681   -0.09349822538431862   -0.07203751632702217
-1.905290804502681   -0.09349822538431862   -0.07203751632702217
-1.905290804502681   -0.09349822538431862   -0.07203751632702217
-1.905290804502681   -0.09349822538431862   -0.07203751632702217
-1.5190400239885782   0.03248732555650746   0.03751468887828953
-1.5190400239885782   0.03248732555650746   0.03751468887828953
-1.5190400239885782   0.03248732555650746   0.03751468887828953
-1.5190400239885782   0.03248732555650746   0.03751468887828953
-1.3098204651827838   -0.12417153730005345   0.028697603459614314
-1.3098204651827838   -0.12417153730005345   0.028697603459614314
-1.3098204651827838   -0.12417153730005345   0.028697603459614314
-1.3098204651827838   -0.12417153730005345   0.028697603459614314
-0.6613806050585078   -0.023891926464935057   0.0012720231453658241
-0.6613806050585078   -0.023891926464935057   0.0012720231453658241
-0.6613806050585078   -0.023891926464935057   0.0012720231453658241
-0.6613806050585078   -0.023891926464935057   0.0012720231453658241
-0.6426296897893046   0.06498954063626258   0.04613601911139338
-0.6426296897893046   0.06498954063626258   0.04613601911139338
-0.6426296897893046   0.06498954063626258   0.04613601911139338
-0.6426296897893046   0.06498954063626258   0.04613601911139338
-1.3306490984783699   -0.12245516741758825   -0.04585040212422727
-1.3306490984783699   -0.12245516741758825   -0.04585040212422727
-1.3306490984783699   -0.12245516741758825   -0.04585040212422727
-1.3306490984783699   -0.12245516741758825   -0.04585040212422727
-0.9826143182221442   -0.04821850984013909   -0.01989808171717388
-0.9826143182221442   -0.04821850984013909   -0.01989808171717388
-0.9826143182221442   -0.04821850984013909   -0.01989808171717388
-0.9826143182221442   -0.04821850984013909   -0.01989808171717388
-1.305688181662571   -0.07129129887769353   0.027790313414879045
-1.305688181662571   -0.07129129887769353   0.027790313414879045
-1.305688181662571   -0.07129129887769353   0.027790313414879045
-1.305688181662571   -0.07129129887769353   0.027790313414879045
-0.6625313307046597   0.018884947996813645   -0.007267592825927864
-0.6625313307046597   0.018884947996813645   -0.007267592825927864
-0.6625313307046597   0.018884947996813645   -0.007267592825927864
-0.6625313307046597   0.018884947996813645   -0.007267592825927864
-0.6405874626354948   0.1073882302172785   0.03991653205333785
-0.6405874626354948   0.1073882302172785   0.03991653205333785
-0.6405874626354948   0.1073882302172785   0.03991653205333785
-0.6405874626354948   0.1073882302172785   0.03991653205333785
-1.3231011831354216   -0.08287996231463365   -0.0541361258475058
-1.3231011831354216   -0.08287996231463365   -0.0541361258475058
-1.3231011831354216   -0.08287996231463365   -0.0541361258475058
-1.3231011831354216   -0.08287996231463365   -0.0541361258475058
-0.9718799325042283   -0.005319845985758409   -6.47751819115791e-05
-0.9718799325042283   -0.005319845985758409   -6.47751819115791e-05
-0.9718799325042283   -0.005319845985758409   -6.47751819115791e-05
-0.9718799325042283   -0.005319845985758409   -6.47751819115791e-05
-1.2976303782407015   -0.028280060043447075   0.018617996354908795
-1.2976303782407015   -0.028280060043447075   0.018617996354908795
-1.2976303782407015   -0.028280060043447075   0.018617996354908795
-1.2976303782407015   -0.028280060043447075   0.018617996354908795
-0.6619385697261598   0.05690802575015291   -0.01635879893285004
-0.6619385697261598   0.05690802575015291   -0.01635879893285004
-0.6619385697261598   0.05690802575015291   -0.01635879893285004
-0.6619385697261598   0.05690802575015291   -0.01635879893285004
-0.6403908640617582   0.151942232226652   0.029910491897758906
-0.6403908640617582   0.151942232226652   0.029910491897758906
-0.6403908640617582   0.151942232226652   0.029910491897758906
-0.6403908640617582   0.151942232226652   0.029910491897758906
-1.3167228331128864   -0.04017628509494081   -0.05825720503255363
-1.3167228331128864   -0.04017628509494081   -0.05825720503255363
-1.3167228331128864   -0.04017628509494081   -0.05825720503255363
-1.3167228331128864   -0.04017628509494081   -0.05825720503255363
-0.9725039816391633   0.0340199834831586   0.015093836932186383
-0.9725039816391633   0.0340199834831586   0.015093836932186383
-0.9725039816391633   0.0340199834831586   0.015093836932186383
-0.9725039816391633   0.0340199834831586   0.015093836932186383
-0.686024994777169   -0.14191741824954057   -0.003924433663340541
-0.686024994777169   -0.14191741824954057   -0.003924433663340541
-0.686024994777169   -0.14191741824954057   -0.003924433663340541
-0.686024994777169   -0.14191741824954057   -0.003924433663340541
-0.022831135624693494   0.007048155874445437   0.02929686719477976
-0.022831135624693494   0.007048155874445437   0.02929686719477976
-0.022831135624693494   0.007048155874445437   0.02929686719477976
-0.022831135624693494   0.007048155874445437   0.02929686719477976
-0.025333562971605973   0.04193202579006175   0.014000966324208637
-0.025333562971605973   0.04193202579006175   0.014000966324208637
-0.025333562971605973   0.04193202579006175   0.014000966324208637
-0.025333562971605973   0.04193202579006175   0.014000966324208637
-0.6864790993621157   -0.09096016474502598   -0.017161323371373934
-0.6864790993621157   -0.09096016474502598   -0.017161323371373934
-0.6864790993621157   -0.09096016474502598   -0.017161323371373934
-0.6864790993621157   -0.09096016474502598   -0.017161323371373934
-0.35625619049735024   -0.04448311956281717   -0.011135064432099807
-0.35625619049735024   -0.04448311956281717   -0.011135064432099807
-0.35625619049735024   -0.04448311956281717   -0.011135064432099807
-0.35625619049735024   -0.04448311956281717   -0.011135064432099807
-0.6857400786941162   -0.09486228964546754   -0.009564095130935268
-0.6857400786941162   -0.09486228964546754   -0.009564095130935268
-0.6857400786941162   -0.09486228964546754   -0.009564095130935268
-0.6857400786941162   -0.09486228964546754   -0.009564095130935268
-0.02230090791522057   0.049605826414889476   0.021490440981308288
-0.02230090791522057   0.049605826414889476   0.021490440981308288
-0.02230090791522057   0.049605826414889476   0.021490440981308288
-0.02230090791522057   0.049605826414889476   0.021490440981308288
-0.022197381601474622   0.08812474211983314   0.006719303425351406
-0.022197381601474622   0.08812474211983314   0.006719303425351406
-0.022197381601474622   0.08812474211983314   0.006719303425351406
-0.022197381601474622   0.08812474211983314   0.006719303425351406
-0.6847451569353737   -0.04833030129778236   -0.025153407930989868
-0.6847451569353737   -0.04833030129778236   -0.025153407930989868
-0.6847451569353737   -0.04833030129778236   -0.025153407930989868
-0.6847451569353737   -0.04833030129778236   -0.025153407930989868
-0.3527889518062681   -0.0017702981521623695   0.004889963892139651
-0.3527889518062681   -0.0017702981521623695   0.004889963892139651
-0.3527889518062681   -0.0017702981521623695   0.004889963892139651
-0.3527889518062681   -0.0017702981521623695   0.004889963892139651
-0.6837147456496226   -0.04932410161239294   -0.019007551187623376
-0.6837147456496226   -0.04932410161239294   -0.019007551187623376
-0.6837147456496226   -0.04932410161239294   -0.019007551187623376
-0.6837147456496226   -0.04932410161239294   -0.019007551187623376
-0.020113430201697674   0.09223290511996808   0.013030897424101566
-0.020113430201697674   0.09223290511996808   0.013030897424101566
-0.020113430201697674   0.09223290511996808   0.013030897424101566
-0.020113430201697674   0.09223290511996808   0.013030897424101566
-0.021524851114450856   0.1356986170005396   -0.0010501550762171824
-0.021524851114450856   0.1356986170005396   -0.0010501550762171824
-0.021524851114450856   0.1356986170005396   -0.0010501550762171824
-0.021524851114450856   0.1356986170005396   -0.0010501550762171824
-0.6844019588476613   -0.004974723248272361   -0.033228026556835405
-0.6844019588476613   -0.004974723248272361   -0.033228026556835405
-0.6844019588476613   -0.004974723248272361   -0.033228026556835405
-0.6844019588476613   -0.004974723248272361   -0.033228026556835405
-0.3500946014990799   0.04098307722028238   0.01958536186201913
-0.3500946014990799   0.04098307722028238   0.01958536186201913
-0.3500946014990799   0.04098307722028238   0.01958536186201913
-0.3500946014990799   0.04098307722028238   0.01958536186201913
-0.06797713852336733   -0.15539236456665645   -0.033992626857487274
-0.06797713852336733   -0.15539236456665645   -0.033992626857487274
-0.06797713852336733   -0.15539236456665645   -0.033992626857487274
-0.06797713852336733   -0.15539236456665645   -0.033992626857487274
0.6133106911954154   0.04326655537360152   0.05569646218964385
0.6133106911954154   0.04326655537360152   0.05569646218964385
0.6133106911954154   0.04326655537360152   0.05569646218964385
0.6133106911954154   0.04326655537360152   0.05569646218964385
0.5932493497830336   0.02298523235436671   -0.021951576373862487
0.5932493497830336   0.02298523235436671   -0.021951576373862487
0.5932493497830336   0.02298523235436671   -0.021951576373862487
0.5932493497830336   0.02298523235436671   -0.021951576373862487
-0.045506049496066694   -0.05690141146137405   0.011971970953341222
-0.045506049496066694   -0.05690141146137405   0.011971970953341222
-0.045506049496066694   -0.05690141146137405   0.011971970953341222
-0.045506049496066694   -0.05690141146137405   0.011971970953341222
0.269400124951072   -0.03595423567731487   -0.006280555644804661
0.269400124951072   -0.03595423567731487   -0.006280555644804661
0.269400124951072   -0.03595423567731487   -0.006280555644804661
0.269400124951072   -0.03595423567731487   -0.006280555644804661
-0.06772809349545274   -0.11335656093962684   -0.04268309956533621
-0.06772809349545274   -0.11335656093962684   -0.04268309956533621
-0.06772809349545274   -0.11335656093962684   -0.04268309956533621
-0.06772809349545274   -0.11335656093962684   -0.04268309956533621
0.6197610316875285   0.08373001973772712   0.049862045765251856
0.6197610316875285   0.08373001973772712   0.049862045765251856
0.6197610316875285   0.08373001973772712   0.049862045765251856
0.6197610316875285   0.08373001973772712   0.049862045765251856
0.6028427219135383   0.06595837261055534   -0.030838812597081357
0.6028427219135383   0.06595837261055534   -0.030838812597081357
0.6028427219135383   0.06595837261055534   -0.030838812597081357
0.6028427219135383   0.06595837261055534   -0.030838812597081357
-0.044218829021477384   -0.01870740252658932   0.003444210971760782
-0.044218829021477384   -0.01870740252658932   0.003444210971760782
-0.044218829021477384   -0.01870740252658932   0.003444210971760782
-0.044218829021477384   -0.01870740252658932   0.003444210971760782
0.2717668411586448   0.002683671723170647   0.00964171730600381
0.2717668411586448   0.002683671723170647   0.00964171730600381
0.2717668411586448   0.002683671723170647   0.00964171730600381
0.2717668411586448   0.002683671723170647   0.00964171730600381
-0.06583113343006046   -0.07189464888191417   -0.05143006471583024
-0.06583113343006046   -0.07189464888191417   -0.05143006471583024
-0.06583113343006046   -0.07189464888191417   -0.05143006471583024
-0.06583113343006046   -0.07189464888191417   -0.05143006471583024
0.6291296616991494   0.12382025434290572   0.042734004598624434
0.6291296616991494   0.12382025434290572   0.042734004598624434
0.6291296616991494   0.12382025434290572   0.042734004598624434
0.6291296616991494   0.12382025434290572   0.042734004598624434
0.6087540269028912   0.11985090325716119   -0.03218901512303129
0.6087540269028912   0.11985090325716119   -0.03218901512303129
0.6087540269028912   0.11985090325716119   -0.03218901512303129
0.6087540269028912   0.11985090325716119   -0.03218901512303129
-0.04428063301765876   0.025932230476139573   -0.0050626780678563535
-0.04428063301765876   0.025932230476139573   -0.0050626780678563535
-0.04428063301765876   0.025932230476139573   -0.0050626780678563535
-0.04428063301765876   0.025932230476139573   -0.0050626780678563535
0.28115821620461606   0.045774807793367026   0.028552563207888956
0.28115821620461606   0.045774807793367026   0.028552563207888956
0.28115821620461606   0.045774807793367026   0.028552563207888956
0.28115821620461606   0.045774807793367026   0.028552563207888956
0.5494266988721608   -0.1542864925217595   -0.06617045153126229
0.5494266988721608   -0.1542864925217595   -0.06617045153126229
0.5494266988721608   -0.1542864925217595   -0.06617045153126229
0.5494266988721608   -0.1542864925217595   -0.06617045153126229
1.2078773036458956   0.08974030661637208   0.06191851260747911
1.2078773036458956   0.08974030661637208   0.06191851260747911
1.2078773036458956   0.08974030661637208   0.06191851260747911
1.2078773036458956   0.08974030661637208   0.06191851260747911
1.1984587971449985   -0.005595334858062351   -0.08807563201856469
1.1984587971449985   -0.005595334858062351   -0.08807563201856469
1.1984587971449985   -0.005595334858062351   -0.08807563201856469
1.1984587971449985   -0.005595334858062351   -0.08807563201856469
0.5987706913094524   -0.01291232293760633   0.04155268655020968
0.5987706913094524   -0.01291232293760633   0.04155268655020968
0.5987706913094524   -0.01291232293760633   0.04155268655020968
0.5987706913094524   -0.01291232293760633   0.04155268655020968
0.8454990114371759   -0.03007599814368528   -0.02772439729124495
0.8454990114371759   -0.03007599814368528   -0.02772439729124495
0.8454990114371759   -0.03007599814368528   -0.02772439729124495
0.8454990114371759   -0.03007599814368528   -0.02772439729124495
0.5499720763784657   -0.13395674568010132   -0.08139596536222682
0.5499720763784657   -0.13395674568010132   -0.08139596536222682
0.5499720763784657   -0.13395674568010132   -0.08139596536222682
0.5499720763784657   -0.13395674568010132   -0.08139596536222682
1.2507637799718814   0.1189554557803292   0.04889849147745829
1.2507637799718814   0.1189554557803292   0.04889849147745829
1.2507637799718814   0.1189554557803292   0.04889849147745829
1.2507637799718814   0.1189554557803292   0.04889849147745829
1.2278159593114493   0.01891591153542846   -0.11812287931719592
1.2278159593114493   0.01891591153542846   -0.11812287931719592
1.2278159593114493   0.01891591153542846   -0.11812287931719592
1.2278159593114493   0.01891591153542846   -0.11812287931719592
0.6031667134923524   0.00578528310740456   0.030954234800152136
0.6031667134923524   0.00578528310740456   0.030954234800152136
0.6031667134923524   0.00578528310740456   0.030954234800152136
0.6031667134923524   0.00578528310740456   0.030954234800152136
0.8837351544119716   -0.003581297054991689   -0.008466766265933498
0.8837351544119716   -0.003581297054991689   -0.008466766265933498
0.8837351544119716   -0.003581297054991689   -0.008466766265933498
0.8837351544119716   -0.003581297054991689   -0.008466766265933498
0.5562062594513627   -0.10949500252719109   -0.08856774977020704
0.5562062594513627   -0.10949500252719109   -0.08856774977020704
0.5562062594513627   -0.10949500252719109   -0.08856774977020704
0.5562062594513627   -0.10949500252719109   -0.08856774977020704
1.282521007968118   0.14194079178570396   0.03237748371588345
1.282521007968118   0.14194079178570396   0.03237748371588345
1.282521007968118   0.14194079178570396   0.03237748371588345
1.282521007968118   0.14194079178570396   0.03237748371588345
1.2744326024606014   0.08269098590353888   -0.11109535395864248
1.2744326024606014   0.08269098590353888   -0.11109535395864248
1.2744326024606014   0.08269098590353888   -0.11109535395864248
1.2744326024606014   0.08269098590353888   -0.11109535395864248
0.605162861960481   0.047107891366482635   0.022598172055606505
0.605162861960481   0.047107891366482635   0.022598172055606505
0.605162861960481   0.047107891366482635   0.022598172055606505
0.605162861960481   0.047107891366482635   0.022598172055606505
0.8902409783826661   0.026721679473471288   0.01283526414212241
0.8902409783826661   0.026721679473471288   0.01283526414212241
0.8902409783826661   0.026721679473471288   0.01283526414212241
0.8902409783826661   0.026721679473471288   0.01283526414212241
-1.4059470124096147   -0.04598024698979847   0.09168500855297713
-1.4059470124096147   -0.04598024698979847   0.09168500855297713
-1.4059470124096147   -0.04598024698979847   0.09168500855297713
-1.4059470124096147   -0.04598024698979847   0.09168500855297713
-0.9835159333761411   -0.06565136742407729   -0.03463924308500873
-0.9835159333761411   -0.06565136742407729   -0.03463924308500873
-0.9835159333761411   -0.06565136742407729   -0.03463924308500873
-0.9835159333761411   -0.06565136742407729   -0.03463924308500873
-0.9257496137570758   0.09282691923992223   0.07818591215153439
-0.9257496137570758   0.09282691923992223   0.07818591215153439
-0.9257496137570758   0.09282691923992223   0.07818591215153439
-0.9257496137570758   0.09282691923992223   0.07818591215153439
-1.406058537380004   -0.1157260088438535   -0.05066669157246181
-1.406058537380004   -0.1157260088438535   -0.05066669157246181
-1.406058537380004   -0.1157260088438535   -0.05066669157246181
-1.406058537380004   -0.1157260088438535   -0.05066669157246181
-1.1319530786172534   -0.018050962858079972   -0.0024581792332563288
-1.1319530786172534   -0.018050962858079972   -0.0024581792332563288
-1.1319530786172534   -0.018050962858079972   -0.0024581792332563288
-1.1319530786172534   -0.018050962858079972   -0.0024581792332563288
-1.3535197458031671   0.009079968244976033   0.0872212892228946
-1.3535197458031671   0.009079968244976033   0.0872212892228946
-1.3535197458031671   0.009079968244976033   0.0872212892228946
-1.3535197458031671   0.009079968244976033   0.0872212892228946
-0.9740147703600613   -0.02770542287505362   -0.042607528748405364
-0.9740147703600613   -0.02770542287505362   -0.042607528748405364
-0.9740147703600613   -0.02770542287505362   -0.042607528748405364
-0.9740147703600613   -0.02770542287505362   -0.042607528748405364
-0.9170328471372677   0.11212300494660055   0.06607813480437102
-0.9170328471372677   0.11212300494660055   0.06607813480437102
-0.9170328471372677   0.11212300494660055   0.06607813480437102
-0.9170328471372677   0.11212300494660055   0.06607813480437102
-1.372805911578574   -0.09421802791544695   -0.06405698947316973
-1.372805911578574   -0.09421802791544695   -0.06405698947316973
-1.372805911578574   -0.09421802791544695   -0.06405698947316973
-1.372805911578574   -0.09421802791544695   -0.06405698947316973
-1.1240594171005052   0.0074025027219757344   0.011903789139042692
-1.1240594171005052   0.0074025027219757344   0.011903789139042692
-1.1240594171005052   0.0074025027219757344   0.011903789139042692
-1.1240594171005052   0.0074025027219757344   0.011903789139042692
-1.3207137209277349   0.032173658667290495   0.07001227719828806
-1.3207137209277349   0.032173658667290495   0.07001227719828806
-1.3207137209277349   0.032173658667290495   0.07001227719828806
-1.3207137209277349   0.032173658667290495   0.07001227719828806
-0.9652606728996809   -0.010404316747706754   -0.05253367231337715
-0.9652606728996809   -0.010404316747706754   -0.05253367231337715
-0.9652606728996809   -0.010404316747706754   -0.05253367231337715
-0.9652606728996809   -0.010404316747706754   -0.05253367231337715
-0.9122054658298263   0.13089859448360724   0.05686124433976798
-0.9122054658298263   0.13089859448360724   0.05686124433976798
-0.9122054658298263   0.13089859448360724   0.05686124433976798
-0.9122054658298263   0.13089859448360724   0.05686124433976798
-1.3282611253514034   -0.06578918807205159   -0.0766980429433885
-1.3282611253514034   -0.06578918807205159   -0.0766980429433885
-1.3282611253514034   -0.06578918807205159   -0.0766980429433885
-1.3282611253514034   -0.06578918807205159   -0.0766980429433885
-1.0818925992082482   0.031244524536709617   0.03206141387960927
-1.0818925992082482   0.031244524536709617   0.03206141387960927
-1.0818925992082482   0.031244524536709617   0.03206141387960927
-1.0818925992082482   0.031244524536709617   0.03206141387960927
-0.9724808344790647   -0.07949116681905445   0.03437605079534124
-0.9724808344790647   -0.07949116681905445   0.03437605079534124
-0.9724808344790647   -0.07949116681905445   0.03437605079534124
-0.9724808344790647   -0.07949116681905445   0.03437605079534124
-0.5637452901139725   -0.04254211774259639   -0.005589995448979649
-0.5637452901139725   -0.04254211774259639   -0.005589995448979649
-0.5637452901139725   -0.04254211774259639   -0.005589995448979649
-0.5637452901139725   -0.04254211774259639   -0.005589995448979649
-0.5351050409772609   0.05425502995666928   0.042156527245936076
-0.5351050409772609   0.05425502995666928   0.042156527245936076
-0.5351050409772609   0.05425502995666928   0.042156527245936076
-0.5351050409772609   0.05425502995666928   0.042156527245936076
-0.98709826072854   -0.09458747366265921   -0.0411429298032049
-0.98709826072854   -0.09458747366265921   -0.0411429298032049
-0.98709826072854   -0.09458747366265921   -0.0411429298032049
-0.98709826072854   -0.09458747366265921   -0.0411429298032049
-0.7615267294070419   -0.037144913196579976   -0.015532347466460171
-0.7615267294070419   -0.037144913196579976   -0.015532347466460171
-0.7615267294070419   -0.037144913196579976   -0.015532347466460171
-0.7615267294070419   -0.037144913196579976   -0.015532347466460171
-0.961084412276675   -0.03375365166142699   0.02809249045488408
-0.961084412276675   -0.03375365166142699   0.02809249045488408
-0.961084412276675   -0.03375365166142699   0.02809249045488408
-0.961084412276675   -0.03375365166142699   0.02809249045488408
-0.557782369554198   -0.003242272169638266   -0.013732813512442044
-0.557782369554198   -0.003242272169638266   -0.013732813512442044
-0.557782369554198   -0.003242272169638266   -0.013732813512442044
-0.557782369554198   -0.003242272169638266   -0.013732813512442044
-0.5282984197641368   0.09382105779342745   0.03456621132149949
-0.5282984197641368   0.09382105779342745   0.03456621132149949
-0.5282984197641368   0.09382105779342745   0.03456621132149949
-0.5282984197641368   0.09382105779342745   0.03456621132149949
-0.9738165910065848   -0.05724230941076164   -0.04847527018485245
-0.9738165910065848   -0.05724230941076164   -0.04847527018485245
-0.9738165910065848   -0.05724230941076164   -0.04847527018485245
-0.9738165910065848   -0.05724230941076164   -0.04847527018485245
-0.7469048208653823   0.001752000268458842   0.0011771527097496626
-0.7469048208653823   0.001752000268458842   0.0011771527097496626
-0.7469048208653823   0.001752000268458842   0.0011771527097496626
-0.7469048208653823   0.001752000268458842   0.0011771527097496626
-0.945833939516356   0.008533205958158152   0.025662471897372238
-0.945833939516356   0.008533205958158152   0.025662471897372238
-0.945833939516356   0.008533205958158152   0.025662471897372238
-0.945833939516356   0.008533205958158152   0.025662471897372238
-0.5521376642354585   0.03218894944341294   -0.02299790268509061
-0.5521376642354585   0.03218894944341294   -0.02299790268509061
-0.5521376642354585   0.03218894944341294   -0.02299790268509061
-0.5521376642354585   0.03218894944341294   -0.02299790268509061
-0.5217221730552206   0.13597485726392455   0.027497846704092124
-0.5217221730552206   0.13597485726392455   0.027497846704092124
-0.5217221730552206   0.13597485726392455   0.027497846704092124
-0.5217221730552206   0.13597485726392455   0.027497846704092124
-0.9638732279580411   -0.017003043201819584   -0.05357592861587176
-0.9638732279580411   -0.017003043201819584   -0.05357592861587176
-0.9638732279580411   -0.017003043201819584   -0.05357592861587176
-0.9638732279580411   -0.017003043201819584   -0.05357592861587176
-0.7412429725229684   0.038345589946616215   0.01708637294789999
-0.7412429725229684   0.038345589946616215   0.01708637294789999
-0.7412429725229684   0.038345589946616215   0.01708637294789999
-0.7412429725229684   0.038345589946616215   0.01708637294789999
-0.5756649808033731   -0.10910341660663592   0.0013728499680525923
-0.5756649808033731   -0.10910341660663592   0.0013728499680525923
-0.5756649808033731   -0.10910341660663592   0.0013728499680525923
-0.5756649808033731   -0.10910341660663592   0.0013728499680525923
-0.1483222257489917   -0.012696738421261504   0.023474481107773087
-0.1483222257489917   -0.012696738421261504   0.023474481107773087
-0.1483222257489917   -0.012696738421261504   0.023474481107773087
-0.1483222257489917   -0.012696738421261504   0.023474481107773087
-0.14467440312078106   0.02243412050171912   0.008005406621016984
-0.14467440312078106   0.02243412050171912   0.008005406621016984
-0.14467440312078106   0.02243412050171912   0.008005406621016984
-0.14467440312078106   0.02243412050171912   0.008005406621016984
-0.5693498310222448   -0.06384159411683735   -0.01097079890548233
-0.5693498310222448   -0.06384159411683735   -0.01097079890548233
-0.5693498310222448   -0.06384159411683735   -0.01097079890548233
-0.5693498310222448   -0.06384159411683735   -0.01097079890548233
-0.36011502821866404   -0.03905960523833233   -0.01103718225412747
-0.36011502821866404   -0.03905960523833233   -0.01103718225412747
-0.36011502821866404   -0.03905960523833233   -0.01103718225412747
-0.36011502821866404   -0.03905960523833233   -0.01103718225412747
-0.5684221683760584   -0.06495944152651438   -0.005214638264873197
-0.5684221683760584   -0.06495944152651438   -0.005214638264873197
-0.5684221683760584   -0.06495944152651438   -0.005214638264873197
-0.5684221683760584   -0.06495944152651438   -0.005214638264873197
-0.14225716872047217   0.02689686495789146   0.01562883416638909
-0.14225716872047217   0.02689686495789146   0.01562883416638909
-0.14225716872047217   0.02689686495789146   0.01562883416638909
-0.14225716872047217   0.02689686495789146   0.01562883416638909
-0.1364555766422736   0.06677704660168382   0.0020937512732561656
-0.1364555766422736   0.06677704660168382   0.0020937512732561656
-0.1364555766422736   0.06677704660168382   0.0020937512732561656
-0.1364555766422736   0.06677704660168382   0.0020937512732561656
-0.5625365109789618   -0.023973332996442775   -0.01882985396275571
-0.5625365109789618   -0.023973332996442775   -0.01882985396275571
-0.5625365109789618   -0.023973332996442775   -0.01882985396275571
-0.5625365109789618   -0.023973332996442775   -0.01882985396275571
-0.35133685365679684   0.000791873729282036   0.004709563135460015
-0.35133685365679684   0.000791873729282036   0.004709563135460015
-0.35133685365679684   0.000791873729282036   0.004709563135460015
-0.35133685365679684   0.000791873729282036   0.004709563135460015
-0.5604463257807352   -0.020758588061891486   -0.011593672906174007
-0.5604463257807352   -0.020758588061891486   -0.011593672906174007
-0.5604463257807352   -0.020758588061891486   -0.011593672906174007
-0.5604463257807352   -0.020758588061891486   -0.011593672906174007
-0.1354574505644085   0.06665061294322697   0.007210815321039673
-0.1354574505644085   0.06665061294322697   0.007210815321039673
-0.1354574505644085   0.06665061294322697   0.007210815321039673
-0.1354574505644085   0.06665061294322697   0.007210815321039673
-0.1290837848313995   0.11176308954289645   -0.0048571366172531286
-0.1290837848313995   0.11176308954289645   -0.0048571366172531286
-0.1290837848313995   0.11176308954289645   -0.0048571366172531286
-0.1290837848313995   0.11176308954289645   -0.0048571366172531286
-0.5565547090006319   0.016357604806472054   -0.027047580565513457
-0.5565547090006319   0.016357604806472054   -0.027047580565513457
-0.5565547090006319   0.016357604806472054   -0.027047580565513457
-0.5565547090006319   0.016357604806472054   -0.027047580565513457
-0.3433220506330126   0.0408343396979671   0.019879977230917674
-0.3433220506330126   0.0408343396979671   0.019879977230917674
-0.3433220506330126   0.0408343396979671   0.019879977230917674
-0.3433220506330126   0.0408343396979671   0.019879977230917674
-0.18333125258437583   -0.1333788367653037   -0.03088855472510654
-0.18333125258437583   -0.1333788367653037   -0.03088855472510654
-0.18333125258437583   -0.1333788367653037   -0.03088855472510654
-0.18333125258437583   -0.1333788367653037   -0.03088855472510654
0.26163934261267563   0.02077438225129613   0.05090724535624156
0.26163934261267563   0.02077438225129613   0.05090724535624156
0.26163934261267563   0.02077438225129613   0.05090724535624156
0.26163934261267563   0.02077438225129613   0.05090724535624156
0.24344219993058974   -0.007179442910749206   -0.028366435720191013
0.24344219993058974   -0.007179442910749206   -0.028366435720191013
0.24344219993058974   -0.007179442910749206   -0.028366435720191013
0.24344219993058974   -0.007179442910749206   -0.028366435720191013
-0.15318862321403523   -0.030976768868792907   0.018845195525258103
-0.15318862321403523   -0.030976768868792907   0.018845195525258103
-0.15318862321403523   -0.030976768868792907   0.018845195525258103
-0.15318862321403523   -0.030976768868792907   0.018845195525258103
0.040484952240314453   -0.036644988069612486   -0.007854854511744249
0.040484952240314453   -0.036644988069612486   -0.007854854511744249
0.040484952240314453   -0.036644988069612486   -0.007854854511744249
0.040484952240314453   -0.036644988069612486   -0.007854854511744249
-0.17700399240354656   -0.09319756507646378   -0.038010854214627555
-0.17700399240354656   -0.09319756507646378   -0.038010854214627555
-0.17700399240354656   -0.09319756507646378   -0.038010854214627555
-0.17700399240354656   -0.09319756507646378   -0.038010854214627555
0.2712384525887762   0.05902223676559842   0.04441314789438794
0.2712384525887762   0.05902223676559842   0.04441314789438794
0.2712384525887762   0.05902223676559842   0.04441314789438794
0.2712384525887762   0.05902223676559842   0.04441314789438794
0.25872978073891006   0.03476607870492975   -0.03213699263103131
0.25872978073891006   0.03476607870492975   -0.03213699263103131
0.25872978073891006   0.03476607870492975   -0.03213699263103131
0.25872978073891006   0.03476607870492975   -0.03213699263103131
-0.14725725458072866   0.0046774701499219945   0.010184938032743899
-0.14725725458072866   0.0046774701499219945   0.010184938032743899
-0.14725725458072866   0.0046774701499219945   0.010184938032743899
-0.14725725458072866   0.0046774701499219945   0.010184938032743899
0.048613966507923705   -0.0005146568164158694   0.00816260483602876
0.048613966507923705   -0.0005146568164158694   0.00816260483602876
0.048613966507923705   -0.0005146568164158694   0.00816260483602876
0.048613966507923705   -0.0005146568164158694   0.00816260483602876
-0.17024011704034595   -0.053842402623166176   -0.04620950149225494
-0.17024011704034595   -0.053842402623166176   -0.04620950149225494
-0.17024011704034595   -0.053842402623166176   -0.04620950149225494
-0.17024011704034595   -0.053842402623166176   -0.04620950149225494
0.28516489348828833   0.0967382017677782   0.03806644805300792
0.28516489348828833   0.0967382017677782   0.03806644805300792
0.28516489348828833   0.0967382017677782   0.03806644805300792
0.28516489348828833   0.0967382017677782   0.03806644805300792
0.2710385292719701   0.0825822333297481   -0.037131826089442585
0.2710385292719701   0.0825822333297481   -0.037131826089442585
0.2710385292719701   0.0825822333297481   -0.037131826089442585
0.2710385292719701   0.0825822333297481   -0.037131826089442585
-0.14091767614101225   0.0457898739670873   0.001946622410490987
-0.14091767614101225   0.0457898739670873   0.001946622410490987
-0.14091767614101225   0.0457898739670873   0.001946622410490987
-0.14091767614101225   0.0457898739670873   0.001946622410490987
0.061180445053164265   0.038799599855225644   0.02475280240097362
0.061180445053164265   0.038799599855225644   0.02475280240097362
0.061180445053164265   0.038799599855225644   0.02475280240097362
0.061180445053164265   0.038799599855225644   0.02475280240097362
0.208159506835058   -0.13477538793616745   -0.06094216334438101
0.208159506835058   -0.13477538793616745   -0.06094216334438101
0.208159506835058   -0.13477538793616745   -0.06094216334438101
0.208159506835058   -0.13477538793616745   -0.06094216334438101
0.6261596727280069   0.06171157325157896   0.06590336986283589
0.6261596727280069   0.06171157325157896   0.06590336986283589
0.6261596727280069   0.06171157325157896   0.06590336986283589
0.6261596727280069   0.06171157325157896   0.06590336986283589
0.6199350880317709   -0.03303497840719655   -0.08022498752005996
0.6199350880317709   -0.03303497840719655   -0.08022498752005996
0.6199350880317709   -0.03303497840719655   -0.08022498752005996
0.6199350880317709   -0.03303497840719655   -0.08022498752005996
0.2626144739495137   0.011140080241938674   0.0491754112217369
0.2626144739495137   0.011140080241938674   0.0491754112217369
0.2626144739495137   0.011140080241938674   0.0491754112217369
0.2626144739495137   0.011140080241938674   0.0491754112217369
0.40684621845423996   -0.027849347600178195   -0.02146986255026093
0.40684621845423996   -0.027849347600178195   -0.02146986255026093
0.40684621845423996   -0.027849347600178195   -0.02146986255026093
0.40684621845423996   -0.027849347600178195   -0.02146986255026093
0.21399787211049293   -0.11227577302810446   -0.07049174470332156
0.21399787211049293   -0.11227577302810446   -0.07049174470332156
0.21399787211049293   -0.11227577302810446   -0.07049174470332156
0.21399787211049293   -0.11227577302810446   -0.07049174470332156
0.6726104865626974   0.09443967155475286   0.0556773551726393
0.6726104865626974   0.09443967155475286   0.0556773551726393
0.6726104865626974   0.09443967155475286   0.0556773551726393
0.6726104865626974   0.09443967155475286   0.0556773551726393
0.6537272396415446   -0.009534833512210947   -0.09620687444711748
0.6537272396415446   -0.009534833512210947   -0.09620687444711748
0.6537272396415446   -0.009534833512210947   -0.09620687444711748
0.6537272396415446   -0.009534833512210947   -0.09620687444711748
0.27154272276628655   0.02835353469500565   0.03834026151577145
0.27154272276628655   0.02835353469500565   0.03834026151577145
0.27154272276628655   0.02835353469500565   0.03834026151577145
0.27154272276628655   0.02835353469500565   0.03834026151577145
0.44100173840283174   -0.00415831626591788   -0.0025947182482517137
0.44100173840283174   -0.00415831626591788   -0.0025947182482517137
0.44100173840283174   -0.00415831626591788   -0.0025947182482517137
0.44100173840283174   -0.00415831626591788   -0.0025947182482517137
0.2233113802599001   -0.09272434480278915   -0.08173857151836403
0.2233113802599001   -0.09272434480278915   -0.08173857151836403
0.2233113802599001   -0.09272434480278915   -0.08173857151836403
0.2233113802599001   -0.09272434480278915   -0.08173857151836403
0.7061871564988601   0.11577162033651772   0.0407862559907429
0.7061871564988601   0.11577162033651772   0.0407862559907429
0.7061871564988601   0.11577162033651772   0.0407862559907429
0.7061871564988601   0.11577162033651772   0.0407862559907429
0.7056038936453092   0.04208087894912496   -0.10297792171599487
0.7056038936453092   0.04208087894912496   -0.10297792171599487
0.7056038936453092   0.04208087894912496   -0.10297792171599487
0.7056038936453092   0.04208087894912496   -0.10297792171599487
0.28068037107212085   0.06319809418736565   0.03046152205369191
0.28068037107212085   0.06319809418736565   0.03046152205369191
0.28068037107212085   0.06319809418736565   0.03046152205369191
0.28068037107212085   0.06319809418736565   0.03046152205369191
0.45800412742936064   0.02196097771648646   0.013641052185210695
0.45800412742936064   0.02196097771648646   0.013641052185210695
0.45800412742936064   0.02196097771648646   0.013641052185210695
0.45800412742936064   0.02196097771648646   0.013641052185210695
-0.8431176701584612   -0.014198468161891908   0.08222699000823835
-0.8431176701584612   -0.014198468161891908   0.08222699000823835
-0.8431176701584612   -0.014198468161891908   0.08222699000823835
-0.8431176701584612   -0.014198468161891908   0.08222699000823835
-0.657370003438271   -0.0833911347688803   -0.04070254980515756
-0.657370003438271   -0.0833911347688803   -0.04070254980515756
-0.657370003438271   -0.0833911347688803   -0.04070254980515756
-0.657370003438271   -0.0833911347688803   -0.04070254980515756
-0.5950471917772157   0.07067349409907872   0.07031947753941062
-0.5950471917772157   0.07067349409907872   0.07031947753941062
-0.5950471917772157   0.07067349409907872   0.07031947753941062
-0.5950471917772157   0.07067349409907872   0.07031947753941062
-0.8395427912599974   -0.09144251314595964   -0.055392204322405006
-0.8395427912599974   -0.09144251314595964   -0.055392204322405006
-0.8395427912599974   -0.09144251314595964   -0.055392204322405006
-0.8395427912599974   -0.09144251314595964   -0.055392204322405006
-0.7056729929588477   -0.01943669333815501   -0.01034364030719457
-0.7056729929588477   -0.01943669333815501   -0.01034364030719457
-0.7056729929588477   -0.01943669333815501   -0.01034364030719457
-0.7056729929588477   -0.01943669333815501   -0.01034364030719457
-0.7877045988036178   0.03379113845718576   0.07856510635634806
-0.7877045988036178   0.03379113845718576   0.07856510635634806
-0.7877045988036178   0.03379113845718576   0.07856510635634806
-0.7877045988036178   0.03379113845718576   0.07856510635634806
-0.6432863529613266   -0.050961126231797466   -0.04924170805026484
-0.6432863529613266   -0.050961126231797466   -0.04924170805026484
-0.6432863529613266   -0.050961126231797466   -0.04924170805026484
-0.6432863529613266   -0.050961126231797466   -0.04924170805026484
-0.580269454767288   0.08899706784424669   0.0594820325140124
-0.580269454767288   0.08899706784424669   0.0594820325140124
-0.580269454767288   0.08899706784424669   0.0594820325140124
-0.580269454767288   0.08899706784424669   0.0594820325140124
-0.8010238928348925   -0.07067923166704941   -0.06921580199755924
-0.8010238928348925   -0.07067923166704941   -0.06921580199755924
-0.8010238928348925   -0.07067923166704941   -0.06921580199755924
-0.8010238928348925   -0.07067923166704941   -0.06921580199755924
-0.6855375830553441   0.0045512596901727265   0.004959288569258619
-0.6855375830553441   0.0045512596901727265   0.004959288569258619
-0.6855375830553441   0.0045512596901727265   0.004959288569258619
-0.6855375830553441   0.0045512596901727265   0.004959288569258619
-0.7491424923254646   0.056023706338594575   0.0634882625439285
-0.7491424923254646   0.056023706338594575   0.0634882625439285
-0.7491424923254646   0.056023706338594575   0.0634882625439285
-0.7491424923254646   0.056023706338594575   0.0634882625439285
-0.6287431600538494   -0.034298174938531475   -0.05959125113601273
-0.6287431600538494   -0.034298174938531475   -0.05959125113601273
-0.6287431600538494   -0.034298174938531475   -0.05959125113601273
-0.6287431600538494   -0.034298174938531475   -0.05959125113601273
-0.5682949495195444   0.11180387794316352   0.05130111130082807
-0.5682949495195444   0.11180387794316352   0.05130111130082807
-0.5682949495195444   0.11180387794316352   0.05130111130082807
-0.5682949495195444   0.11180387794316352   0.05130111130082807
-0.7492726065567242   -0.0374408231701136   -0.08010456571647696
-0.7492726065567242   -0.0374408231701136   -0.08010456571647696
-0.7492726065567242   -0.0374408231701136   -0.08010456571647696
-0.7492726065567242   -0.0374408231701136   -0.08010456571647696
-0.644886218267019   0.028195733515634036   0.02395230769317591
-0.644886218267019   0.028195733515634036   0.02395230769317591
-0.644886218267019   0.028195733515634036   0.02395230769317591
-0.644886218267019   0.028195733515634036   0.02395230769317591
-0.6343571971246739   -0.04779369221345926   0.038764039207407536
-0.6343571971246739   -0.04779369221345926   0.038764039207407536
-0.6343571971246739   -0.04779369221345926   0.038764039207407536
-0.6343571971246739   -0.04779369221345926   0.038764039207407536
-0.4654683892918439   -0.06322956158865259   -0.012052427604370494
-0.4654683892918439   -0.06322956158865259   -0.012052427604370494
-0.4654683892918439   -0.06322956158865259   -0.012052427604370494
-0.4654683892918439   -0.06322956158865259   -0.012052427604370494
-0.43070650022215295   0.03210906418212486   0.03594799891432848
-0.43070650022215295   0.03210906418212486   0.03594799891432848
-0.43070650022215295   0.03210906418212486   0.03594799891432848
-0.43070650022215295   0.03210906418212486   0.03594799891432848
-0.6437068794890164   -0.06751147404915012   -0.03479399287136059
-0.6437068794890164   -0.06751147404915012   -0.03479399287136059
-0.6437068794890164   -0.06751147404915012   -0.03479399287136059
-0.6437068794890164   -0.06751147404915012   -0.03479399287136059
-0.5420523502693396   -0.03372519193628054   -0.014584843403546374
-0.5420523502693396   -0.03372519193628054   -0.014584843403546374
-0.5420523502693396   -0.03372519193628054   -0.014584843403546374
-0.5420523502693396   -0.03372519193628054   -0.014584843403546374
-0.6178294083548179   -0.005907282897649135   0.03298917164812344
-0.6178294083548179   -0.005907282897649135   0.03298917164812344
-0.6178294083548179   -0.005907282897649135   0.03298917164812344
-0.6178294083548179   -0.005907282897649135   0.03298917164812344
-0.45368111355037455   -0.026592269163400475   -0.020223734381254202
-0.45368111355037455   -0.026592269163400475   -0.020223734381254202
-0.45368111355037455   -0.026592269163400475   -0.020223734381254202
-0.45368111355037455   -0.026592269163400475   -0.020223734381254202
-0.41796186383112965   0.06937462341095807   0.028754666748290893
-0.41796186383112965   0.06937462341095807   0.028754666748290893
-0.41796186383112965   0.06937462341095807   0.028754666748290893
-0.41796186383112965   0.06937462341095807   0.028754666748290893
-0.624630776935903   -0.03167428573832304   -0.04165322474648521
-0.624630776935903   -0.03167428573832304   -0.04165322474648521
-0.624630776935903   -0.03167428573832304   -0.04165322474648521
-0.624630776935903   -0.03167428573832304   -0.04165322474648521
-0.5236316440848526   0.0022152148051022974   0.0015125232323837667
-0.5236316440848526   0.0022152148051022974   0.0015125232323837667
-0.5236316440848526   0.0022152148051022974   0.0015125232323837667
-0.5236316440848526   0.0022152148051022974   0.0015125232323837667
-0.5972349196978156   0.03374952835756989   0.02990224734805126
-0.5972349196978156   0.03374952835756989   0.02990224734805126
-0.5972349196978156   0.03374952835756989   0.02990224734805126
-0.5972349196978156   0.03374952835756989   0.02990224734805126
-0.4420064596287052   0.007302070755567422   -0.02939575958420004
-0.4420064596287052   0.007302070755567422   -0.02939575958420004
-0.4420064596287052   0.007302070755567422   -0.02939575958420004
-0.4420064596287052   0.007302070755567422   -0.02939575958420004
-0.40525814252327624   0.10981583537712221   0.02190337884408769
-0.40525814252327624   0.10981583537712221   0.02190337884408769
-0.40525814252327624   0.10981583537712221   0.02190337884408769
-0.40525814252327624   0.10981583537712221   0.02190337884408769
-0.6088773982745167   0.007459341051314711   -0.04726659558217696
-0.6088773982745167   0.007459341051314711   -0.04726659558217696
-0.6088773982745167   0.007459341051314711   -0.04726659558217696
-0.6088773982745167   0.007459341051314711   -0.04726659558217696
-0.5103078739621066   0.03743819447673152   0.017254143784179797
-0.5103078739621066   0.03743819447673152   0.017254143784179797
-0.5103078739621066   0.03743819447673152   0.017254143784179797
-0.5103078739621066   0.03743819447673152   0.017254143784179797
-0.4649187969954536   -0.07934812869527064   0.006814100984189256
-0.4649187969954536   -0.07934812869527064   0.006814100984189256
-0.4649187969954536   -0.07934812869527064   0.006814100984189256
-0.4649187969954536   -0.07934812869527064   0.006814100984189256
-0.27617589503600637   -0.033323152865654765   0.01708782270340455
-0.27617589503600637   -0.033323152865654765   0.01708782270340455
-0.27617589503600637   -0.033323152865654765   0.01708782270340455
-0.27617589503600637   -0.033323152865654765   0.01708782270340455
-0.2666824904391103   -0.0006725115086600522   0.002207273552269665
-0.2666824904391103   -0.0006725115086600522   0.002207273552269665
-0.2666824904391103   -0.0006725115086600522   0.002207273552269665
-0.2666824904391103   -0.0006725115086600522   0.002207273552269665
-0.4523643332198633   -0.036205331516545265   -0.004026770375552895
-0.4523643332198633   -0.036205331516545265   -0.004026770375552895
-0.4523643332198633   -0.036205331516545265   -0.004026770375552895
-0.4523643332198633   -0.036205331516545265   -0.004026770375552895
-0.3656155032113281   -0.03563947149917608   -0.010618921964112897
-0.3656155032113281   -0.03563947149917608   -0.010618921964112897
-0.3656155032113281   -0.03563947149917608   -0.010618921964112897
-0.3656155032113281   -0.03563947149917608   -0.010618921964112897
-0.45182694574020527   -0.03804324181507949   0.0004980773212674861
-0.45182694574020527   -0.03804324181507949   0.0004980773212674861
-0.45182694574020527   -0.03804324181507949   0.0004980773212674861
-0.45182694574020527   -0.03804324181507949   0.0004980773212674861
-0.26433325857642365   0.004052018132218206   0.009228903224824765
-0.26433325857642365   0.004052018132218206   0.009228903224824765
-0.26433325857642365   0.004052018132218206   0.009228903224824765
-0.26433325857642365   0.004052018132218206   0.009228903224824765
-0.2528414237082044   0.04099810133928712   -0.0036677695548789947
-0.2528414237082044   0.04099810133928712   -0.0036677695548789947
-0.2528414237082044   0.04099810133928712   -0.0036677695548789947
-0.2528414237082044   0.04099810133928712   -0.0036677695548789947
-0.43959670852286775   0.0017028885363562923   -0.011747821835801486
-0.43959670852286775   0.0017028885363562923   -0.011747821835801486
-0.43959670852286775   0.0017028885363562923   -0.011747821835801486
-0.43959670852286775   0.0017028885363562923   -0.011747821835801486
-0.3510169992456016   0.0018284774256911857   0.004990283430224719
-0.3510169992456016   0.0018284774256911857   0.004990283430224719
-0.3510169992456016   0.0018284774256911857   0.004990283430224719
-0.3510169992456016   0.0018284774256911857   0.004990283430224719
-0.4380719742185257   0.003501077327206545   -0.005922339104945322
-0.4380719742185257   0.003501077327206545   -0.005922339104945322
-0.4380719742185257   0.003501077327206545   -0.005922339104945322
-0.4380719742185257   0.003501077327206545   -0.005922339104945322
-0.2517557555793828   0.04181031498159263   0.0009483574469258856
-0.2517557555793828   0.04181031498159263   0.0009483574469258856
-0.2517557555793828   0.04181031498159263   0.0009483574469258856
-0.2517557555793828   0.04181031498159263   0.0009483574469258856
-0.2397684627347975   0.08305007107541859   -0.010371495486599797
-0.2397684627347975   0.08305007107541859   -0.010371495486599797
-0.2397684627347975   0.08305007107541859   -0.010371495486599797
-0.2397684627347975   0.08305007107541859   -0.010371495486599797
-0.4276209164698311   0.039903674659978766   -0.01999833017154294
-0.4276209164698311   0.039903674659978766   -0.01999833017154294
-0.4276209164698311   0.039903674659978766   -0.01999833017154294
-0.4276209164698311   0.039903674659978766   -0.01999833017154294
-0.3372071727925905   0.03943087719936937   0.019971453055261153
-0.3372071727925905   0.03943087719936937   0.019971453055261153
-0.3372071727925905   0.03943087719936937   0.019971453055261153
-0.3372071727925905   0.03943087719936937   0.019971453055261153
-0.2993811048374681   -0.10671952678657803   -0.025541852382985494
-0.2993811048374681   -0.10671952678657803   -0.025541852382985494
-0.2993811048374681   -0.10671952678657803   -0.025541852382985494
-0.2993811048374681   -0.10671952678657803   -0.025541852382985494
-0.09215284703331092   -0.0015686004170629708   0.044806830271665946
-0.09215284703331092   -0.0015686004170629708   0.044806830271665946
-0.09215284703331092   -0.0015686004170629708   0.044806830271665946
-0.09215284703331092   -0.0015686004170629708   0.044806830271665946
-0.10483088740509791   -0.031648537741217155   -0.032871384645815814
-0.10483088740509791   -0.031648537741217155   -0.032871384645815814
-0.10483088740509791   -0.031648537741217155   -0.032871384645815814
-0.10483088740509791   -0.031648537741217155   -0.032871384645815814
-0.262677200606842   -0.00407581746451649   0.025637028669465073
-0.262677200606842   -0.00407581746451649   0.025637028669465073
-0.262677200606842   -0.00407581746451649   0.025637028669465073
-0.262677200606842   -0.00407581746451649   0.025637028669465073
-0.18973212957940505   -0.03443141535163445   -0.00766273513560327
-0.18973212957940505   -0.03443141535163445   -0.00766273513560327
-0.18973212957940505   -0.03443141535163445   -0.00766273513560327
-0.18973212957940505   -0.03443141535163445   -0.00766273513560327
-0.2870458221676264   -0.06797802257029568   -0.03230387402867996
-0.2870458221676264   -0.06797802257029568   -0.03230387402867996
-0.2870458221676264   -0.06797802257029568   -0.03230387402867996
-0.2870458221676264   -0.06797802257029568   -0.03230387402867996
-0.07722754843838445   0.03548838477049585   0.03800838767603853
-0.07722754843838445   0.03548838477049585   0.03800838767603853
-0.07722754843838445   0.03548838477049585   0.03800838767603853
-0.07722754843838445   0.03548838477049585   0.03800838767603853
-0.08459999064564863   0.007770976780485446   -0.03700479274951886
-0.08459999064564863   0.007770976780485446   -0.03700479274951886
-0.08459999064564863   0.007770976780485446   -0.03700479274951886
-0.08459999064564863   0.007770976780485446   -0.03700479274951886
-0.250895277279107   0.02996247339337567   0.01709859053651958
-0.250895277279107   0.02996247339337567   0.01709859053651958
-0.250895277279107   0.02996247339337567   0.01709859053651958
-0.250895277279107   0.02996247339337567   0.01709859053651958
-0.17420677138447946   0.0004616016676642076   0.00824343123790994
-0.17420677138447946   0.0004616016676642076   0.00824343123790994
-0.17420677138447946   0.0004616016676642076   0.00824343123790994
-0.17420677138447946   0.0004616016676642076   0.00824343123790994
-0.27449051220987397   -0.03082432593937043   -0.0400907847845729
-0.27449051220987397   -0.03082432593937043   -0.0400907847845729
-0.27449051220987397   -0.03082432593937043   -0.0400907847845729
-0.27449051220987397   -0.03082432593937043   -0.0400907847845729
-0.05799369683734633   0.07156883499076659   0.0322288180817135
-0.05799369683734633   0.07156883499076659   0.0322288180817135
-0.05799369683734633   0.07156883499076659   0.0322288180817135
-0.05799369683734633   0.07156883499076659   0.0322288180817135
-0.06748636324850898   0.051796378472821175   -0.04145216795334296
-0.06748636324850898   0.051796378472821175   -0.04145216795334296
-0.06748636324850898   0.051796378472821175   -0.04145216795334296
-0.06748636324850898   0.051796378472821175   -0.04145216795334296
-0.2388338656022679   0.06848407400453045   0.008867487246936423
-0.2388338656022679   0.06848407400453045   0.008867487246936423
-0.2388338656022679   0.06848407400453045   0.008867487246936423
-0.2388338656022679   0.06848407400453045   0.008867487246936423
-0.15813150095309622   0.03684234172284462   0.02415453931478596
-0.15813150095309622   0.03684234172284462   0.02415453931478596
-0.15813150095309622   0.03684234172284462   0.02415453931478596
-0.15813150095309622   0.03684234172284462   0.02415453931478596
-0.13485514080557434   -0.11477225935753976   -0.055500979649176385
-0.13485514080557434   -0.11477225935753976   -0.055500979649176385
-0.13485514080557434   -0.11477225935753976   -0.055500979649176385
-0.13485514080557434   -0.11477225935753976   -0.055500979649176385
0.046993076098712346   0.034008503599879725   0.06829768078484467
0.046993076098712346   0.034008503599879725   0.06829768078484467
0.046993076098712346   0.034008503599879725   0.06829768078484467
0.046993076098712346   0.034008503599879725   0.06829768078484467
0.047360262083016906   -0.05644334349896212   -0.07348749561627033
0.047360262083016906   -0.05644334349896212   -0.07348749561627033
0.047360262083016906   -0.05644334349896212   -0.07348749561627033
0.047360262083016906   -0.05644334349896212   -0.07348749561627033
-0.07366727783401043   0.03540038439455487   0.05589774107384961
-0.07366727783401043   0.03540038439455487   0.05589774107384961
-0.07366727783401043   0.03540038439455487   0.05589774107384961
-0.07366727783401043   0.03540038439455487   0.05589774107384961
-0.030080268969575906   -0.024339496490450894   -0.013006843628890763
-0.030080268969575906   -0.024339496490450894   -0.013006843628890763
-0.030080268969575906   -0.024339496490450894   -0.013006843628890763
-0.030080268969575906   -0.024339496490450894   -0.013006843628890763
-0.12237902735543459   -0.08845485557595423   -0.06380576656276399
-0.12237902735543459   -0.08845485557595423   -0.06380576656276399
-0.12237902735543459   -0.08845485557595423   -0.06380576656276399
-0.12237902735543459   -0.08845485557595423   -0.06380576656276399
0.09953063113370222   0.07087051600080525   0.06005049013738889
0.09953063113370222   0.07087051600080525   0.06005049013738889
0.09953063113370222   0.07087051600080525   0.06005049013738889
0.09953063113370222   0.07087051600080525   0.06005049013738889
0.08607997345910243   -0.03386500398061313   -0.08728968255515368
0.08607997345910243   -0.03386500398061313   -0.08728968255515368
0.08607997345910243   -0.03386500398061313   -0.08728968255515368
0.08607997345910243   -0.03386500398061313   -0.08728968255515368
-0.059431235664086375   0.05178332138498467   0.04482663755379514
-0.059431235664086375   0.05178332138498467   0.04482663755379514
-0.059431235664086375   0.05178332138498467   0.04482663755379514
-0.059431235664086375   0.05178332138498467   0.04482663755379514
0.001773138512771937   -0.0011130783548674824   0.004234636647365975
0.001773138512771937   -0.0011130783548674824   0.004234636647365975
0.001773138512771937   -0.0011130783548674824   0.004234636647365975
0.001773138512771937   -0.0011130783548674824   0.004234636647365975
-0.10748615082416002   -0.06987767974879414   -0.07378693711279621
-0.10748615082416002   -0.06987767974879414   -0.07378693711279621
-0.10748615082416002   -0.06987767974879414   -0.07378693711279621
-0.10748615082416002   -0.06987767974879414   -0.07378693711279621
0.13759606194732693   0.09125717048131685   0.04516858542404274
0.13759606194732693   0.09125717048131685   0.04516858542404274
0.13759606194732693   0.09125717048131685   0.04516858542404274
0.13759606194732693   0.09125717048131685   0.04516858542404274
0.14032507827986607   0.010340244243858768   -0.0934724348715877
0.14032507827986607   0.010340244243858768   -0.0934724348715877
0.14032507827986607   0.010340244243858768   -0.0934724348715877
0.14032507827986607   0.010340244243858768   -0.0934724348715877
-0.04613041661731621   0.08069686378989752   0.03642707988554647
-0.04613041661731621   0.08069686378989752   0.03642707988554647
-0.04613041661731621   0.08069686378989752   0.03642707988554647
-0.04613041661731621   0.08069686378989752   0.03642707988554647
0.03044671194595118   0.023297686456981576   0.02108161628704434
0.03044671194595118   0.023297686456981576   0.02108161628704434
0.03044671194595118   0.023297686456981576   0.02108161628704434
0.03044671194595118   0.023297686456981576   0.02108161628704434
-0.27977353553055506   0.01587364444190572   0.07802487834105654
-0.27977353553055506   0.01587364444190572   0.07802487834105654
-0.27977353553055506   0.01587364444190572   0.07802487834105654
-0.27977353553055506   0.01587364444190572   0.07802487834105654
-0.33203263642142916   -0.10174488964263446   -0.04601054380288149
-0.33203263642142916   -0.10174488964263446   -0.04601054380288149
-0.33203263642142916   -0.10174488964263446   -0.04601054380288149
-0.33203263642142916   -0.10174488964263446   -0.04601054380288149
-0.26508586831150194   0.0473060553573008   0.06389371524543247
-0.26508586831150194   0.0473060553573008   0.06389371524543247
-0.26508586831150194   0.0473060553573008   0.06389371524543247
-0.26508586831150194   0.0473060553573008   0.06389371524543247
-0.2716648233617946   -0.06698577302879247   -0.059278843096975835
-0.2716648233617946   -0.06698577302879247   -0.059278843096975835
-0.2716648233617946   -0.06698577302879247   -0.059278843096975835
-0.2716648233617946   -0.06698577302879247   -0.059278843096975835
-0.2798621576654807   -0.021529942984398164   -0.021316343620600406
-0.2798621576654807   -0.021529942984398164   -0.021316343620600406
-0.2798621576654807   -0.021529942984398164   -0.021316343620600406
-0.2798621576654807   -0.021529942984398164   -0.021316343620600406
-0.22027174768700555   0.058025240735624165   0.07267552151255285
-0.22027174768700555   0.058025240735624165   0.07267552151255285
-0.22027174768700555   0.058025240735624165   0.07267552151255285
-0.22027174768700555   0.058025240735624165   0.07267552151255285
-0.3132621018545782   -0.07448811627540233   -0.05519328083724155
-0.3132621018545782   -0.07448811627540233   -0.05519328083724155
-0.3132621018545782   -0.07448811627540233   -0.05519328083724155
-0.3132621018545782   -0.07448811627540233   -0.05519328083724155
-0.24440514890943044   0.0652427386654618   0.05377530573956549
-0.24440514890943044   0.0652427386654618   0.05377530573956549
-0.24440514890943044   0.0652427386654618   0.05377530573956549
-0.24440514890943044   0.0652427386654618   0.05377530573956549
-0.22740416944123296   -0.046714991237103314   -0.07385133841614976
-0.22740416944123296   -0.046714991237103314   -0.07385133841614976
-0.22740416944123296   -0.046714991237103314   -0.07385133841614976
-0.22740416944123296   -0.046714991237103314   -0.07385133841614976
-0.24720880617815497   0.0013906381958582806   -0.004411241249999661
-0.24720880617815497   0.0013906381958582806   -0.004411241249999661
-0.24720880617815497   0.0013906381958582806   -0.004411241249999661
-0.24720880617815497   0.0013906381958582806   -0.004411241249999661
-0.1757102184761124   0.07983945719890186   0.05806396797344771
-0.1757102184761124   0.07983945719890186   0.05806396797344771
-0.1757102184761124   0.07983945719890186   0.05806396797344771
-0.1757102184761124   0.07983945719890186   0.05806396797344771
-0.2930642470390402   -0.05827685693503195   -0.06600058930798568
-0.2930642470390402   -0.05827685693503195   -0.06600058930798568
-0.2930642470390402   -0.05827685693503195   -0.06600058930798568
-0.2930642470390402   -0.05827685693503195   -0.06600058930798568
-0.22548100421132908   0.09262768067323607   0.046446351154845605
-0.22548100421132908   0.09262768067323607   0.046446351154845605
-0.22548100421132908   0.09262768067323607   0.046446351154845605
-0.22548100421132908   0.09262768067323607   0.046446351154845605
-0.1683263743860261   -0.008181976758606442   -0.08319826651058822
-0.1683263743860261   -0.008181976758606442   -0.08319826651058822
-0.1683263743860261   -0.008181976758606442   -0.08319826651058822
-0.1683263743860261   -0.008181976758606442   -0.08319826651058822
-0.20793993640919944   0.025330905418601418   0.013693321252261016
-0.20793993640919944   0.025330905418601418   0.013693321252261016
-0.20793993640919944   0.025330905418601418   0.013693321252261016
-0.20793993640919944   0.025330905418601418   0.013693321252261016
-0.2972783109173438   -0.01831485131491426   0.044331045389821085
-0.2972783109173438   -0.01831485131491426   0.044331045389821085
-0.2972783109173438   -0.01831485131491426   0.044331045389821085
-0.2972783109173438   -0.01831485131491426   0.044331045389821085
-0.3686482361143485   -0.0829898041687948   -0.017977157352519594
-0.3686482361143485   -0.0829898041687948   -0.017977157352519594
-0.3686482361143485   -0.0829898041687948   -0.017977157352519594
-0.3686482361143485   -0.0829898041687948   -0.017977157352519594
-0.32859870286865067   0.008398379425827995   0.029647097883164275
-0.32859870286865067   0.008398379425827995   0.029647097883164275
-0.32859870286865067   0.008398379425827995   0.029647097883164275
-0.32859870286865067   0.008398379425827995   0.029647097883164275
-0.30062555152417414   -0.0392654138047699   -0.027233231655857577
-0.30062555152417414   -0.0392654138047699   -0.027233231655857577
-0.30062555152417414   -0.0392654138047699   -0.027233231655857577
-0.30062555152417414   -0.0392654138047699   -0.027233231655857577
-0.3240122515415692   -0.030513716665705806   -0.015016898773714978
-0.3240122515415692   -0.030513716665705806   -0.015016898773714978
-0.3240122515415692   -0.030513716665705806   -0.015016898773714978
-0.3240122515415692   -0.030513716665705806   -0.015016898773714978
-0.2754185559769186   0.020843546402225674   0.03869278587342062
-0.2754185559769186   0.020843546402225674   0.03869278587342062
-0.2754185559769186   0.020843546402225674   0.03869278587342062
-0.2754185559769186   0.020843546402225674   0.03869278587342062
-0.35128661302046543   -0.04919149538572812   -0.026202578064357353
-0.35128661302046543   -0.04919149538572812   -0.026202578064357353
-0.35128661302046543   -0.04919149538572812   -0.026202578064357353
-0.35128661302046543   -0.04919149538572812   -0.026202578064357353
-0.31013009647220013   0.04408070820534035   0.022621064508128855
-0.31013009647220013   0.04408070820534035   0.022621064508128855
-0.31013009647220013   0.04408070820534035   0.022621064508128855
-0.31013009647220013   0.04408070820534035   0.022621064508128855
-0.2759420902256361   -0.004862505766349903   -0.03380415640964342
-0.2759420902256361   -0.004862505766349903   -0.03380415640964342
-0.2759420902256361   -0.004862505766349903   -0.03380415640964342
-0.2759420902256361   -0.004862505766349903   -0.03380415640964342
-0.3019571538419099   0.002793071547869244   0.0005898321207229336
-0.3019571538419099   0.002793071547869244   0.0005898321207229336
-0.3019571538419099   0.002793071547869244   0.0005898321207229336
-0.3019571538419099   0.002793071547869244   0.0005898321207229336
-0.24950986130586797   0.058649532351290765   0.034844950071548766
-0.24950986130586797   0.058649532351290765   0.034844950071548766
-0.24950986130586797   0.058649532351290765   0.034844950071548766
-0.24950986130586797   0.058649532351290765   0.034844950071548766
-0.3338773619304969   -0.016746366450831246   -0.03528818812718934
-0.3338773619304969   -0.016746366450831246   -0.03528818812718934
-0.3338773619304969   -0.016746366450831246   -0.03528818812718934
-0.3338773619304969   -0.016746366450831246   -0.03528818812718934
-0.2915725866320018   0.08356223194692956   0.01594304725341307
-0.2915725866320018   0.08356223194692956   0.01594304725341307
-0.2915725866320018   0.08356223194692956   0.01594304725341307
-0.2915725866320018   0.08356223194692956   0.01594304725341307
-0.2546337745950891   0.03330775278456126   -0.039997572875276055
-0.2546337745950891   0.03330775278456126   -0.039997572875276055
-0.2546337745950891   0.03330775278456126   -0.039997572875276055
-0.2546337745950891   0.03330775278456126   -0.039997572875276055
-0.28110669711956315   0.03717567222110833   0.016469377830482673
-0.28110669711956315   0.03717567222110833   0.016469377830482673
-0.28110669711956315   0.03717567222110833   0.016469377830482673
-0.28110669711956315   0.03717567222110833   0.016469377830482673
-0.35601048640770694   -0.05021939856524822   0.012441185577137779
-0.35601048640770694   -0.05021939856524822   0.012441185577137779
-0.35601048640770694   -0.05021939856524822   0.012441185577137779
-0.35601048640770694   -0.05021939856524822   0.012441185577137779
-0.40516773189698424   -0.05234874837206675   0.010879386301462006
-0.40516773189698424   -0.05234874837206675   0.010879386301462006
-0.40516773189698424   -0.05234874837206675   0.010879386301462006
-0.40516773189698424   -0.05234874837206675   0.010879386301462006
-0.3903582839121374   -0.02376622133294546   -0.0038372687652797905
-0.3903582839121374   -0.02376622133294546   -0.0038372687652797905
-0.3903582839121374   -0.02376622133294546   -0.0038372687652797905
-0.3903582839121374   -0.02376622133294546   -0.0038372687652797905
-0.3369244049562801   -0.007123835701676615   0.003540802572517713
-0.3369244049562801   -0.007123835701676615   0.003540802572517713
-0.3369244049562801   -0.007123835701676615   0.003540802572517713
-0.3369244049562801   -0.007123835701676615   0.003540802572517713
-0.3726732388902014   -0.03147284925767253   -0.00996000295604052
-0.3726732388902014   -0.03147284925767253   -0.00996000295604052
-0.3726732388902014   -0.03147284925767253   -0.00996000295604052
-0.3726732388902014   -0.03147284925767253   -0.00996000295604052
-0.3372020449882641   -0.011134805377443123   0.006163572088358589
-0.3372020449882641   -0.011134805377443123   0.006163572088358589
-0.3372020449882641   -0.011134805377443123   0.006163572088358589
-0.3372020449882641   -0.011134805377443123   0.006163572088358589
-0.387706151857996   -0.017380759635016813   0.003037929807501949
-0.387706151857996   -0.017380759635016813   0.003037929807501949
-0.387706151857996   -0.017380759635016813   0.003037929807501949
-0.387706151857996   -0.017380759635016813   0.003037929807501949
-0.37096041477346064   0.01583158888040273   -0.009740613864945732
-0.37096041477346064   0.01583158888040273   -0.009740613864945732
-0.37096041477346064   0.01583158888040273   -0.009740613864945732
-0.37096041477346064   0.01583158888040273   -0.009740613864945732
-0.3185181603562044   0.02881003478983893   -0.004048581496390969
-0.3185181603562044   0.02881003478983893   -0.004048581496390969
-0.3185181603562044   0.02881003478983893   -0.004048581496390969
-0.3185181603562044   0.02881003478983893   -0.004048581496390969
-0.3524105413297933   0.003927472398315049   0.005446686527119118
-0.3524105413297933   0.003927472398315049   0.005446686527119118
-0.3524105413297933   0.003927472398315049   0.005446686527119118
-0.3524105413297933   0.003927472398315049   0.005446686527119118
-0.3178791364614055   0.028322734891075202   -0.0003661621236385297
-0.3178791364614055   0.028322734891075202   -0.0003661621236385297
-0.3178791364614055   0.028322734891075202   -0.0003661621236385297
-0.3178791364614055   0.028322734891075202   -0.0003661621236385297
-0.36952859297643753   0.01838973447098753   -0.005139650470414845
-0.36952859297643753   0.01838973447098753   -0.005139650470414845
-0.36952859297643753   0.01838973447098753   -0.005139650470414845
-0.36952859297643753   0.01838973447098753   -0.005139650470414845
-0.3523867937836199   0.05566894020154971   -0.01640612514993013
-0.3523867937836199   0.05566894020154971   -0.01640612514993013
-0.3523867937836199   0.05566894020154971   -0.01640612514993013
-0.3523867937836199   0.05566894020154971   -0.01640612514993013
-0.30097133976861673   0.06489101993493068   -0.012379506417660918
-0.30097133976861673   0.06489101993493068   -0.012379506417660918
-0.30097133976861673   0.06489101993493068   -0.012379506417660918
-0.30097133976861673   0.06489101993493068   -0.012379506417660918
-0.3330828364695703   0.039392156287948496   0.02013268652236777
-0.3330828364695703   0.039392156287948496   0.02013268652236777
-0.3330828364695703   0.039392156287948496   0.02013268652236777
-0.3330828364695703   0.039392156287948496   0.02013268652236777
-0.41683533408679035   -0.07952328207168381   -0.020284090947958824
-0.41683533408679035   -0.07952328207168381   -0.020284090947958824
-0.41683533408679035   -0.07952328207168381   -0.020284090947958824
-0.41683533408679035   -0.07952328207168381   -0.020284090947958824
-0.44477162980267876   -0.022340966508531443   0.03846189930697154
-0.44477162980267876   -0.022340966508531443   0.03846189930697154
-0.44477162980267876   -0.022340966508531443   0.03846189930697154
-0.44477162980267876   -0.022340966508531443   0.03846189930697154
-0.45190243923805773   -0.05459806723106961   -0.03774898153208475
-0.45190243923805773   -0.05459806723106961   -0.03774898153208475
-0.45190243923805773   -0.05459806723106961   -0.03774898153208475
-0.45190243923805773   -0.05459806723106961   -0.03774898153208475
-0.3735809933332872   0.023847065922843205   0.03243589687318263
-0.3735809933332872   0.023847065922843205   0.03243589687318263
-0.3735809933332872   0.023847065922843205   0.03243589687318263
-0.3735809933332872   0.023847065922843205   0.03243589687318263
-0.42002432377767107   -0.031005145234398457   -0.00625759345360203
-0.42002432377767107   -0.031005145234398457   -0.00625759345360203
-0.42002432377767107   -0.031005145234398457   -0.00625759345360203
-0.42002432377767107   -0.031005145234398457   -0.00625759345360203
-0.398536937592595   -0.04172876857971951   -0.026767989920797056
-0.398536937592595   -0.04172876857971951   -0.026767989920797056
-0.398536937592595   -0.04172876857971951   -0.026767989920797056
-0.398536937592595   -0.04172876857971951   -0.026767989920797056
-0.4244566102839349   0.01346765196630248   0.03141444404115735
-0.4244566102839349   0.01346765196630248   0.03141444404115735
-0.4244566102839349   0.01346765196630248   0.03141444404115735
-0.4244566102839349   0.01346765196630248   0.03141444404115735
-0.42649533239641496   -0.017047734324295155   -0.042352392934526556
-0.42649533239641496   -0.017047734324295155   -0.042352392934526556
-0.42649533239641496   -0.017047734324295155   -0.042352392934526556
-0.42649533239641496   -0.017047734324295155   -0.042352392934526556
-0.35611010836195944   0.056257680532705884   0.024084826540253804
-0.35611010836195944   0.056257680532705884   0.024084826540253804
-0.35611010836195944   0.056257680532705884   0.024084826540253804
-0.35611010836195944   0.056257680532705884   0.024084826540253804
-0.39701184393732   0.0030818297835575326   0.009644089968727756
-0.39701184393732   0.0030818297835575326   0.009644089968727756
-0.39701184393732   0.0030818297835575326   0.009644089968727756
-0.39701184393732   0.0030818297835575326   0.009644089968727756
-0.3802931063327292   -0.006209422567359638   -0.034363060213534635
-0.3802931063327292   -0.006209422567359638   -0.034363060213534635
-0.3802931063327292   -0.006209422567359638   -0.034363060213534635
-0.3802931063327292   -0.006209422567359638   -0.034363060213534635
-0.3997959825877768   0.047935720613643915   0.026160901170730784
-0.3997959825877768   0.047935720613643915   0.026160901170730784
-0.3997959825877768   0.047935720613643915   0.026160901170730784
-0.3997959825877768   0.047935720613643915   0.026160901170730784
-0.4042599693316785   0.024330953256458107   -0.046472012764014636
-0.4042599693316785   0.024330953256458107   -0.046472012764014636
-0.4042599693316785   0.024330953256458107   -0.046472012764014636
-0.4042599693316785   0.024330953256458107   -0.046472012764014636
-0.33859096167564035   0.09239337224664243   0.01584860334487479
-0.33859096167564035   0.09239337224664243   0.01584860334487479
-0.33859096167564035   0.09239337224664243   0.01584860334487479
-0.33859096167564035   0.09239337224664243   0.01584860334487479
-0.3774531517525149   0.036918446699321913   0.024852585097001906
-0.3774531517525149   0.036918446699321913   0.024852585097001906
-0.3774531517525149   0.036918446699321913   0.024852585097001906
-0.3774531517525149   0.036918446699321913   0.024852585097001906
-0.47707827596237556   -0.09462313547443091   -0.050789162525620574
-0.47707827596237556   -0.09462313547443091   -0.050789162525620574
-0.47707827596237556   -0.09462313547443091   -0.050789162525620574
-0.47707827596237556   -0.09462313547443091   -0.050789162525620574
-0.5272238758229975   0.007396378735095188   0.06915880815508835
-0.5272238758229975   0.007396378735095188   0.06915880815508835
-0.5272238758229975   0.007396378735095188   0.06915880815508835
-0.5272238758229975   0.007396378735095188   0.06915880815508835
-0.5200673947850947   -0.07858584378417752   -0.06763328286872818
-0.5200673947850947   -0.07858584378417752   -0.06763328286872818
-0.5200673947850947   -0.07858584378417752   -0.06763328286872818
-0.5200673947850947   -0.07858584378417752   -0.06763328286872818
-0.4091057782481041   0.05964416105584762   0.06199209513076227
-0.4091057782481041   0.05964416105584762   0.06199209513076227
-0.4091057782481041   0.05964416105584762   0.06199209513076227
-0.4091057782481041   0.05964416105584762   0.06199209513076227
-0.46400785746251166   -0.02029416837293424   -0.0031293089336982133
-0.46400785746251166   -0.02029416837293424   -0.0031293089336982133
-0.46400785746251166   -0.02029416837293424   -0.0031293089336982133
-0.46400785746251166   -0.02029416837293424   -0.0031293089336982133
-0.4578948904959715   -0.06423878946929482   -0.05807051558343779
-0.4578948904959715   -0.06423878946929482   -0.05807051558343779
-0.4578948904959715   -0.06423878946929482   -0.05807051558343779
-0.4578948904959715   -0.06423878946929482   -0.05807051558343779
-0.46864604402035837   0.0479293452578317   0.06295828191293681
-0.46864604402035837   0.0479293452578317   0.06295828191293681
-0.46864604402035837   0.0479293452578317   0.06295828191293681
-0.46864604402035837   0.0479293452578317   0.06295828191293681
-0.4762166655428004   -0.0566601110220058   -0.08060509460247384
-0.4762166655428004   -0.0566601110220058   -0.08060509460247384
-0.4762166655428004   -0.0566601110220058   -0.08060509460247384
-0.4762166655428004   -0.0566601110220058   -0.08060509460247384
-0.38944987926233127   0.07508739879948279   0.05073973961211414
-0.38944987926233127   0.07508739879948279   0.05073973961211414
-0.38944987926233127   0.07508739879948279   0.05073973961211414
-0.38944987926233127   0.07508739879948279   0.05073973961211414
-0.4342963855270316   0.0026156087741805167   0.012132970213179654
-0.4342963855270316   0.0026156087741805167   0.012132970213179654
-0.4342963855270316   0.0026156087741805167   0.012132970213179654
-0.4342963855270316   0.0026156087741805167   0.012132970213179654
-0.4372897767557005   -0.04619015346261772   -0.06718219559263341
-0.4372897767557005   -0.04619015346261772   -0.06718219559263341
-0.4372897767557005   -0.04619015346261772   -0.06718219559263341
-0.4372897767557005   -0.04619015346261772   -0.06718219559263341
-0.4256184971050203   0.06737571218450014   0.04834992437992059
-0.4256184971050203   0.06737571218450014   0.04834992437992059
-0.4256184971050203   0.06737571218450014   0.04834992437992059
-0.4256184971050203   0.06737571218450014   0.04834992437992059
-0.4186834128973953   -0.018715521011944528   -0.08808184784355398
-0.4186834128973953   -0.018715521011944528   -0.08808184784355398
-0.4186834128973953   -0.018715521011944528   -0.08808184784355398
-0.4186834128973953   -0.018715521011944528   -0.08808184784355398
-0.3718436748089992   0.09814682875173286   0.041793584354103325
-0.3718436748089992   0.09814682875173286   0.041793584354103325
-0.3718436748089992   0.09814682875173286   0.041793584354103325
-0.3718436748089992   0.09814682875173286   0.041793584354103325
-0.39371483984676114   0.025514897665096486   0.029794024827358354
-0.39371483984676114   0.025514897665096486   0.029794024827358354
-0.39371483984676114   0.025514897665096486   0.029794024827358354
-0.39371483984676114   0.025514897665096486   0.029794024827358354
0.2886165255842207   0.0466895497694532   0.07551249125187635
0.2886165255842207   0.0466895497694532   0.07551249125187635
0.2886165255842207   0.0466895497694532   0.07551249125187635
0.2886165255842207   0.0466895497694532   0.07551249125187635
-0.007165882981759519   -0.1213837722490601   -0.04989549441646204
-0.007165882981759519   -0.1213837722490601   -0.04989549441646204
-0.007165882981759519   -0.1213837722490601   -0.04989549441646204
-0.007165882981759519   -0.1213837722490601   -0.04989549441646204
0.06428467257590917   0.023729452044964662   0.058347786334106
0.06428467257590917   0.023729452044964662   0.058347786334106
0.06428467257590917   0.023729452044964662   0.058347786334106
0.06428467257590917   0.023729452044964662   0.058347786334106
0.3011977976315841   -0.042618652197758664   -0.062436983768146576
0.3011977976315841   -0.042618652197758664   -0.062436983768146576
0.3011977976315841   -0.042618652197758664   -0.062436983768146576
0.3011977976315841   -0.042618652197758664   -0.062436983768146576
0.1472620715886691   -0.023619647206124833   -0.03595247350066641
0.1472620715886691   -0.023619647206124833   -0.03595247350066641
0.1472620715886691   -0.023619647206124833   -0.03595247350066641
0.1472620715886691   -0.023619647206124833   -0.03595247350066641
0.3525030981337611   0.08333146099892476   0.06813940554605465
0.3525030981337611   0.08333146099892476   0.06813940554605465
0.3525030981337611   0.08333146099892476   0.06813940554605465
0.3525030981337611   0.08333146099892476   0.06813940554605465
0.016129931996471197   -0.09907010122897533   -0.059626363289147694
0.016129931996471197   -0.09907010122897533   -0.059626363289147694
0.016129931996471197   -0.09907010122897533   -0.059626363289147694
0.016129931996471197   -0.09907010122897533   -0.059626363289147694
0.09037436401621754   0.04135136485001687   0.04870190856200067
0.09037436401621754   0.04135136485001687   0.04870190856200067
0.09037436401621754   0.04135136485001687   0.04870190856200067
0.09037436401621754   0.04135136485001687   0.04870190856200067
0.3510971881561243   -0.022710346091002878   -0.07812543143492962
0.3510971881561243   -0.022710346091002878   -0.07812543143492962
0.3510971881561243   -0.022710346091002878   -0.07812543143492962
0.3510971881561243   -0.022710346091002878   -0.07812543143492962
0.19228513691463683   -0.001642803924906136   -0.0168814839183036
0.19228513691463683   -0.001642803924906136   -0.0168814839183036
0.19228513691463683   -0.001642803924906136   -0.0168814839183036
0.19228513691463683   -0.001642803924906136   -0.0168814839183036
0.40297135797165407   0.10486449686587278   0.05367057468584366
0.40297135797165407   0.10486449686587278   0.05367057468584366
0.40297135797165407   0.10486449686587278   0.05367057468584366
0.40297135797165407   0.10486449686587278   0.05367057468584366
0.041584356806911846   -0.08313931550063469   -0.07075744713387626
0.041584356806911846   -0.08313931550063469   -0.07075744713387626
0.041584356806911846   -0.08313931550063469   -0.07075744713387626
0.041584356806911846   -0.08313931550063469   -0.07075744713387626
0.11569675534316765   0.073691353125461   0.04214525318055525
0.11569675534316765   0.073691353125461   0.04214525318055525
0.11569675534316765   0.073691353125461   0.04214525318055525
0.11569675534316765   0.073691353125461   0.04214525318055525
0.4173297172687574   0.021852992033677153   -0.08616443748830327
0.4173297172687574   0.021852992033677153   -0.08616443748830327
0.4173297172687574   0.021852992033677153   -0.08616443748830327
0.4173297172687574   0.021852992033677153   -0.08616443748830327
0.23010884924627945   0.022977241466083927   0.0011587603174255208
0.23010884924627945   0.022977241466083927   0.0011587603174255208
0.23010884924627945   0.022977241466083927   0.0011587603174255208
0.23010884924627945   0.022977241466083927   0.0011587603174255208
0.039844477038858246   0.012548897183219835   0.05122363625434685
0.039844477038858246   0.012548897183219835   0.05122363625434685
0.039844477038858246   0.012548897183219835   0.05122363625434685
0.039844477038858246   0.012548897183219835   0.05122363625434685
-0.2748000057112971   -0.10304192439927295   -0.02288664899739847
-0.2748000057112971   -0.10304192439927295   -0.02288664899739847
-0.2748000057112971   -0.10304192439927295   -0.02288664899739847
-0.2748000057112971   -0.10304192439927295   -0.02288664899739847
-0.22969079889511645   -0.014947248711218285   0.02342284118284287
-0.22969079889511645   -0.014947248711218285   0.02342284118284287
-0.22969079889511645   -0.014947248711218285   0.02342284118284287
-0.22969079889511645   -0.014947248711218285   0.02342284118284287
0.04184953718021456   -0.011902318887625857   -0.01819611971178037
0.04184953718021456   -0.011902318887625857   -0.01819611971178037
0.04184953718021456   -0.011902318887625857   -0.01819611971178037
0.04184953718021456   -0.011902318887625857   -0.01819611971178037
-0.10796138545163302   -0.026696713490963357   -0.017291369508872976
-0.10796138545163302   -0.026696713490963357   -0.017291369508872976
-0.10796138545163302   -0.026696713490963357   -0.017291369508872976
-0.10796138545163302   -0.026696713490963357   -0.017291369508872976
0.06670555700565929   0.048736488614943146   0.04544517191287427
0.06670555700565929   0.048736488614943146   0.04544517191287427
0.06670555700565929   0.048736488614943146   0.04544517191287427
0.06670555700565929   0.048736488614943146   0.04544517191287427
-0.2522549662317218   -0.07329420372495296   -0.0310510404864489
-0.2522549662317218   -0.07329420372495296   -0.0310510404864489
-0.2522549662317218   -0.07329420372495296   -0.0310510404864489
-0.2522549662317218   -0.07329420372495296   -0.0310510404864489
-0.20589854148559442   0.01921843992452043   0.016557023304666556
-0.20589854148559442   0.01921843992452043   0.016557023304666556
-0.20589854148559442   0.01921843992452043   0.016557023304666556
-0.20589854148559442   0.01921843992452043   0.016557023304666556
0.07154690725925285   0.020537448014992653   -0.024621458387798528
0.07154690725925285   0.020537448014992653   -0.024621458387798528
0.07154690725925285   0.020537448014992653   -0.024621458387798528
0.07154690725925285   0.020537448014992653   -0.024621458387798528
-0.08274496984278255   0.0034557213744585494   -0.0020922649341040536
-0.08274496984278255   0.0034557213744585494   -0.0020922649341040536
-0.08274496984278255   0.0034557213744585494   -0.0020922649341040536
-0.08274496984278255   0.0034557213744585494   -0.0020922649341040536
0.09744700343966434   0.08471619862874098   0.040700271900510586
0.09744700343966434   0.08471619862874098   0.040700271900510586
0.09744700343966434   0.08471619862874098   0.040700271900510586
0.09744700343966434   0.08471619862874098   0.040700271900510586
-0.22959377800269717   -0.04275545102592428   -0.039945268330402496
-0.22959377800269717   -0.04275545102592428   -0.039945268330402496
-0.22959377800269717   -0.04275545102592428   -0.039945268330402496
-0.22959377800269717   -0.04275545102592428   -0.039945268330402496
-0.18196610174949235   0.05784319725893508   0.010011976650965607
-0.18196610174949235   0.05784319725893508   0.010011976650965607
-0.18196610174949235   0.05784319725893508   0.010011976650965607
-0.18196610174949235   0.05784319725893508   0.010011976650965607
0.09770218432651094   0.05730814146046848   -0.03144439023773581
0.09770218432651094   0.05730814146046848   -0.03144439023773581
0.09770218432651094   0.05730814146046848   -0.03144439023773581
0.09770218432651094   0.05730814146046848   -0.03144439023773581
-0.054871269976479245   0.036733351352781565   0.014106748428779618
-0.054871269976479245   0.036733351352781565   0.014106748428779618
-0.054871269976479245   0.036733351352781565   0.014106748428779618
-0.054871269976479245   0.036733351352781565   0.014106748428779618
-0.2498882757435313   -0.019785599261035416   0.018415675703196473
-0.2498882757435313   -0.019785599261035416   0.018415675703196473
-0.2498882757435313   -0.019785599261035416   0.018415675703196473
-0.2498882757435313   -0.019785599261035416   0.018415675703196473
-0.5375954857023396   -0.07314960787996354   0.004763389587306582
-0.5375954857023396   -0.07314960787996354   0.004763389587306582
-0.5375954857023396   -0.07314960787996354   0.004763389587306582
-0.5375954857023396   -0.07314960787996354   0.004763389587306582
-0.5167513328646891   -0.045823852751453384   -0.010132354767957093
-0.5167513328646891   -0.045823852751453384   -0.010132354767957093
-0.5167513328646891   -0.045823852751453384   -0.010132354767957093
-0.5167513328646891   -0.045823852751453384   -0.010132354767957093
-0.22528203359589055   0.01907840721851383   0.011441011749240185
-0.22528203359589055   0.01907840721851383   0.011441011749240185
-0.22528203359589055   0.01907840721851383   0.011441011749240185
-0.22528203359589055   0.01907840721851383   0.011441011749240185
-0.38293847499450573   -0.027468675228739477   -0.010058546057843785
-0.38293847499450573   -0.027468675228739477   -0.010058546057843785
-0.38293847499450573   -0.027468675228739477   -0.010058546057843785
-0.38293847499450573   -0.027468675228739477   -0.010058546057843785
-0.22558270587938928   0.0168662959243802   0.012149761625880301
-0.22558270587938928   0.0168662959243802   0.012149761625880301
-0.22558270587938928   0.0168662959243802   0.012149761625880301
-0.22558270587938928   0.0168662959243802   0.012149761625880301
-0.5144863072716881   -0.04164738814781219   -0.0029836914065924647
-0.5144863072716881   -0.04164738814781219   -0.0029836914065924647
-0.5144863072716881   -0.04164738814781219   -0.0029836914065924647
-0.5144863072716881   -0.04164738814781219   -0.0029836914065924647
-0.4917362677261657   -0.008210686117396573   -0.015934078662607157
-0.4917362677261657   -0.008210686117396573   -0.015934078662607157
-0.4917362677261657   -0.008210686117396573   -0.015934078662607157
-0.4917362677261657   -0.008210686117396573   -0.015934078662607157
-0.20172483524079426   0.05244180666372043   0.00420218778947128
-0.20172483524079426   0.05244180666372043   0.00420218778947128
-0.20172483524079426   0.05244180666372043   0.00420218778947128
-0.20172483524079426   0.05244180666372043   0.00420218778947128
-0.3571131263376081   0.005573439450436257   0.005250782566471868
-0.3571131263376081   0.005573439450436257   0.005250782566471868
-0.3571131263376081   0.005573439450436257   0.005250782566471868
-0.3571131263376081   0.005573439450436257   0.005250782566471868
-0.20112627661563778   0.054187904460854364   0.005448883118119609
-0.20112627661563778   0.054187904460854364   0.005448883118119609
-0.20112627661563778   0.054187904460854364   0.005448883118119609
-0.20112627661563778   0.054187904460854364   0.005448883118119609
-0.4907661407876348   -0.00838809835084392   -0.010906031736509936
-0.4907661407876348   -0.00838809835084392   -0.010906031736509936
-0.4907661407876348   -0.00838809835084392   -0.010906031736509936
-0.4907661407876348   -0.00838809835084392   -0.010906031736509936
-0.467731543717711   0.029503378047990067   -0.022557511903269795
-0.467731543717711   0.029503378047990067   -0.022557511903269795
-0.467731543717711   0.029503378047990067   -0.022557511903269795
-0.467731543717711   0.029503378047990067   -0.022557511903269795
-0.1791826926288564   0.08590348380294813   -0.004131264289859854
-0.1791826926288564   0.08590348380294813   -0.004131264289859854
-0.1791826926288564   0.08590348380294813   -0.004131264289859854
-0.1791826926288564   0.08590348380294813   -0.004131264289859854
-0.3326319914585407   0.03852363272691019   0.019560682212216293
-0.3326319914585407   0.03852363272691019   0.019560682212216293
-0.3326319914585407   0.03852363272691019   0.019560682212216293
-0.3326319914585407   0.03852363272691019   0.019560682212216293
-0.5373248072859302   -0.051625455923909214   -0.015407370286696476
-0.5373248072859302   -0.051625455923909214   -0.015407370286696476
-0.5373248072859302   -0.051625455923909214   -0.015407370286696476
-0.5373248072859302   -0.051625455923909214   -0.015407370286696476
-0.7975780366647837   -0.04505839828760036   0.031917625658860166
-0.7975780366647837   -0.04505839828760036   0.031917625658860166
-0.7975780366647837   -0.04505839828760036   0.031917625658860166
-0.7975780366647837   -0.04505839828760036   0.031917625658860166
-0.7977603403031083   -0.07605157577504078   -0.04287796464641623
-0.7977603403031083   -0.07605157577504078   -0.04287796464641623
-0.7977603403031083   -0.07605157577504078   -0.04287796464641623
-0.7977603403031083   -0.07605157577504078   -0.04287796464641623
-0.48803008137097104   0.048619714933006014   0.03903033501617421
-0.48803008137097104   0.048619714933006014   0.03903033501617421
-0.48803008137097104   0.048619714933006014   0.03903033501617421
-0.48803008137097104   0.048619714933006014   0.03903033501617421
-0.6515134151054869   -0.02783206938556236   -0.004227945922102832
-0.6515134151054869   -0.02783206938556236   -0.004227945922102832
-0.6515134151054869   -0.02783206938556236   -0.004227945922102832
-0.6515134151054869   -0.02783206938556236   -0.004227945922102832
-0.5128080467006285   -0.014777899554235072   -0.021461877144867424
-0.5128080467006285   -0.014777899554235072   -0.021461877144867424
-0.5128080467006285   -0.014777899554235072   -0.021461877144867424
-0.5128080467006285   -0.014777899554235072   -0.021461877144867424
-0.771360556741671   -0.011032143056012744   0.024101520441749617
-0.771360556741671   -0.011032143056012744   0.024101520441749617
-0.771360556741671   -0.011032143056012744   0.024101520441749617
-0.771360556741671   -0.011032143056012744   0.024101520441749617
-0.7664368713194452   -0.04016631779028848   -0.0477084021172629
-0.7664368713194452   -0.04016631779028848   -0.0477084021172629
-0.7664368713194452   -0.04016631779028848   -0.0477084021172629
-0.7664368713194452   -0.04016631779028848   -0.0477084021172629
-0.4648977143414562   0.07898708111210617   0.03106092103143758
-0.4648977143414562   0.07898708111210617   0.03106092103143758
-0.4648977143414562   0.07898708111210617   0.03106092103143758
-0.4648977143414562   0.07898708111210617   0.03106092103143758
-0.6205589648072994   0.005473027635375216   0.011543236358927594
-0.6205589648072994   0.005473027635375216   0.011543236358927594
-0.6205589648072994   0.005473027635375216   0.011543236358927594
-0.6205589648072994   0.005473027635375216   0.011543236358927594
-0.48885511137581406   0.019119931680200666   -0.028858914708448292
-0.48885511137581406   0.019119931680200666   -0.028858914708448292
-0.48885511137581406   0.019119931680200666   -0.028858914708448292
-0.48885511137581406   0.019119931680200666   -0.028858914708448292
-0.7406551073965619   0.021525198530147283   0.019508901176718066
-0.7406551073965619   0.021525198530147283   0.019508901176718066
-0.7406551073965619   0.021525198530147283   0.019508901176718066
-0.7406551073965619   0.021525198530147283   0.019508901176718066
-0.738412152798427   -0.0010109187976202472   -0.05135166075365207
-0.738412152798427   -0.0010109187976202472   -0.05135166075365207
-0.738412152798427   -0.0010109187976202472   -0.05135166075365207
-0.738412152798427   -0.0010109187976202472   -0.05135166075365207
-0.4420053331231703   0.11254430804239308   0.02303261107503036
-0.4420053331231703   0.11254430804239308   0.02303261107503036
-0.4420053331231703   0.11254430804239308   0.02303261107503036
-0.4420053331231703   0.11254430804239308   0.02303261107503036
-0.5973568881962006   0.03655013568653051   0.025682933690720382
-0.5973568881962006   0.03655013568653051   0.025682933690720382
-0.5973568881962006   0.03655013568653051   0.025682933690720382
-0.5973568881962006   0.03655013568653051   0.025682933690720382
-0.8191404771439607   -0.07417441513753849   -0.046778559887086235
-0.8191404771439607   -0.07417441513753849   -0.046778559887086235
-0.8191404771439607   -0.07417441513753849   -0.046778559887086235
-0.8191404771439607   -0.07417441513753849   -0.046778559887086235
-1.0938528103777345   -0.019153469892665642   0.06906730991463247
-1.0938528103777345   -0.019153469892665642   0.06906730991463247
-1.0938528103777345   -0.019153469892665642   0.06906730991463247
-1.0938528103777345   -0.019153469892665642   0.06906730991463247
-1.0785039912348267   -0.09911374864844635   -0.062399240403985035
-1.0785039912348267   -0.09911374864844635   -0.062399240403985035
-1.0785039912348267   -0.09911374864844635   -0.062399240403985035
-1.0785039912348267   -0.09911374864844635   -0.062399240403985035
-0.7439289926928636   0.08214006959916861   0.06808712803059719
-0.7439289926928636   0.08214006959916861   0.06808712803059719
-0.7439289926928636   0.08214006959916861   0.06808712803059719
-0.7439289926928636   0.08214006959916861   0.06808712803059719
-0.8936069256145796   -0.015844372201648194   0.0073838863269652805
-0.8936069256145796   -0.015844372201648194   0.0073838863269652805
-0.8936069256145796   -0.015844372201648194   0.0073838863269652805
-0.8936069256145796   -0.015844372201648194   0.0073838863269652805
-0.7925607209697976   -0.04002627938801942   -0.05290516436687956
-0.7925607209697976   -0.04002627938801942   -0.05290516436687956
-0.7925607209697976   -0.04002627938801942   -0.05290516436687956
-0.7925607209697976   -0.04002627938801942   -0.05290516436687956
-1.028401840010336   0.024523023286296852   0.06447474378371065
-1.028401840010336   0.024523023286296852   0.06447474378371065
-1.028401840010336   0.024523023286296852   0.06447474378371065
-1.028401840010336   0.024523023286296852   0.06447474378371065
-1.0289815749068565   -0.0778185697031572   -0.07425840725656062
-1.0289815749068565   -0.0778185697031572   -0.07425840725656062
-1.0289815749068565   -0.0778185697031572   -0.07425840725656062
-1.0289815749068565   -0.0778185697031572   -0.07425840725656062
-0.7184085900854709   0.09614028656510343   0.056126399697212115
-0.7184085900854709   0.09614028656510343   0.056126399697212115
-0.7184085900854709   0.09614028656510343   0.056126399697212115
-0.7184085900854709   0.09614028656510343   0.056126399697212115
-0.8654722735654863   0.006497520540656276   0.020125956590842306
-0.8654722735654863   0.006497520540656276   0.020125956590842306
-0.8654722735654863   0.006497520540656276   0.020125956590842306
-0.8654722735654863   0.006497520540656276   0.020125956590842306
-0.765579258071295   -0.022503129681749195   -0.06108352398505148
-0.765579258071295   -0.022503129681749195   -0.06108352398505148
-0.765579258071295   -0.022503129681749195   -0.06108352398505148
-0.765579258071295   -0.022503129681749195   -0.06108352398505148
-0.9800110296580917   0.04262472380662985   0.05015102547746503
-0.9800110296580917   0.04262472380662985   0.05015102547746503
-0.9800110296580917   0.04262472380662985   0.05015102547746503
-0.9800110296580917   0.04262472380662985   0.05015102547746503
-0.9679955025332814   -0.04600247655465689   -0.08280111445356306
-0.9679955025332814   -0.04600247655465689   -0.08280111445356306
-0.9679955025332814   -0.04600247655465689   -0.08280111445356306
-0.9679955025332814   -0.04600247655465689   -0.08280111445356306
-0.6959746983257176   0.11307062460618095   0.04675406820609365
-0.6959746983257176   0.11307062460618095   0.04675406820609365
-0.6959746983257176   0.11307062460618095   0.04675406820609365
-0.6959746983257176   0.11307062460618095   0.04675406820609365
-0.812927665925252   0.027435802974745654   0.03806231367900056
-0.812927665925252   0.027435802974745654   0.03806231367900056
-0.812927665925252   0.027435802974745654   0.03806231367900056
-0.812927665925252   0.027435802974745654   0.03806231367900056
0.8691952989360475   0.07896334625442394   0.0754789161831819
0.8691952989360475   0.07896334625442394   0.0754789161831819
0.8691952989360475   0.07896334625442394   0.0754789161831819
0.8691952989360475   0.07896334625442394   0.0754789161831819
0.3184360990125944   -0.14464848726204727   -0.04968683950073763
0.3184360990125944   -0.14464848726204727   -0.04968683950073763
0.3184360990125944   -0.14464848726204727   -0.04968683950073763
0.3184360990125944   -0.14464848726204727   -0.04968683950073763
0.3933436657589865   -0.0008390081899469076   0.054315368143509804
0.3933436657589865   -0.0008390081899469076   0.054315368143509804
0.3933436657589865   -0.0008390081899469076   0.054315368143509804
0.3933436657589865   -0.0008390081899469076   0.054315368143509804
0.8850432185224009   -0.02018559950202381   -0.06342872301868775
0.8850432185224009   -0.02018559950202381   -0.06342872301868775
0.8850432185224009   -0.02018559950202381   -0.06342872301868775
0.8850432185224009   -0.02018559950202381   -0.06342872301868775
0.5785824540896637   -0.02621197030903695   -0.055899100494501246
0.5785824540896637   -0.02621197030903695   -0.055899100494501246
0.5785824540896637   -0.02621197030903695   -0.055899100494501246
0.5785824540896637   -0.02621197030903695   -0.055899100494501246
0.936914088135494   0.11013333980466818   0.06560668574007776
0.936914088135494   0.11013333980466818   0.06560668574007776
0.936914088135494   0.11013333980466818   0.06560668574007776
0.936914088135494   0.11013333980466818   0.06560668574007776
0.34514132386844576   -0.12748941977408731   -0.06004592972505009
0.34514132386844576   -0.12748941977408731   -0.06004592972505009
0.34514132386844576   -0.12748941977408731   -0.06004592972505009
0.34514132386844576   -0.12748941977408731   -0.06004592972505009
0.4229313242269843   0.016240785927817594   0.04479609258831274
0.4229313242269843   0.016240785927817594   0.04479609258831274
0.4229313242269843   0.016240785927817594   0.04479609258831274
0.4229313242269843   0.016240785927817594   0.04479609258831274
0.938943771843836   -0.0007707695962532735   -0.0799181619642911
0.938943771843836   -0.0007707695962532735   -0.0799181619642911
0.938943771843836   -0.0007707695962532735   -0.0799181619642911
0.938943771843836   -0.0007707695962532735   -0.0799181619642911
0.6348515483954887   -0.005236541866874556   -0.033846846044310944
0.6348515483954887   -0.005236541866874556   -0.033846846044310944
0.6348515483954887   -0.005236541866874556   -0.033846846044310944
0.6348515483954887   -0.005236541866874556   -0.033846846044310944
0.991394598844378   0.13107271918505298   0.050492484257096015
0.991394598844378   0.13107271918505298   0.050492484257096015
0.991394598844378   0.13107271918505298   0.050492484257096015
0.991394598844378   0.13107271918505298   0.050492484257096015
0.37438646572914247   -0.11169673435079061   -0.06999067962228421
0.37438646572914247   -0.11169673435079061   -0.06999067962228421
0.37438646572914247   -0.11169673435079061   -0.06999067962228421
0.37438646572914247   -0.11169673435079061   -0.06999067962228421
0.4524772464352175   0.05388040014897102   0.038825073921706005
0.4524772464352175   0.05388040014897102   0.038825073921706005
0.4524772464352175   0.05388040014897102   0.038825073921706005
0.4524772464352175   0.05388040014897102   0.038825073921706005
1.0097159404249476   0.049865121331293755   -0.08621498008709318
1.0097159404249476   0.049865121331293755   -0.08621498008709318
1.0097159404249476   0.049865121331293755   -0.08621498008709318
1.0097159404249476   0.049865121331293755   -0.08621498008709318
0.6696150061773   0.020273253366250604   -0.014761452136468421
0.6696150061773   0.020273253366250604   -0.014761452136468421
0.6696150061773   0.020273253366250604   -0.014761452136468421
0.6696150061773   0.020273253366250604   -0.014761452136468421
0.37820069462021566   0.04419422976797738   0.06029342150734052
0.37820069462021566   0.04419422976797738   0.06029342150734052
0.37820069462021566   0.04419422976797738   0.06029342150734052
0.37820069462021566   0.04419422976797738   0.06029342150734052
-0.18409420245121333   -0.13495814332169792   -0.026022742836968704
-0.18409420245121333   -0.13495814332169792   -0.026022742836968704
-0.18409420245121333   -0.13495814332169792   -0.026022742836968704
-0.18409420245121333   -0.13495814332169792   -0.026022742836968704
-0.13255629346151657   -0.03948975563243064   0.018272527205926856
-0.13255629346151657   -0.03948975563243064   0.018272527205926856
-0.13255629346151657   -0.03948975563243064   0.018272527205926856
-0.13255629346151657   -0.03948975563243064   0.018272527205926856
0.38125007631469915   0.001002299433364287   -0.007993886701234357
0.38125007631469915   0.001002299433364287   -0.007993886701234357
0.38125007631469915   0.001002299433364287   -0.007993886701234357
0.38125007631469915   0.001002299433364287   -0.007993886701234357
0.10572564284705885   -0.028561650855283113   -0.023829747453102144
0.10572564284705885   -0.028561650855283113   -0.023829747453102144
0.10572564284705885   -0.028561650855283113   -0.023829747453102144
0.10572564284705885   -0.028561650855283113   -0.023829747453102144
0.40858951201364796   0.07585501522232632   0.053850576004547214
0.40858951201364796   0.07585501522232632   0.053850576004547214
0.40858951201364796   0.07585501522232632   0.053850576004547214
0.40858951201364796   0.07585501522232632   0.053850576004547214
-0.15768836449256343   -0.11213510675349148   -0.03474247682825056
-0.15768836449256343   -0.11213510675349148   -0.03474247682825056
-0.15768836449256343   -0.11213510675349148   -0.03474247682825056
-0.15768836449256343   -0.11213510675349148   -0.03474247682825056
-0.10498995498473462   -0.007534866931934697   0.011553829121552178
-0.10498995498473462   -0.007534866931934697   0.011553829121552178
-0.10498995498473462   -0.007534866931934697   0.011553829121552178
-0.10498995498473462   -0.007534866931934697   0.011553829121552178
0.41367928431751183   0.029680943874325384   -0.014904264905553561
0.41367928431751183   0.029680943874325384   -0.014904264905553561
0.41367928431751183   0.029680943874325384   -0.014904264905553561
0.41367928431751183   0.029680943874325384   -0.014904264905553561
0.13236371092140192   -0.003307273730728994   -0.009478002011100162
0.13236371092140192   -0.003307273730728994   -0.009478002011100162
0.13236371092140192   -0.003307273730728994   -0.009478002011100162
0.13236371092140192   -0.003307273730728994   -0.009478002011100162
0.44211158248350085   0.10913525724762047   0.04780291255109257
0.44211158248350085   0.10913525724762047   0.04780291255109257
0.44211158248350085   0.10913525724762047   0.04780291255109257
0.44211158248350085   0.10913525724762047   0.04780291255109257
-0.13120951827157368   -0.08477644542608047   -0.04230240881849735
-0.13120951827157368   -0.08477644542608047   -0.04230240881849735
-0.13120951827157368   -0.08477644542608047   -0.04230240881849735
-0.13120951827157368   -0.08477644542608047   -0.04230240881849735
-0.07777219392370835   0.029475178745924802   0.00486517443976508
-0.07777219392370835   0.029475178745924802   0.00486517443976508
-0.07777219392370835   0.029475178745924802   0.00486517443976508
-0.07777219392370835   0.029475178745924802   0.00486517443976508
0.44244531295317163   0.06382114163980676   -0.021275334979358906
0.44244531295317163   0.06382114163980676   -0.021275334979358906
0.44244531295317163   0.06382114163980676   -0.021275334979358906
0.44244531295317163   0.06382114163980676   -0.021275334979358906
0.1652506983541843   0.027655381999885445   0.007274849404047188
0.1652506983541843   0.027655381999885445   0.007274849404047188
0.1652506983541843   0.027655381999885445   0.007274849404047188
0.1652506983541843   0.027655381999885445   0.007274849404047188
-0.1448593201417115   0.009569710327057737   0.025623815061784783
-0.1448593201417115   0.009569710327057737   0.025623815061784783
-0.1448593201417115   0.009569710327057737   0.025623815061784783
-0.1448593201417115   0.009569710327057737   0.025623815061784783
-0.6766448296957144   -0.11914510239831386   -0.003426923317560287
-0.6766448296957144   -0.11914510239831386   -0.003426923317560287
-0.6766448296957144   -0.11914510239831386   -0.003426923317560287
-0.6766448296957144   -0.11914510239831386   -0.003426923317560287
-0.6439492587984309   -0.0701236758989855   -0.015902178635716066
-0.6439492587984309   -0.0701236758989855   -0.015902178635716066
-0.6439492587984309   -0.0701236758989855   -0.015902178635716066
-0.6439492587984309   -0.0701236758989855   -0.015902178635716066
-0.12137075435942107   0.017664076365200378   0.017046390718769407
-0.12137075435942107   0.017664076365200378   0.017046390718769407
-0.12137075435942107   0.017664076365200378   0.017046390718769407
-0.12137075435942107   0.017664076365200378   0.017046390718769407
-0.39740486460616337   -0.03663991778712067   -0.014874367363453024
-0.39740486460616337   -0.03663991778712067   -0.014874367363453024
-0.39740486460616337   -0.03663991778712067   -0.014874367363453024
-0.39740486460616337   -0.03663991778712067   -0.014874367363453024
-0.11592944055892591   0.04253677557779052   0.019380260508658965
-0.11592944055892591   0.04253677557779052   0.019380260508658965
-0.11592944055892591   0.04253677557779052   0.019380260508658965
-0.11592944055892591   0.04253677557779052   0.019380260508658965
-0.6479184140146257   -0.09352421652727458   -0.012347414088400711
-0.6479184140146257   -0.09352421652727458   -0.012347414088400711
-0.6479184140146257   -0.09352421652727458   -0.012347414088400711
-0.6479184140146257   -0.09352421652727458   -0.012347414088400711
-0.613568553964922   -0.03506407006472369   -0.021483477128621562
-0.613568553964922   -0.03506407006472369   -0.021483477128621562
-0.613568553964922   -0.03506407006472369   -0.021483477128621562
-0.613568553964922   -0.03506407006472369   -0.021483477128621562
-0.09453881068894178   0.046633523654508006   0.009641160014073665
-0.09453881068894178   0.046633523654508006   0.009641160014073665
-0.09453881068894178   0.046633523654508006   0.009641160014073665
-0.09453881068894178   0.046633523654508006   0.009641160014073665
-0.36676389853257946   -0.007304930660672976   -0.00022929127170439115
-0.36676389853257946   -0.007304930660672976   -0.00022929127170439115
-0.36676389853257946   -0.007304930660672976   -0.00022929127170439115
-0.36676389853257946   -0.007304930660672976   -0.00022929127170439115
-0.08797335446147914   0.07681004851905682   0.012291916286838091
-0.08797335446147914   0.07681004851905682   0.012291916286838091
-0.08797335446147914   0.07681004851905682   0.012291916286838091
-0.08797335446147914   0.07681004851905682   0.012291916286838091
-0.6187661487680711   -0.06387273350495894   -0.018662787704131798
-0.6187661487680711   -0.06387273350495894   -0.018662787704131798
-0.6187661487680711   -0.06387273350495894   -0.018662787704131798
-0.6187661487680711   -0.06387273350495894   -0.018662787704131798
-0.5852896460041107   -0.00012320482922725806   -0.028157754075482544
-0.5852896460041107   -0.00012320482922725806   -0.028157754075482544
-0.5852896460041107   -0.00012320482922725806   -0.028157754075482544
-0.5852896460041107   -0.00012320482922725806   -0.028157754075482544
-0.06892480578711269   0.07622289258754769   0.0023544012811204766
-0.06892480578711269   0.07622289258754769   0.0023544012811204766
-0.06892480578711269   0.07622289258754769   0.0023544012811204766
-0.06892480578711269   0.07622289258754769   0.0023544012811204766
-0.338614896497461   0.021919183144812726   0.013707482460180446
-0.338614896497461   0.021919183144812726   0.013707482460180446
-0.338614896497461   0.021919183144812726   0.013707482460180446
-0.338614896497461   0.021919183144812726   0.013707482460180446
-0.6593154461091143   -0.025812022387343397   -0.01011308539552433
-0.6593154461091143   -0.025812022387343397   -0.01011308539552433
-0.6593154461091143   -0.025812022387343397   -0.01011308539552433
-0.6593154461091143   -0.025812022387343397   -0.01011308539552433
-1.1578938377594272   -0.09649933867944421   0.022390654458249337
-1.1578938377594272   -0.09649933867944421   0.022390654458249337
-1.1578938377594272   -0.09649933867944421   0.022390654458249337
-1.1578938377594272   -0.09649933867944421   0.022390654458249337
-1.1419544320681994   -0.0995421010026408   -0.047854393964831814
-1.1419544320681994   -0.0995421010026408   -0.047854393964831814
-1.1419544320681994   -0.0995421010026408   -0.047854393964831814
-1.1419544320681994   -0.0995421010026408   -0.047854393964831814
-0.6092045556363304   0.04483959108485583   0.04285807019095044
-0.6092045556363304   0.04483959108485583   0.04285807019095044
-0.6092045556363304   0.04483959108485583   0.04285807019095044
-0.6092045556363304   0.04483959108485583   0.04285807019095044
-0.8859199941549081   -0.03867125343647046   -0.005182696799785322
-0.8859199941549081   -0.03867125343647046   -0.005182696799785322
-0.8859199941549081   -0.03867125343647046   -0.005182696799785322
-0.8859199941549081   -0.03867125343647046   -0.005182696799785322
-0.6278648999124149   0.009771560167132654   -0.015375620271748859
-0.6278648999124149   0.009771560167132654   -0.015375620271748859
-0.6278648999124149   0.009771560167132654   -0.015375620271748859
-0.6278648999124149   0.009771560167132654   -0.015375620271748859
-1.1232246413672209   -0.06440462366002206   0.010657082197451477
-1.1232246413672209   -0.06440462366002206   0.010657082197451477
-1.1232246413672209   -0.06440462366002206   0.010657082197451477
-1.1232246413672209   -0.06440462366002206   0.010657082197451477
-1.102264293084804   -0.06528435258956855   -0.05292966873358815
-1.102264293084804   -0.06528435258956855   -0.05292966873358815
-1.102264293084804   -0.06528435258956855   -0.05292966873358815
-1.102264293084804   -0.06528435258956855   -0.05292966873358815
-0.5809156502248989   0.07246582460981302   0.03425114689696215
-0.5809156502248989   0.07246582460981302   0.03425114689696215
-0.5809156502248989   0.07246582460981302   0.03425114689696215
-0.5809156502248989   0.07246582460981302   0.03425114689696215
-0.8455529761584694   -0.006245149588711585   0.009500931133867255
-0.8455529761584694   -0.006245149588711585   0.009500931133867255
-0.8455529761584694   -0.006245149588711585   0.009500931133867255
-0.8455529761584694   -0.006245149588711585   0.009500931133867255
-0.5984324783999219   0.04157875851704773   -0.022445927885389017
-0.5984324783999219   0.04157875851704773   -0.022445927885389017
-0.5984324783999219   0.04157875851704773   -0.022445927885389017
-0.5984324783999219   0.04157875851704773   -0.022445927885389017
-1.0838271247298823   -0.03347694631690476   0.007448766768356617
-1.0838271247298823   -0.03347694631690476   0.007448766768356617
-1.0838271247298823   -0.03347694631690476   0.007448766768356617
-1.0838271247298823   -0.03347694631690476   0.007448766768356617
-1.0667732345162066   -0.028145570043612816   -0.055648877961962905
-1.0667732345162066   -0.028145570043612816   -0.055648877961962905
-1.0667732345162066   -0.028145570043612816   -0.055648877961962905
-1.0667732345162066   -0.028145570043612816   -0.055648877961962905
-0.5535168808707507   0.1028510451548087   0.02773182160728581
-0.5535168808707507   0.1028510451548087   0.02773182160728581
-0.5535168808707507   0.1028510451548087   0.02773182160728581
-0.5535168808707507   0.1028510451548087   0.02773182160728581
-0.8182183555938849   0.021482581493644015   0.022170013787072326
-0.8182183555938849   0.021482581493644015   0.022170013787072326
-0.8182183555938849   0.021482581493644015   0.022170013787072326
-0.8182183555938849   0.021482581493644015   0.022170013787072326
-1.162788850225405   -0.055392407629452495   -0.04319133892163143
-1.162788850225405   -0.055392407629452495   -0.04319133892163143
-1.162788850225405   -0.055392407629452495   -0.04319133892163143
-1.162788850225405   -0.055392407629452495   -0.04319133892163143
-1.6571328724225496   -0.05973825551117856   0.07485498597664533
-1.6571328724225496   -0.05973825551117856   0.07485498597664533
-1.6571328724225496   -0.05973825551117856   0.07485498597664533
-1.6571328724225496   -0.05973825551117856   0.07485498597664533
-1.6251747148100022   -0.11916643315524589   -0.057199663624337094
-1.6251747148100022   -0.11916643315524589   -0.057199663624337094
-1.6251747148100022   -0.11916643315524589   -0.057199663624337094
-1.6251747148100022   -0.11916643315524589   -0.057199663624337094
-1.078712640677773   0.09273808364515895   0.0760743783395
-1.078712640677773   0.09273808364515895   0.0760743783395
-1.078712640677773   0.09273808364515895   0.0760743783395
-1.078712640677773   0.09273808364515895   0.0760743783395
-1.319707891600601   -0.016316134815377525   0.015259783431389812
-1.319707891600601   -0.016316134815377525   0.015259783431389812
-1.319707891600601   -0.016316134815377525   0.015259783431389812
-1.319707891600601   -0.016316134815377525   0.015259783431389812
-1.1255588970460864   -0.017405917374146762   -0.04801290248275719
-1.1255588970460864   -0.017405917374146762   -0.04801290248275719
-1.1255588970460864   -0.017405917374146762   -0.04801290248275719
-1.1255588970460864   -0.017405917374146762   -0.04801290248275719
-1.5775612071777305   -0.008255180871984513   0.06995662225374051
-1.5775612071777305   -0.008255180871984513   0.06995662225374051
-1.5775612071777305   -0.008255180871984513   0.06995662225374051
-1.5775612071777305   -0.008255180871984513   0.06995662225374051
-1.565141368377661   -0.09790323160643721   -0.06735841286830113
-1.565141368377661   -0.09790323160643721   -0.06735841286830113
-1.565141368377661   -0.09790323160643721   -0.06735841286830113
-1.565141368377661   -0.09790323160643721   -0.06735841286830113
-1.0453957838553738   0.10585395532680786   0.06027456949718689
-1.0453957838553738   0.10585395532680786   0.06027456949718689
-1.0453957838553738   0.10585395532680786   0.06027456949718689
-1.0453957838553738   0.10585395532680786   0.06027456949718689
-1.288671395211253   0.006890530369230652   0.027489468021298744
-1.288671395211253   0.006890530369230652   0.027489468021298744
-1.288671395211253   0.006890530369230652   0.027489468021298744
-1.288671395211253   0.006890530369230652   0.027489468021298744
-1.0895984299133143   -0.00024991869420776247   -0.054634786771500354
-1.0895984299133143   -0.00024991869420776247   -0.054634786771500354
-1.0895984299133143   -0.00024991869420776247   -0.054634786771500354
-1.0895984299133143   -0.00024991869420776247   -0.054634786771500354
-1.5201751575619011   0.008964207172403538   0.050605202431631593
-1.5201751575619011   0.008964207172403538   0.050605202431631593
-1.5201751575619011   0.008964207172403538   0.050605202431631593
-1.5201751575619011   0.008964207172403538   0.050605202431631593
-1.4995431206524834   -0.07234368853847778   -0.07674907519043411
-1.4995431206524834   -0.07234368853847778   -0.07674907519043411
-1.4995431206524834   -0.07234368853847778   -0.07674907519043411
-1.4995431206524834   -0.07234368853847778   -0.07674907519043411
-1.0161067759205493   0.11820801598258851   0.051329828990121854
-1.0161067759205493   0.11820801598258851   0.051329828990121854
-1.0161067759205493   0.11820801598258851   0.051329828990121854
-1.0161067759205493   0.11820801598258851   0.051329828990121854
-1.22251834836689   0.02619076447887314   0.045954540776157446
-1.22251834836689   0.02619076447887314   0.045954540776157446
-1.22251834836689   0.02619076447887314   0.045954540776157446
-1.22251834836689   0.02619076447887314   0.045954540776157446
1.4600116952484194   0.10908793576110576   0.07741967937914113
1.4600116952484194   0.10908793576110576   0.07741967937914113
1.4600116952484194   0.10908793576110576   0.07741967937914113
1.4600116952484194   0.10908793576110576   0.07741967937914113
0.6441502074857388   -0.17208338514846794   -0.03554570533716139
0.6441502074857388   -0.17208338514846794   -0.03554570533716139
0.6441502074857388   -0.17208338514846794   -0.03554570533716139
0.6441502074857388   -0.17208338514846794   -0.03554570533716139
0.7183646962924711   -0.030197754023677637   0.05318902660291163
0.7183646962924711   -0.030197754023677637   0.05318902660291163
0.7183646962924711   -0.030197754023677637   0.05318902660291163
0.7183646962924711   -0.030197754023677637   0.05318902660291163
1.476186149868676   -0.0028487087854983106   -0.05573564867635521
1.476186149868676   -0.0028487087854983106   -0.05573564867635521
1.476186149868676   -0.0028487087854983106   -0.05573564867635521
1.476186149868676   -0.0028487087854983106   -0.05573564867635521
1.0117252199182591   -0.03073046737046159   -0.07918519080334635
1.0117252199182591   -0.03073046737046159   -0.07918519080334635
1.0117252199182591   -0.03073046737046159   -0.07918519080334635
1.0117252199182591   -0.03073046737046159   -0.07918519080334635
1.527653006785453   0.13397674014895108   0.06477318697307316
1.527653006785453   0.13397674014895108   0.06477318697307316
1.527653006785453   0.13397674014895108   0.06477318697307316
1.527653006785453   0.13397674014895108   0.06477318697307316
0.6718389535149021   -0.16208208881891967   -0.04755535248968808
0.6718389535149021   -0.16208208881891967   -0.04755535248968808
0.6718389535149021   -0.16208208881891967   -0.04755535248968808
0.6718389535149021   -0.16208208881891967   -0.04755535248968808
0.747413000066926   -0.014491701734267365   0.04300794912260995
0.747413000066926   -0.014491701734267365   0.04300794912260995
0.747413000066926   -0.014491701734267365   0.04300794912260995
0.747413000066926   -0.014491701734267365   0.04300794912260995
1.5269099244037323   0.014472211602292506   -0.06965641376114215
1.5269099244037323   0.014472211602292506   -0.06965641376114215
1.5269099244037323   0.014472211602292506   -0.06965641376114215
1.5269099244037323   0.014472211602292506   -0.06965641376114215
1.0753962565026682   -0.012213344065589299   -0.05385355337491767
1.0753962565026682   -0.012213344065589299   -0.05385355337491767
1.0753962565026682   -0.012213344065589299   -0.05385355337491767
1.0753962565026682   -0.012213344065589299   -0.05385355337491767
1.5780777709254148   0.1526422239190174   0.04801280653054497
1.5780777709254148   0.1526422239190174   0.04801280653054497
1.5780777709254148   0.1526422239190174   0.04801280653054497
1.5780777709254148   0.1526422239190174   0.04801280653054497
0.7005712515639302   -0.14833561603231582   -0.05735687909432022
0.7005712515639302   -0.14833561603231582   -0.05735687909432022
0.7005712515639302   -0.14833561603231582   -0.05735687909432022
0.7005712515639302   -0.14833561603231582   -0.05735687909432022
0.773724059350703   0.02745101909197986   0.03770638979058198
0.773724059350703   0.02745101909197986   0.03770638979058198
0.773724059350703   0.02745101909197986   0.03770638979058198
0.773724059350703   0.02745101909197986   0.03770638979058198
1.5893029189666439   0.06514700337196705   -0.07295020133424253
1.5893029189666439   0.06514700337196705   -0.07295020133424253
1.5893029189666439   0.06514700337196705   -0.07295020133424253
1.5893029189666439   0.06514700337196705   -0.07295020133424253
1.0992565552403042   0.012706408875715336   -0.03631056660548742
1.0992565552403042   0.012706408875715336   -0.03631056660548742
1.0992565552403042   0.012706408875715336   -0.03631056660548742
1.0992565552403042   0.012706408875715336   -0.03631056660548742
0.7125902739490392   0.0637479574099231   0.07082328442094539
0.7125902739490392   0.0637479574099231   0.07082328442094539
0.7125902739490392   0.0637479574099231   0.07082328442094539
0.7125902739490392   0.0637479574099231   0.07082328442094539
-0.08785532363343719   -0.21208574884848957   -0.020233173203362056
-0.08785532363343719   -0.21208574884848957   -0.020233173203362056
-0.08785532363343719   -0.21208574884848957   -0.020233173203362056
-0.08785532363343719   -0.21208574884848957   -0.020233173203362056
-0.023910926810450428   -0.07482293297949383   0.018040954359624693
-0.023910926810450428   -0.07482293297949383   0.018040954359624693
-0.023910926810450428   -0.07482293297949383   0.018040954359624693
-0.023910926810450428   -0.07482293297949383   0.018040954359624693
0.7065964538263513   -0.039341800593349935   0.0034918608419846967
0.7065964538263513   -0.039341800593349935   0.0034918608419846967
0.7065964538263513   -0.039341800593349935   0.0034918608419846967
0.7065964538263513   -0.039341800593349935   0.0034918608419846967
0.3179995872333802   -0.05918264233416526   -0.03776684891160244
0.3179995872333802   -0.05918264233416526   -0.03776684891160244
0.3179995872333802   -0.05918264233416526   -0.03776684891160244
0.3179995872333802   -0.05918264233416526   -0.03776684891160244
0.7438445883536796   0.08766510479871882   0.06272562808655792
0.7438445883536796   0.08766510479871882   0.06272562808655792
0.7438445883536796   0.08766510479871882   0.06272562808655792
0.7438445883536796   0.08766510479871882   0.06272562808655792
-0.05855784233357783   -0.19922861936736158   -0.03078793686814457
-0.05855784233357783   -0.19922861936736158   -0.03078793686814457
-0.05855784233357783   -0.19922861936736158   -0.03078793686814457
-0.05855784233357783   -0.19922861936736158   -0.03078793686814457
0.005711789653107728   -0.04672790313242518   0.011018994725097693
0.005711789653107728   -0.04672790313242518   0.011018994725097693
0.005711789653107728   -0.04672790313242518   0.011018994725097693
0.005711789653107728   -0.04672790313242518   0.011018994725097693
0.7369272994936942   -0.018159158289725363   -0.005753097188090778
0.7369272994936942   -0.018159158289725363   -0.005753097188090778
0.7369272994936942   -0.018159158289725363   -0.005753097188090778
0.7369272994936942   -0.018159158289725363   -0.005753097188090778
0.3437407895303636   -0.041935231523623315   -0.024486932082535193
0.3437407895303636   -0.041935231523623315   -0.024486932082535193
0.3437407895303636   -0.041935231523623315   -0.024486932082535193
0.3437407895303636   -0.041935231523623315   -0.024486932082535193
0.7761767545697281   0.11635691240530191   0.05597810749705141
0.7761767545697281   0.11635691240530191   0.05597810749705141
0.7761767545697281   0.11635691240530191   0.05597810749705141
0.7761767545697281   0.11635691240530191   0.05597810749705141
-0.03199274813966672   -0.17969905654418342   -0.044532540827020115
-0.03199274813966672   -0.17969905654418342   -0.044532540827020115
-0.03199274813966672   -0.17969905654418342   -0.044532540827020115
-0.03199274813966672   -0.17969905654418342   -0.044532540827020115
0.02896314823137644   -0.013836189161686352   0.00392017573497073
0.02896314823137644   -0.013836189161686352   0.00392017573497073
0.02896314823137644   -0.013836189161686352   0.00392017573497073
0.02896314823137644   -0.013836189161686352   0.00392017573497073
0.7596415990989659   0.008850661670598753   -0.014105554046730182
0.7596415990989659   0.008850661670598753   -0.014105554046730182
0.7596415990989659   0.008850661670598753   -0.014105554046730182
0.7596415990989659   0.008850661670598753   -0.014105554046730182
0.3752437495668681   -0.016141927617400298   -0.01024682818413035
0.3752437495668681   -0.016141927617400298   -0.01024682818413035
0.3752437495668681   -0.016141927617400298   -0.01024682818413035
0.3752437495668681   -0.016141927617400298   -0.01024682818413035
-0.030808106213975797   0.017742549975530812   0.035174615069924545
-0.030808106213975797   0.017742549975530812   0.035174615069924545
-0.030808106213975797   0.017742549975530812   0.035174615069924545
-0.030808106213975797   0.017742549975530812   0.035174615069924545
-0.8142216597917437   -0.2662289650354628   -0.01628782450957618
-0.8142216597917437   -0.2662289650354628   -0.01628782450957618
-0.8142216597917437   -0.2662289650354628   -0.01628782450957618
-0.8142216597917437   -0.2662289650354628   -0.01628782450957618
-0.7495058080828187   -0.11479815856905906   -0.017129730229130204
-0.7495058080828187   -0.11479815856905906   -0.017129730229130204
-0.7495058080828187   -0.11479815856905906   -0.017129730229130204
-0.7495058080828187   -0.11479815856905906   -0.017129730229130204
-0.02773919024286857   -0.09177541585534117   0.015852120073381347
-0.02773919024286857   -0.09177541585534117   0.015852120073381347
-0.02773919024286857   -0.09177541585534117   0.015852120073381347
-0.02773919024286857   -0.09177541585534117   0.015852120073381347
-0.4074188279403973   -0.10766784180460436   -0.033745016973409744
-0.4074188279403973   -0.10766784180460436   -0.033745016973409744
-0.4074188279403973   -0.10766784180460436   -0.033745016973409744
-0.4074188279403973   -0.10766784180460436   -0.033745016973409744
0.0020925117134404127   0.044662078529946504   0.028573135469638567
0.0020925117134404127   0.044662078529946504   0.028573135469638567
0.0020925117134404127   0.044662078529946504   0.028573135469638567
0.0020925117134404127   0.044662078529946504   0.028573135469638567
-0.7774600171981658   -0.249358160113385   -0.022340774261540436
-0.7774600171981658   -0.249358160113385   -0.022340774261540436
-0.7774600171981658   -0.249358160113385   -0.022340774261540436
-0.7774600171981658   -0.249358160113385   -0.022340774261540436
-0.7127662381967372   -0.08360689684765821   -0.023333514988900544
-0.7127662381967372   -0.08360689684765821   -0.023333514988900544
-0.7127662381967372   -0.08360689684765821   -0.023333514988900544
-0.7127662381967372   -0.08360689684765821   -0.023333514988900544
-0.00013923858848112827   -0.07142129780801891   0.006457248192743313
-0.00013923858848112827   -0.07142129780801891   0.006457248192743313
-0.00013923858848112827   -0.07142129780801891   0.006457248192743313
-0.00013923858848112827   -0.07142129780801891   0.006457248192743313
-0.3717537034061113   -0.08524765058646004   -0.018748466709192915
-0.3717537034061113   -0.08524765058646004   -0.018748466709192915
-0.3717537034061113   -0.08524765058646004   -0.018748466709192915
-0.3717537034061113   -0.08524765058646004   -0.018748466709192915
0.03220058973577723   0.07450015844819004   0.022234933557826166
0.03220058973577723   0.07450015844819004   0.022234933557826166
0.03220058973577723   0.07450015844819004   0.022234933557826166
0.03220058973577723   0.07450015844819004   0.022234933557826166
-0.745123490056968   -0.2295457766398385   -0.03918089449786771
-0.745123490056968   -0.2295457766398385   -0.03918089449786771
-0.745123490056968   -0.2295457766398385   -0.03918089449786771
-0.745123490056968   -0.2295457766398385   -0.03918089449786771
-0.6868050331859255   -0.05387837158935535   -0.03027169220458196
-0.6868050331859255   -0.05387837158935535   -0.03027169220458196
-0.6868050331859255   -0.05387837158935535   -0.03027169220458196
-0.6868050331859255   -0.05387837158935535   -0.03027169220458196
0.017987145600088152   -0.05516606317743716   -0.009629963405719885
0.017987145600088152   -0.05516606317743716   -0.009629963405719885
0.017987145600088152   -0.05516606317743716   -0.009629963405719885
0.017987145600088152   -0.05516606317743716   -0.009629963405719885
-0.3455930181151855   -0.0643420254762537   -0.0093665669937139
-0.3455930181151855   -0.0643420254762537   -0.0093665669937139
-0.3455930181151855   -0.0643420254762537   -0.0093665669937139
-0.3455930181151855   -0.0643420254762537   -0.0093665669937139
-0.762372457346914   -0.022106124127298593   -0.0011646531935971538
-0.762372457346914   -0.022106124127298593   -0.0011646531935971538
-0.762372457346914   -0.022106124127298593   -0.0011646531935971538
-0.762372457346914   -0.022106124127298593   -0.0011646531935971538
-1.54388624317617   -0.2862280187750968   -0.01311363232719739
-1.54388624317617   -0.2862280187750968   -0.01311363232719739
-1.54388624317617   -0.2862280187750968   -0.01311363232719739
-1.54388624317617   -0.2862280187750968   -0.01311363232719739
-1.4743558992601389   -0.14696111427011363   -0.050994112960026906
-1.4743558992601389   -0.14696111427011363   -0.050994112960026906
-1.4743558992601389   -0.14696111427011363   -0.050994112960026906
-1.4743558992601389   -0.14696111427011363   -0.050994112960026906
-0.7354588918436458   -0.09533652474122394   0.033643217138891165
-0.7354588918436458   -0.09533652474122394   0.033643217138891165
-0.7354588918436458   -0.09533652474122394   0.033643217138891165
-0.7354588918436458   -0.09533652474122394   0.033643217138891165
-1.1191213141774936   -0.12940412387573683   -0.023789009248033836
-1.1191213141774936   -0.12940412387573683   -0.023789009248033836
-1.1191213141774936   -0.12940412387573683   -0.023789009248033836
-1.1191213141774936   -0.12940412387573683   -0.023789009248033836
-0.7217863669718939   0.01257123177568839   -0.005901915019261773
-0.7217863669718939   0.01257123177568839   -0.005901915019261773
-0.7217863669718939   0.01257123177568839   -0.005901915019261773
-0.7217863669718939   0.01257123177568839   -0.005901915019261773
-1.4886320522979706   -0.2554724989531037   -0.013863493466183142
-1.4886320522979706   -0.2554724989531037   -0.013863493466183142
-1.4886320522979706   -0.2554724989531037   -0.013863493466183142
-1.4886320522979706   -0.2554724989531037   -0.013863493466183142
-1.4218464667773754   -0.1143831663651976   -0.05906299142561453
-1.4218464667773754   -0.1143831663651976   -0.05906299142561453
-1.4218464667773754   -0.1143831663651976   -0.05906299142561453
-1.4218464667773754   -0.1143831663651976   -0.05906299142561453
-0.6997733442229918   -0.0708701119366634   0.028894169968838708
-0.6997733442229918   -0.0708701119366634   0.028894169968838708
-0.6997733442229918   -0.0708701119366634   0.028894169968838708
-0.6997733442229918   -0.0708701119366634   0.028894169968838708
-1.0651724986368207   -0.09814888244110925   -0.007834728551912931
-1.0651724986368207   -0.09814888244110925   -0.007834728551912931
-1.0651724986368207   -0.09814888244110925   -0.007834728551912931
-1.0651724986368207   -0.09814888244110925   -0.007834728551912931
-0.6849580303588401   0.04268937056184749   -0.010588743208924313
-0.6849580303588401   0.04268937056184749   -0.010588743208924313
-0.6849580303588401   0.04268937056184749   -0.010588743208924313
-0.6849580303588401   0.04268937056184749   -0.010588743208924313
-1.4391996360509678   -0.23048050427313893   -0.029731499885624263
-1.4391996360509678   -0.23048050427313893   -0.029731499885624263
-1.4391996360509678   -0.23048050427313893   -0.029731499885624263
-1.4391996360509678   -0.23048050427313893   -0.029731499885624263
-1.3792297866610987   -0.08002622457875738   -0.06094162127025792
-1.3792297866610987   -0.08002622457875738   -0.06094162127025792
-1.3792297866610987   -0.08002622457875738   -0.06094162127025792
-1.3792297866610987   -0.08002622457875738   -0.06094162127025792
-0.6792710167088266   -0.05531561409013802   0.008835632681700664
-0.6792710167088266   -0.05531561409013802   0.008835632681700664
-0.6792710167088266   -0.05531561409013802   0.008835632681700664
-0.6792710167088266   -0.05531561409013802   0.008835632681700664
-1.03537333404646   -0.07909205200508013   -0.0026316692836342165
-1.03537333404646   -0.07909205200508013   -0.0026316692836342165
-1.03537333404646   -0.07909205200508013   -0.0026316692836342165
-1.03537333404646   -0.07909205200508013   -0.0026316692836342165
-1.501690288971892   -0.05107759336046408   -0.03728428672043996
-1.501690288971892   -0.05107759336046408   -0.03728428672043996
-1.501690288971892   -0.05107759336046408   -0.03728428672043996
-1.501690288971892   -0.05107759336046408   -0.03728428672043996
-2.2643342100119517   -0.19340231169287314   0.08574941691935228
-2.2643342100119517   -0.19340231169287314   0.08574941691935228
-2.2643342100119517   -0.19340231169287314   0.08574941691935228
-2.2643342100119517   -0.19340231169287314   0.08574941691935228
-2.1864505129034386   -0.1539964006993058   -0.04986017115715795
-2.1864505129034386   -0.1539964006993058   -0.04986017115715795
-2.1864505129034386   -0.1539964006993058   -0.04986017115715795
-2.1864505129034386   -0.1539964006993058   -0.04986017115715795
-1.410926713568546   0.04038901989872268   0.07880168132908977
-1.410926713568546   0.04038901989872268   0.07880168132908977
-1.410926713568546   0.04038901989872268   0.07880168132908977
-1.410926713568546   0.04038901989872268   0.07880168132908977
-1.7585066145763055   -0.060729369664243804   0.008343803145504203
-1.7585066145763055   -0.060729369664243804   0.008343803145504203
-1.7585066145763055   -0.060729369664243804   0.008343803145504203
-1.7585066145763055   -0.060729369664243804   0.008343803145504203
-1.4437807622057541   -0.00375527059997266   -0.041324271358238365
-1.4437807622057541   -0.00375527059997266   -0.041324271358238365
-1.4437807622057541   -0.00375527059997266   -0.041324271358238365
-1.4437807622057541   -0.00375527059997266   -0.041324271358238365
-2.148297176005572   -0.10455282193993881   0.09146293457280846
-2.148297176005572   -0.10455282193993881   0.09146293457280846
-2.148297176005572   -0.10455282193993881   0.09146293457280846
-2.148297176005572   -0.10455282193993881   0.09146293457280846
-2.1029103940308556   -0.12957949624605325   -0.0593780781916982
-2.1029103940308556   -0.12957949624605325   -0.0593780781916982
-2.1029103940308556   -0.12957949624605325   -0.0593780781916982
-2.1029103940308556   -0.12957949624605325   -0.0593780781916982
-1.3589901902173558   0.06472987189060453   0.07610535311868069
-1.3589901902173558   0.06472987189060453   0.07610535311868069
-1.3589901902173558   0.06472987189060453   0.07610535311868069
-1.3589901902173558   0.06472987189060453   0.07610535311868069
-1.7091264375250843   -0.024498144023767543   0.03500480255302561
-1.7091264375250843   -0.024498144023767543   0.03500480255302561
-1.7091264375250843   -0.024498144023767543   0.03500480255302561
-1.7091264375250843   -0.024498144023767543   0.03500480255302561
-1.3930114338057487   0.01535142737563494   -0.04462242030830256
-1.3930114338057487   0.01535142737563494   -0.04462242030830256
-1.3930114338057487   0.01535142737563494   -0.04462242030830256
-1.3930114338057487   0.01535142737563494   -0.04462242030830256
-2.067821662294833   -0.0791335635834659   0.0656196478258059
-2.067821662294833   -0.0791335635834659   0.0656196478258059
-2.067821662294833   -0.0791335635834659   0.0656196478258059
-2.067821662294833   -0.0791335635834659   0.0656196478258059
-2.016519937729168   -0.10649156373377072   -0.07175490778305614
-2.016519937729168   -0.10649156373377072   -0.07175490778305614
-2.016519937729168   -0.10649156373377072   -0.07175490778305614
-2.016519937729168   -0.10649156373377072   -0.07175490778305614
-1.3204791149967943   0.09389733941055695   0.05888817306195003
-1.3204791149967943   0.09389733941055695   0.05888817306195003
-1.3204791149967943   0.09389733941055695   0.05888817306195003
-1.3204791149967943   0.09389733941055695   0.05888817306195003
-1.6162745852609464   0.006482563272037389   0.06169279313074584
-1.6162745852609464   0.006482563272037389   0.06169279313074584
-1.6162745852609464   0.006482563272037389   0.06169279313074584
-1.6162745852609464   0.006482563272037389   0.06169279313074584
1.994331694988916   0.11953613941724828   0.07237042998824217
1.994331694988916   0.11953613941724828   0.07237042998824217
1.994331694988916   0.11953613941724828   0.07237042998824217
1.994331694988916   0.11953613941724828   0.07237042998824217
0.9508568837607864   -0.17816577919923196   0.01626673027705855
0.9508568837607864   -0.17816577919923196   0.01626673027705855
0.9508568837607864   -0.17816577919923196   0.01626673027705855
0.9508568837607864   -0.17816577919923196   0.01626673027705855
1.0033948117741465   -0.07512069599905252   0.055695753350403235
1.0033948117741465   -0.07512069599905252   0.055695753350403235
1.0033948117741465   -0.07512069599905252   0.055695753350403235
1.0033948117741465   -0.07512069599905252   0.055695753350403235
2.0048841201482848   0.016882480201834138   -0.01604153521287728
2.0048841201482848   0.016882480201834138   -0.01604153521287728
2.0048841201482848   0.016882480201834138   -0.01604153521287728
2.0048841201482848   0.016882480201834138   -0.01604153521287728
1.402225287590634   -0.03831527352488484   -0.09322788245650311
1.402225287590634   -0.03831527352488484   -0.09322788245650311
1.402225287590634   -0.03831527352488484   -0.09322788245650311
1.402225287590634   -0.03831527352488484   -0.09322788245650311
2.0427755762821294   0.1330632928034159   0.05723493285476268
2.0427755762821294   0.1330632928034159   0.05723493285476268
2.0427755762821294   0.1330632928034159   0.05723493285476268
2.0427755762821294   0.1330632928034159   0.05723493285476268
0.9746002485165308   -0.18220461572440552   0.018806856787678253
0.9746002485165308   -0.18220461572440552   0.018806856787678253
0.9746002485165308   -0.18220461572440552   0.018806856787678253
0.9746002485165308   -0.18220461572440552   0.018806856787678253
1.0233125718548215   -0.06383835246547664   0.042388118448984435
1.0233125718548215   -0.06383835246547664   0.042388118448984435
1.0233125718548215   -0.06383835246547664   0.042388118448984435
1.0233125718548215   -0.06383835246547664   0.042388118448984435
2.040062319819881   0.029605316759725164   -0.004839328203334908
2.040062319819881   0.029605316759725164   -0.004839328203334908
2.040062319819881   0.029605316759725164   -0.004839328203334908
2.040062319819881   0.029605316759725164   -0.004839328203334908
1.4601152544430513   -0.030310698771648825   -0.06367456695816073
1.4601152544430513   -0.030310698771648825   -0.06367456695816073
1.4601152544430513   -0.030310698771648825   -0.06367456695816073
1.4601152544430513   -0.030310698771648825   -0.06367456695816073
2.072116058918391   0.14537638172269052   0.03965830232625084
2.072116058918391   0.14537638172269052   0.03965830232625084
2.072116058918391   0.14537638172269052   0.03965830232625084
2.072116058918391   0.14537638172269052   0.03965830232625084
0.9975870174798921   -0.17328123270486132   0.0232032268137215
0.9975870174798921   -0.17328123270486132   0.0232032268137215
0.9975870174798921   -0.17328123270486132   0.0232032268137215
0.9975870174798921   -0.17328123270486132   0.0232032268137215
1.0526181140534223   -0.019849993772716817   0.038749617855498034
1.0526181140534223   -0.019849993772716817   0.038749617855498034
1.0526181140534223   -0.019849993772716817   0.038749617855498034
1.0526181140534223   -0.019849993772716817   0.038749617855498034
2.076637689682315   0.05873026715426094   -0.0007204097294081779
2.076637689682315   0.05873026715426094   -0.0007204097294081779
2.076637689682315   0.05873026715426094   -0.0007204097294081779
2.076637689682315   0.05873026715426094   -0.0007204097294081779
1.4673475827357116   -0.014007330585538713   -0.04757669515996135
1.4673475827357116   -0.014007330585538713   -0.04757669515996135
1.4673475827357116   -0.014007330585538713   -0.04757669515996135
1.4673475827357116   -0.014007330585538713   -0.04757669515996135
1.0034776819153164   0.02539039606002405   0.07581454579045252
1.0034776819153164   0.02539039606002405   0.07581454579045252
1.0034776819153164   0.02539039606002405   0.07581454579045252
1.0034776819153164   0.02539039606002405   0.07581454579045252
0.05311963575289172   -0.35505179148125354   0.03651463717664705
0.05311963575289172   -0.35505179148125354   0.03651463717664705
0.05311963575289172   -0.35505179148125354   0.03651463717664705
0.05311963575289172   -0.35505179148125354   0.03651463717664705
0.12161117067490101   -0.15023101490252494   0.034031072447498506
0.12161117067490101   -0.15023101490252494   0.034031072447498506
0.12161117067490101   -0.15023101490252494   0.034031072447498506
0.12161117067490101   -0.15023101490252494   0.034031072447498506
0.9777162699616763   -0.17090784589007538   0.023090194179067852
0.9777162699616763   -0.17090784589007538   0.023090194179067852
0.9777162699616763   -0.17090784589007538   0.023090194179067852
0.9777162699616763   -0.17090784589007538   0.023090194179067852
0.5214640628112132   -0.15925648193655756   -0.05965300681396943
0.5214640628112132   -0.15925648193655756   -0.05965300681396943
0.5214640628112132   -0.15925648193655756   -0.05965300681396943
0.5214640628112132   -0.15925648193655756   -0.05965300681396943
1.0272925034054436   0.036759783546367136   0.06330373196147762
1.0272925034054436   0.036759783546367136   0.06330373196147762
1.0272925034054436   0.036759783546367136   0.06330373196147762
1.0272925034054436   0.036759783546367136   0.06330373196147762
0.08512276538441588   -0.34481081618569287   0.046168847278240666
0.08512276538441588   -0.34481081618569287   0.046168847278240666
0.08512276538441588   -0.34481081618569287   0.046168847278240666
0.08512276538441588   -0.34481081618569287   0.046168847278240666
0.14915734095107855   -0.12962746440435263   0.024675330781388505
0.14915734095107855   -0.12962746440435263   0.024675330781388505
0.14915734095107855   -0.12962746440435263   0.024675330781388505
0.14915734095107855   -0.12962746440435263   0.024675330781388505
1.001290206119063   -0.16012319512362524   0.02856113242834074
1.001290206119063   -0.16012319512362524   0.02856113242834074
1.001290206119063   -0.16012319512362524   0.02856113242834074
1.001290206119063   -0.16012319512362524   0.02856113242834074
0.5449211438483316   -0.15137421638743995   -0.02982704682080195
0.5449211438483316   -0.15137421638743995   -0.02982704682080195
0.5449211438483316   -0.15137421638743995   -0.02982704682080195
0.5449211438483316   -0.15137421638743995   -0.02982704682080195
1.0495034638002751   0.0561729492928035   0.05333127641797264
1.0495034638002751   0.0561729492928035   0.05333127641797264
1.0495034638002751   0.0561729492928035   0.05333127641797264
1.0495034638002751   0.0561729492928035   0.05333127641797264
0.11353624208460358   -0.3333314500060436   0.050273822050708405
0.11353624208460358   -0.3333314500060436   0.050273822050708405
0.11353624208460358   -0.3333314500060436   0.050273822050708405
0.11353624208460358   -0.3333314500060436   0.050273822050708405
0.1914311001532354   -0.0986999159178353   0.01635205695682994
0.1914311001532354   -0.0986999159178353   0.01635205695682994
0.1914311001532354   -0.0986999159178353   0.01635205695682994
0.1914311001532354   -0.0986999159178353   0.01635205695682994
1.027095936513275   -0.14372710064943534   0.035015837031483296
1.027095936513275   -0.14372710064943534   0.035015837031483296
1.027095936513275   -0.14372710064943534   0.035015837031483296
1.027095936513275   -0.14372710064943534   0.035015837031483296
0.5860216432098813   -0.1322716033491412   0.0048794615256965435
0.5860216432098813   -0.1322716033491412   0.0048794615256965435
0.5860216432098813   -0.1322716033491412   0.0048794615256965435
0.5860216432098813   -0.1322716033491412   0.0048794615256965435
0.11303784432585118   -0.06775726799833556   0.04881115655852642
0.11303784432585118   -0.06775726799833556   0.04881115655852642
0.11303784432585118   -0.06775726799833556   0.04881115655852642
0.11303784432585118   -0.06775726799833556   0.04881115655852642
-0.8520567152293481   -0.6099872947337472   0.052858249458874684
-0.8520567152293481   -0.6099872947337472   0.052858249458874684
-0.8520567152293481   -0.6099872947337472   0.052858249458874684
-0.8520567152293481   -0.6099872947337472   0.052858249458874684
-0.7437541289772556   -0.2374359715466792   0.0035642803510781695
-0.7437541289772556   -0.2374359715466792   0.0035642803510781695
-0.7437541289772556   -0.2374359715466792   0.0035642803510781695
-0.7437541289772556   -0.2374359715466792   0.0035642803510781695
0.06005411419497164   -0.44408093001332194   0.020095705158648586
0.06005411419497164   -0.44408093001332194   0.020095705158648586
0.06005411419497164   -0.44408093001332194   0.020095705158648586
0.06005411419497164   -0.44408093001332194   0.020095705158648586
-0.3668433427377865   -0.3422536907429496   -0.07158201413423333
-0.3668433427377865   -0.3422536907429496   -0.07158201413423333
-0.3668433427377865   -0.3422536907429496   -0.07158201413423333
-0.3668433427377865   -0.3422536907429496   -0.07158201413423333
0.1418822195317291   -0.05332541462439591   0.038480716453509964
0.1418822195317291   -0.05332541462439591   0.038480716453509964
0.1418822195317291   -0.05332541462439591   0.038480716453509964
0.1418822195317291   -0.05332541462439591   0.038480716453509964
-0.8066479535184312   -0.6092572061400224   0.060916392238548694
-0.8066479535184312   -0.6092572061400224   0.060916392238548694
-0.8066479535184312   -0.6092572061400224   0.060916392238548694
-0.8066479535184312   -0.6092572061400224   0.060916392238548694
-0.7019802065657881   -0.21307872610884818   1.107466584249206e-05
-0.7019802065657881   -0.21307872610884818   1.107466584249206e-05
-0.7019802065657881   -0.21307872610884818   1.107466584249206e-05
-0.7019802065657881   -0.21307872610884818   1.107466584249206e-05
0.08909147092930855   -0.43433852946347346   0.029057045731663095
0.08909147092930855   -0.43433852946347346   0.029057045731663095
0.08909147092930855   -0.43433852946347346   0.029057045731663095
0.08909147092930855   -0.43433852946347346   0.029057045731663095
-0.32453920066841363   -0.33059393013396404   -0.02670752816651252
-0.32453920066841363   -0.33059393013396404   -0.02670752816651252
-0.32453920066841363   -0.33059393013396404   -0.02670752816651252
-0.32453920066841363   -0.33059393013396404   -0.02670752816651252
0.16825333085654814   -0.03410722531389326   0.024635041218280897
0.16825333085654814   -0.03410722531389326   0.024635041218280897
0.16825333085654814   -0.03410722531389326   0.024635041218280897
0.16825333085654814   -0.03410722531389326   0.024635041218280897
-0.7640460749628277   -0.5962140387282165   0.07281704530002225
-0.7640460749628277   -0.5962140387282165   0.07281704530002225
-0.7640460749628277   -0.5962140387282165   0.07281704530002225
-0.7640460749628277   -0.5962140387282165   0.07281704530002225
-0.6330473960347637   -0.18501904468370367   -0.007860329302200635
-0.6330473960347637   -0.18501904468370367   -0.007860329302200635
-0.6330473960347637   -0.18501904468370367   -0.007860329302200635
-0.6330473960347637   -0.18501904468370367   -0.007860329302200635
0.1344207231600055   -0.4070972934951276   0.03969754956797275
0.1344207231600055   -0.4070972934951276   0.03969754956797275
0.1344207231600055   -0.4070972934951276   0.03969754956797275
0.1344207231600055   -0.4070972934951276   0.03969754956797275
-0.26963248781373356   -0.3044512121043843   0.02027514276469626
-0.26963248781373356   -0.3044512121043843   0.02027514276469626
-0.26963248781373356   -0.3044512121043843   0.02027514276469626
-0.26963248781373356   -0.3044512121043843   0.02027514276469626
-0.76043037997668   -0.12226132789338905   0.02326395888185132
-0.76043037997668   -0.12226132789338905   0.02326395888185132
-0.76043037997668   -0.12226132789338905   0.02326395888185132
-0.76043037997668   -0.12226132789338905   0.02326395888185132
-1.8962603466159893   -0.9496837106037471   -0.04482897056853444
-1.8962603466159893   -0.9496837106037471   -0.04482897056853444
-1.8962603466159893   -0.9496837106037471   -0.04482897056853444
-1.8962603466159893   -0.9496837106037471   -0.04482897056853444
-1.717509614235185   -0.30895193042093116   -0.05238308886816725
-1.717509614235185   -0.30895193042093116   -0.05238308886816725
-1.717509614235185   -0.30895193042093116   -0.05238308886816725
-1.717509614235185   -0.30895193042093116   -0.05238308886816725
-0.8526398343769845   -0.7941994189752842   0.01589920078103846
-0.8526398343769845   -0.7941994189752842   0.01589920078103846
-0.8526398343769845   -0.7941994189752842   0.01589920078103846
-0.8526398343769845   -0.7941994189752842   0.01589920078103846
-1.3052305591534104   -0.5617181520234781   -0.07518277279775788
-1.3052305591534104   -0.5617181520234781   -0.07518277279775788
-1.3052305591534104   -0.5617181520234781   -0.07518277279775788
-1.3052305591534104   -0.5617181520234781   -0.07518277279775788
-0.7110749143200122   -0.09273624687179376   0.02226062896240853
-0.7110749143200122   -0.09273624687179376   0.02226062896240853
-0.7110749143200122   -0.09273624687179376   0.02226062896240853
-0.7110749143200122   -0.09273624687179376   0.02226062896240853
-1.8547897339347743   -1.0061303021670491   -0.041605315619996086
-1.8547897339347743   -1.0061303021670491   -0.041605315619996086
-1.8547897339347743   -1.0061303021670491   -0.041605315619996086
-1.8547897339347743   -1.0061303021670491   -0.041605315619996086
-1.661908832827871   -0.279750951674691   -0.053374540116481434
-1.661908832827871   -0.279750951674691   -0.053374540116481434
-1.661908832827871   -0.279750951674691   -0.053374540116481434
-1.661908832827871   -0.279750951674691   -0.053374540116481434
-0.812146686809936   -0.7879734495599924   0.02407339689625304
-0.812146686809936   -0.7879734495599924   0.02407339689625304
-0.812146686809936   -0.7879734495599924   0.02407339689625304
-0.812146686809936   -0.7879734495599924   0.02407339689625304
-1.2468992514026942   -0.5465465380934811   -0.05276954781831977
-1.2468992514026942   -0.5465465380934811   -0.05276954781831977
-1.2468992514026942   -0.5465465380934811   -0.05276954781831977
-1.2468992514026942   -0.5465465380934811   -0.05276954781831977
-0.671780006486966   -0.06955300716082674   0.007486356111935044
-0.671780006486966   -0.06955300716082674   0.007486356111935044
-0.671780006486966   -0.06955300716082674   0.007486356111935044
-0.671780006486966   -0.06955300716082674   0.007486356111935044
-1.8022023785268193   -0.9980982594498331   -0.036494960836067264
-1.8022023785268193   -0.9980982594498331   -0.036494960836067264
-1.8022023785268193   -0.9980982594498331   -0.036494960836067264
-1.8022023785268193   -0.9980982594498331   -0.036494960836067264
-1.5751820526826914   -0.24836596280492884   -0.060505074918327365
-1.5751820526826914   -0.24836596280492884   -0.060505074918327365
-1.5751820526826914   -0.24836596280492884   -0.060505074918327365
-1.5751820526826914   -0.24836596280492884   -0.060505074918327365
-0.7245414519577249   -0.7085920260394882   0.058242372438788104
-0.7245414519577249   -0.7085920260394882   0.058242372438788104
-0.7245414519577249   -0.7085920260394882   0.058242372438788104
-0.7245414519577249   -0.7085920260394882   0.058242372438788104
-1.1818160441077268   -0.4954330422962261   -0.029398564876632075
-1.1818160441077268   -0.4954330422962261   -0.029398564876632075
-1.1818160441077268   -0.4954330422962261   -0.029398564876632075
-1.1818160441077268   -0.4954330422962261   -0.029398564876632075
-1.7206131595937304   -0.1042194451710805   -0.012057300889906197
-1.7206131595937304   -0.1042194451710805   -0.012057300889906197
-1.7206131595937304   -0.1042194451710805   -0.012057300889906197
-1.7206131595937304   -0.1042194451710805   -0.012057300889906197
-3.0367837051910964   -0.6011611021135457   0.03097819462336804
-3.0367837051910964   -0.6011611021135457   0.03097819462336804
-3.0367837051910964   -0.6011611021135457   0.03097819462336804
-3.0367837051910964   -0.6011611021135457   0.03097819462336804
-2.917170791415935   -0.28942460348036125   -0.06402235771894044
-2.917170791415935   -0.28942460348036125   -0.06402235771894044
-2.917170791415935   -0.28942460348036125   -0.06402235771894044
-2.917170791415935   -0.28942460348036125   -0.06402235771894044
-1.6823918335094548   -0.3113563248616527   0.12561020920119131
-1.6823918335094548   -0.3113563248616527   0.12561020920119131
-1.6823918335094548   -0.3113563248616527   0.12561020920119131
-1.6823918335094548   -0.3113563248616527   0.12561020920119131
-2.2444724661846345   -0.3487171995772984   0.03217918673252032
-2.2444724661846345   -0.3487171995772984   0.03217918673252032
-2.2444724661846345   -0.3487171995772984   0.03217918673252032
-2.2444724661846345   -0.3487171995772984   0.03217918673252032
-1.6497774995496692   -0.02306363561302127   0.0003891897514936016
-1.6497774995496692   -0.02306363561302127   0.0003891897514936016
-1.6497774995496692   -0.02306363561302127   0.0003891897514936016
-1.6497774995496692   -0.02306363561302127   0.0003891897514936016
-2.9611833309764264   -0.5891154983297016   0.015605839327918702
-2.9611833309764264   -0.5891154983297016   0.015605839327918702
-2.9611833309764264   -0.5891154983297016   0.015605839327918702
-2.9611833309764264   -0.5891154983297016   0.015605839327918702
-2.851262632332435   -0.2651975058511195   -0.08125909347479947
-2.851262632332435   -0.2651975058511195   -0.08125909347479947
-2.851262632332435   -0.2651975058511195   -0.08125909347479947
-2.851262632332435   -0.2651975058511195   -0.08125909347479947
-1.625154512855052   -0.2957514007970192   0.14639750886995595
-1.625154512855052   -0.2957514007970192   0.14639750886995595
-1.625154512855052   -0.2957514007970192   0.14639750886995595
-1.625154512855052   -0.2957514007970192   0.14639750886995595
-2.2096663015865645   -0.28718002377611407   0.030931084731093322
-2.2096663015865645   -0.28718002377611407   0.030931084731093322
-2.2096663015865645   -0.28718002377611407   0.030931084731093322
-2.2096663015865645   -0.28718002377611407   0.030931084731093322
-1.5987843251080611   -0.001625513624745556   -0.015877439567364288
-1.5987843251080611   -0.001625513624745556   -0.015877439567364288
-1.5987843251080611   -0.001625513624745556   -0.015877439567364288
-1.5987843251080611   -0.001625513624745556   -0.015877439567364288
-2.881823362897202   -0.5635139358411634   0.06425368369138496
-2.881823362897202   -0.5635139358411634   0.06425368369138496
-2.881823362897202   -0.5635139358411634   0.06425368369138496
-2.881823362897202   -0.5635139358411634   0.06425368369138496
-2.714401178644435   -0.21483189216338056   -0.0908359211600966
-2.714401178644435   -0.21483189216338056   -0.0908359211600966
-2.714401178644435   -0.21483189216338056   -0.0908359211600966
-2.714401178644435   -0.21483189216338056   -0.0908359211600966
-1.5361295038313636   -0.27495629954966117   0.16134800608305788
-1.5361295038313636   -0.27495629954966117   0.16134800608305788
-1.5361295038313636   -0.27495629954966117   0.16134800608305788
-1.5361295038313636   -0.27495629954966117   0.16134800608305788
-2.0773379992992087   -0.2195340434361387   0.06338296418454771
-2.0773379992992087   -0.2195340434361387   0.06338296418454771
-2.0773379992992087   -0.2195340434361387   0.06338296418454771
-2.0773379992992087   -0.2195340434361387   0.06338296418454771
2.1843919844461324   0.07144229500384441   0.030772000607094313
2.1843919844461324   0.07144229500384441   0.030772000607094313
2.1843919844461324   0.07144229500384441   0.030772000607094313
2.1843919844461324   0.07144229500384441   0.030772000607094313
1.1155630851752762   -0.05866918605922855   0.022702579819644284
1.1155630851752762   -0.05866918605922855   0.022702579819644284
1.1155630851752762   -0.05866918605922855   0.022702579819644284
1.1155630851752762   -0.05866918605922855   0.022702579819644284
1.0719066205162722   -0.1575861937379089   0.044592594720420334
1.0719066205162722   -0.1575861937379089   0.044592594720420334
1.0719066205162722   -0.1575861937379089   0.044592594720420334
1.0719066205162722   -0.1575861937379089   0.044592594720420334
2.16852628189561   0.12219139897746822   0.01645143138085131
2.16852628189561   0.12219139897746822   0.01645143138085131
2.16852628189561   0.12219139897746822   0.01645143138085131
2.16852628189561   0.12219139897746822   0.01645143138085131
1.5479513515978949   -0.02201965639793685   -0.05714778191714735
1.5479513515978949   -0.02201965639793685   -0.05714778191714735
1.5479513515978949   -0.02201965639793685   -0.05714778191714735
1.5479513515978949   -0.02201965639793685   -0.05714778191714735
2.1565366586086894   0.05513353143436128   0.023561182489354
2.1565366586086894   0.05513353143436128   0.023561182489354
2.1565366586086894   0.05513353143436128   0.023561182489354
2.1565366586086894   0.05513353143436128   0.023561182489354
1.0803200829634692   -0.09410448703452573   0.023178200253022335
1.0803200829634692   -0.09410448703452573   0.023178200253022335
1.0803200829634692   -0.09410448703452573   0.023178200253022335
1.0803200829634692   -0.09410448703452573   0.023178200253022335
1.0440792094870033   -0.16124450545922142   0.03689467103480959
1.0440792094870033   -0.16124450545922142   0.03689467103480959
1.0440792094870033   -0.16124450545922142   0.03689467103480959
1.0440792094870033   -0.16124450545922142   0.03689467103480959
2.1430863224549355   0.11687817771557263   0.028432910968356304
2.1430863224549355   0.11687817771557263   0.028432910968356304
2.1430863224549355   0.11687817771557263   0.028432910968356304
2.1430863224549355   0.11687817771557263   0.028432910968356304
1.5432772992364785   -0.0303785129997578   -0.06619145322129771
1.5432772992364785   -0.0303785129997578   -0.06619145322129771
1.5432772992364785   -0.0303785129997578   -0.06619145322129771
1.5432772992364785   -0.0303785129997578   -0.06619145322129771
2.1252397600589736   0.04902027149085936   0.007058005213243207
2.1252397600589736   0.04902027149085936   0.007058005213243207
2.1252397600589736   0.04902027149085936   0.007058005213243207
2.1252397600589736   0.04902027149085936   0.007058005213243207
1.0555079942370325   -0.0998043768804438   0.032598466206177276
1.0555079942370325   -0.0998043768804438   0.032598466206177276
1.0555079942370325   -0.0998043768804438   0.032598466206177276
1.0555079942370325   -0.0998043768804438   0.032598466206177276
1.0147138019369781   -0.1471390233330237   0.03185702557950548
1.0147138019369781   -0.1471390233330237   0.03185702557950548
1.0147138019369781   -0.1471390233330237   0.03185702557950548
1.0147138019369781   -0.1471390233330237   0.03185702557950548
2.103875079407294   0.11814216256318805   0.040859555563378044
2.103875079407294   0.11814216256318805   0.040859555563378044
2.103875079407294   0.11814216256318805   0.040859555563378044
2.103875079407294   0.11814216256318805   0.040859555563378044
1.4852350941358508   -0.030633500597141372   -0.08940289152358502
1.4852350941358508   -0.030633500597141372   -0.08940289152358502
1.4852350941358508   -0.030633500597141372   -0.08940289152358502
1.4852350941358508   -0.030633500597141372   -0.08940289152358502
1.105493191386211   -0.14095268568908437   0.05463661050417376
1.105493191386211   -0.14095268568908437   0.05463661050417376
1.105493191386211   -0.14095268568908437   0.05463661050417376
1.105493191386211   -0.14095268568908437   0.05463661050417376
0.215243633550897   -0.13165744437946436   0.011765039130272409
0.215243633550897   -0.13165744437946436   0.011765039130272409
0.215243633550897   -0.13165744437946436   0.011765039130272409
0.215243633550897   -0.13165744437946436   0.011765039130272409
0.13996537127741726   -0.3313512874449793   0.058623885088807004
0.13996537127741726   -0.3313512874449793   0.058623885088807004
0.13996537127741726   -0.3313512874449793   0.058623885088807004
0.13996537127741726   -0.3313512874449793   0.058623885088807004
1.1115410330418012   0.04295538083780162   0.042223082772355335
1.1115410330418012   0.04295538083780162   0.042223082772355335
1.1115410330418012   0.04295538083780162   0.042223082772355335
1.1115410330418012   0.04295538083780162   0.042223082772355335
0.6331794727487181   -0.14081252124866056   -0.0024208959497307586
0.6331794727487181   -0.14081252124866056   -0.0024208959497307586
0.6331794727487181   -0.14081252124866056   -0.0024208959497307586
0.6331794727487181   -0.14081252124866056   -0.0024208959497307586
1.074244431330587   -0.14706763453440908   0.045763089588488765
1.074244431330587   -0.14706763453440908   0.045763089588488765
1.074244431330587   -0.14706763453440908   0.045763089588488765
1.074244431330587   -0.14706763453440908   0.045763089588488765
0.16784362561293567   -0.15074661944846554   0.017410488769885206
0.16784362561293567   -0.15074661944846554   0.017410488769885206
0.16784362561293567   -0.15074661944846554   0.017410488769885206
0.16784362561293567   -0.15074661944846554   0.017410488769885206
0.10625634159372777   -0.33434442641970014   0.0524888404733016
0.10625634159372777   -0.33434442641970014   0.0524888404733016
0.10625634159372777   -0.33434442641970014   0.0524888404733016
0.10625634159372777   -0.33434442641970014   0.0524888404733016
1.0858774863737939   0.034609143056290315   0.05003240695325051
1.0858774863737939   0.034609143056290315   0.05003240695325051
1.0858774863737939   0.034609143056290315   0.05003240695325051
1.0858774863737939   0.034609143056290315   0.05003240695325051
0.5874059334015737   -0.15009061982768418   -0.030384248811218886
0.5874059334015737   -0.15009061982768418   -0.030384248811218886
0.5874059334015737   -0.15009061982768418   -0.030384248811218886
0.5874059334015737   -0.15009061982768418   -0.030384248811218886
1.0466792534758742   -0.14918961252829732   0.03783999804823071
1.0466792534758742   -0.14918961252829732   0.03783999804823071
1.0466792534758742   -0.14918961252829732   0.03783999804823071
1.0466792534758742   -0.14918961252829732   0.03783999804823071
0.13522013900040042   -0.1607801063263713   0.023743507413336112
0.13522013900040042   -0.1607801063263713   0.023743507413336112
0.13522013900040042   -0.1607801063263713   0.023743507413336112
0.13522013900040042   -0.1607801063263713   0.023743507413336112
0.06853424511458829   -0.3342236081290485   0.04109499103210436
0.06853424511458829   -0.3342236081290485   0.04109499103210436
0.06853424511458829   -0.3342236081290485   0.04109499103210436
0.06853424511458829   -0.3342236081290485   0.04109499103210436
1.0567519941487071   0.03508401811710973   0.059824945188022914
1.0567519941487071   0.03508401811710973   0.059824945188022914
1.0567519941487071   0.03508401811710973   0.059824945188022914
1.0567519941487071   0.03508401811710973   0.059824945188022914
0.559431788435035   -0.14897203996480024   -0.054177345716192635
0.559431788435035   -0.14897203996480024   -0.054177345716192635
0.559431788435035   -0.14897203996480024   -0.054177345716192635
0.559431788435035   -0.14897203996480024   -0.054177345716192635
0.16767831254044588   -0.40679645094321004   0.049077440641766584
0.16767831254044588   -0.40679645094321004   0.049077440641766584
0.16767831254044588   -0.40679645094321004   0.049077440641766584
0.16767831254044588   -0.40679645094321004   0.049077440641766584
-0.6502364708501506   -0.2043738985391525   0.0007869792592223208
-0.6502364708501506   -0.2043738985391525   0.0007869792592223208
-0.6502364708501506   -0.2043738985391525   0.0007869792592223208
-0.6502364708501506   -0.2043738985391525   0.0007869792592223208
-0.7864268369573011   -0.6039582546494786   0.0671900331301378
-0.7864268369573011   -0.6039582546494786   0.0671900331301378
-0.7864268369573011   -0.6039582546494786   0.0671900331301378
-0.7864268369573011   -0.6039582546494786   0.0671900331301378
0.19289978005857358   -0.03473592979841201   0.02668057134801743
0.19289978005857358   -0.03473592979841201   0.02668057134801743
0.19289978005857358   -0.03473592979841201   0.02668057134801743
0.19289978005857358   -0.03473592979841201   0.02668057134801743
-0.26541123306179404   -0.30806790917573496   0.01157108028909054
-0.26541123306179404   -0.30806790917573496   0.01157108028909054
-0.26541123306179404   -0.30806790917573496   0.01157108028909054
-0.26541123306179404   -0.30806790917573496   0.01157108028909054
0.1155663807080714   -0.42995174065251   0.03522938544960835
0.1155663807080714   -0.42995174065251   0.03522938544960835
0.1155663807080714   -0.42995174065251   0.03522938544960835
0.1155663807080714   -0.42995174065251   0.03522938544960835
-0.7222680519810137   -0.22191705816960594   0.00594276153169632
-0.7222680519810137   -0.22191705816960594   0.00594276153169632
-0.7222680519810137   -0.22191705816960594   0.00594276153169632
-0.7222680519810137   -0.22191705816960594   0.00594276153169632
-0.8333908746153181   -0.6137109977805041   0.05467704969107498
-0.8333908746153181   -0.6137109977805041   0.05467704969107498
-0.8333908746153181   -0.6137109977805041   0.05467704969107498
-0.8333908746153181   -0.6137109977805041   0.05467704969107498
0.1613177818910559   -0.04400252364580023   0.03745413918604231
0.1613177818910559   -0.04400252364580023   0.03745413918604231
0.1613177818910559   -0.04400252364580023   0.03745413918604231
0.1613177818910559   -0.04400252364580023   0.03745413918604231
-0.32409134960616925   -0.3268279253877059   -0.02763125213575919
-0.32409134960616925   -0.3268279253877059   -0.02763125213575919
-0.32409134960616925   -0.3268279253877059   -0.02763125213575919
-0.32409134960616925   -0.3268279253877059   -0.02763125213575919
0.0796595738809355   -0.43750350243461633   0.02266407792426023
0.0796595738809355   -0.43750350243461633   0.02266407792426023
0.0796595738809355   -0.43750350243461633   0.02266407792426023
0.0796595738809355   -0.43750350243461633   0.02266407792426023
-0.7673950192733259   -0.23587237165981648   0.006817700280342752
-0.7673950192733259   -0.23587237165981648   0.006817700280342752
-0.7673950192733259   -0.23587237165981648   0.006817700280342752
-0.7673950192733259   -0.23587237165981648   0.006817700280342752
-0.884274470102935   -0.6095552158935224   0.04610313083893966
-0.884274470102935   -0.6095552158935224   0.04610313083893966
-0.884274470102935   -0.6095552158935224   0.04610313083893966
-0.884274470102935   -0.6095552158935224   0.04610313083893966
0.12617545987799667   -0.049177613445027475   0.04425507016512334
0.12617545987799667   -0.049177613445027475   0.04425507016512334
0.12617545987799667   -0.049177613445027475   0.04425507016512334
0.12617545987799667   -0.049177613445027475   0.04425507016512334
-0.37169101856299536   -0.33397034374219936   -0.06677190440065421
-0.37169101856299536   -0.33397034374219936   -0.06677190440065421
-0.37169101856299536   -0.33397034374219936   -0.06677190440065421
-0.37169101856299536   -0.33397034374219936   -0.06677190440065421
-0.7372986510255581   -0.6972542845027894   0.058356464345823506
-0.7372986510255581   -0.6972542845027894   0.058356464345823506
-0.7372986510255581   -0.6972542845027894   0.058356464345823506
-0.7372986510255581   -0.6972542845027894   0.058356464345823506
-1.634513776971601   -0.25447102360730883   -0.037899917665286886
-1.634513776971601   -0.25447102360730883   -0.037899917665286886
-1.634513776971601   -0.25447102360730883   -0.037899917665286886
-1.634513776971601   -0.25447102360730883   -0.037899917665286886
-1.8724901415799577   -1.0118509979793773   -0.05250838703645416
-1.8724901415799577   -1.0118509979793773   -0.05250838703645416
-1.8724901415799577   -1.0118509979793773   -0.05250838703645416
-1.8724901415799577   -1.0118509979793773   -0.05250838703645416
-0.6859324909780822   -0.057349205470598755   0.02305271384734674
-0.6859324909780822   -0.057349205470598755   0.02305271384734674
-0.6859324909780822   -0.057349205470598755   0.02305271384734674
-0.6859324909780822   -0.057349205470598755   0.02305271384734674
-1.2207663829586555   -0.4856594919249278   -0.04192117579430897
-1.2207663829586555   -0.4856594919249278   -0.04192117579430897
-1.2207663829586555   -0.4856594919249278   -0.04192117579430897
-1.2207663829586555   -0.4856594919249278   -0.04192117579430897
-0.8330685107498854   -0.7895502604187704   0.019573669936508276
-0.8330685107498854   -0.7895502604187704   0.019573669936508276
-0.8330685107498854   -0.7895502604187704   0.019573669936508276
-0.8330685107498854   -0.7895502604187704   0.019573669936508276
-1.7215730618226346   -0.27586888304568496   -0.033905103183531946
-1.7215730618226346   -0.27586888304568496   -0.033905103183531946
-1.7215730618226346   -0.27586888304568496   -0.033905103183531946
-1.7215730618226346   -0.27586888304568496   -0.033905103183531946
-1.928340107460489   -1.0281715406746867   -0.060723638026666554
-1.928340107460489   -1.0281715406746867   -0.060723638026666554
-1.928340107460489   -1.0281715406746867   -0.060723638026666554
-1.928340107460489   -1.0281715406746867   -0.060723638026666554
-0.7292068616674862   -0.07254357881549847   0.034429695465223335
-0.7292068616674862   -0.07254357881549847   0.034429695465223335
-0.7292068616674862   -0.07254357881549847   0.034429695465223335
-0.7292068616674862   -0.07254357881549847   0.034429695465223335
-1.2890047757445489   -0.5380418461089733   -0.059239417214359685
-1.2890047757445489   -0.5380418461089733   -0.059239417214359685
-1.2890047757445489   -0.5380418461089733   -0.059239417214359685
-1.2890047757445489   -0.5380418461089733   -0.059239417214359685
-0.8810627954246524   -0.8050417175745065   0.007648165438398552
-0.8810627954246524   -0.8050417175745065   0.007648165438398552
-0.8810627954246524   -0.8050417175745065   0.007648165438398552
-0.8810627954246524   -0.8050417175745065   0.007648165438398552
-1.7767010017181588   -0.2958902299305175   -0.03480942005919933
-1.7767010017181588   -0.2958902299305175   -0.03480942005919933
-1.7767010017181588   -0.2958902299305175   -0.03480942005919933
-1.7767010017181588   -0.2958902299305175   -0.03480942005919933
-1.9759895708768578   -0.9842257018690563   -0.06847788778991962
-1.9759895708768578   -0.9842257018690563   -0.06847788778991962
-1.9759895708768578   -0.9842257018690563   -0.06847788778991962
-1.9759895708768578   -0.9842257018690563   -0.06847788778991962
-0.7840091342621639   -0.09399563122106346   0.031870225370324995
-0.7840091342621639   -0.09399563122106346   0.031870225370324995
-0.7840091342621639   -0.09399563122106346   0.031870225370324995
-0.7840091342621639   -0.09399563122106346   0.031870225370324995
-1.351826886150557   -0.5559215427486321   -0.07577006905020474
-1.351826886150557   -0.5559215427486321   -0.07577006905020474
-1.351826886150557   -0.5559215427486321   -0.07577006905020474
-1.351826886150557   -0.5559215427486321   -0.07577006905020474
-1.605499587220248   -0.2921332632893513   0.14483327077349145
-1.605499587220248   -0.2921332632893513   0.14483327077349145
-1.605499587220248   -0.2921332632893513   0.14483327077349145
-1.605499587220248   -0.2921332632893513   0.14483327077349145
-2.8282661142031507   -0.21176580148855378   -0.05035262292729294
-2.8282661142031507   -0.21176580148855378   -0.05035262292729294
-2.8282661142031507   -0.21176580148855378   -0.05035262292729294
-2.8282661142031507   -0.21176580148855378   -0.05035262292729294
-3.001634679805318   -0.5923738457671011   0.039765450969812655
-3.001634679805318   -0.5923738457671011   0.039765450969812655
-3.001634679805318   -0.5923738457671011   0.039765450969812655
-3.001634679805318   -0.5923738457671011   0.039765450969812655
-1.6520291740589388   0.02371187079211845   0.014233581797130232
-1.6520291740589388   0.02371187079211845   0.014233581797130232
-1.6520291740589388   0.02371187079211845   0.014233581797130232
-1.6520291740589388   0.02371187079211845   0.014233581797130232
-2.16366278232565   -0.2080964537607716   0.04351399894220114
-2.16366278232565   -0.2080964537607716   0.04351399894220114
-2.16366278232565   -0.2080964537607716   0.04351399894220114
-2.16366278232565   -0.2080964537607716   0.04351399894220114
-1.6966373240852166   -0.31362210360456066   0.12852680606241312
-1.6966373240852166   -0.31362210360456066   0.12852680606241312
-1.6966373240852166   -0.31362210360456066   0.12852680606241312
-1.6966373240852166   -0.31362210360456066   0.12852680606241312
-2.9494186793005075   -0.24743202089188615   -0.044096371381324065
-2.9494186793005075   -0.24743202089188615   -0.044096371381324065
-2.9494186793005075   -0.24743202089188615   -0.044096371381324065
-2.9494186793005075   -0.24743202089188615   -0.044096371381324065
-3.0752793173216815   -0.6176394949160153   -0.012918157258395069
-3.0752793173216815   -0.6176394949160153   -0.012918157258395069
-3.0752793173216815   -0.6176394949160153   -0.012918157258395069
-3.0752793173216815   -0.6176394949160153   -0.012918157258395069
-1.704000220696925   0.006684177888088505   0.026120077228363903
-1.704000220696925   0.006684177888088505   0.026120077228363903
-1.704000220696925   0.006684177888088505   0.026120077228363903
-1.704000220696925   0.006684177888088505   0.026120077228363903
-2.29329022142794   -0.27476514703538196   0.01794890332818709
-2.29329022142794   -0.27476514703538196   0.01794890332818709
-2.29329022142794   -0.27476514703538196   0.01794890332818709
-2.29329022142794   -0.27476514703538196   0.01794890332818709
-1.7551886444782219   -0.32972108471137584   0.10658322092134287
-1.7551886444782219   -0.32972108471137584   0.10658322092134287
-1.7551886444782219   -0.32972108471137584   0.10658322092134287
-1.7551886444782219   -0.32972108471137584   0.10658322092134287
-3.0088359249421677   -0.2659792637183257   -0.032361426558464246
-3.0088359249421677   -0.2659792637183257   -0.032361426558464246
-3.0088359249421677   -0.2659792637183257   -0.032361426558464246
-3.0088359249421677   -0.2659792637183257   -0.032361426558464246
-3.1394314688995406   -0.6279159623417481   -0.00014834280919973075
-3.1394314688995406   -0.6279159623417481   -0.00014834280919973075
-3.1394314688995406   -0.6279159623417481   -0.00014834280919973075
-3.1394314688995406   -0.6279159623417481   -0.00014834280919973075
-1.7769642255455105   -0.06824403680306096   0.010667173800821633
-1.7769642255455105   -0.06824403680306096   0.010667173800821633
-1.7769642255455105   -0.06824403680306096   0.010667173800821633
-1.7769642255455105   -0.06824403680306096   0.010667173800821633
-2.321346540096288   -0.3320350756289072   0.02834259735262184
-2.321346540096288   -0.3320350756289072   0.02834259735262184
-2.321346540096288   -0.3320350756289072   0.02834259735262184
-2.321346540096288   -0.3320350756289072   0.02834259735262184
1.9124752586878602   0.08784721048762584   -0.04162761095866756
1.9124752586878602   0.08784721048762584   -0.04162761095866756
1.9124752586878602   0.08784721048762584   -0.04162761095866756
1.9124752586878602   0.08784721048762584   -0.04162761095866756
0.962844986722154   -0.01925754681328204   0.020520430406380415
0.962844986722154   -0.01925754681328204   0.020520430406380415
0.962844986722154   -0.01925754681328204   0.020520430406380415
0.962844986722154   -0.01925754681328204   0.020520430406380415
0.9014612800873109   -0.141863204643315   -0.03675658491476569
0.9014612800873109   -0.141863204643315   -0.03675658491476569
0.9014612800873109   -0.141863204643315   -0.03675658491476569
0.9014612800873109   -0.141863204643315   -0.03675658491476569
1.8902950246035408   0.13812447704344627   0.024008686118336467
1.8902950246035408   0.13812447704344627   0.024008686118336467
1.8902950246035408   0.13812447704344627   0.024008686118336467
1.8902950246035408   0.13812447704344627   0.024008686118336467
1.342501832709348   0.003290631153917145   -0.05186180024637933
1.342501832709348   0.003290631153917145   -0.05186180024637933
1.342501832709348   0.003290631153917145   -0.05186180024637933
1.342501832709348   0.003290631153917145   -0.05186180024637933
1.859197065316987   0.04863661894281651   -0.04199325221378425
1.859197065316987   0.04863661894281651   -0.04199325221378425
1.859197065316987   0.04863661894281651   -0.04199325221378425
1.859197065316987   0.04863661894281651   -0.04199325221378425
0.9308286097936743   -0.054105976122873795   0.022322835096602475
0.9308286097936743   -0.054105976122873795   0.022322835096602475
0.9308286097936743   -0.054105976122873795   0.022322835096602475
0.9308286097936743   -0.054105976122873795   0.022322835096602475
0.8684153555310095   -0.14981142440437178   -0.03034413270743959
0.8684153555310095   -0.14981142440437178   -0.03034413270743959
0.8684153555310095   -0.14981142440437178   -0.03034413270743959
0.8684153555310095   -0.14981142440437178   -0.03034413270743959
1.8443786819442014   0.1268704675622795   0.03506924761914321
1.8443786819442014   0.1268704675622795   0.03506924761914321
1.8443786819442014   0.1268704675622795   0.03506924761914321
1.8443786819442014   0.1268704675622795   0.03506924761914321
1.3243984747613031   -0.013476576668667695   -0.06195104664484331
1.3243984747613031   -0.013476576668667695   -0.06195104664484331
1.3243984747613031   -0.013476576668667695   -0.06195104664484331
1.3243984747613031   -0.013476576668667695   -0.06195104664484331
1.8130537205088508   0.038540047278015355   -0.03322513927334515
1.8130537205088508   0.038540047278015355   -0.03322513927334515
1.8130537205088508   0.038540047278015355   -0.03322513927334515
1.8130537205088508   0.038540047278015355   -0.03322513927334515
0.8973434348105684   -0.06387788627589919   0.028362725561882546
0.8973434348105684   -0.06387788627589919   0.028362725561882546
0.8973434348105684   -0.06387788627589919   0.028362725561882546
0.8973434348105684   -0.06387788627589919   0.028362725561882546
0.8364014156062893   -0.1476842459775805   -0.020798823339398684
0.8364014156062893   -0.1476842459775805   -0.020798823339398684
0.8364014156062893   -0.1476842459775805   -0.020798823339398684
0.8364014156062893   -0.1476842459775805   -0.020798823339398684
1.7875179819267306   0.11917524993422285   0.04560456795479105
1.7875179819267306   0.11917524993422285   0.04560456795479105
1.7875179819267306   0.11917524993422285   0.04560456795479105
1.7875179819267306   0.11917524993422285   0.04560456795479105
1.25878997450516   -0.02352692632564063   -0.08139720450789169
1.25878997450516   -0.02352692632564063   -0.08139720450789169
1.25878997450516   -0.02352692632564063   -0.08139720450789169
1.25878997450516   -0.02352692632564063   -0.08139720450789169
0.9679539614152445   0.01824430398254928   0.008563453075993148
0.9679539614152445   0.01824430398254928   0.008563453075993148
0.9679539614152445   0.01824430398254928   0.008563453075993148
0.9679539614152445   0.01824430398254928   0.008563453075993148
0.09356051232141319   -0.05791275151752732   -0.0021518731810926325
0.09356051232141319   -0.05791275151752732   -0.0021518731810926325
0.09356051232141319   -0.05791275151752732   -0.0021518731810926325
0.09356051232141319   -0.05791275151752732   -0.0021518731810926325
0.03571929610786451   -0.18772421979162238   -0.035353183440766454
0.03571929610786451   -0.18772421979162238   -0.035353183440766454
0.03571929610786451   -0.18772421979162238   -0.035353183440766454
0.03571929610786451   -0.18772421979162238   -0.035353183440766454
0.9691303491281824   0.11174711949668877   0.04797843614958025
0.9691303491281824   0.11174711949668877   0.04797843614958025
0.9691303491281824   0.11174711949668877   0.04797843614958025
0.9691303491281824   0.11174711949668877   0.04797843614958025
0.5071099856001338   -0.026442446670393166   -0.02013773586434371
0.5071099856001338   -0.026442446670393166   -0.02013773586434371
0.5071099856001338   -0.026442446670393166   -0.02013773586434371
0.5071099856001338   -0.026442446670393166   -0.02013773586434371
0.9407996085383064   0.0033140416016648744   0.01475781109522789
0.9407996085383064   0.0033140416016648744   0.01475781109522789
0.9407996085383064   0.0033140416016648744   0.01475781109522789
0.9407996085383064   0.0033140416016648744   0.01475781109522789
0.06512135130223361   -0.07821982729210473   0.0021527000315614657
0.06512135130223361   -0.07821982729210473   0.0021527000315614657
0.06512135130223361   -0.07821982729210473   0.0021527000315614657
0.06512135130223361   -0.07821982729210473   0.0021527000315614657
0.003856564658933262   -0.1967177526912252   -0.024581150069466443
0.003856564658933262   -0.1967177526912252   -0.024581150069466443
0.003856564658933262   -0.1967177526912252   -0.024581150069466443
0.003856564658933262   -0.1967177526912252   -0.024581150069466443
0.9341493189520199   0.09558840653366227   0.052925853459578814
0.9341493189520199   0.09558840653366227   0.052925853459578814
0.9341493189520199   0.09558840653366227   0.052925853459578814
0.9341493189520199   0.09558840653366227   0.052925853459578814
0.4704574252612064   -0.041308253962028044   -0.02851304310236786
0.4704574252612064   -0.041308253962028044   -0.02851304310236786
0.4704574252612064   -0.041308253962028044   -0.02851304310236786
0.4704574252612064   -0.041308253962028044   -0.02851304310236786
0.9074085485942284   -0.006774203541178858   0.021584611745470217
0.9074085485942284   -0.006774203541178858   0.021584611745470217
0.9074085485942284   -0.006774203541178858   0.021584611745470217
0.9074085485942284   -0.006774203541178858   0.021584611745470217
0.03044396207828523   -0.09450851555482234   0.006146599890890517
0.03044396207828523   -0.09450851555482234   0.006146599890890517
0.03044396207828523   -0.09450851555482234   0.006146599890890517
0.03044396207828523   -0.09450851555482234   0.006146599890890517
-0.030354395667934433   -0.19765137972378594   -0.016745654199813796
-0.030354395667934433   -0.19765137972378594   -0.016745654199813796
-0.030354395667934433   -0.19765137972378594   -0.016745654199813796
-0.030354395667934433   -0.19765137972378594   -0.016745654199813796
0.8988567775037248   0.08529397401208962   0.05849976615811195
0.8988567775037248   0.08529397401208962   0.05849976615811195
0.8988567775037248   0.08529397401208962   0.05849976615811195
0.8988567775037248   0.08529397401208962   0.05849976615811195
0.4417518680925942   -0.047262464049158875   -0.03572106784270429
0.4417518680925942   -0.047262464049158875   -0.03572106784270429
0.4417518680925942   -0.047262464049158875   -0.03572106784270429
0.4417518680925942   -0.047262464049158875   -0.03572106784270429
0.09523820836654724   -0.054809656201873405   0.003133511728919885
0.09523820836654724   -0.054809656201873405   0.003133511728919885
0.09523820836654724   -0.054809656201873405   0.003133511728919885
0.09523820836654724   -0.054809656201873405   0.003133511728919885
-0.7466515049307405   -0.08632217168084994   -0.0235012396160435
-0.7466515049307405   -0.08632217168084994   -0.0235012396160435
-0.7466515049307405   -0.08632217168084994   -0.0235012396160435
-0.7466515049307405   -0.08632217168084994   -0.0235012396160435
-0.8109547013606656   -0.2488951226863264   -0.040260911672315464
-0.8109547013606656   -0.2488951226863264   -0.040260911672315464
-0.8109547013606656   -0.2488951226863264   -0.040260911672315464
-0.8109547013606656   -0.2488951226863264   -0.040260911672315464
0.10219944232186635   0.08180405392926415   0.027519273908356297
0.10219944232186635   0.08180405392926415   0.027519273908356297
0.10219944232186635   0.08180405392926415   0.027519273908356297
0.10219944232186635   0.08180405392926415   0.027519273908356297
-0.3410552851529145   -0.07336362038249279   -0.019998914004039782
-0.3410552851529145   -0.07336362038249279   -0.019998914004039782
-0.3410552851529145   -0.07336362038249279   -0.019998914004039782
-0.3410552851529145   -0.07336362038249279   -0.019998914004039782
0.07129949846517522   -0.06118948222988518   0.016013090784049954
0.07129949846517522   -0.06118948222988518   0.016013090784049954
0.07129949846517522   -0.06118948222988518   0.016013090784049954
0.07129949846517522   -0.06118948222988518   0.016013090784049954
-0.7776927106396961   -0.10353953966289883   -0.0193065410908961
-0.7776927106396961   -0.10353953966289883   -0.0193065410908961
-0.7776927106396961   -0.10353953966289883   -0.0193065410908961
-0.7776927106396961   -0.10353953966289883   -0.0193065410908961
-0.8483245452408791   -0.2587487937569444   -0.026634884237743663
-0.8483245452408791   -0.2587487937569444   -0.026634884237743663
-0.8483245452408791   -0.2587487937569444   -0.026634884237743663
-0.8483245452408791   -0.2587487937569444   -0.026634884237743663
0.0672413595845645   0.06450367060084658   0.0311214012666179
0.0672413595845645   0.06450367060084658   0.0311214012666179
0.0672413595845645   0.06450367060084658   0.0311214012666179
0.0672413595845645   0.06450367060084658   0.0311214012666179
-0.3719666493377462   -0.08367554185800778   -0.023991886780408266
-0.3719666493377462   -0.08367554185800778   -0.023991886780408266
-0.3719666493377462   -0.08367554185800778   -0.023991886780408266
-0.3719666493377462   -0.08367554185800778   -0.023991886780408266
0.03821221496155466   -0.07168216259868823   0.022161511351103565
0.03821221496155466   -0.07168216259868823   0.022161511351103565
0.03821221496155466   -0.07168216259868823   0.022161511351103565
0.03821221496155466   -0.07168216259868823   0.022161511351103565
-0.818801855426693   -0.1220694153662347   -0.015700813557530877
-0.818801855426693   -0.1220694153662347   -0.015700813557530877
-0.818801855426693   -0.1220694153662347   -0.015700813557530877
-0.818801855426693   -0.1220694153662347   -0.015700813557530877
-0.8897940772450222   -0.2659583982281902   -0.023679316627671258
-0.8897940772450222   -0.2659583982281902   -0.023679316627671258
-0.8897940772450222   -0.2659583982281902   -0.023679316627671258
-0.8897940772450222   -0.2659583982281902   -0.023679316627671258
0.029429572492256188   0.049731151493920184   0.03479165538343321
0.029429572492256188   0.049731151493920184   0.03479165538343321
0.029429572492256188   0.049731151493920184   0.03479165538343321
0.029429572492256188   0.049731151493920184   0.03479165538343321
-0.4121311428762177   -0.09602199369855981   -0.03360569451209886
-0.4121311428762177   -0.09602199369855981   -0.03360569451209886
-0.4121311428762177   -0.09602199369855981   -0.03360569451209886
-0.4121311428762177   -0.09602199369855981   -0.03360569451209886
-0.7352851450634155   -0.0647030300705694   0.011711418110285955
-0.7352851450634155   -0.0647030300705694   0.011711418110285955
-0.7352851450634155   -0.0647030300705694   0.011711418110285955
-0.7352851450634155   -0.0647030300705694   0.011711418110285955
-1.5665553990777588   -0.101017489336096   -0.041449501531743316
-1.5665553990777588   -0.101017489336096   -0.041449501531743316
-1.5665553990777588   -0.101017489336096   -0.041449501531743316
-1.5665553990777588   -0.101017489336096   -0.041449501531743316
-1.6396645990675334   -0.2607430680526674   -0.04018449097354508
-1.6396645990675334   -0.2607430680526674   -0.04018449097354508
-1.6396645990675334   -0.2607430680526674   -0.04018449097354508
-1.6396645990675334   -0.2607430680526674   -0.04018449097354508
-0.739081876248324   0.062442475622034616   0.007765615581015933
-0.739081876248324   0.062442475622034616   0.007765615581015933
-0.739081876248324   0.062442475622034616   0.007765615581015933
-0.739081876248324   0.062442475622034616   0.007765615581015933
-1.1604990845014655   -0.08678694607758569   -0.016824407947862913
-1.1604990845014655   -0.08678694607758569   -0.016824407947862913
-1.1604990845014655   -0.08678694607758569   -0.016824407947862913
-1.1604990845014655   -0.08678694607758569   -0.016824407947862913
-0.7618020678995484   -0.07151019752914502   0.028117330476081576
-0.7618020678995484   -0.07151019752914502   0.028117330476081576
-0.7618020678995484   -0.07151019752914502   0.028117330476081576
-0.7618020678995484   -0.07151019752914502   0.028117330476081576
-1.6123091472924416   -0.12215513477762152   -0.04199516537314718
-1.6123091472924416   -0.12215513477762152   -0.04199516537314718
-1.6123091472924416   -0.12215513477762152   -0.04199516537314718
-1.6123091472924416   -0.12215513477762152   -0.04199516537314718
-1.691374216075769   -0.27750135445335034   -0.028191828315691895
-1.691374216075769   -0.27750135445335034   -0.028191828315691895
-1.691374216075769   -0.27750135445335034   -0.028191828315691895
-1.691374216075769   -0.27750135445335034   -0.028191828315691895
-0.7806474472538214   0.04349282701811172   0.009508984922480965
-0.7806474472538214   0.04349282701811172   0.009508984922480965
-0.7806474472538214   0.04349282701811172   0.009508984922480965
-0.7806474472538214   0.04349282701811172   0.009508984922480965
-1.193220326702052   -0.09608284005803941   -0.0168843669611122
-1.193220326702052   -0.09608284005803941   -0.0168843669611122
-1.193220326702052   -0.09608284005803941   -0.0168843669611122
-1.193220326702052   -0.09608284005803941   -0.0168843669611122
-0.8030856126877309   -0.0883692259653199   0.02918021073636106
-0.8030856126877309   -0.0883692259653199   0.02918021073636106
-0.8030856126877309   -0.0883692259653199   0.02918021073636106
-0.8030856126877309   -0.0883692259653199   0.02918021073636106
-1.6658303717223604   -0.14253362255039978   -0.035440338451598934
-1.6658303717223604   -0.14253362255039978   -0.035440338451598934
-1.6658303717223604   -0.14253362255039978   -0.035440338451598934
-1.6658303717223604   -0.14253362255039978   -0.035440338451598934
-1.7498948064154285   -0.29958420596697016   -0.030186976205943825
-1.7498948064154285   -0.29958420596697016   -0.030186976205943825
-1.7498948064154285   -0.29958420596697016   -0.030186976205943825
-1.7498948064154285   -0.29958420596697016   -0.030186976205943825
-0.8255666027284742   0.020116281392920238   0.011383376333943505
-0.8255666027284742   0.020116281392920238   0.011383376333943505
-0.8255666027284742   0.020116281392920238   0.011383376333943505
-0.8255666027284742   0.020116281392920238   0.011383376333943505
-1.2512361698609071   -0.11870762316501182   -0.027422270159193365
-1.2512361698609071   -0.11870762316501182   -0.027422270159193365
-1.2512361698609071   -0.11870762316501182   -0.027422270159193365
-1.2512361698609071   -0.11870762316501182   -0.027422270159193365
-1.5134425042302042   0.07157411813790066   0.05152336523203281
-1.5134425042302042   0.07157411813790066   0.05152336523203281
-1.5134425042302042   0.07157411813790066   0.05152336523203281
-1.5134425042302042   0.07157411813790066   0.05152336523203281
-2.3467419239300473   -0.1169336693841625   -0.03162776016996316
-2.3467419239300473   -0.1169336693841625   -0.03162776016996316
-2.3467419239300473   -0.1169336693841625   -0.03162776016996316
-2.3467419239300473   -0.1169336693841625   -0.03162776016996316
-2.404606955074905   -0.11906659159509109   0.05291905087704872
-2.404606955074905   -0.11906659159509109   0.05291905087704872
-2.404606955074905   -0.11906659159509109   0.05291905087704872
-2.404606955074905   -0.11906659159509109   0.05291905087704872
-1.5722857893409783   0.04863214276976302   -0.012665653163214621
-1.5722857893409783   0.04863214276976302   -0.012665653163214621
-1.5722857893409783   0.04863214276976302   -0.012665653163214621
-1.5722857893409783   0.04863214276976302   -0.012665653163214621
-1.8679673115780853   0.0014480959027114992   0.04739368786334473
-1.8679673115780853   0.0014480959027114992   0.04739368786334473
-1.8679673115780853   0.0014480959027114992   0.04739368786334473
-1.8679673115780853   0.0014480959027114992   0.04739368786334473
-1.5558505761151482   0.053107820973823994   0.06503473476186715
-1.5558505761151482   0.053107820973823994   0.06503473476186715
-1.5558505761151482   0.053107820973823994   0.06503473476186715
-1.5558505761151482   0.053107820973823994   0.06503473476186715
-2.4199651674107994   -0.12246526890921777   -0.020473333488297177
-2.4199651674107994   -0.12246526890921777   -0.020473333488297177
-2.4199651674107994   -0.12246526890921777   -0.020473333488297177
-2.4199651674107994   -0.12246526890921777   -0.020473333488297177
-2.4776701904946097   -0.13888113063069019   0.07196350443209379
-2.4776701904946097   -0.13888113063069019   0.07196350443209379
-2.4776701904946097   -0.13888113063069019   0.07196350443209379
-2.4776701904946097   -0.13888113063069019   0.07196350443209379
-1.625848921430644   0.03517115308485824   -0.01323786262829095
-1.625848921430644   0.03517115308485824   -0.01323786262829095
-1.625848921430644   0.03517115308485824   -0.01323786262829095
-1.625848921430644   0.03517115308485824   -0.01323786262829095
-1.9621516835813817   -0.02175012540056953   0.025855770803909772
-1.9621516835813817   -0.02175012540056953   0.025855770803909772
-1.9621516835813817   -0.02175012540056953   0.025855770803909772
-1.9621516835813817   -0.02175012540056953   0.025855770803909772
-1.610825912565415   0.03292057585438363   0.06412775892832967
-1.610825912565415   0.03292057585438363   0.06412775892832967
-1.610825912565415   0.03292057585438363   0.06412775892832967
-1.610825912565415   0.03292057585438363   0.06412775892832967
-2.495522246431438   -0.1394596004718251   -0.016718305410913445
-2.495522246431438   -0.1394596004718251   -0.016718305410913445
-2.495522246431438   -0.1394596004718251   -0.016718305410913445
-2.495522246431438   -0.1394596004718251   -0.016718305410913445
-2.581520188515048   -0.2187803640239796   0.06254150066582698
-2.581520188515048   -0.2187803640239796   0.06254150066582698
-2.581520188515048   -0.2187803640239796   0.06254150066582698
-2.581520188515048   -0.2187803640239796   0.06254150066582698
-1.687603830367408   -0.005856663551926489   -0.012459638380914517
-1.687603830367408   -0.005856663551926489   -0.012459638380914517
-1.687603830367408   -0.005856663551926489   -0.012459638380914517
-1.687603830367408   -0.005856663551926489   -0.012459638380914517
-2.0023653313199374   -0.050940689306824716   0.006882643746074918
-2.0023653313199374   -0.050940689306824716   0.006882643746074918
-2.0023653313199374   -0.050940689306824716   0.006882643746074918
-2.0023653313199374   -0.050940689306824716   0.006882643746074918
1.548968857835826   0.08279880499937195   -0.05532168164402173
1.548968857835826   0.08279880499937195   -0.05532168164402173
1.548968857835826   0.08279880499937195   -0.05532168164402173
1.548968857835826   0.08279880499937195   -0.05532168164402173
0.7680579198518054   -0.0006755667578527413   0.02007358024003318
0.7680579198518054   -0.0006755667578527413   0.02007358024003318
0.7680579198518054   -0.0006755667578527413   0.02007358024003318
0.7680579198518054   -0.0006755667578527413   0.02007358024003318
0.7018647955840313   -0.11450846424566707   -0.050725791307720744
0.7018647955840313   -0.11450846424566707   -0.050725791307720744
0.7018647955840313   -0.11450846424566707   -0.050725791307720744
0.7018647955840313   -0.11450846424566707   -0.050725791307720744
1.5197431339893408   0.12530444201710678   0.025171289014393666
1.5197431339893408   0.12530444201710678   0.025171289014393666
1.5197431339893408   0.12530444201710678   0.025171289014393666
1.5197431339893408   0.12530444201710678   0.025171289014393666
1.0759982941016124   0.009509217025330169   -0.03540877386833451
1.0759982941016124   0.009509217025330169   -0.03540877386833451
1.0759982941016124   0.009509217025330169   -0.03540877386833451
1.0759982941016124   0.009509217025330169   -0.03540877386833451
1.4874097510414088   0.042089540304769246   -0.05328072401291693
1.4874097510414088   0.042089540304769246   -0.05328072401291693
1.4874097510414088   0.042089540304769246   -0.05328072401291693
1.4874097510414088   0.042089540304769246   -0.05328072401291693
0.7328102567423712   -0.032681484322921756   0.022174534561220538
0.7328102567423712   -0.032681484322921756   0.022174534561220538
0.7328102567423712   -0.032681484322921756   0.022174534561220538
0.7328102567423712   -0.032681484322921756   0.022174534561220538
0.668756860754898   -0.12408521885076837   -0.04408736325673168
0.668756860754898   -0.12408521885076837   -0.04408736325673168
0.668756860754898   -0.12408521885076837   -0.04408736325673168
0.668756860754898   -0.12408521885076837   -0.04408736325673168
1.470218222364733   0.11214642834018704   0.03440180539178111
1.470218222364733   0.11214642834018704   0.03440180539178111
1.470218222364733   0.11214642834018704   0.03440180539178111
1.470218222364733   0.11214642834018704   0.03440180539178111
1.0500587378621267   -0.0077399918319316086   -0.046544786108949805
1.0500587378621267   -0.0077399918319316086   -0.046544786108949805
1.0500587378621267   -0.0077399918319316086   -0.046544786108949805
1.0500587378621267   -0.0077399918319316086   -0.046544786108949805
1.4385780849182082   0.030305006610938212   -0.041957460111570366
1.4385780849182082   0.030305006610938212   -0.041957460111570366
1.4385780849182082   0.030305006610938212   -0.041957460111570366
1.4385780849182082   0.030305006610938212   -0.041957460111570366
0.6991536166581412   -0.043487178664787796   0.02729837607349892
0.6991536166581412   -0.043487178664787796   0.02729837607349892
0.6991536166581412   -0.043487178664787796   0.02729837607349892
0.6991536166581412   -0.043487178664787796   0.02729837607349892
0.6385211273916136   -0.12694819405949656   -0.0360157974786275
0.6385211273916136   -0.12694819405949656   -0.0360157974786275
0.6385211273916136   -0.12694819405949656   -0.0360157974786275
0.6385211273916136   -0.12694819405949656   -0.0360157974786275
1.4143866635243028   0.10059284320131462   0.04279901655397318
1.4143866635243028   0.10059284320131462   0.04279901655397318
1.4143866635243028   0.10059284320131462   0.04279901655397318
1.4143866635243028   0.10059284320131462   0.04279901655397318
0.98971060649804   -0.019626258428359772   -0.0632297524789586
0.98971060649804   -0.019626258428359772   -0.0632297524789586
0.98971060649804   -0.019626258428359772   -0.0632297524789586
0.98971060649804   -0.019626258428359772   -0.0632297524789586
0.7812004810279143   0.08088981727711375   0.004221002085611644
0.7812004810279143   0.08088981727711375   0.004221002085611644
0.7812004810279143   0.08088981727711375   0.004221002085611644
0.7812004810279143   0.08088981727711375   0.004221002085611644
0.02695814807905328   -0.025515918465953046   -0.003157560926420805
0.02695814807905328   -0.025515918465953046   -0.003157560926420805
0.02695814807905328   -0.025515918465953046   -0.003157560926420805
0.02695814807905328   -0.025515918465953046   -0.003157560926420805
-0.022934118148667013   -0.10316157394053936   -0.034500563759711084
-0.022934118148667013   -0.10316157394053936   -0.034500563759711084
-0.022934118148667013   -0.10316157394053936   -0.034500563759711084
-0.022934118148667013   -0.10316157394053936   -0.034500563759711084
0.7661033405456893   0.11345057627042375   0.042507892984465265
0.7661033405456893   0.11345057627042375   0.042507892984465265
0.7661033405456893   0.11345057627042375   0.042507892984465265
0.7661033405456893   0.11345057627042375   0.042507892984465265
0.38179045448940446   0.016159043052941024   -0.004381759358042067
0.38179045448940446   0.016159043052941024   -0.004381759358042067
0.38179045448940446   0.016159043052941024   -0.004381759358042067
0.38179045448940446   0.016159043052941024   -0.004381759358042067
0.7485972937728914   0.059775390228235845   0.008652845162667826
0.7485972937728914   0.059775390228235845   0.008652845162667826
0.7485972937728914   0.059775390228235845   0.008652845162667826
0.7485972937728914   0.059775390228235845   0.008652845162667826
-0.005118168681323521   -0.04917648520381538   0.0005940948402823887
-0.005118168681323521   -0.04917648520381538   0.0005940948402823887
-0.005118168681323521   -0.04917648520381538   0.0005940948402823887
-0.005118168681323521   -0.04917648520381538   0.0005940948402823887
-0.05429742655425138   -0.11864951174558151   -0.029816992430430123
-0.05429742655425138   -0.11864951174558151   -0.029816992430430123
-0.05429742655425138   -0.11864951174558151   -0.029816992430430123
-0.05429742655425138   -0.11864951174558151   -0.029816992430430123
0.7305758095197132   0.09388184977941506   0.04704031193715631
0.7305758095197132   0.09388184977941506   0.04704031193715631
0.7305758095197132   0.09388184977941506   0.04704031193715631
0.7305758095197132   0.09388184977941506   0.04704031193715631
0.34349262540693776   -0.0031214004755606706   -0.015339589030046091
0.34349262540693776   -0.0031214004755606706   -0.015339589030046091
0.34349262540693776   -0.0031214004755606706   -0.015339589030046091
0.34349262540693776   -0.0031214004755606706   -0.015339589030046091
0.7137245823921934   0.043542911454657204   0.013123114624318807
0.7137245823921934   0.043542911454657204   0.013123114624318807
0.7137245823921934   0.043542911454657204   0.013123114624318807
0.7137245823921934   0.043542911454657204   0.013123114624318807
-0.037415646954330764   -0.06828002094842225   0.004222414772013728
-0.037415646954330764   -0.06828002094842225   0.004222414772013728
-0.037415646954330764   -0.06828002094842225   0.004222414772013728
-0.037415646954330764   -0.06828002094842225   0.004222414772013728
-0.08534482703735441   -0.12798769905416998   -0.02370699463210694
-0.08534482703735441   -0.12798769905416998   -0.02370699463210694
-0.08534482703735441   -0.12798769905416998   -0.02370699463210694
-0.08534482703735441   -0.12798769905416998   -0.02370699463210694
0.6967862982573062   0.0773662622200335   0.05099560057029617
0.6967862982573062   0.0773662622200335   0.05099560057029617
0.6967862982573062   0.0773662622200335   0.05099560057029617
0.6967862982573062   0.0773662622200335   0.05099560057029617
0.3151556398211964   -0.015470622613287438   -0.023421836124416364
0.3151556398211964   -0.015470622613287438   -0.023421836124416364
0.3151556398211964   -0.015470622613287438   -0.023421836124416364
0.3151556398211964   -0.015470622613287438   -0.023421836124416364
0.05255509103242694   0.08173470209156572   0.017576533282928727
0.05255509103242694   0.08173470209156572   0.017576533282928727
0.05255509103242694   0.08173470209156572   0.017576533282928727
0.05255509103242694   0.08173470209156572   0.017576533282928727
-0.691117383708745   -0.04468687553918736   -0.023784876601011622
-0.691117383708745   -0.04468687553918736   -0.023784876601011622
-0.691117383708745   -0.04468687553918736   -0.023784876601011622
-0.691117383708745   -0.04468687553918736   -0.023784876601011622
-0.7300429584201239   -0.09451177103787001   -0.02181745018532421
-0.7300429584201239   -0.09451177103787001   -0.02181745018532421
-0.7300429584201239   -0.09451177103787001   -0.02181745018532421
-0.7300429584201239   -0.09451177103787001   -0.02181745018532421
0.02729564034168823   0.09289461127685748   0.02059204347466829
0.02729564034168823   0.09289461127685748   0.02059204347466829
0.02729564034168823   0.09289461127685748   0.02059204347466829
0.02729564034168823   0.09289461127685748   0.02059204347466829
-0.33490805629634046   0.01043715791320278   0.001267012735482239
-0.33490805629634046   0.01043715791320278   0.001267012735482239
-0.33490805629634046   0.01043715791320278   0.001267012735482239
-0.33490805629634046   0.01043715791320278   0.001267012735482239
0.021951650966191005   0.0646699853760548   0.022096722497984847
0.021951650966191005   0.0646699853760548   0.022096722497984847
0.021951650966191005   0.0646699853760548   0.022096722497984847
0.021951650966191005   0.0646699853760548   0.022096722497984847
-0.7238441067222037   -0.06543228281464426   -0.01990267991894856
-0.7238441067222037   -0.06543228281464426   -0.01990267991894856
-0.7238441067222037   -0.06543228281464426   -0.01990267991894856
-0.7238441067222037   -0.06543228281464426   -0.01990267991894856
-0.7637021583079113   -0.11153064350976696   -0.018106651393912744
-0.7637021583079113   -0.11153064350976696   -0.018106651393912744
-0.7637021583079113   -0.11153064350976696   -0.018106651393912744
-0.7637021583079113   -0.11153064350976696   -0.018106651393912744
-0.00505240534596265   0.07276338109776519   0.024995220767670676
-0.00505240534596265   0.07276338109776519   0.024995220767670676
-0.00505240534596265   0.07276338109776519   0.024995220767670676
-0.00505240534596265   0.07276338109776519   0.024995220767670676
-0.3671545792705945   -0.0062108378301582445   -0.006973138827679276
-0.3671545792705945   -0.0062108378301582445   -0.006973138827679276
-0.3671545792705945   -0.0062108378301582445   -0.006973138827679276
-0.3671545792705945   -0.0062108378301582445   -0.006973138827679276
-0.009618298294277794   0.04824440516376128   0.02668473196009502
-0.009618298294277794   0.04824440516376128   0.02668473196009502
-0.009618298294277794   0.04824440516376128   0.02668473196009502
-0.009618298294277794   0.04824440516376128   0.02668473196009502
-0.7584010693229603   -0.08627647153912651   -0.016855378439790243
-0.7584010693229603   -0.08627647153912651   -0.016855378439790243
-0.7584010693229603   -0.08627647153912651   -0.016855378439790243
-0.7584010693229603   -0.08627647153912651   -0.016855378439790243
-0.797135295353228   -0.12492799671435581   -0.011939217812462469
-0.797135295353228   -0.12492799671435581   -0.011939217812462469
-0.797135295353228   -0.12492799671435581   -0.011939217812462469
-0.797135295353228   -0.12492799671435581   -0.011939217812462469
-0.038564347323955736   0.053799188327452716   0.028408516553263728
-0.038564347323955736   0.053799188327452716   0.028408516553263728
-0.038564347323955736   0.053799188327452716   0.028408516553263728
-0.038564347323955736   0.053799188327452716   0.028408516553263728
-0.40185077084496623   -0.02314251853285333   -0.015975360417147044
-0.40185077084496623   -0.02314251853285333   -0.015975360417147044
-0.40185077084496623   -0.02314251853285333   -0.015975360417147044
-0.40185077084496623   -0.02314251853285333   -0.015975360417147044
-0.6516708740640941   0.09666789599134276   0.03209290009172432
-0.6516708740640941   0.09666789599134276   0.03209290009172432
-0.6516708740640941   0.09666789599134276   0.03209290009172432
-0.6516708740640941   0.09666789599134276   0.03209290009172432
-1.385246390848841   -0.06147241191690847   -0.0389902161210938
-1.385246390848841   -0.06147241191690847   -0.0389902161210938
-1.385246390848841   -0.06147241191690847   -0.0389902161210938
-1.385246390848841   -0.06147241191690847   -0.0389902161210938
-1.4155994672249326   -0.07565117619613979   -0.006185052533186096
-1.4155994672249326   -0.07565117619613979   -0.006185052533186096
-1.4155994672249326   -0.07565117619613979   -0.006185052533186096
-1.4155994672249326   -0.07565117619613979   -0.006185052533186096
-0.6929613676616397   0.07024585904415245   -0.0011671264749222102
-0.6929613676616397   0.07024585904415245   -0.0011671264749222102
-0.6929613676616397   0.07024585904415245   -0.0011671264749222102
-0.6929613676616397   0.07024585904415245   -0.0011671264749222102
-1.0288856458940314   0.01063738804824052   0.0074928493800863055
-1.0288856458940314   0.01063738804824052   0.0074928493800863055
-1.0288856458940314   0.01063738804824052   0.0074928493800863055
-1.0288856458940314   0.01063738804824052   0.0074928493800863055
-0.6837396722157877   0.0791626960600205   0.036024513738470244
-0.6837396722157877   0.0791626960600205   0.036024513738470244
-0.6837396722157877   0.0791626960600205   0.036024513738470244
-0.6837396722157877   0.0791626960600205   0.036024513738470244
-1.4236571881603555   -0.08340403870158045   -0.038720794704871254
-1.4236571881603555   -0.08340403870158045   -0.038720794704871254
-1.4236571881603555   -0.08340403870158045   -0.038720794704871254
-1.4236571881603555   -0.08340403870158045   -0.038720794704871254
-1.4570534886492785   -0.09478414539924357   -0.005469835768838208
-1.4570534886492785   -0.09478414539924357   -0.005469835768838208
-1.4570534886492785   -0.09478414539924357   -0.005469835768838208
-1.4570534886492785   -0.09478414539924357   -0.005469835768838208
-0.7270164072616779   0.05103511982617426   0.0027563405013206893
-0.7270164072616779   0.05103511982617426   0.0027563405013206893
-0.7270164072616779   0.05103511982617426   0.0027563405013206893
-0.7270164072616779   0.05103511982617426   0.0027563405013206893
-1.057927407142894   -0.004602090537921127   0.0007317555318494748
-1.057927407142894   -0.004602090537921127   0.0007317555318494748
-1.057927407142894   -0.004602090537921127   0.0007317555318494748
-1.057927407142894   -0.004602090537921127   0.0007317555318494748
-0.7169180103397971   0.06266133866983273   0.041622106267061795
-0.7169180103397971   0.06266133866983273   0.041622106267061795
-0.7169180103397971   0.06266133866983273   0.041622106267061795
-0.7169180103397971   0.06266133866983273   0.041622106267061795
-1.4647916238120195   -0.10405010248376495   -0.034894554498033706
-1.4647916238120195   -0.10405010248376495   -0.034894554498033706
-1.4647916238120195   -0.10405010248376495   -0.034894554498033706
-1.4647916238120195   -0.10405010248376495   -0.034894554498033706
-1.4952264178072707   -0.11526554325139621   0.004134068191219337
-1.4952264178072707   -0.11526554325139621   0.004134068191219337
-1.4952264178072707   -0.11526554325139621   0.004134068191219337
-1.4952264178072707   -0.11526554325139621   0.004134068191219337
-0.7631055251579364   0.028185509790509655   0.0050961266591417476
-0.7631055251579364   0.028185509790509655   0.0050961266591417476
-0.7631055251579364   0.028185509790509655   0.0050961266591417476
-0.7631055251579364   0.028185509790509655   0.0050961266591417476
-1.1032095152672807   -0.025965893933811435   -0.008348955605760058
-1.1032095152672807   -0.025965893933811435   -0.008348955605760058
-1.1032095152672807   -0.025965893933811435   -0.008348955605760058
-1.1032095152672807   -0.025965893933811435   -0.008348955605760058
-1.3360583659383574   0.10052007795920742   0.04495741855519686
-1.3360583659383574   0.10052007795920742   0.04495741855519686
-1.3360583659383574   0.10052007795920742   0.04495741855519686
-1.3360583659383574   0.10052007795920742   0.04495741855519686
-2.0447156842109604   -0.09456164683756407   -0.036011903827453604
-2.0447156842109604   -0.09456164683756407   -0.036011903827453604
-2.0447156842109604   -0.09456164683756407   -0.036011903827453604
-2.0447156842109604   -0.09456164683756407   -0.036011903827453604
-2.0728708588598215   -0.04129698245539559   0.038273790229835444
-2.0728708588598215   -0.04129698245539559   0.038273790229835444
-2.0728708588598215   -0.04129698245539559   0.038273790229835444
-2.0728708588598215   -0.04129698245539559   0.038273790229835444
-1.3948856320981067   0.04196377407697527   -0.020230827172170174
-1.3948856320981067   0.04196377407697527   -0.020230827172170174
-1.3948856320981067   0.04196377407697527   -0.020230827172170174
-1.3948856320981067   0.04196377407697527   -0.020230827172170174
-1.6364877329879381   0.020954470292628202   0.03756360736025395
-1.6364877329879381   0.020954470292628202   0.03756360736025395
-1.6364877329879381   0.020954470292628202   0.03756360736025395
-1.6364877329879381   0.020954470292628202   0.03756360736025395
-1.3684468787791084   0.10226533184561315   0.05166138165416638
-1.3684468787791084   0.10226533184561315   0.05166138165416638
-1.3684468787791084   0.10226533184561315   0.05166138165416638
-1.3684468787791084   0.10226533184561315   0.05166138165416638
-2.0977486941964774   -0.10003762224168788   -0.027374746667115035
-2.0977486941964774   -0.10003762224168788   -0.027374746667115035
-2.0977486941964774   -0.10003762224168788   -0.027374746667115035
-2.0977486941964774   -0.10003762224168788   -0.027374746667115035
-2.1243539503323645   -0.05130613273748036   0.05288073716173648
-2.1243539503323645   -0.05130613273748036   0.05288073716173648
-2.1243539503323645   -0.05130613273748036   0.05288073716173648
-2.1243539503323645   -0.05130613273748036   0.05288073716173648
-1.4344198032502333   0.030922463174729076   -0.018008017347584157
-1.4344198032502333   0.030922463174729076   -0.018008017347584157
-1.4344198032502333   0.030922463174729076   -0.018008017347584157
-1.4344198032502333   0.030922463174729076   -0.018008017347584157
-1.7072309001327508   0.010329996677556463   0.024099731576501388
-1.7072309001327508   0.010329996677556463   0.024099731576501388
-1.7072309001327508   0.010329996677556463   0.024099731576501388
-1.7072309001327508   0.010329996677556463   0.024099731576501388
-1.4052193887119584   0.09477327988163098   0.06414323863688721
-1.4052193887119584   0.09477327988163098   0.06414323863688721
-1.4052193887119584   0.09477327988163098   0.06414323863688721
-1.4052193887119584   0.09477327988163098   0.06414323863688721
-2.152048119004812   -0.11365070357855006   -0.02324553535940098
-2.152048119004812   -0.11365070357855006   -0.02324553535940098
-2.152048119004812   -0.11365070357855006   -0.02324553535940098
-2.152048119004812   -0.11365070357855006   -0.02324553535940098
-2.1941796025856215   -0.09415777253006596   0.052610588946601755
-2.1941796025856215   -0.09415777253006596   0.052610588946601755
-2.1941796025856215   -0.09415777253006596   0.052610588946601755
-2.1941796025856215   -0.09415777253006596   0.052610588946601755
-1.4768075829142762   -0.002124645644560108   -0.016912654950643716
-1.4768075829142762   -0.002124645644560108   -0.016912654950643716
-1.4768075829142762   -0.002124645644560108   -0.016912654950643716
-1.4768075829142762   -0.002124645644560108   -0.016912654950643716
-1.7279403482984748   -0.004935131664713099   0.019616058833402644
-1.7279403482984748   -0.004935131664713099   0.019616058833402644
-1.7279403482984748   -0.004935131664713099   0.019616058833402644
-1.7279403482984748   -0.004935131664713099   0.019616058833402644
1.1733557130295096   0.06514151990987777   -0.056138779599018404
1.1733557130295096   0.06514151990987777   -0.056138779599018404
1.1733557130295096   0.06514151990987777   -0.056138779599018404
1.1733557130295096   0.06514151990987777   -0.056138779599018404
0.5581025502296451   0.011308986006880878   0.02143149125922123
0.5581025502296451   0.011308986006880878   0.02143149125922123
0.5581025502296451   0.011308986006880878   0.02143149125922123
0.5581025502296451   0.011308986006880878   0.02143149125922123
0.4957184866209299   -0.09519435819830044   -0.053298064694231456
0.4957184866209299   -0.09519435819830044   -0.053298064694231456
0.4957184866209299   -0.09519435819830044   -0.053298064694231456
0.4957184866209299   -0.09519435819830044   -0.053298064694231456
1.1478678214635192   0.10791103884944586   0.02649733726691267
1.1478678214635192   0.10791103884944586   0.02649733726691267
1.1478678214635192   0.10791103884944586   0.02649733726691267
1.1478678214635192   0.10791103884944586   0.02649733726691267
0.8001846010817906   0.010826165357455009   -0.023658765370487535
0.8001846010817906   0.010826165357455009   -0.023658765370487535
0.8001846010817906   0.010826165357455009   -0.023658765370487535
0.8001846010817906   0.010826165357455009   -0.023658765370487535
1.116165282674489   0.028944791987926016   -0.05304910981671957
1.116165282674489   0.028944791987926016   -0.05304910981671957
1.116165282674489   0.028944791987926016   -0.05304910981671957
1.116165282674489   0.028944791987926016   -0.05304910981671957
0.526795436937424   -0.016853699809307288   0.023746028499242053
0.526795436937424   -0.016853699809307288   0.023746028499242053
0.526795436937424   -0.016853699809307288   0.023746028499242053
0.526795436937424   -0.016853699809307288   0.023746028499242053
0.466569098307272   -0.1045533725019838   -0.04544807476161173
0.466569098307272   -0.1045533725019838   -0.04544807476161173
0.466569098307272   -0.1045533725019838   -0.04544807476161173
0.466569098307272   -0.1045533725019838   -0.04544807476161173
1.1025449777665104   0.09453834215684451   0.03483620577565205
1.1025449777665104   0.09453834215684451   0.03483620577565205
1.1025449777665104   0.09453834215684451   0.03483620577565205
1.1025449777665104   0.09453834215684451   0.03483620577565205
0.7740540229475623   -0.005392048676900463   -0.03325458305477686
0.7740540229475623   -0.005392048676900463   -0.03325458305477686
0.7740540229475623   -0.005392048676900463   -0.03325458305477686
0.7740540229475623   -0.005392048676900463   -0.03325458305477686
1.0715849474216033   0.017045242928999033   -0.04247084672102908
1.0715849474216033   0.017045242928999033   -0.04247084672102908
1.0715849474216033   0.017045242928999033   -0.04247084672102908
1.0715849474216033   0.017045242928999033   -0.04247084672102908
0.49674146551227927   -0.027847936414037378   0.02870832517547385
0.49674146551227927   -0.027847936414037378   0.02870832517547385
0.49674146551227927   -0.027847936414037378   0.02870832517547385
0.49674146551227927   -0.027847936414037378   0.02870832517547385
0.44029306357536785   -0.11035514568884018   -0.03784732794786584
0.44029306357536785   -0.11035514568884018   -0.03784732794786584
0.44029306357536785   -0.11035514568884018   -0.03784732794786584
0.44029306357536785   -0.11035514568884018   -0.03784732794786584
1.0514404547784737   0.08003358719653289   0.041372088733369415
1.0514404547784737   0.08003358719653289   0.041372088733369415
1.0514404547784737   0.08003358719653289   0.041372088733369415
1.0514404547784737   0.08003358719653289   0.041372088733369415
0.7225149674082347   -0.017660268841631438   -0.04743383184740647
0.7225149674082347   -0.017660268841631438   -0.04743383184740647
0.7225149674082347   -0.017660268841631438   -0.04743383184740647
0.7225149674082347   -0.017660268841631438   -0.04743383184740647
0.567371914675126   0.08251317244770762   -0.003425872954190237
0.567371914675126   0.08251317244770762   -0.003425872954190237
0.567371914675126   0.08251317244770762   -0.003425872954190237
0.567371914675126   0.08251317244770762   -0.003425872954190237
-0.03694090187237279   -0.0079644571083546   -0.00025715113531478927
-0.03694090187237279   -0.0079644571083546   -0.00025715113531478927
-0.03694090187237279   -0.0079644571083546   -0.00025715113531478927
-0.03694090187237279   -0.0079644571083546   -0.00025715113531478927
-0.0808865042498519   -0.07122253419310394   -0.03386781453763202
-0.0808865042498519   -0.07122253419310394   -0.03386781453763202
-0.0808865042498519   -0.07122253419310394   -0.03386781453763202
-0.0808865042498519   -0.07122253419310394   -0.03386781453763202
0.5525657762243433   0.09806807155645544   0.03767595356807581
0.5525657762243433   0.09806807155645544   0.03767595356807581
0.5525657762243433   0.09806807155645544   0.03767595356807581
0.5525657762243433   0.09806807155645544   0.03767595356807581
0.2466687486265415   0.02421475941199288   0.0017501709173895642
0.2466687486265415   0.02421475941199288   0.0017501709173895642
0.2466687486265415   0.02421475941199288   0.0017501709173895642
0.2466687486265415   0.02421475941199288   0.0017501709173895642
0.5376513873442962   0.059577519315093905   0.0015945614092090395
0.5376513873442962   0.059577519315093905   0.0015945614092090395
0.5376513873442962   0.059577519315093905   0.0015945614092090395
0.5376513873442962   0.059577519315093905   0.0015945614092090395
-0.06571612537837838   -0.03247599196031478   0.003237537586946438
-0.06571612537837838   -0.03247599196031478   0.003237537586946438
-0.06571612537837838   -0.03247599196031478   0.003237537586946438
-0.06571612537837838   -0.03247599196031478   0.003237537586946438
-0.108344165158253   -0.08890975940258078   -0.027997759294856588
-0.108344165158253   -0.08890975940258078   -0.027997759294856588
-0.108344165158253   -0.08890975940258078   -0.027997759294856588
-0.108344165158253   -0.08890975940258078   -0.027997759294856588
0.5201990097494874   0.07695885576996792   0.04118925417750977
0.5201990097494874   0.07695885576996792   0.04118925417750977
0.5201990097494874   0.07695885576996792   0.04118925417750977
0.5201990097494874   0.07695885576996792   0.04118925417750977
0.21284039045143938   0.0033449569167807655   -0.008728679232103211
0.21284039045143938   0.0033449569167807655   -0.008728679232103211
0.21284039045143938   0.0033449569167807655   -0.008728679232103211
0.21284039045143938   0.0033449569167807655   -0.008728679232103211
0.5057781291674505   0.04060249394081532   0.005441213096481781
0.5057781291674505   0.04060249394081532   0.005441213096481781
0.5057781291674505   0.04060249394081532   0.005441213096481781
0.5057781291674505   0.04060249394081532   0.005441213096481781
-0.09413170218549681   -0.05276181518271848   0.006916611349062107
-0.09413170218549681   -0.05276181518271848   0.006916611349062107
-0.09413170218549681   -0.05276181518271848   0.006916611349062107
-0.09413170218549681   -0.05276181518271848   0.006916611349062107
-0.13544434725617013   -0.10377547001714058   -0.022482415102097808
-0.13544434725617013   -0.10377547001714058   -0.022482415102097808
-0.13544434725617013   -0.10377547001714058   -0.022482415102097808
-0.13544434725617013   -0.10377547001714058   -0.022482415102097808
0.4903155278829046   0.057430935807140954   0.04447891209383458
0.4903155278829046   0.057430935807140954   0.04447891209383458
0.4903155278829046   0.057430935807140954   0.04447891209383458
0.4903155278829046   0.057430935807140954   0.04447891209383458
0.18687755426293265   -0.012487117373217109   -0.017462813024501284
0.18687755426293265   -0.012487117373217109   -0.017462813024501284
0.18687755426293265   -0.012487117373217109   -0.017462813024501284
0.18687755426293265   -0.012487117373217109   -0.017462813024501284
-0.012871875339120053   0.09845325528288233   0.013670269139711989
-0.012871875339120053   0.09845325528288233   0.013670269139711989
-0.012871875339120053   0.09845325528288233   0.013670269139711989
-0.012871875339120053   0.09845325528288233   0.013670269139711989
-0.6193045638617642   -0.026802090385729824   -0.02054235602208158
-0.6193045638617642   -0.026802090385729824   -0.02054235602208158
-0.6193045638617642   -0.026802090385729824   -0.02054235602208158
-0.6193045638617642   -0.026802090385729824   -0.02054235602208158
-0.6476283864757312   -0.04941514915716071   -0.016032731878003133
-0.6476283864757312   -0.04941514915716071   -0.016032731878003133
-0.6476283864757312   -0.04941514915716071   -0.016032731878003133
-0.6476283864757312   -0.04941514915716071   -0.016032731878003133
-0.04074468771083331   0.07920312570474385   0.01641560825961318
-0.04074468771083331   0.07920312570474385   0.01641560825961318
-0.04074468771083331   0.07920312570474385   0.01641560825961318
-0.04074468771083331   0.07920312570474385   0.01641560825961318
-0.32935550602879504   0.025531757938609595   0.0064618305553388045
-0.32935550602879504   0.025531757938609595   0.0064618305553388045
-0.32935550602879504   0.025531757938609595   0.0064618305553388045
-0.32935550602879504   0.025531757938609595   0.0064618305553388045
-0.040195454967756256   0.07912580254665283   0.01923909513308948
-0.040195454967756256   0.07912580254665283   0.01923909513308948
-0.040195454967756256   0.07912580254665283   0.01923909513308948
-0.040195454967756256   0.07912580254665283   0.01923909513308948
-0.6476469920340411   -0.04880719881430254   -0.01673371001241092
-0.6476469920340411   -0.04880719881430254   -0.01673371001241092
-0.6476469920340411   -0.04880719881430254   -0.01673371001241092
-0.6476469920340411   -0.04880719881430254   -0.01673371001241092
-0.6757527965615999   -0.06855763912882934   -0.01090948914966481
-0.6757527965615999   -0.06855763912882934   -0.01090948914966481
-0.6757527965615999   -0.06855763912882934   -0.01090948914966481
-0.6757527965615999   -0.06855763912882934   -0.01090948914966481
-0.06937024241092676   0.057466818722245114   0.02049527631694874
-0.06937024241092676   0.057466818722245114   0.02049527631694874
-0.06937024241092676   0.057466818722245114   0.02049527631694874
-0.06937024241092676   0.057466818722245114   0.02049527631694874
-0.35776935425640777   0.0066506032884168925   -0.0020420410876414337
-0.35776935425640777   0.0066506032884168925   -0.0020420410876414337
-0.35776935425640777   0.0066506032884168925   -0.0020420410876414337
-0.35776935425640777   0.0066506032884168925   -0.0020420410876414337
-0.06825396647474294   0.05986059971874799   0.02368287500136496
-0.06825396647474294   0.05986059971874799   0.02368287500136496
-0.06825396647474294   0.05986059971874799   0.02368287500136496
-0.06825396647474294   0.05986059971874799   0.02368287500136496
-0.6767126258529529   -0.07079497348050146   -0.01347130125475797
-0.6767126258529529   -0.07079497348050146   -0.01347130125475797
-0.6767126258529529   -0.07079497348050146   -0.01347130125475797
-0.6767126258529529   -0.07079497348050146   -0.01347130125475797
-0.7035474749671543   -0.08604688912916715   -0.0058387430866371805
-0.7035474749671543   -0.08604688912916715   -0.0058387430866371805
-0.7035474749671543   -0.08604688912916715   -0.0058387430866371805
-0.7035474749671543   -0.08604688912916715   -0.0058387430866371805
-0.0981115951133327   0.03644406649575843   0.02396180909919031
-0.0981115951133327   0.03644406649575843   0.02396180909919031
-0.0981115951133327   0.03644406649575843   0.02396180909919031
-0.0981115951133327   0.03644406649575843   0.02396180909919031
-0.3874837497968396   -0.012390234189947807   -0.01151148373070518
-0.3874837497968396   -0.012390234189947807   -0.01151148373070518
-0.3874837497968396   -0.012390234189947807   -0.01151148373070518
-0.3874837497968396   -0.012390234189947807   -0.01151148373070518
-0.58127550377643   0.11306664960463572   0.02973420441421639
-0.58127550377643   0.11306664960463572   0.02973420441421639
-0.58127550377643   0.11306664960463572   0.02973420441421639
-0.58127550377643   0.11306664960463572   0.02973420441421639
-1.1882737769516283   -0.046040059017242646   -0.037047403152745
-1.1882737769516283   -0.046040059017242646   -0.037047403152745
-1.1882737769516283   -0.046040059017242646   -0.037047403152745
-1.1882737769516283   -0.046040059017242646   -0.037047403152745
-1.2037558252664027   -0.030999095110479796   0.003402560356679539
-1.2037558252664027   -0.030999095110479796   0.003402560356679539
-1.2037558252664027   -0.030999095110479796   0.003402560356679539
-1.2037558252664027   -0.030999095110479796   0.003402560356679539
-0.6241194831579724   0.05686796446484621   -0.00477132891120801
-0.6241194831579724   0.05686796446484621   -0.00477132891120801
-0.6241194831579724   0.05686796446484621   -0.00477132891120801
-0.6241194831579724   0.05686796446484621   -0.00477132891120801
-0.8935187747281889   0.024365498003576375   0.010952128951759225
-0.8935187747281889   0.024365498003576375   0.010952128951759225
-0.8935187747281889   0.024365498003576375   0.010952128951759225
-0.8935187747281889   0.024365498003576375   0.010952128951759225
-0.6086475236708112   0.09436111644598139   0.035095316543455074
-0.6086475236708112   0.09436111644598139   0.035095316543455074
-0.6086475236708112   0.09436111644598139   0.035095316543455074
-0.6086475236708112   0.09436111644598139   0.035095316543455074
-1.2190827513000781   -0.0683472136381407   -0.03588395128403673
-1.2190827513000781   -0.0683472136381407   -0.03588395128403673
-1.2190827513000781   -0.0683472136381407   -0.03588395128403673
-1.2190827513000781   -0.0683472136381407   -0.03588395128403673
-1.2365045736548228   -0.05034966079730058   0.005320603777091246
-1.2365045736548228   -0.05034966079730058   0.005320603777091246
-1.2365045736548228   -0.05034966079730058   0.005320603777091246
-1.2365045736548228   -0.05034966079730058   0.005320603777091246
-0.6526365475746744   0.03673691501151122   -0.0006227983553748276
-0.6526365475746744   0.03673691501151122   -0.0006227983553748276
-0.6526365475746744   0.03673691501151122   -0.0006227983553748276
-0.6526365475746744   0.03673691501151122   -0.0006227983553748276
-0.9175582349702011   0.007516631351297237   0.0030355237891787484
-0.9175582349702011   0.007516631351297237   0.0030355237891787484
-0.9175582349702011   0.007516631351297237   0.0030355237891787484
-0.9175582349702011   0.007516631351297237   0.0030355237891787484
-0.6365195057535373   0.07660258098325229   0.0400967447785701
-0.6365195057535373   0.07660258098325229   0.0400967447785701
-0.6365195057535373   0.07660258098325229   0.0400967447785701
-0.6365195057535373   0.07660258098325229   0.0400967447785701
-1.251791484528138   -0.08938519582121959   -0.032078415565565434
-1.251791484528138   -0.08938519582121959   -0.032078415565565434
-1.251791484528138   -0.08938519582121959   -0.032078415565565434
-1.251791484528138   -0.08938519582121959   -0.032078415565565434
-1.2662126744702487   -0.07117593148996498   0.011396069569080791
-1.2662126744702487   -0.07117593148996498   0.011396069569080791
-1.2662126744702487   -0.07117593148996498   0.011396069569080791
-1.2662126744702487   -0.07117593148996498   0.011396069569080791
-0.6819519387959665   0.01371018148950201   0.002381867150640017
-0.6819519387959665   0.01371018148950201   0.002381867150640017
-0.6819519387959665   0.01371018148950201   0.002381867150640017
-0.6819519387959665   0.01371018148950201   0.002381867150640017
-0.9541452121312931   -0.013602959442761325   -0.007011554095772206
-0.9541452121312931   -0.013602959442761325   -0.007011554095772206
-0.9541452121312931   -0.013602959442761325   -0.007011554095772206
-0.9541452121312931   -0.013602959442761325   -0.007011554095772206
-1.1429688119078747   0.10139798416524981   0.042039378883530334
-1.1429688119078747   0.10139798416524981   0.042039378883530334
-1.1429688119078747   0.10139798416524981   0.042039378883530334
-1.1429688119078747   0.10139798416524981   0.042039378883530334
-1.7292184489546576   -0.07976908070114874   -0.040859063580208646
-1.7292184489546576   -0.07976908070114874   -0.040859063580208646
-1.7292184489546576   -0.07976908070114874   -0.040859063580208646
-1.7292184489546576   -0.07976908070114874   -0.040859063580208646
-1.7485009881550542   -0.01696297786430434   0.03875076917837955
-1.7485009881550542   -0.01696297786430434   0.03875076917837955
-1.7485009881550542   -0.01696297786430434   0.03875076917837955
-1.7485009881550542   -0.01696297786430434   0.03875076917837955
-1.1972966490270214   0.02861942683956864   -0.023920080396460958
-1.1972966490270214   0.02861942683956864   -0.023920080396460958
-1.1972966490270214   0.02861942683956864   -0.023920080396460958
-1.1972966490270214   0.02861942683956864   -0.023920080396460958
-1.3901617821331607   0.02282692426373445   0.034024996109242533
-1.3901617821331607   0.02282692426373445   0.034024996109242533
-1.3901617821331607   0.02282692426373445   0.034024996109242533
-1.3901617821331607   0.02282692426373445   0.034024996109242533
-1.1681298768511146   0.10122311002112344   0.04931009730151771
-1.1681298768511146   0.10122311002112344   0.04931009730151771
-1.1681298768511146   0.10122311002112344   0.04931009730151771
-1.1681298768511146   0.10122311002112344   0.04931009730151771
-1.7771738122182654   -0.08907271293314961   -0.032503616068808
-1.7771738122182654   -0.08907271293314961   -0.032503616068808
-1.7771738122182654   -0.08907271293314961   -0.032503616068808
-1.7771738122182654   -0.08907271293314961   -0.032503616068808
-1.7913684697031078   -0.027170731364947853   0.04847467640690574
-1.7913684697031078   -0.027170731364947853   0.04847467640690574
-1.7913684697031078   -0.027170731364947853   0.04847467640690574
-1.7913684697031078   -0.027170731364947853   0.04847467640690574
-1.2280818821167376   0.017582279491630826   -0.020497878821414295
-1.2280818821167376   0.017582279491630826   -0.020497878821414295
-1.2280818821167376   0.017582279491630826   -0.020497878821414295
-1.2280818821167376   0.017582279491630826   -0.020497878821414295
-1.449995234688227   0.01143182385022068   0.020668392118381604
-1.449995234688227   0.01143182385022068   0.020668392118381604
-1.449995234688227   0.01143182385022068   0.020668392118381604
-1.449995234688227   0.01143182385022068   0.020668392118381604
-1.1971425641521376   0.09361309380210053   0.05816789669111613
-1.1971425641521376   0.09361309380210053   0.05816789669111613
-1.1971425641521376   0.09361309380210053   0.05816789669111613
-1.1971425641521376   0.09361309380210053   0.05816789669111613
-1.821494180999839   -0.10238793900753596   -0.026936672434146797
-1.821494180999839   -0.10238793900753596   -0.026936672434146797
-1.821494180999839   -0.10238793900753596   -0.026936672434146797
-1.821494180999839   -0.10238793900753596   -0.026936672434146797
-1.8479443897718664   -0.06344625602642706   0.04761609999761161
-1.8479443897718664   -0.06344625602642706   0.04761609999761161
-1.8479443897718664   -0.06344625602642706   0.04761609999761161
-1.8479443897718664   -0.06344625602642706   0.04761609999761161
-1.2605855431675388   -0.013070014398443852   -0.01857419100889046
-1.2605855431675388   -0.013070014398443852   -0.01857419100889046
-1.2605855431675388   -0.013070014398443852   -0.01857419100889046
-1.2605855431675388   -0.013070014398443852   -0.01857419100889046
-1.4654865376181272   -0.0027316343191635672   0.016201931900688457
-1.4654865376181272   -0.0027316343191635672   0.016201931900688457
-1.4654865376181272   -0.0027316343191635672   0.016201931900688457
-1.4654865376181272   -0.0027316343191635672   0.016201931900688457
0.8052102039616336   0.04554264552164161   -0.054507864899024774
0.8052102039616336   0.04554264552164161   -0.054507864899024774
0.8052102039616336   0.04554264552164161   -0.054507864899024774
0.8052102039616336   0.04554264552164161   -0.054507864899024774
0.34394468894231833   0.022077801568628763   0.023411526724076488
0.34394468894231833   0.022077801568628763   0.023411526724076488
0.34394468894231833   0.022077801568628763   0.023411526724076488
0.34394468894231833   0.022077801568628763   0.023411526724076488
0.28774894876366197   -0.0795754254072692   -0.0508161113168054
0.28774894876366197   -0.0795754254072692   -0.0508161113168054
0.28774894876366197   -0.0795754254072692   -0.0508161113168054
0.28774894876366197   -0.0795754254072692   -0.0508161113168054
0.7862621962899505   0.09154777143591157   0.02844249740746568
0.7862621962899505   0.09154777143591157   0.02844249740746568
0.7862621962899505   0.09154777143591157   0.02844249740746568
0.7862621962899505   0.09154777143591157   0.02844249740746568
0.5263549245236226   0.011677314771507755   -0.014383054897669771
0.5263549245236226   0.011677314771507755   -0.014383054897669771
0.5263549245236226   0.011677314771507755   -0.014383054897669771
0.5263549245236226   0.011677314771507755   -0.014383054897669771
0.7548650330498463   0.0138432535349155   -0.05083880089206619
0.7548650330498463   0.0138432535349155   -0.05083880089206619
0.7548650330498463   0.0138432535349155   -0.05083880089206619
0.7548650330498463   0.0138432535349155   -0.05083880089206619
0.3185563951315182   -0.0024606243785214588   0.026106319493733
0.3185563951315182   -0.0024606243785214588   0.026106319493733
0.3185563951315182   -0.0024606243785214588   0.026106319493733
0.3185563951315182   -0.0024606243785214588   0.026106319493733
0.26380701312138277   -0.08882570332055457   -0.04324605696621567
0.26380701312138277   -0.08882570332055457   -0.04324605696621567
0.26380701312138277   -0.08882570332055457   -0.04324605696621567
0.26380701312138277   -0.08882570332055457   -0.04324605696621567
0.7468748242911943   0.07842351251936858   0.03664620224428043
0.7468748242911943   0.07842351251936858   0.03664620224428043
0.7468748242911943   0.07842351251936858   0.03664620224428043
0.7468748242911943   0.07842351251936858   0.03664620224428043
0.5015777955851468   -0.0035737544462168536   -0.023450184898957005
0.5015777955851468   -0.0035737544462168536   -0.023450184898957005
0.5015777955851468   -0.0035737544462168536   -0.023450184898957005
0.5015777955851468   -0.0035737544462168536   -0.023450184898957005
0.7159952530946231   0.0019962731862449568   -0.04132441440545828
0.7159952530946231   0.0019962731862449568   -0.04132441440545828
0.7159952530946231   0.0019962731862449568   -0.04132441440545828
0.7159952530946231   0.0019962731862449568   -0.04132441440545828
0.293817526684109   -0.013267521621276618   0.031248329148139797
0.293817526684109   -0.013267521621276618   0.031248329148139797
0.293817526684109   -0.013267521621276618   0.031248329148139797
0.293817526684109   -0.013267521621276618   0.031248329148139797
0.24240245567794416   -0.09725667528329585   -0.036041224565244855
0.24240245567794416   -0.09725667528329585   -0.036041224565244855
0.24240245567794416   -0.09725667528329585   -0.036041224565244855
0.24240245567794416   -0.09725667528329585   -0.036041224565244855
0.7009007664956951   0.061149795253494774   0.041817941622896176
0.7009007664956951   0.061149795253494774   0.041817941622896176
0.7009007664956951   0.061149795253494774   0.041817941622896176
0.7009007664956951   0.061149795253494774   0.041817941622896176
0.45973359647694545   -0.016098251547746578   -0.03588822788182571
0.45973359647694545   -0.016098251547746578   -0.03588822788182571
0.45973359647694545   -0.016098251547746578   -0.03588822788182571
0.45973359647694545   -0.016098251547746578   -0.03588822788182571
0.3462254529556145   0.06674906146345169   -0.009855913104270713
0.3462254529556145   0.06674906146345169   -0.009855913104270713
0.3462254529556145   0.06674906146345169   -0.009855913104270713
0.3462254529556145   0.06674906146345169   -0.009855913104270713
-0.10643387106273279   0.005830818941860699   0.0031948210318946645
-0.10643387106273279   0.005830818941860699   0.0031948210318946645
-0.10643387106273279   0.005830818941860699   0.0031948210318946645
-0.10643387106273279   0.005830818941860699   0.0031948210318946645
-0.14485133481695842   -0.05520813606867938   -0.03128797351629649
-0.14485133481695842   -0.05520813606867938   -0.03128797351629649
-0.14485133481695842   -0.05520813606867938   -0.03128797351629649
-0.14485133481695842   -0.05520813606867938   -0.03128797351629649
0.336595297510583   0.08026176573877658   0.03357844127175898
0.336595297510583   0.08026176573877658   0.03357844127175898
0.336595297510583   0.08026176573877658   0.03357844127175898
0.336595297510583   0.08026176573877658   0.03357844127175898
0.10551631089075887   0.02322366218245172   0.004043280947974575
0.10551631089075887   0.02322366218245172   0.004043280947974575
0.10551631089075887   0.02322366218245172   0.004043280947974575
0.10551631089075887   0.02322366218245172   0.004043280947974575
0.3214128975293047   0.04323995543721715   -0.005311748333076946
0.3214128975293047   0.04323995543721715   -0.005311748333076946
0.3214128975293047   0.04323995543721715   -0.005311748333076946
0.3214128975293047   0.04323995543721715   -0.005311748333076946
-0.1298925637543281   -0.01840995468577303   0.0067077004139526756
-0.1298925637543281   -0.01840995468577303   0.0067077004139526756
-0.1298925637543281   -0.01840995468577303   0.0067077004139526756
-0.1298925637543281   -0.01840995468577303   0.0067077004139526756
-0.167120625078242   -0.07380474460757563   -0.02530911288247846
-0.167120625078242   -0.07380474460757563   -0.02530911288247846
-0.167120625078242   -0.07380474460757563   -0.02530911288247846
-0.167120625078242   -0.07380474460757563   -0.02530911288247846
0.30928477960407813   0.05881079238563296   0.03650627974107587
0.30928477960407813   0.05881079238563296   0.03650627974107587
0.30928477960407813   0.05881079238563296   0.03650627974107587
0.30928477960407813   0.05881079238563296   0.03650627974107587
0.0780612777453108   0.0022038176210868645   -0.006054226646951287
0.0780612777453108   0.0022038176210868645   -0.006054226646951287
0.0780612777453108   0.0022038176210868645   -0.006054226646951287
0.0780612777453108   0.0022038176210868645   -0.006054226646951287
0.2945823008487064   0.02329883235356573   -0.001494154003720086
0.2945823008487064   0.02329883235356573   -0.001494154003720086
0.2945823008487064   0.02329883235356573   -0.001494154003720086
0.2945823008487064   0.02329883235356573   -0.001494154003720086
-0.1529849254215706   -0.03885956367420436   0.010424204467507359
-0.1529849254215706   -0.03885956367420436   0.010424204467507359
-0.1529849254215706   -0.03885956367420436   0.010424204467507359
-0.1529849254215706   -0.03885956367420436   0.010424204467507359
-0.18909496230285625   -0.09130383351703264   -0.019784444341272613
-0.18909496230285625   -0.09130383351703264   -0.019784444341272613
-0.18909496230285625   -0.09130383351703264   -0.019784444341272613
-0.18909496230285625   -0.09130383351703264   -0.019784444341272613
0.28463934124244694   0.03818360965826395   0.0397029183157155
0.28463934124244694   0.03818360965826395   0.0397029183157155
0.28463934124244694   0.03818360965826395   0.0397029183157155
0.28463934124244694   0.03818360965826395   0.0397029183157155
0.05600686073466796   -0.01525852166422672   -0.014977780283807925
0.05600686073466796   -0.01525852166422672   -0.014977780283807925
0.05600686073466796   -0.01525852166422672   -0.014977780283807925
0.05600686073466796   -0.01525852166422672   -0.014977780283807925
-0.08974021721612845   0.08476502665764027   0.007728882549133054
-0.08974021721612845   0.08476502665764027   0.007728882549133054
-0.08974021721612845   0.08476502665764027   0.007728882549133054
-0.08974021721612845   0.08476502665764027   0.007728882549133054
-0.5501431618908771   -0.013826371863255749   -0.016720747867605034
-0.5501431618908771   -0.013826371863255749   -0.016720747867605034
-0.5501431618908771   -0.013826371863255749   -0.016720747867605034
-0.5501431618908771   -0.013826371863255749   -0.016720747867605034
-0.5721106435598572   -0.03281439363947336   -0.012306032612448892
-0.5721106435598572   -0.03281439363947336   -0.012306032612448892
-0.5721106435598572   -0.03281439363947336   -0.012306032612448892
-0.5721106435598572   -0.03281439363947336   -0.012306032612448892
-0.11270909353299972   0.06120123673779041   0.013013860097027222
-0.11270909353299972   0.06120123673779041   0.013013860097027222
-0.11270909353299972   0.06120123673779041   0.013013860097027222
-0.11270909353299972   0.06120123673779041   0.013013860097027222
-0.330369915322027   0.02444783711033169   0.006527325625084068
-0.330369915322027   0.02444783711033169   0.006527325625084068
-0.330369915322027   0.02444783711033169   0.006527325625084068
-0.330369915322027   0.02444783711033169   0.006527325625084068
-0.1120176524861611   0.06433322625963148   0.013339075809379142
-0.1120176524861611   0.06433322625963148   0.013339075809379142
-0.1120176524861611   0.06433322625963148   0.013339075809379142
-0.1120176524861611   0.06433322625963148   0.013339075809379142
-0.5728639376823801   -0.03600823623699874   -0.012878660627538053
-0.5728639376823801   -0.03600823623699874   -0.012878660627538053
-0.5728639376823801   -0.03600823623699874   -0.012878660627538053
-0.5728639376823801   -0.03600823623699874   -0.012878660627538053
-0.5946093308700836   -0.05307604357950804   -0.006979946732660128
-0.5946093308700836   -0.05307604357950804   -0.006979946732660128
-0.5946093308700836   -0.05307604357950804   -0.006979946732660128
-0.5946093308700836   -0.05307604357950804   -0.006979946732660128
-0.13607723089792148   0.039125296240963406   0.016977817170581284
-0.13607723089792148   0.039125296240963406   0.016977817170581284
-0.13607723089792148   0.039125296240963406   0.016977817170581284
-0.13607723089792148   0.039125296240963406   0.016977817170581284
-0.35350168107963115   0.004723994683135432   -0.002155131548107772
-0.35350168107963115   0.004723994683135432   -0.002155131548107772
-0.35350168107963115   0.004723994683135432   -0.002155131548107772
-0.35350168107963115   0.004723994683135432   -0.002155131548107772
-0.134903968765883   0.0438790858351769   0.01809033823656394
-0.134903968765883   0.0438790858351769   0.01809033823656394
-0.134903968765883   0.0438790858351769   0.01809033823656394
-0.134903968765883   0.0438790858351769   0.01809033823656394
-0.596140817013881   -0.05818805718547981   -0.00952536384567524
-0.596140817013881   -0.05818805718547981   -0.00952536384567524
-0.596140817013881   -0.05818805718547981   -0.00952536384567524
-0.596140817013881   -0.05818805718547981   -0.00952536384567524
-0.6167300258476364   -0.07243243623172835   -0.0018022738039400344
-0.6167300258476364   -0.07243243623172835   -0.0018022738039400344
-0.6167300258476364   -0.07243243623172835   -0.0018022738039400344
-0.6167300258476364   -0.07243243623172835   -0.0018022738039400344
-0.15924679778388165   0.01767400167223155   0.020478543064332333
-0.15924679778388165   0.01767400167223155   0.020478543064332333
-0.15924679778388165   0.01767400167223155   0.020478543064332333
-0.15924679778388165   0.01767400167223155   0.020478543064332333
-0.3775854262627316   -0.015022189001102734   -0.0115659205427402
-0.3775854262627316   -0.015022189001102734   -0.0115659205427402
-0.3775854262627316   -0.015022189001102734   -0.0115659205427402
-0.3775854262627316   -0.015022189001102734   -0.0115659205427402
-0.5190088333188253   0.10020609580478887   0.02491842732460956
-0.5190088333188253   0.10020609580478887   0.02491842732460956
-0.5190088333188253   0.10020609580478887   0.02491842732460956
-0.5190088333188253   0.10020609580478887   0.02491842732460956
-0.9859612694528904   -0.03337510603843025   -0.03404731496779119
-0.9859612694528904   -0.03337510603843025   -0.03404731496779119
-0.9859612694528904   -0.03337510603843025   -0.03404731496779119
-0.9859612694528904   -0.03337510603843025   -0.03404731496779119
-0.9942193236047062   -0.01458691456066799   0.008054116407954733
-0.9942193236047062   -0.01458691456066799   0.008054116407954733
-0.9942193236047062   -0.01458691456066799   0.008054116407954733
-0.9942193236047062   -0.01458691456066799   0.008054116407954733
-0.5565639313835358   0.03987730168596909   -0.007264167056292195
-0.5565639313835358   0.03987730168596909   -0.007264167056292195
-0.5565639313835358   0.03987730168596909   -0.007264167056292195
-0.5565639313835358   0.03987730168596909   -0.007264167056292195
-0.7594105447812678   0.023256315287324802   0.009480979233960386
-0.7594105447812678   0.023256315287324802   0.009480979233960386
-0.7594105447812678   0.023256315287324802   0.009480979233960386
-0.7594105447812678   0.023256315287324802   0.009480979233960386
-0.5408730495005419   0.08057085482292062   0.03049668922173355
-0.5408730495005419   0.08057085482292062   0.03049668922173355
-0.5408730495005419   0.08057085482292062   0.03049668922173355
-0.5408730495005419   0.08057085482292062   0.03049668922173355
-1.0105944813212213   -0.05596474353113573   -0.032443843204161465
-1.0105944813212213   -0.05596474353113573   -0.032443843204161465
-1.0105944813212213   -0.05596474353113573   -0.032443843204161465
-1.0105944813212213   -0.05596474353113573   -0.032443843204161465
-1.020739753723505   -0.034654529536873674   0.010523185051531318
-1.020739753723505   -0.034654529536873674   0.010523185051531318
-1.020739753723505   -0.034654529536873674   0.010523185051531318
-1.020739753723505   -0.034654529536873674   0.010523185051531318
-0.5793030011477831   0.019533736977118715   -0.0030580786777955407
-0.5793030011477831   0.019533736977118715   -0.0030580786777955407
-0.5793030011477831   0.019533736977118715   -0.0030580786777955407
-0.5793030011477831   0.019533736977118715   -0.0030580786777955407
-0.7788923593759373   0.005366884283737938   0.000775033613967635
-0.7788923593759373   0.005366884283737938   0.000775033613967635
-0.7788923593759373   0.005366884283737938   0.000775033613967635
-0.7788923593759373   0.005366884283737938   0.000775033613967635
-0.5630482023392064   0.061940895165102205   0.035808757177112065
-0.5630482023392064   0.061940895165102205   0.035808757177112065
-0.5630482023392064   0.061940895165102205   0.035808757177112065
-0.5630482023392064   0.061940895165102205   0.035808757177112065
-1.037053574260592   -0.0771207094533635   -0.028579737717428506
-1.037053574260592   -0.0771207094533635   -0.028579737717428506
-1.037053574260592   -0.0771207094533635   -0.028579737717428506
-1.037053574260592   -0.0771207094533635   -0.028579737717428506
-1.044355933875739   -0.056031087719530054   0.016079516185252253
-1.044355933875739   -0.056031087719530054   0.016079516185252253
-1.044355933875739   -0.056031087719530054   0.016079516185252253
-1.044355933875739   -0.056031087719530054   0.016079516185252253
-0.602439084355492   -0.003027163915047426   0.00024716134008904295
-0.602439084355492   -0.003027163915047426   0.00024716134008904295
-0.602439084355492   -0.003027163915047426   0.00024716134008904295
-0.602439084355492   -0.003027163915047426   0.00024716134008904295
-0.8081128194212517   -0.015389393017307296   -0.00932655296662873
-0.8081128194212517   -0.015389393017307296   -0.00932655296662873
-0.8081128194212517   -0.015389393017307296   -0.00932655296662873
-0.8081128194212517   -0.015389393017307296   -0.00932655296662873
-0.9460681542110363   0.09286785167018918   0.039175303532859765
-0.9460681542110363   0.09286785167018918   0.039175303532859765
-0.9460681542110363   0.09286785167018918   0.039175303532859765
-0.9460681542110363   0.09286785167018918   0.039175303532859765
-1.3958132763252387   -0.06425026881169185   -0.044245070357548856
-1.3958132763252387   -0.06425026881169185   -0.044245070357548856
-1.3958132763252387   -0.06425026881169185   -0.044245070357548856
-1.3958132763252387   -0.06425026881169185   -0.044245070357548856
-1.4093175361512535   -0.0012351536269221697   0.03882790439531711
-1.4093175361512535   -0.0012351536269221697   0.03882790439531711
-1.4093175361512535   -0.0012351536269221697   0.03882790439531711
-1.4093175361512535   -0.0012351536269221697   0.03882790439531711
-0.9955133695309617   0.013566404993093861   -0.026569432777100624
-0.9955133695309617   0.013566404993093861   -0.026569432777100624
-0.9955133695309617   0.013566404993093861   -0.026569432777100624
-0.9955133695309617   0.013566404993093861   -0.026569432777100624
-1.1344692315519038   0.02156784006800444   0.028705666067638524
-1.1344692315519038   0.02156784006800444   0.028705666067638524
-1.1344692315519038   0.02156784006800444   0.028705666067638524
-1.1344692315519038   0.02156784006800444   0.028705666067638524
-0.9658850670746598   0.0889278801740293   0.04621060432348095
-0.9658850670746598   0.0889278801740293   0.04621060432348095
-0.9658850670746598   0.0889278801740293   0.04621060432348095
-0.9658850670746598   0.0889278801740293   0.04621060432348095
-1.439529651913774   -0.07718044211407876   -0.03628738593012082
-1.439529651913774   -0.07718044211407876   -0.03628738593012082
-1.439529651913774   -0.07718044211407876   -0.03628738593012082
-1.439529651913774   -0.07718044211407876   -0.03628738593012082
-1.446782016580654   -0.01227116094562597   0.048935053456218264
-1.446782016580654   -0.01227116094562597   0.048935053456218264
-1.446782016580654   -0.01227116094562597   0.048935053456218264
-1.446782016580654   -0.01227116094562597   0.048935053456218264
-1.0199597713011992   0.0024104334334114075   -0.022641865807247613
-1.0199597713011992   0.0024104334334114075   -0.022641865807247613
-1.0199597713011992   0.0024104334334114075   -0.022641865807247613
-1.0199597713011992   0.0024104334334114075   -0.022641865807247613
-1.1849709079030675   0.008880480860404438   0.015016995004701203
-1.1849709079030675   0.008880480860404438   0.015016995004701203
-1.1849709079030675   0.008880480860404438   0.015016995004701203
-1.1849709079030675   0.008880480860404438   0.015016995004701203
-0.9889441075339387   0.08039898955414287   0.05444789690834692
-0.9889441075339387   0.08039898955414287   0.05444789690834692
-0.9889441075339387   0.08039898955414287   0.05444789690834692
-0.9889441075339387   0.08039898955414287   0.05444789690834692
-1.4782195639136164   -0.09068160063205544   -0.029842243522164663
-1.4782195639136164   -0.09068160063205544   -0.029842243522164663
-1.4782195639136164   -0.09068160063205544   -0.029842243522164663
-1.4782195639136164   -0.09068160063205544   -0.029842243522164663
-1.4969018102299259   -0.04679849135925701   0.04909969124949208
-1.4969018102299259   -0.04679849135925701   0.04909969124949208
-1.4969018102299259   -0.04679849135925701   0.04909969124949208
-1.4969018102299259   -0.04679849135925701   0.04909969124949208
-1.0455370918867775   -0.025837551864576203   -0.020019809724908508
-1.0455370918867775   -0.025837551864576203   -0.020019809724908508
-1.0455370918867775   -0.025837551864576203   -0.020019809724908508
-1.0455370918867775   -0.025837551864576203   -0.020019809724908508
-1.1992934471855703   -0.005589429351220143   0.008499114687620782
-1.1992934471855703   -0.005589429351220143   0.008499114687620782
-1.1992934471855703   -0.005589429351220143   0.008499114687620782
-1.1992934471855703   -0.005589429351220143   0.008499114687620782
0.44254552224860894   0.026451650570286034   -0.053320061573927754
0.44254552224860894   0.026451650570286034   -0.053320061573927754
0.44254552224860894   0.026451650570286034   -0.053320061573927754
0.44254552224860894   0.026451650570286034   -0.053320061573927754
0.1285422869107461   0.032062590539649605   0.025515722554463677
0.1285422869107461   0.032062590539649605   0.025515722554463677
0.1285422869107461   0.032062590539649605   0.025515722554463677
0.1285422869107461   0.032062590539649605   0.025515722554463677
0.07890208307860194   -0.06501589754200383   -0.04701573427079331
0.07890208307860194   -0.06501589754200383   -0.04701573427079331
0.07890208307860194   -0.06501589754200383   -0.04701573427079331
0.07890208307860194   -0.06501589754200383   -0.04701573427079331
0.43031707599094   0.0755357980122757   0.030700797148719615
0.43031707599094   0.0755357980122757   0.030700797148719615
0.43031707599094   0.0755357980122757   0.030700797148719615
0.43031707599094   0.0755357980122757   0.030700797148719615
0.2542958433996625   0.012594320938989309   -0.005887086898564717
0.2542958433996625   0.012594320938989309   -0.005887086898564717
0.2542958433996625   0.012594320938989309   -0.005887086898564717
0.2542958433996625   0.012594320938989309   -0.005887086898564717
0.39902010983710245   -0.0013656603814869162   -0.04888257522670925
0.39902010983710245   -0.0013656603814869162   -0.04888257522670925
0.39902010983710245   -0.0013656603814869162   -0.04888257522670925
0.39902010983710245   -0.0013656603814869162   -0.04888257522670925
0.10922226475499058   0.010908776374309391   0.028660500194837527
0.10922226475499058   0.010908776374309391   0.028660500194837527
0.10922226475499058   0.010908776374309391   0.028660500194837527
0.10922226475499058   0.010908776374309391   0.028660500194837527
0.060160852156214625   -0.07423401583500851   -0.03992746739262531
0.060160852156214625   -0.07423401583500851   -0.03992746739262531
0.060160852156214625   -0.07423401583500851   -0.03992746739262531
0.060160852156214625   -0.07423401583500851   -0.03992746739262531
0.3966298053631918   0.06281510137573777   0.03943417812875658
0.3966298053631918   0.06281510137573777   0.03943417812875658
0.3966298053631918   0.06281510137573777   0.03943417812875658
0.3966298053631918   0.06281510137573777   0.03943417812875658
0.23076330427481426   -0.0018022047582902587   -0.015231111922398937
0.23076330427481426   -0.0018022047582902587   -0.015231111922398937
0.23076330427481426   -0.0018022047582902587   -0.015231111922398937
0.23076330427481426   -0.0018022047582902587   -0.015231111922398937
0.36551303731514245   -0.013204164559869211   -0.04013039617588733
0.36551303731514245   -0.013204164559869211   -0.04013039617588733
0.36551303731514245   -0.013204164559869211   -0.04013039617588733
0.36551303731514245   -0.013204164559869211   -0.04013039617588733
0.08996995432573238   0.0004775842220715934   0.034406443397885164
0.08996995432573238   0.0004775842220715934   0.034406443397885164
0.08996995432573238   0.0004775842220715934   0.034406443397885164
0.08996995432573238   0.0004775842220715934   0.034406443397885164
0.043402481624985584   -0.0853642553678253   -0.03325402661299462
0.043402481624985584   -0.0853642553678253   -0.03325402661299462
0.043402481624985584   -0.0853642553678253   -0.03325402661299462
0.043402481624985584   -0.0853642553678253   -0.03325402661299462
0.354918190058516   0.04245783231364239   0.043777337120624885
0.354918190058516   0.04245783231364239   0.043777337120624885
0.354918190058516   0.04245783231364239   0.043777337120624885
0.354918190058516   0.04245783231364239   0.043777337120624885
0.19826404203722098   -0.01462807299107962   -0.026649936597835808
0.19826404203722098   -0.01462807299107962   -0.026649936597835808
0.19826404203722098   -0.01462807299107962   -0.026649936597835808
0.19826404203722098   -0.01462807299107962   -0.026649936597835808
0.12355337631600115   0.04809671352941654   -0.015462953409029397
0.12355337631600115   0.04809671352941654   -0.015462953409029397
0.12355337631600115   0.04809671352941654   -0.015462953409029397
0.12355337631600115   0.04809671352941654   -0.015462953409029397
-0.18010071403669783   0.015528467377408907   0.00620469736849668
-0.18010071403669783   0.015528467377408907   0.00620469736849668
-0.18010071403669783   0.015528467377408907   0.00620469736849668
-0.18010071403669783   0.015528467377408907   0.00620469736849668
-0.21207558229554202   -0.04167503695563341   -0.027434692394166
-0.21207558229554202   -0.04167503695563341   -0.027434692394166
-0.21207558229554202   -0.04167503695563341   -0.027434692394166
-0.21207558229554202   -0.04167503695563341   -0.027434692394166
0.1190784258724159   0.05969970826450408   0.0291503738917695
0.1190784258724159   0.05969970826450408   0.0291503738917695
0.1190784258724159   0.05969970826450408   0.0291503738917695
0.1190784258724159   0.05969970826450408   0.0291503738917695
-0.038443872947732556   0.01955167698956047   0.004952519910037687
-0.038443872947732556   0.01955167698956047   0.004952519910037687
-0.038443872947732556   0.01955167698956047   0.004952519910037687
-0.038443872947732556   0.01955167698956047   0.004952519910037687
0.10398550585835739   0.02475101297597989   -0.011365530889998888
0.10398550585835739   0.02475101297597989   -0.011365530889998888
0.10398550585835739   0.02475101297597989   -0.011365530889998888
0.10398550585835739   0.02475101297597989   -0.011365530889998888
-0.19781526186558937   -0.007558941251215125   0.009750814051178764
-0.19781526186558937   -0.007558941251215125   0.009750814051178764
-0.19781526186558937   -0.007558941251215125   0.009750814051178764
-0.19781526186558937   -0.007558941251215125   0.009750814051178764
-0.22884126778854486   -0.06041216972109795   -0.02148248339995566
-0.22884126778854486   -0.06041216972109795   -0.02148248339995566
-0.22884126778854486   -0.06041216972109795   -0.02148248339995566
-0.22884126778854486   -0.06041216972109795   -0.02148248339995566
0.09708109183379933   0.03865767068712766   0.031782044473163885
0.09708109183379933   0.03865767068712766   0.031782044473163885
0.09708109183379933   0.03865767068712766   0.031782044473163885
0.09708109183379933   0.03865767068712766   0.031782044473163885
-0.059157505492983396   -0.0006559616367950404   -0.004730413575674403
-0.059157505492983396   -0.0006559616367950404   -0.004730413575674403
-0.059157505492983396   -0.0006559616367950404   -0.004730413575674403
-0.059157505492983396   -0.0006559616367950404   -0.004730413575674403
0.08243430662754088   0.004650499723263295   -0.007444710594265845
0.08243430662754088   0.004650499723263295   -0.007444710594265845
0.08243430662754088   0.004650499723263295   -0.007444710594265845
0.08243430662754088   0.004650499723263295   -0.007444710594265845
-0.21527211651507958   -0.02748263269002131   0.013433735936297937
-0.21527211651507958   -0.02748263269002131   0.013433735936297937
-0.21527211651507958   -0.02748263269002131   0.013433735936297937
-0.21527211651507958   -0.02748263269002131   0.013433735936297937
-0.24547903913169172   -0.0790012408204605   -0.0161029537037681
-0.24547903913169172   -0.0790012408204605   -0.0161029537037681
-0.24547903913169172   -0.0790012408204605   -0.0161029537037681
-0.24547903913169172   -0.0790012408204605   -0.0161029537037681
0.0778212398375666   0.017995271188539115   0.03548023789354647
0.0778212398375666   0.017995271188539115   0.03548023789354647
0.0778212398375666   0.017995271188539115   0.03548023789354647
0.0778212398375666   0.017995271188539115   0.03548023789354647
-0.0770863163527112   -0.018753649295267735   -0.01387545435834467
-0.0770863163527112   -0.018753649295267735   -0.01387545435834467
-0.0770863163527112   -0.018753649295267735   -0.01387545435834467
-0.0770863163527112   -0.018753649295267735   -0.01387545435834467
-0.17081320733305713   0.06584825689554258   0.0023224413685665572
-0.17081320733305713   0.06584825689554258   0.0023224413685665572
-0.17081320733305713   0.06584825689554258   0.0023224413685665572
-0.17081320733305713   0.06584825689554258   0.0023224413685665572
-0.48464501893414064   -0.005765163448298832   -0.013316793176755583
-0.48464501893414064   -0.005765163448298832   -0.013316793176755583
-0.48464501893414064   -0.005765163448298832   -0.013316793176755583
-0.48464501893414064   -0.005765163448298832   -0.013316793176755583
-0.4997451362754552   -0.020399914067166708   -0.007955851185302846
-0.4997451362754552   -0.020399914067166708   -0.007955851185302846
-0.4997451362754552   -0.020399914067166708   -0.007955851185302846
-0.4997451362754552   -0.020399914067166708   -0.007955851185302846
-0.1885401963862433   0.039296743977990455   0.009270456218703704
-0.1885401963862433   0.039296743977990455   0.009270456218703704
-0.1885401963862433   0.039296743977990455   0.009270456218703704
-0.1885401963862433   0.039296743977990455   0.009270456218703704
-0.33513960537978754   0.019330262830703743   0.005135148031339298
-0.33513960537978754   0.019330262830703743   0.005135148031339298
-0.33513960537978754   0.019330262830703743   0.005135148031339298
-0.33513960537978754   0.019330262830703743   0.005135148031339298
-0.18764057171538065   0.04518769482675855   0.007877628724248863
-0.18764057171538065   0.04518769482675855   0.007877628724248863
-0.18764057171538065   0.04518769482675855   0.007877628724248863
-0.18764057171538065   0.04518769482675855   0.007877628724248863
-0.5013738508469104   -0.0270199548165274   -0.009479383293218402
-0.5013738508469104   -0.0270199548165274   -0.009479383293218402
-0.5013738508469104   -0.0270199548165274   -0.009479383293218402
-0.5013738508469104   -0.0270199548165274   -0.009479383293218402
-0.5164377951931682   -0.040854934404862014   -0.002562771763268322
-0.5164377951931682   -0.040854934404862014   -0.002562771763268322
-0.5164377951931682   -0.040854934404862014   -0.002562771763268322
-0.5164377951931682   -0.040854934404862014   -0.002562771763268322
-0.20623722149694976   0.01795613996814352   0.013169438368778222
-0.20623722149694976   0.01795613996814352   0.013169438368778222
-0.20623722149694976   0.01795613996814352   0.013169438368778222
-0.20623722149694976   0.01795613996814352   0.013169438368778222
-0.35255576925697507   -9.698531819769818e-05   -0.0035458961949452715
-0.35255576925697507   -9.698531819769818e-05   -0.0035458961949452715
-0.35255576925697507   -9.698531819769818e-05   -0.0035458961949452715
-0.35255576925697507   -9.698531819769818e-05   -0.0035458961949452715
-0.205030852051181   0.02447541140778585   0.012682014157983708
-0.205030852051181   0.02447541140778585   0.012682014157983708
-0.205030852051181   0.02447541140778585   0.012682014157983708
-0.205030852051181   0.02447541140778585   0.012682014157983708
-0.518680650081515   -0.04841069128708232   -0.006221289322785685
-0.518680650081515   -0.04841069128708232   -0.006221289322785685
-0.518680650081515   -0.04841069128708232   -0.006221289322785685
-0.518680650081515   -0.04841069128708232   -0.006221289322785685
-0.5328103117723818   -0.06060285417749046   0.0026577778042224786
-0.5328103117723818   -0.06060285417749046   0.0026577778042224786
-0.5328103117723818   -0.06060285417749046   0.0026577778042224786
-0.5328103117723818   -0.06060285417749046   0.0026577778042224786
-0.22363093153305835   -0.0026017966681370283   0.016738140137079034
-0.22363093153305835   -0.0026017966681370283   0.016738140137079034
-0.22363093153305835   -0.0026017966681370283   0.016738140137079034
-0.22363093153305835   -0.0026017966681370283   0.016738140137079034
-0.37088029171647907   -0.019570728403910123   -0.012971223100628985
-0.37088029171647907   -0.019570728403910123   -0.012971223100628985
-0.37088029171647907   -0.019570728403910123   -0.012971223100628985
-0.37088029171647907   -0.019570728403910123   -0.012971223100628985
-0.46017076130766427   0.08270860407136556   0.020580727435961788
-0.46017076130766427   0.08270860407136556   0.020580727435961788
-0.46017076130766427   0.08270860407136556   0.020580727435961788
-0.46017076130766427   0.08270860407136556   0.020580727435961788
-0.7825208623071467   -0.023239167140706868   -0.030392459794444576
-0.7825208623071467   -0.023239167140706868   -0.030392459794444576
-0.7825208623071467   -0.023239167140706868   -0.030392459794444576
-0.7825208623071467   -0.023239167140706868   -0.030392459794444576
-0.784015606737993   -0.0016217002261278424   0.012692498737649549
-0.784015606737993   -0.0016217002261278424   0.012692498737649549
-0.784015606737993   -0.0016217002261278424   0.012692498737649549
-0.784015606737993   -0.0016217002261278424   0.012692498737649549
-0.49195119171769847   0.020199127150098584   -0.009585169613787844
-0.49195119171769847   0.020199127150098584   -0.009585169613787844
-0.49195119171769847   0.020199127150098584   -0.009585169613787844
-0.49195119171769847   0.020199127150098584   -0.009585169613787844
-0.6264581897590186   0.01947468287571713   0.006762012977576566
-0.6264581897590186   0.01947468287571713   0.006762012977576566
-0.6264581897590186   0.01947468287571713   0.006762012977576566
-0.6264581897590186   0.01947468287571713   0.006762012977576566
-0.47632145482487964   0.06260929900753881   0.02615334299286956
-0.47632145482487964   0.06260929900753881   0.02615334299286956
-0.47632145482487964   0.06260929900753881   0.02615334299286956
-0.47632145482487964   0.06260929900753881   0.02615334299286956
-0.8010453154213266   -0.045431843874085   -0.028645901031077586
-0.8010453154213266   -0.045431843874085   -0.028645901031077586
-0.8010453154213266   -0.045431843874085   -0.028645901031077586
-0.8010453154213266   -0.045431843874085   -0.028645901031077586
-0.8045655621277126   -0.021787689182446168   0.015597351504278593
-0.8045655621277126   -0.021787689182446168   0.015597351504278593
-0.8045655621277126   -0.021787689182446168   0.015597351504278593
-0.8045655621277126   -0.021787689182446168   0.015597351504278593
-0.5087315886354594   0.0005502220900242549   -0.0054368954696180465
-0.5087315886354594   0.0005502220900242549   -0.0054368954696180465
-0.5087315886354594   0.0005502220900242549   -0.0054368954696180465
-0.5087315886354594   0.0005502220900242549   -0.0054368954696180465
-0.6412601489848194   0.001368905922519953   -0.0023394834811548276
-0.6412601489848194   0.001368905922519953   -0.0023394834811548276
-0.6412601489848194   0.001368905922519953   -0.0023394834811548276
-0.6412601489848194   0.001368905922519953   -0.0023394834811548276
-0.4926862921949245   0.04378054688989386   0.0315592619331908
-0.4926862921949245   0.04378054688989386   0.0315592619331908
-0.4926862921949245   0.04378054688989386   0.0315592619331908
-0.4926862921949245   0.04378054688989386   0.0315592619331908
-0.821483630092824   -0.06589078550689302   -0.024889891996839813
-0.821483630092824   -0.06589078550689302   -0.024889891996839813
-0.821483630092824   -0.06589078550689302   -0.024889891996839813
-0.821483630092824   -0.06589078550689302   -0.024889891996839813
-0.8223176068392454   -0.042806230362819886   0.021230351584949528
-0.8223176068392454   -0.042806230362819886   0.021230351584949528
-0.8223176068392454   -0.042806230362819886   0.021230351584949528
-0.8223176068392454   -0.042806230362819886   0.021230351584949528
-0.5257218375878496   -0.020462764069988884   -0.0020399413806339237
-0.5257218375878496   -0.020462764069988884   -0.0020399413806339237
-0.5257218375878496   -0.020462764069988884   -0.0020399413806339237
-0.5257218375878496   -0.020462764069988884   -0.0020399413806339237
-0.663272862493284   -0.01835756190984586   -0.012258308493560272
-0.663272862493284   -0.01835756190984586   -0.012258308493560272
-0.663272862493284   -0.01835756190984586   -0.012258308493560272
-0.663272862493284   -0.01835756190984586   -0.012258308493560272
-0.7482213297292017   0.08140861814162298   0.03645741781295794
-0.7482213297292017   0.08140861814162298   0.03645741781295794
-0.7482213297292017   0.08140861814162298   0.03645741781295794
-0.7482213297292017   0.08140861814162298   0.03645741781295794
-1.0530031418730288   -0.04845369932271526   -0.04614326224410342
-1.0530031418730288   -0.04845369932271526   -0.04614326224410342
-1.0530031418730288   -0.04845369932271526   -0.04614326224410342
-1.0530031418730288   -0.04845369932271526   -0.04614326224410342
-1.06071875557803   0.013504158177021275   0.03832471918963548
-1.06071875557803   0.013504158177021275   0.03832471918963548
-1.06071875557803   0.013504158177021275   0.03832471918963548
-1.06071875557803   0.013504158177021275   0.03832471918963548
-0.7923462792906106   -0.002394045407161427   -0.02818851884442828
-0.7923462792906106   -0.002394045407161427   -0.02818851884442828
-0.7923462792906106   -0.002394045407161427   -0.02818851884442828
-0.7923462792906106   -0.002394045407161427   -0.02818851884442828
-0.8743104375169867   0.01952943482433303   0.021168280250709347
-0.8743104375169867   0.01952943482433303   0.021168280250709347
-0.8743104375169867   0.01952943482433303   0.021168280250709347
-0.8743104375169867   0.01952943482433303   0.021168280250709347
-0.7627966940389335   0.0740472492069004   0.04311811279990373
-0.7627966940389335   0.0740472492069004   0.04311811279990373
-0.7627966940389335   0.0740472492069004   0.04311811279990373
-0.7627966940389335   0.0740472492069004   0.04311811279990373
-1.091758260281871   -0.06442705588919409   -0.03894159026333114
-1.091758260281871   -0.06442705588919409   -0.03894159026333114
-1.091758260281871   -0.06442705588919409   -0.03894159026333114
-1.091758260281871   -0.06442705588919409   -0.03894159026333114
-1.0927226391942688   0.0021752646078750937   0.04894515795817099
-1.0927226391942688   0.0021752646078750937   0.04894515795817099
-1.0927226391942688   0.0021752646078750937   0.04894515795817099
-1.0927226391942688   0.0021752646078750937   0.04894515795817099
-0.8108370016404386   -0.01335805478476873   -0.0241894804570369
-0.8108370016404386   -0.01335805478476873   -0.0241894804570369
-0.8108370016404386   -0.01335805478476873   -0.0241894804570369
-0.8108370016404386   -0.01335805478476873   -0.0241894804570369
-0.9152125179946398   0.006130500643191733   0.007626222305064295
-0.9152125179946398   0.006130500643191733   0.007626222305064295
-0.9152125179946398   0.006130500643191733   0.007626222305064295
-0.9152125179946398   0.006130500643191733   0.007626222305064295
-0.7800344718021796   0.06518074107046895   0.05128437287902046
-0.7800344718021796   0.06518074107046895   0.05128437287902046
-0.7800344718021796   0.06518074107046895   0.05128437287902046
-0.7800344718021796   0.06518074107046895   0.05128437287902046
-1.1249352987183912   -0.07777366093321844   -0.03216921412133287
-1.1249352987183912   -0.07777366093321844   -0.03216921412133287
-1.1249352987183912   -0.07777366093321844   -0.03216921412133287
-1.1249352987183912   -0.07777366093321844   -0.03216921412133287
-1.1369814541681764   -0.030014711109597414   0.05053875633141497
-1.1369814541681764   -0.030014711109597414   0.05053875633141497
-1.1369814541681764   -0.030014711109597414   0.05053875633141497
-1.1369814541681764   -0.030014711109597414   0.05053875633141497
-0.8299174325263541   -0.03848042652605124   -0.02109458068737747
-0.8299174325263541   -0.03848042652605124   -0.02109458068737747
-0.8299174325263541   -0.03848042652605124   -0.02109458068737747
-0.8299174325263541   -0.03848042652605124   -0.02109458068737747
-0.9285517666674035   -0.008118827664733486   -0.0004297265256249863
-0.9285517666674035   -0.008118827664733486   -0.0004297265256249863
-0.9285517666674035   -0.008118827664733486   -0.0004297265256249863
-0.9285517666674035   -0.008118827664733486   -0.0004297265256249863
0.07976017069422639   0.006561952169622169   -0.053205353079153805
0.07976017069422639   0.006561952169622169   -0.053205353079153805
0.07976017069422639   0.006561952169622169   -0.053205353079153805
0.07976017069422639   0.006561952169622169   -0.053205353079153805
-0.08663335143986126   0.039893056921680256   0.02720925567727412
-0.08663335143986126   0.039893056921680256   0.02720925567727412
-0.08663335143986126   0.039893056921680256   0.02720925567727412
-0.08663335143986126   0.039893056921680256   0.02720925567727412
-0.1299931442175632   -0.051236647723952394   -0.04285121132391762
-0.1299931442175632   -0.051236647723952394   -0.04285121132391762
-0.1299931442175632   -0.051236647723952394   -0.04285121132391762
-0.1299931442175632   -0.051236647723952394   -0.04285121132391762
0.07319055771904086   0.056382386590424965   0.03340814056292367
0.07319055771904086   0.056382386590424965   0.03340814056292367
0.07319055771904086   0.056382386590424965   0.03340814056292367
0.07319055771904086   0.056382386590424965   0.03340814056292367
-0.0177379612753177   0.012373751931018643   0.00462221569080972
-0.0177379612753177   0.012373751931018643   0.00462221569080972
-0.0177379612753177   0.012373751931018643   0.00462221569080972
-0.0177379612753177   0.012373751931018643   0.00462221569080972
0.042168674810777455   -0.017748182609245343   -0.047570704778723015
0.042168674810777455   -0.017748182609245343   -0.047570704778723015
0.042168674810777455   -0.017748182609245343   -0.047570704778723015
0.042168674810777455   -0.017748182609245343   -0.047570704778723015
-0.10080415838459232   0.021061024400425385   0.030796045716558935
-0.10080415838459232   0.021061024400425385   0.030796045716558935
-0.10080415838459232   0.021061024400425385   0.030796045716558935
-0.10080415838459232   0.021061024400425385   0.030796045716558935
-0.14428178932120844   -0.06051923579786063   -0.03632591305483513
-0.14428178932120844   -0.06051923579786063   -0.03632591305483513
-0.14428178932120844   -0.06051923579786063   -0.03632591305483513
-0.14428178932120844   -0.06051923579786063   -0.03632591305483513
0.0437779480007143   0.04377559232386404   0.045822690885508915
0.0437779480007143   0.04377559232386404   0.045822690885508915
0.0437779480007143   0.04377559232386404   0.045822690885508915
0.0437779480007143   0.04377559232386404   0.045822690885508915
-0.04094099752315029   -0.0015340029797018939   -0.006099157276427493
-0.04094099752315029   -0.0015340029797018939   -0.006099157276427493
-0.04094099752315029   -0.0015340029797018939   -0.006099157276427493
-0.04094099752315029   -0.0015340029797018939   -0.006099157276427493
0.012038222988581645   -0.029841765912666494   -0.03925857593862386
0.012038222988581645   -0.029841765912666494   -0.03925857593862386
0.012038222988581645   -0.029841765912666494   -0.03925857593862386
0.012038222988581645   -0.029841765912666494   -0.03925857593862386
-0.11508590891144432   0.010554277836296009   0.038579975359827365
-0.11508590891144432   0.010554277836296009   0.038579975359827365
-0.11508590891144432   0.010554277836296009   0.038579975359827365
-0.11508590891144432   0.010554277836296009   0.038579975359827365
-0.15736877120095585   -0.074777490700775   -0.03011231669202083
-0.15736877120095585   -0.074777490700775   -0.03011231669202083
-0.15736877120095585   -0.074777490700775   -0.03011231669202083
-0.15736877120095585   -0.074777490700775   -0.03011231669202083
0.002930358889806488   0.017356593601700783   0.052244859052992546
0.002930358889806488   0.017356593601700783   0.052244859052992546
0.002930358889806488   0.017356593601700783   0.052244859052992546
0.002930358889806488   0.017356593601700783   0.052244859052992546
-0.06587838754653774   -0.015532786829900237   -0.018465312335405402
-0.06587838754653774   -0.015532786829900237   -0.018465312335405402
-0.06587838754653774   -0.015532786829900237   -0.018465312335405402
-0.06587838754653774   -0.015532786829900237   -0.018465312335405402
-0.09903134390643718   0.026269893319147197   -0.0211575430530725
-0.09903134390643718   0.026269893319147197   -0.0211575430530725
-0.09903134390643718   0.026269893319147197   -0.0211575430530725
-0.09903134390643718   0.026269893319147197   -0.0211575430530725
-0.2548168240537747   0.010721172736495005   0.007097841544598561
-0.2548168240537747   0.010721172736495005   0.007097841544598561
-0.2548168240537747   0.010721172736495005   0.007097841544598561
-0.2548168240537747   0.010721172736495005   0.007097841544598561
-0.2771902339925998   -0.029841540110922986   -0.022287208120350094
-0.2771902339925998   -0.029841540110922986   -0.022287208120350094
-0.2771902339925998   -0.029841540110922986   -0.022287208120350094
-0.2771902339925998   -0.029841540110922986   -0.022287208120350094
-0.1018194171375415   0.025489454332363753   0.02129132201987477
-0.1018194171375415   0.025489454332363753   0.02129132201987477
-0.1018194171375415   0.025489454332363753   0.02129132201987477
-0.1018194171375415   0.025489454332363753   0.02129132201987477
-0.18284178553248348   0.007639561184536119   0.004073474694504923
-0.18284178553248348   0.007639561184536119   0.004073474694504923
-0.18284178553248348   0.007639561184536119   0.004073474694504923
-0.18284178553248348   0.007639561184536119   0.004073474694504923
-0.11389279148647542   0.0037984757799048308   -0.017384571172335432
-0.11389279148647542   0.0037984757799048308   -0.017384571172335432
-0.11389279148647542   0.0037984757799048308   -0.017384571172335432
-0.11389279148647542   0.0037984757799048308   -0.017384571172335432
-0.2666222777313381   -0.009655979646136875   0.010367012721168266
-0.2666222777313381   -0.009655979646136875   0.010367012721168266
-0.2666222777313381   -0.009655979646136875   0.010367012721168266
-0.2666222777313381   -0.009655979646136875   0.010367012721168266
-0.28831528578418714   -0.04806822315371043   -0.01645104711304004
-0.28831528578418714   -0.04806822315371043   -0.01645104711304004
-0.28831528578418714   -0.04806822315371043   -0.01645104711304004
-0.28831528578418714   -0.04806822315371043   -0.01645104711304004
-0.11904199909516806   0.005347941319288261   0.024005860958216364
-0.11904199909516806   0.005347941319288261   0.024005860958216364
-0.11904199909516806   0.005347941319288261   0.024005860958216364
-0.11904199909516806   0.005347941319288261   0.024005860958216364
-0.19689546583943082   -0.010654132913031696   -0.005105752744209617
-0.19689546583943082   -0.010654132913031696   -0.005105752744209617
-0.19689546583943082   -0.010654132913031696   -0.005105752744209617
-0.19689546583943082   -0.010654132913031696   -0.005105752744209617
-0.13068029419128252   -0.01584879171094558   -0.012988881492120477
-0.13068029419128252   -0.01584879171094558   -0.012988881492120477
-0.13068029419128252   -0.01584879171094558   -0.012988881492120477
-0.13068029419128252   -0.01584879171094558   -0.012988881492120477
-0.2782931263378204   -0.02848762577322399   0.01407915273830742
-0.2782931263378204   -0.02848762577322399   0.01407915273830742
-0.2782931263378204   -0.02848762577322399   0.01407915273830742
-0.2782931263378204   -0.02848762577322399   0.01407915273830742
-0.2995136735949275   -0.0668243425677173   -0.011282917455210841
-0.2995136735949275   -0.0668243425677173   -0.011282917455210841
-0.2995136735949275   -0.0668243425677173   -0.011282917455210841
-0.2995136735949275   -0.0668243425677173   -0.011282917455210841
-0.13344594712982158   -0.015060665988348066   0.029784978951223104
-0.13344594712982158   -0.015060665988348066   0.029784978951223104
-0.13344594712982158   -0.015060665988348066   0.029784978951223104
-0.13344594712982158   -0.015060665988348066   0.029784978951223104
-0.21093257796556716   -0.02874755330579227   -0.014440903417534066
-0.21093257796556716   -0.02874755330579227   -0.014440903417534066
-0.21093257796556716   -0.02874755330579227   -0.014440903417534066
-0.21093257796556716   -0.02874755330579227   -0.014440903417534066
-0.2501600449904822   0.04334647657941202   -0.0022435669818597695
-0.2501600449904822   0.04334647657941202   -0.0022435669818597695
-0.2501600449904822   0.04334647657941202   -0.0022435669818597695
-0.2501600449904822   0.04334647657941202   -0.0022435669818597695
-0.4214695989295742   -0.014445861528021575   -0.011914295492674275
-0.4214695989295742   -0.014445861528021575   -0.011914295492674275
-0.4214695989295742   -0.014445861528021575   -0.011914295492674275
-0.4214695989295742   -0.014445861528021575   -0.011914295492674275
-0.4259020065789203   -0.010534105111975042   -0.0025219790384467533
-0.4259020065789203   -0.010534105111975042   -0.0025219790384467533
-0.4259020065789203   -0.010534105111975042   -0.0025219790384467533
-0.4259020065789203   -0.010534105111975042   -0.0025219790384467533
-0.2656155663546404   0.0024589428511613692   0.0032856471073586975
-0.2656155663546404   0.0024589428511613692   0.0032856471073586975
-0.2656155663546404   0.0024589428511613692   0.0032856471073586975
-0.2656155663546404   0.0024589428511613692   0.0032856471073586975
-0.3400741088763411   0.0048734671891847575   0.0013923077503841044
-0.3400741088763411   0.0048734671891847575   0.0013923077503841044
-0.3400741088763411   0.0048734671891847575   0.0013923077503841044
-0.3400741088763411   0.0048734671891847575   0.0013923077503841044
-0.2614115529720388   0.023517760659496872   0.0032468962120312875
-0.2614115529720388   0.023517760659496872   0.0032468962120312875
-0.2614115529720388   0.023517760659496872   0.0032468962120312875
-0.2614115529720388   0.023517760659496872   0.0032468962120312875
-0.43155436653551266   -0.033041269494301265   -0.008276614439082241
-0.43155436653551266   -0.033041269494301265   -0.008276614439082241
-0.43155436653551266   -0.033041269494301265   -0.008276614439082241
-0.43155436653551266   -0.033041269494301265   -0.008276614439082241
-0.4363336932520675   -0.030115118977942196   0.0029096153934674227
-0.4363336932520675   -0.030115118977942196   0.0029096153934674227
-0.4363336932520675   -0.030115118977942196   0.0029096153934674227
-0.4363336932520675   -0.030115118977942196   0.0029096153934674227
-0.277413199995307   -0.016790721266626535   0.00678187994427655
-0.277413199995307   -0.016790721266626535   0.00678187994427655
-0.277413199995307   -0.016790721266626535   0.00678187994427655
-0.277413199995307   -0.016790721266626535   0.00678187994427655
-0.35138213965465964   -0.012934855495593298   -0.007037986775418666
-0.35138213965465964   -0.012934855495593298   -0.007037986775418666
-0.35138213965465964   -0.012934855495593298   -0.007037986775418666
-0.35138213965465964   -0.012934855495593298   -0.007037986775418666
-0.2730809290422923   0.0035700112282201074   0.008082502214503677
-0.2730809290422923   0.0035700112282201074   0.008082502214503677
-0.2730809290422923   0.0035700112282201074   0.008082502214503677
-0.2730809290422923   0.0035700112282201074   0.008082502214503677
-0.44241208385267283   -0.052221971120385804   -0.005375485467123364
-0.44241208385267283   -0.052221971120385804   -0.005375485467123364
-0.44241208385267283   -0.052221971120385804   -0.005375485467123364
-0.44241208385267283   -0.052221971120385804   -0.005375485467123364
-0.4464932674790611   -0.048898152910128015   0.008118694873096167
-0.4464932674790611   -0.048898152910128015   0.008118694873096167
-0.4464932674790611   -0.048898152910128015   0.008118694873096167
-0.4464932674790611   -0.048898152910128015   0.008118694873096167
-0.2887430793736125   -0.034950813501792286   0.010696524585435335
-0.2887430793736125   -0.034950813501792286   0.010696524585435335
-0.2887430793736125   -0.034950813501792286   0.010696524585435335
-0.2887430793736125   -0.034950813501792286   0.010696524585435335
-0.3635504855289967   -0.030853614008365227   -0.016198423018503265
-0.3635504855289967   -0.030853614008365227   -0.016198423018503265
-0.3635504855289967   -0.030853614008365227   -0.016198423018503265
-0.3635504855289967   -0.030853614008365227   -0.016198423018503265
-0.40018931375621947   0.06276157358132434   0.01727969526475348
-0.40018931375621947   0.06276157358132434   0.01727969526475348
-0.40018931375621947   0.06276157358132434   0.01727969526475348
-0.40018931375621947   0.06276157358132434   0.01727969526475348
-0.5815525003549596   -0.02403159950680353   -0.026725952205706067
-0.5815525003549596   -0.02403159950680353   -0.026725952205706067
-0.5815525003549596   -0.02403159950680353   -0.026725952205706067
-0.5815525003549596   -0.02403159950680353   -0.026725952205706067
-0.5737528297381806   0.009330864060685284   0.017875152959627827
-0.5737528297381806   0.009330864060685284   0.017875152959627827
-0.5737528297381806   0.009330864060685284   0.017875152959627827
-0.5737528297381806   0.009330864060685284   0.017875152959627827
-0.4273550551892025   -0.008432593969031232   -0.011888733232801884
-0.4273550551892025   -0.008432593969031232   -0.011888733232801884
-0.4273550551892025   -0.008432593969031232   -0.011888733232801884
-0.4273550551892025   -0.008432593969031232   -0.011888733232801884
-0.4939953879646933   0.009976214051040933   0.002382192080380749
-0.4939953879646933   0.009976214051040933   0.002382192080380749
-0.4939953879646933   0.009976214051040933   0.002382192080380749
-0.4939953879646933   0.009976214051040933   0.002382192080380749
-0.4101270504831885   0.04303727382117134   0.022781422507065927
-0.4101270504831885   0.04303727382117134   0.022781422507065927
-0.4101270504831885   0.04303727382117134   0.022781422507065927
-0.4101270504831885   0.04303727382117134   0.022781422507065927
-0.5930958962788246   -0.04425406556415232   -0.025255250118754492
-0.5930958962788246   -0.04425406556415232   -0.025255250118754492
-0.5930958962788246   -0.04425406556415232   -0.025255250118754492
-0.5930958962788246   -0.04425406556415232   -0.025255250118754492
-0.5877333333033156   -0.009939765537661516   0.021114911059809328
-0.5877333333033156   -0.009939765537661516   0.021114911059809328
-0.5877333333033156   -0.009939765537661516   0.021114911059809328
-0.5877333333033156   -0.009939765537661516   0.021114911059809328
-0.43769647573849235   -0.025935528029817495   -0.008083887986781422
-0.43769647573849235   -0.025935528029817495   -0.008083887986781422
-0.43769647573849235   -0.025935528029817495   -0.008083887986781422
-0.43769647573849235   -0.025935528029817495   -0.008083887986781422
-0.5034917087877905   -0.007184267487373497   -0.006756279694252125
-0.5034917087877905   -0.007184267487373497   -0.006756279694252125
-0.5034917087877905   -0.007184267487373497   -0.006756279694252125
-0.5034917087877905   -0.007184267487373497   -0.006756279694252125
-0.4202748534107512   0.02495557279442953   0.028133122827669457
-0.4202748534107512   0.02495557279442953   0.028133122827669457
-0.4202748534107512   0.02495557279442953   0.028133122827669457
-0.4202748534107512   0.02495557279442953   0.028133122827669457
-0.6068251414810272   -0.0625010522118713   -0.021782843154546185
-0.6068251414810272   -0.0625010522118713   -0.021782843154546185
-0.6068251414810272   -0.0625010522118713   -0.021782843154546185
-0.6068251414810272   -0.0625010522118713   -0.021782843154546185
-0.5990980984241281   -0.029350993409862747   0.02689517275630584
-0.5990980984241281   -0.029350993409862747   0.02689517275630584
-0.5990980984241281   -0.029350993409862747   0.02689517275630584
-0.5990980984241281   -0.029350993409862747   0.02689517275630584
-0.44807589783067747   -0.04385729646372226   -0.004835313331391391
-0.44807589783067747   -0.04385729646372226   -0.004835313331391391
-0.44807589783067747   -0.04385729646372226   -0.004835313331391391
-0.44807589783067747   -0.04385729646372226   -0.004835313331391391
-0.5177869989537409   -0.024687412165676215   -0.016122301193061492
-0.5177869989537409   -0.024687412165676215   -0.016122301193061492
-0.5177869989537409   -0.024687412165676215   -0.016122301193061492
-0.5177869989537409   -0.024687412165676215   -0.016122301193061492
-0.5509635645705521   0.06801691169042726   0.03417021551910156
-0.5509635645705521   0.06801691169042726   0.03417021551910156
-0.5509635645705521   0.06801691169042726   0.03417021551910156
-0.5509635645705521   0.06801691169042726   0.03417021551910156
-0.7091482628141654   -0.03547327791980051   -0.044700347214410595
-0.7091482628141654   -0.03547327791980051   -0.044700347214410595
-0.7091482628141654   -0.03547327791980051   -0.044700347214410595
-0.7091482628141654   -0.03547327791980051   -0.044700347214410595
-0.7097067825815471   0.02730511208259398   0.037667771895254366
-0.7097067825815471   0.02730511208259398   0.037667771895254366
-0.7097067825815471   0.02730511208259398   0.037667771895254366
-0.7097067825815471   0.02730511208259398   0.037667771895254366
-0.5886682085134268   -0.02002341909989852   -0.027347457756018857
-0.5886682085134268   -0.02002341909989852   -0.027347457756018857
-0.5886682085134268   -0.02002341909989852   -0.027347457756018857
-0.5886682085134268   -0.02002341909989852   -0.027347457756018857
-0.6137422268397834   0.01613748405288415   0.011873367882215609
-0.6137422268397834   0.01613748405288415   0.011873367882215609
-0.6137422268397834   0.01613748405288415   0.011873367882215609
-0.6137422268397834   0.01613748405288415   0.011873367882215609
-0.5595593576447561   0.05786309849031858   0.04031027899711725
-0.5595593576447561   0.05786309849031858   0.04031027899711725
-0.5595593576447561   0.05786309849031858   0.04031027899711725
-0.5595593576447561   0.05786309849031858   0.04031027899711725
-0.741012654111498   -0.0527784261689022   -0.03877804750299671
-0.741012654111498   -0.0527784261689022   -0.03877804750299671
-0.741012654111498   -0.0527784261689022   -0.03877804750299671
-0.741012654111498   -0.0527784261689022   -0.03877804750299671
-0.7351351734584595   0.016326973540485623   0.04853383298728632
-0.7351351734584595   0.016326973540485623   0.04853383298728632
-0.7351351734584595   0.016326973540485623   0.04853383298728632
-0.7351351734584595   0.016326973540485623   0.04853383298728632
-0.6007769327111983   -0.03008517268738882   -0.023957678829876514
-0.6007769327111983   -0.03008517268738882   -0.023957678829876514
-0.6007769327111983   -0.03008517268738882   -0.023957678829876514
-0.6007769327111983   -0.03008517268738882   -0.023957678829876514
-0.6440116207770389   0.00278934133285641   -0.0008047766395426689
-0.6440116207770389   0.00278934133285641   -0.0008047766395426689
-0.6440116207770389   0.00278934133285641   -0.0008047766395426689
-0.6440116207770389   0.00278934133285641   -0.0008047766395426689
-0.5704558935758752   0.04922377645951781   0.04833856769983232
-0.5704558935758752   0.04922377645951781   0.04833856769983232
-0.5704558935758752   0.04922377645951781   0.04833856769983232
-0.5704558935758752   0.04922377645951781   0.04833856769983232
-0.7676951136928786   -0.06522087670551187   -0.03271801793878083
-0.7676951136928786   -0.06522087670551187   -0.03271801793878083
-0.7676951136928786   -0.06522087670551187   -0.03271801793878083
-0.7676951136928786   -0.06522087670551187   -0.03271801793878083
-0.7727132381107514   -0.012556964029257905   0.05131853738098662
-0.7727132381107514   -0.012556964029257905   0.05131853738098662
-0.7727132381107514   -0.012556964029257905   0.05131853738098662
-0.7727132381107514   -0.012556964029257905   0.05131853738098662
-0.6129352628679   -0.050947488235731656   -0.020694154636692826
-0.6129352628679   -0.050947488235731656   -0.020694154636692826
-0.6129352628679   -0.050947488235731656   -0.020694154636692826
-0.6129352628679   -0.050947488235731656   -0.020694154636692826
-0.6556321913187837   -0.010434996216829306   -0.00980378023618942
-0.6556321913187837   -0.010434996216829306   -0.00980378023618942
-0.6556321913187837   -0.010434996216829306   -0.00980378023618942
-0.6556321913187837   -0.010434996216829306   -0.00980378023618942
-0.30040339346738654   -0.01960440418517604   -0.056508007829482
-0.30040339346738654   -0.01960440418517604   -0.056508007829482
-0.30040339346738654   -0.01960440418517604   -0.056508007829482
-0.30040339346738654   -0.01960440418517604   -0.056508007829482
-0.2975078916979867   0.043264939513689385   0.025418079743334102
-0.2975078916979867   0.043264939513689385   0.025418079743334102
-0.2975078916979867   0.043264939513689385   0.025418079743334102
-0.2975078916979867   0.043264939513689385   0.025418079743334102
-0.3347918289733917   -0.03955825948270822   -0.03831270311030967
-0.3347918289733917   -0.03955825948270822   -0.03831270311030967
-0.3347918289733917   -0.03955825948270822   -0.03831270311030967
-0.3347918289733917   -0.03955825948270822   -0.03831270311030967
-0.30662984003484445   0.022650419484549836   0.038185970122009694
-0.30662984003484445   0.022650419484549836   0.038185970122009694
-0.30662984003484445   0.022650419484549836   0.038185970122009694
-0.30662984003484445   0.022650419484549836   0.038185970122009694
-0.2942795172480056   0.0072990633789253925   0.02593208899936881
-0.2942795172480056   0.0072990633789253925   0.02593208899936881
-0.2942795172480056   0.0072990633789253925   0.02593208899936881
-0.2942795172480056   0.0072990633789253925   0.02593208899936881
-0.33661495613055603   -0.04173181872206534   -0.04735737214993098
-0.33661495613055603   -0.04173181872206534   -0.04735737214993098
-0.33661495613055603   -0.04173181872206534   -0.04735737214993098
-0.33661495613055603   -0.04173181872206534   -0.04735737214993098
-0.30852948155385074   0.021101210047736726   0.032339564456950395
-0.30852948155385074   0.021101210047736726   0.032339564456950395
-0.30852948155385074   0.021101210047736726   0.032339564456950395
-0.30852948155385074   0.021101210047736726   0.032339564456950395
-0.34601906426890516   -0.04983351705754101   -0.032425843751896916
-0.34601906426890516   -0.04983351705754101   -0.032425843751896916
-0.34601906426890516   -0.04983351705754101   -0.032425843751896916
-0.34601906426890516   -0.04983351705754101   -0.032425843751896916
-0.33555262506686   0.008664150229547245   0.07099634217157645
-0.33555262506686   0.008664150229547245   0.07099634217157645
-0.33555262506686   0.008664150229547245   0.07099634217157645
-0.33555262506686   0.008664150229547245   0.07099634217157645
-0.32093457488520905   -0.010353129758664002   0.010369655227304134
-0.32093457488520905   -0.010353129758664002   0.010369655227304134
-0.32093457488520905   -0.010353129758664002   0.010369655227304134
-0.32093457488520905   -0.010353129758664002   0.010369655227304134
-0.3699711003019532   -0.055520943557199096   -0.03691094021713928
-0.3699711003019532   -0.055520943557199096   -0.03691094021713928
-0.3699711003019532   -0.055520943557199096   -0.03691094021713928
-0.3699711003019532   -0.055520943557199096   -0.03691094021713928
-0.32041463066264714   0.005537535100370805   0.0402252721214814
-0.32041463066264714   0.005537535100370805   0.0402252721214814
-0.32041463066264714   0.005537535100370805   0.0402252721214814
-0.32041463066264714   0.005537535100370805   0.0402252721214814
-0.35521214550920377   -0.06982510895217749   -0.025521149317419226
-0.35521214550920377   -0.06982510895217749   -0.025521149317419226
-0.35521214550920377   -0.06982510895217749   -0.025521149317419226
-0.35521214550920377   -0.06982510895217749   -0.025521149317419226
-0.3805065182721662   -0.03755566739738747   0.06644023767552844
-0.3805065182721662   -0.03755566739738747   0.06644023767552844
-0.3805065182721662   -0.03755566739738747   0.06644023767552844
-0.3805065182721662   -0.03755566739738747   0.06644023767552844
-0.34404335496890437   -0.031219892484263004   -0.014290728266456627
-0.34404335496890437   -0.031219892484263004   -0.014290728266456627
-0.34404335496890437   -0.031219892484263004   -0.014290728266456627
-0.34404335496890437   -0.031219892484263004   -0.014290728266456627
-0.31893213843842294   -0.00934091778198877   -0.029097296663172033
-0.31893213843842294   -0.00934091778198877   -0.029097296663172033
-0.31893213843842294   -0.00934091778198877   -0.029097296663172033
-0.31893213843842294   -0.00934091778198877   -0.029097296663172033
-0.3233922716412495   -0.03973873121608813   -0.001693614715054817
-0.3233922716412495   -0.03973873121608813   -0.001693614715054817
-0.3233922716412495   -0.03973873121608813   -0.001693614715054817
-0.3233922716412495   -0.03973873121608813   -0.001693614715054817
-0.3257505363574585   -0.026460063550293775   -0.014525148173495851
-0.3257505363574585   -0.026460063550293775   -0.014525148173495851
-0.3257505363574585   -0.026460063550293775   -0.014525148173495851
-0.3257505363574585   -0.026460063550293775   -0.014525148173495851
-0.3301310651232802   -0.054006333748331636   -0.0005608095941288141
-0.3301310651232802   -0.054006333748331636   -0.0005608095941288141
-0.3301310651232802   -0.054006333748331636   -0.0005608095941288141
-0.3301310651232802   -0.054006333748331636   -0.0005608095941288141
-0.32179276716091404   -0.03379312744723828   -0.001144269205596949
-0.32179276716091404   -0.03379312744723828   -0.001144269205596949
-0.32179276716091404   -0.03379312744723828   -0.001144269205596949
-0.32179276716091404   -0.03379312744723828   -0.001144269205596949
-0.33014744443051725   -0.029470186254946434   -0.025178853623700405
-0.33014744443051725   -0.029470186254946434   -0.025178853623700405
-0.33014744443051725   -0.029470186254946434   -0.025178853623700405
-0.33014744443051725   -0.029470186254946434   -0.025178853623700405
-0.32781047578825473   -0.053072529781712466   0.001787620903941561
-0.32781047578825473   -0.053072529781712466   0.001787620903941561
-0.32781047578825473   -0.053072529781712466   0.001787620903941561
-0.32781047578825473   -0.053072529781712466   0.001787620903941561
-0.33121681251787016   -0.043762847102366095   -0.009373267727383987
-0.33121681251787016   -0.043762847102366095   -0.009373267727383987
-0.33121681251787016   -0.043762847102366095   -0.009373267727383987
-0.33121681251787016   -0.043762847102366095   -0.009373267727383987
-0.3421017613296337   -0.07006476050443908   0.007391914391358648
-0.3421017613296337   -0.07006476050443908   0.007391914391358648
-0.3421017613296337   -0.07006476050443908   0.007391914391358648
-0.3421017613296337   -0.07006476050443908   0.007391914391358648
-0.3291943657717052   -0.04777174406467467   -0.009157685979702877
-0.3291943657717052   -0.04777174406467467   -0.009157685979702877
-0.3291943657717052   -0.04777174406467467   -0.009157685979702877
-0.3291943657717052   -0.04777174406467467   -0.009157685979702877
-0.34289647164070236   -0.04796117076261709   -0.018685226905806773
-0.34289647164070236   -0.04796117076261709   -0.018685226905806773
-0.34289647164070236   -0.04796117076261709   -0.018685226905806773
-0.34289647164070236   -0.04796117076261709   -0.018685226905806773
-0.33307741854157613   -0.06852175317896396   0.006082608230676712
-0.33307741854157613   -0.06852175317896396   0.006082608230676712
-0.33307741854157613   -0.06852175317896396   0.006082608230676712
-0.33307741854157613   -0.06852175317896396   0.006082608230676712
-0.33612438481328244   -0.06240756674553426   -0.004271087151246952
-0.33612438481328244   -0.06240756674553426   -0.004271087151246952
-0.33612438481328244   -0.06240756674553426   -0.004271087151246952
-0.33612438481328244   -0.06240756674553426   -0.004271087151246952
-0.3512628758640436   -0.09045668842077137   0.014856778376973665
-0.3512628758640436   -0.09045668842077137   0.014856778376973665
-0.3512628758640436   -0.09045668842077137   0.014856778376973665
-0.3512628758640436   -0.09045668842077137   0.014856778376973665
-0.3393729148640143   -0.0646562609237165   -0.019349868572570213
-0.3393729148640143   -0.0646562609237165   -0.019349868572570213
-0.3393729148640143   -0.0646562609237165   -0.019349868572570213
-0.3393729148640143   -0.0646562609237165   -0.019349868572570213
-0.3145209224043336   0.008259677438547025   -0.005335277185102613
-0.3145209224043336   0.008259677438547025   -0.005335277185102613
-0.3145209224043336   0.008259677438547025   -0.005335277185102613
-0.3145209224043336   0.008259677438547025   -0.005335277185102613
-0.3559626298129793   -0.06758056205302308   -0.017064273804495447
-0.3559626298129793   -0.06758056205302308   -0.017064273804495447
-0.3559626298129793   -0.06758056205302308   -0.017064273804495447
-0.3559626298129793   -0.06758056205302308   -0.017064273804495447
-0.34143236571816266   -0.012463626824971152   0.004489598090218306
-0.34143236571816266   -0.012463626824971152   0.004489598090218306
-0.34143236571816266   -0.012463626824971152   0.004489598090218306
-0.34143236571816266   -0.012463626824971152   0.004489598090218306
-0.3342688904783119   -0.07304649174067243   -0.010530490587384105
-0.3342688904783119   -0.07304649174067243   -0.010530490587384105
-0.3342688904783119   -0.07304649174067243   -0.010530490587384105
-0.3342688904783119   -0.07304649174067243   -0.010530490587384105
-0.33631094683282947   -0.03735462168577948   -0.007610516770957802
-0.33631094683282947   -0.03735462168577948   -0.007610516770957802
-0.33631094683282947   -0.03735462168577948   -0.007610516770957802
-0.33631094683282947   -0.03735462168577948   -0.007610516770957802
-0.3193517736537559   -0.008953089725990682   -3.8308479286052605e-05
-0.3193517736537559   -0.008953089725990682   -3.8308479286052605e-05
-0.3193517736537559   -0.008953089725990682   -3.8308479286052605e-05
-0.3193517736537559   -0.008953089725990682   -3.8308479286052605e-05
-0.35823468334467823   -0.07844222964161374   -0.013543387225724306
-0.35823468334467823   -0.07844222964161374   -0.013543387225724306
-0.35823468334467823   -0.07844222964161374   -0.013543387225724306
-0.35823468334467823   -0.07844222964161374   -0.013543387225724306
-0.34536191082880485   -0.02981543052287236   0.009607044496545286
-0.34536191082880485   -0.02981543052287236   0.009607044496545286
-0.34536191082880485   -0.02981543052287236   0.009607044496545286
-0.34536191082880485   -0.02981543052287236   0.009607044496545286
-0.33938523473313764   -0.08672116748116253   -0.0072570584249250876
-0.33938523473313764   -0.08672116748116253   -0.0072570584249250876
-0.33938523473313764   -0.08672116748116253   -0.0072570584249250876
-0.33938523473313764   -0.08672116748116253   -0.0072570584249250876
-0.3404841365237495   -0.05057205784127621   -0.01448200338377127
-0.3404841365237495   -0.05057205784127621   -0.01448200338377127
-0.3404841365237495   -0.05057205784127621   -0.01448200338377127
-0.3404841365237495   -0.05057205784127621   -0.01448200338377127
-0.32488542008433074   -0.026614476504752765   0.005135323842699786
-0.32488542008433074   -0.026614476504752765   0.005135323842699786
-0.32488542008433074   -0.026614476504752765   0.005135323842699786
-0.32488542008433074   -0.026614476504752765   0.005135323842699786
-0.3619676348293275   -0.09202803085100163   -0.011208975177946157
-0.3619676348293275   -0.09202803085100163   -0.011208975177946157
-0.3619676348293275   -0.09202803085100163   -0.011208975177946157
-0.3619676348293275   -0.09202803085100163   -0.011208975177946157
-0.3485620696883397   -0.04613138975402784   0.014612633639015436
-0.3485620696883397   -0.04613138975402784   0.014612633639015436
-0.3485620696883397   -0.04613138975402784   0.014612633639015436
-0.3485620696883397   -0.04613138975402784   0.014612633639015436
-0.343197333126784   -0.09983864284476404   -0.0022047526195248055
-0.343197333126784   -0.09983864284476404   -0.0022047526195248055
-0.343197333126784   -0.09983864284476404   -0.0022047526195248055
-0.343197333126784   -0.09983864284476404   -0.0022047526195248055
-0.34545703211096995   -0.06439518953443772   -0.022031845672937405
-0.34545703211096995   -0.06439518953443772   -0.022031845672937405
-0.34545703211096995   -0.06439518953443772   -0.022031845672937405
-0.34545703211096995   -0.06439518953443772   -0.022031845672937405
-0.32867826748936885   0.03520319388296882   0.01657378187756487
-0.32867826748936885   0.03520319388296882   0.01657378187756487
-0.32867826748936885   0.03520319388296882   0.01657378187756487
-0.32867826748936885   0.03520319388296882   0.01657378187756487
-0.38858373193690726   -0.05042723533973214   -0.023784389524239558
-0.38858373193690726   -0.05042723533973214   -0.023784389524239558
-0.38858373193690726   -0.05042723533973214   -0.023784389524239558
-0.38858373193690726   -0.05042723533973214   -0.023784389524239558
-0.3676399313896908   0.010479951807465665   0.022958871850201547
-0.3676399313896908   0.010479951807465665   0.022958871850201547
-0.3676399313896908   0.010479951807465665   0.022958871850201547
-0.3676399313896908   0.010479951807465665   0.022958871850201547
-0.35397118740976763   -0.05626522023294103   -0.014402916959836806
-0.35397118740976763   -0.05626522023294103   -0.014402916959836806
-0.35397118740976763   -0.05626522023294103   -0.014402916959836806
-0.35397118740976763   -0.05626522023294103   -0.014402916959836806
-0.35968579442423837   -0.01487454203734856   -0.004545136625443976
-0.35968579442423837   -0.01487454203734856   -0.004545136625443976
-0.35968579442423837   -0.01487454203734856   -0.004545136625443976
-0.35968579442423837   -0.01487454203734856   -0.004545136625443976
-0.33202543427849945   0.01735266879365198   0.021707959669911046
-0.33202543427849945   0.01735266879365198   0.021707959669911046
-0.33202543427849945   0.01735266879365198   0.021707959669911046
-0.33202543427849945   0.01735266879365198   0.021707959669911046
-0.39208914685678853   -0.0656413995549543   -0.02316585412286691
-0.39208914685678853   -0.0656413995549543   -0.02316585412286691
-0.39208914685678853   -0.0656413995549543   -0.02316585412286691
-0.39208914685678853   -0.0656413995549543   -0.02316585412286691
-0.37445059712110557   -0.0064631772331874005   0.026031987378982307
-0.37445059712110557   -0.0064631772331874005   0.026031987378982307
-0.37445059712110557   -0.0064631772331874005   0.026031987378982307
-0.37445059712110557   -0.0064631772331874005   0.026031987378982307
-0.3573919718009411   -0.06889357658196826   -0.011465114305047796
-0.3573919718009411   -0.06889357658196826   -0.011465114305047796
-0.3573919718009411   -0.06889357658196826   -0.011465114305047796
-0.3573919718009411   -0.06889357658196826   -0.011465114305047796
-0.3631223825339161   -0.02920158688141475   -0.012604095420687213
-0.3631223825339161   -0.02920158688141475   -0.012604095420687213
-0.3631223825339161   -0.02920158688141475   -0.012604095420687213
-0.3631223825339161   -0.02920158688141475   -0.012604095420687213
-0.33569696229206275   0.0014203529902499096   0.026696003667125986
-0.33569696229206275   0.0014203529902499096   0.026696003667125986
-0.33569696229206275   0.0014203529902499096   0.026696003667125986
-0.33569696229206275   0.0014203529902499096   0.026696003667125986
-0.39831495297336617   -0.0789464531487878   -0.02080651596672043
-0.39831495297336617   -0.0789464531487878   -0.02080651596672043
-0.39831495297336617   -0.0789464531487878   -0.02080651596672043
-0.39831495297336617   -0.0789464531487878   -0.02080651596672043
-0.37895721331484966   -0.022716985739645354   0.03174755577313469
-0.37895721331484966   -0.022716985739645354   0.03174755577313469
-0.37895721331484966   -0.022716985739645354   0.03174755577313469
-0.37895721331484966   -0.022716985739645354   0.03174755577313469
-0.3603325407826696   -0.08157896782353964   -0.008792143763122179
-0.3603325407826696   -0.08157896782353964   -0.008792143763122179
-0.3603325407826696   -0.08157896782353964   -0.008792143763122179
-0.3603325407826696   -0.08157896782353964   -0.008792143763122179
-0.369138068554287   -0.04270730502556669   -0.02041319967167977
-0.369138068554287   -0.04270730502556669   -0.02041319967167977
-0.369138068554287   -0.04270730502556669   -0.02041319967167977
-0.369138068554287   -0.04270730502556669   -0.02041319967167977
-0.3570217544455234   0.05050978809616499   0.033088474496774885
-0.3570217544455234   0.05050978809616499   0.033088474496774885
-0.3570217544455234   0.05050978809616499   0.033088474496774885
-0.3570217544455234   0.05050978809616499   0.033088474496774885
-0.38172118118536846   -0.030462707427754025   -0.034462461416773345
-0.38172118118536846   -0.030462707427754025   -0.034462461416773345
-0.38172118118536846   -0.030462707427754025   -0.034462461416773345
-0.38172118118536846   -0.030462707427754025   -0.034462461416773345
-0.37316059861832296   0.03590204445007247   0.0367722500987323
-0.37316059861832296   0.03590204445007247   0.0367722500987323
-0.37316059861832296   0.03590204445007247   0.0367722500987323
-0.37316059861832296   0.03590204445007247   0.0367722500987323
-0.3863532735143945   -0.039062530161723716   -0.02106535680413552
-0.3863532735143945   -0.039062530161723716   -0.02106535680413552
-0.3863532735143945   -0.039062530161723716   -0.02106535680413552
-0.3863532735143945   -0.039062530161723716   -0.02106535680413552
-0.3618222350883859   0.009017958112219268   0.0014160864864597236
-0.3618222350883859   0.009017958112219268   0.0014160864864597236
-0.3618222350883859   0.009017958112219268   0.0014160864864597236
-0.3618222350883859   0.009017958112219268   0.0014160864864597236
-0.3588656466891815   0.03905719520682836   0.038253051953370275
-0.3588656466891815   0.03905719520682836   0.038253051953370275
-0.3588656466891815   0.03905719520682836   0.038253051953370275
-0.3588656466891815   0.03905719520682836   0.038253051953370275
-0.40268834524934083   -0.04425780072428047   -0.030706637881988446
-0.40268834524934083   -0.04425780072428047   -0.030706637881988446
-0.40268834524934083   -0.04425780072428047   -0.030706637881988446
-0.40268834524934083   -0.04425780072428047   -0.030706637881988446
-0.3895953467730579   0.026411354276982033   0.04734337005386799
-0.3895953467730579   0.026411354276982033   0.04734337005386799
-0.3895953467730579   0.026411354276982033   0.04734337005386799
-0.3895953467730579   0.026411354276982033   0.04734337005386799
-0.3915074606867137   -0.046495225586987286   -0.019220282095258556
-0.3915074606867137   -0.046495225586987286   -0.019220282095258556
-0.3915074606867137   -0.046495225586987286   -0.019220282095258556
-0.3915074606867137   -0.046495225586987286   -0.019220282095258556
-0.3795261905526779   -0.0024809228055195504   -0.008096696440393441
-0.3795261905526779   -0.0024809228055195504   -0.008096696440393441
-0.3795261905526779   -0.0024809228055195504   -0.008096696440393441
-0.3795261905526779   -0.0024809228055195504   -0.008096696440393441
-0.36292035872116624   0.031434731921402934   0.045785270224080854
-0.36292035872116624   0.031434731921402934   0.045785270224080854
-0.36292035872116624   0.031434731921402934   0.045785270224080854
-0.36292035872116624   0.031434731921402934   0.045785270224080854
-0.4208401300534114   -0.05417628454621553   -0.02829290752470208
-0.4208401300534114   -0.05417628454621553   -0.02829290752470208
-0.4208401300534114   -0.05417628454621553   -0.02829290752470208
-0.4208401300534114   -0.05417628454621553   -0.02829290752470208
-0.418573750194773   0.0021809700485569544   0.050586624111653836
-0.418573750194773   0.0021809700485569544   0.050586624111653836
-0.418573750194773   0.0021809700485569544   0.050586624111653836
-0.418573750194773   0.0021809700485569544   0.050586624111653836
-0.39621083497085485   -0.060534280425063064   -0.016703257821473312
-0.39621083497085485   -0.060534280425063064   -0.016703257821473312
-0.39621083497085485   -0.060534280425063064   -0.016703257821473312
-0.39621083497085485   -0.060534280425063064   -0.016703257821473312
-0.38792079533184426   -0.013062616264527913   -0.01667578245468246
-0.38792079533184426   -0.013062616264527913   -0.01667578245468246
-0.38792079533184426   -0.013062616264527913   -0.01667578245468246
-0.38792079533184426   -0.013062616264527913   -0.01667578245468246
-0.7662131615251858   -0.07001238126563646   -0.07226325432609589
-0.7662131615251858   -0.07001238126563646   -0.07226325432609589
-0.7662131615251858   -0.07001238126563646   -0.07226325432609589
-0.7662131615251858   -0.07001238126563646   -0.07226325432609589
-0.4859778573644432   0.04151896385349757   0.017038065424135752
-0.4859778573644432   0.04151896385349757   0.017038065424135752
-0.4859778573644432   0.04151896385349757   0.017038065424135752
-0.4859778573644432   0.04151896385349757   0.017038065424135752
-0.5103026438602476   -0.03216677814927493   -0.032227214221710945
-0.5103026438602476   -0.03216677814927493   -0.032227214221710945
-0.5103026438602476   -0.03216677814927493   -0.032227214221710945
-0.5103026438602476   -0.03216677814927493   -0.032227214221710945
-0.8145597549611232   -0.09169022084093455   0.08100758087000513
-0.8145597549611232   -0.09169022084093455   0.08100758087000513
-0.8145597549611232   -0.09169022084093455   0.08100758087000513
-0.8145597549611232   -0.09169022084093455   0.08100758087000513
-0.5922897884919244   -0.022519292443370434   0.07854975432043095
-0.5922897884919244   -0.022519292443370434   0.07854975432043095
-0.5922897884919244   -0.022519292443370434   0.07854975432043095
-0.5922897884919244   -0.022519292443370434   0.07854975432043095
-0.8436054659059998   -0.10297011554428681   -0.05294107915101816
-0.8436054659059998   -0.10297011554428681   -0.05294107915101816
-0.8436054659059998   -0.10297011554428681   -0.05294107915101816
-0.8436054659059998   -0.10297011554428681   -0.05294107915101816
-0.501682937095708   -0.04131288762625841   0.02001742907797067
-0.501682937095708   -0.04131288762625841   0.02001742907797067
-0.501682937095708   -0.04131288762625841   0.02001742907797067
-0.501682937095708   -0.04131288762625841   0.02001742907797067
-0.5180991791862889   -0.04667015879632366   -0.02312864883834916
-0.5180991791862889   -0.04667015879632366   -0.02312864883834916
-0.5180991791862889   -0.04667015879632366   -0.02312864883834916
-0.5180991791862889   -0.04667015879632366   -0.02312864883834916
-0.8404400624562464   -0.12812856869957515   0.002023819966864399
-0.8404400624562464   -0.12812856869957515   0.002023819966864399
-0.8404400624562464   -0.12812856869957515   0.002023819966864399
-0.8404400624562464   -0.12812856869957515   0.002023819966864399
-0.655702488559985   -0.0773138305125671   0.018141499168375666
-0.655702488559985   -0.0773138305125671   0.018141499168375666
-0.655702488559985   -0.0773138305125671   0.018141499168375666
-0.655702488559985   -0.0773138305125671   0.018141499168375666
-0.8470134358946609   -0.11635133629606963   -0.04262027962870686
-0.8470134358946609   -0.11635133629606963   -0.04262027962870686
-0.8470134358946609   -0.11635133629606963   -0.04262027962870686
-0.8470134358946609   -0.11635133629606963   -0.04262027962870686
-0.5177168566140575   -0.06463844206601185   -0.003248752707507912
-0.5177168566140575   -0.06463844206601185   -0.003248752707507912
-0.5177168566140575   -0.06463844206601185   -0.003248752707507912
-0.5177168566140575   -0.06463844206601185   -0.003248752707507912
-0.5184159823453998   -0.08179386332725884   -0.01684127790059483
-0.5184159823453998   -0.08179386332725884   -0.01684127790059483
-0.5184159823453998   -0.08179386332725884   -0.01684127790059483
-0.5184159823453998   -0.08179386332725884   -0.01684127790059483
-0.8604960446107024   -0.19569481638164987   0.012877523189296676
-0.8604960446107024   -0.19569481638164987   0.012877523189296676
-0.8604960446107024   -0.19569481638164987   0.012877523189296676
-0.8604960446107024   -0.19569481638164987   0.012877523189296676
-0.6549567839273053   -0.10628639520351083   0.0013522355975943154
-0.6549567839273053   -0.10628639520351083   0.0013522355975943154
-0.6549567839273053   -0.10628639520351083   0.0013522355975943154
-0.6549567839273053   -0.10628639520351083   0.0013522355975943154
-0.5247810935123666   -0.08897466911641624   -0.04648448234556287
-0.5247810935123666   -0.08897466911641624   -0.04648448234556287
-0.5247810935123666   -0.08897466911641624   -0.04648448234556287
-0.5247810935123666   -0.08897466911641624   -0.04648448234556287
-0.36052278238037305   -0.23296730551957703   -0.04367903319657493
-0.36052278238037305   -0.23296730551957703   -0.04367903319657493
-0.36052278238037305   -0.23296730551957703   -0.04367903319657493
-0.36052278238037305   -0.23296730551957703   -0.04367903319657493
-0.31666965937333036   -0.05175224987829852   -0.0027517959939130257
-0.31666965937333036   -0.05175224987829852   -0.0027517959939130257
-0.31666965937333036   -0.05175224987829852   -0.0027517959939130257
-0.31666965937333036   -0.05175224987829852   -0.0027517959939130257
-0.5578591755608319   -0.24711221657338808   -0.05506443430051912
-0.5578591755608319   -0.24711221657338808   -0.05506443430051912
-0.5578591755608319   -0.24711221657338808   -0.05506443430051912
-0.5578591755608319   -0.24711221657338808   -0.05506443430051912
-0.4348524470316555   -0.16472431590791492   -0.012674793826007998
-0.4348524470316555   -0.16472431590791492   -0.012674793826007998
-0.4348524470316555   -0.16472431590791492   -0.012674793826007998
-0.4348524470316555   -0.16472431590791492   -0.012674793826007998
-0.5243717004419108   -0.09974179495757682   -0.03499748032172416
-0.5243717004419108   -0.09974179495757682   -0.03499748032172416
-0.5243717004419108   -0.09974179495757682   -0.03499748032172416
-0.5243717004419108   -0.09974179495757682   -0.03499748032172416
-0.35228325507753616   -0.20124879207939428   -0.03132323231384598
-0.35228325507753616   -0.20124879207939428   -0.03132323231384598
-0.35228325507753616   -0.20124879207939428   -0.03132323231384598
-0.35228325507753616   -0.20124879207939428   -0.03132323231384598
-0.32022109063251664   -0.06706563381770946   0.0005068771278897377
-0.32022109063251664   -0.06706563381770946   0.0005068771278897377
-0.32022109063251664   -0.06706563381770946   0.0005068771278897377
-0.32022109063251664   -0.06706563381770946   0.0005068771278897377
-0.5598070138048389   -0.24582764332401863   -0.032510337403407544
-0.5598070138048389   -0.24582764332401863   -0.032510337403407544
-0.5598070138048389   -0.24582764332401863   -0.032510337403407544
-0.5598070138048389   -0.24582764332401863   -0.032510337403407544
-0.4299891342876372   -0.1544064508939103   -0.013465575327915525
-0.4299891342876372   -0.1544064508939103   -0.013465575327915525
-0.4299891342876372   -0.1544064508939103   -0.013465575327915525
-0.4299891342876372   -0.1544064508939103   -0.013465575327915525
-0.5323554918111847   -0.11484163635904272   -0.026238734400108592
-0.5323554918111847   -0.11484163635904272   -0.026238734400108592
-0.5323554918111847   -0.11484163635904272   -0.026238734400108592
-0.5323554918111847   -0.11484163635904272   -0.026238734400108592
-0.3520723882429966   -0.20245141639951048   -0.023363828342709073
-0.3520723882429966   -0.20245141639951048   -0.023363828342709073
-0.3520723882429966   -0.20245141639951048   -0.023363828342709073
-0.3520723882429966   -0.20245141639951048   -0.023363828342709073
-0.3200379174877977   -0.08615008396403319   0.005164842284418619
-0.3200379174877977   -0.08615008396403319   0.005164842284418619
-0.3200379174877977   -0.08615008396403319   0.005164842284418619
-0.3200379174877977   -0.08615008396403319   0.005164842284418619
-0.5583581670980049   -0.24991394883315945   -0.0484321161577269
-0.5583581670980049   -0.24991394883315945   -0.0484321161577269
-0.5583581670980049   -0.24991394883315945   -0.0484321161577269
-0.5583581670980049   -0.24991394883315945   -0.0484321161577269
-0.4364164940322361   -0.16609596968249885   -0.025008547144837946
-0.4364164940322361   -0.16609596968249885   -0.025008547144837946
-0.4364164940322361   -0.16609596968249885   -0.025008547144837946
-0.4364164940322361   -0.16609596968249885   -0.025008547144837946
-0.3174490705615794   -0.057267126138567305   -0.004010653483616495
-0.3174490705615794   -0.057267126138567305   -0.004010653483616495
-0.3174490705615794   -0.057267126138567305   -0.004010653483616495
-0.3174490705615794   -0.057267126138567305   -0.004010653483616495
-0.26619031870170284   -0.17822824297902068   -0.03076736829551331
-0.26619031870170284   -0.17822824297902068   -0.03076736829551331
-0.26619031870170284   -0.17822824297902068   -0.03076736829551331
-0.26619031870170284   -0.17822824297902068   -0.03076736829551331
-0.22939435271976527   -0.04751290340264156   0.012262913344223662
-0.22939435271976527   -0.04751290340264156   0.012262913344223662
-0.22939435271976527   -0.04751290340264156   0.012262913344223662
-0.22939435271976527   -0.04751290340264156   0.012262913344223662
-0.3513243764055934   -0.19377645011318542   -0.03400118092034087
-0.3513243764055934   -0.19377645011318542   -0.03400118092034087
-0.3513243764055934   -0.19377645011318542   -0.03400118092034087
-0.3513243764055934   -0.19377645011318542   -0.03400118092034087
-0.2898057198820695   -0.12086522124342088   -0.014197000731896187
-0.2898057198820695   -0.12086522124342088   -0.014197000731896187
-0.2898057198820695   -0.12086522124342088   -0.014197000731896187
-0.2898057198820695   -0.12086522124342088   -0.014197000731896187
-0.3192216095292085   -0.06781974730307946   0.0005559506514773562
-0.3192216095292085   -0.06781974730307946   0.0005559506514773562
-0.3192216095292085   -0.06781974730307946   0.0005559506514773562
-0.3192216095292085   -0.06781974730307946   0.0005559506514773562
-0.2633805486520212   -0.1753530352686186   -0.029827934451078862
-0.2633805486520212   -0.1753530352686186   -0.029827934451078862
-0.2633805486520212   -0.1753530352686186   -0.029827934451078862
-0.2633805486520212   -0.1753530352686186   -0.029827934451078862
-0.22941628351683196   -0.0600981435617529   0.015889109955817302
-0.22941628351683196   -0.0600981435617529   0.015889109955817302
-0.22941628351683196   -0.0600981435617529   0.015889109955817302
-0.22941628351683196   -0.0600981435617529   0.015889109955817302
-0.35237123343252164   -0.1968486676007338   -0.03046080308911106
-0.35237123343252164   -0.1968486676007338   -0.03046080308911106
-0.35237123343252164   -0.1968486676007338   -0.03046080308911106
-0.35237123343252164   -0.1968486676007338   -0.03046080308911106
-0.2892370669135967   -0.12560655942141355   -0.018421710074368134
-0.2892370669135967   -0.12560655942141355   -0.018421710074368134
-0.2892370669135967   -0.12560655942141355   -0.018421710074368134
-0.2892370669135967   -0.12560655942141355   -0.018421710074368134
-0.32184100651471464   -0.08057714781054319   0.005918811709733251
-0.32184100651471464   -0.08057714781054319   0.005918811709733251
-0.32184100651471464   -0.08057714781054319   0.005918811709733251
-0.32184100651471464   -0.08057714781054319   0.005918811709733251
-0.26098145825354957   -0.17740461117085154   -0.024630296118671957
-0.26098145825354957   -0.17740461117085154   -0.024630296118671957
-0.26098145825354957   -0.17740461117085154   -0.024630296118671957
-0.26098145825354957   -0.17740461117085154   -0.024630296118671957
-0.2266473972025637   -0.07212038482551421   0.01983660155250408
-0.2266473972025637   -0.07212038482551421   0.01983660155250408
-0.2266473972025637   -0.07212038482551421   0.01983660155250408
-0.2266473972025637   -0.07212038482551421   0.01983660155250408
-0.3481042619527279   -0.19936420349959344   -0.02195276050467202
-0.3481042619527279   -0.19936420349959344   -0.02195276050467202
-0.3481042619527279   -0.19936420349959344   -0.02195276050467202
-0.3481042619527279   -0.19936420349959344   -0.02195276050467202
-0.2883051305284833   -0.1318440665376776   -0.021345730294638935
-0.2883051305284833   -0.1318440665376776   -0.021345730294638935
-0.2883051305284833   -0.1318440665376776   -0.021345730294638935
-0.2883051305284833   -0.1318440665376776   -0.021345730294638935
-0.22163167562943945   -0.007933687796695038   0.02173129188347813
-0.22163167562943945   -0.007933687796695038   0.02173129188347813
-0.22163167562943945   -0.007933687796695038   0.02173129188347813
-0.22163167562943945   -0.007933687796695038   0.02173129188347813
-0.2094692386244976   -0.09432455277531783   -0.018409681850476416
-0.2094692386244976   -0.09432455277531783   -0.018409681850476416
-0.2094692386244976   -0.09432455277531783   -0.018409681850476416
-0.2094692386244976   -0.09432455277531783   -0.018409681850476416
-0.18055817135371882   -0.013667499685098977   0.025172669723324662
-0.18055817135371882   -0.013667499685098977   0.025172669723324662
-0.18055817135371882   -0.013667499685098977   0.025172669723324662
-0.18055817135371882   -0.013667499685098977   0.025172669723324662
-0.24676089302481816   -0.10903904751612478   -0.013043644067557428
-0.24676089302481816   -0.10903904751612478   -0.013043644067557428
-0.24676089302481816   -0.10903904751612478   -0.013043644067557428
-0.24676089302481816   -0.10903904751612478   -0.013043644067557428
-0.21532206428293163   -0.05572316095922303   -0.007699279814940382
-0.21532206428293163   -0.05572316095922303   -0.007699279814940382
-0.21532206428293163   -0.05572316095922303   -0.007699279814940382
-0.21532206428293163   -0.05572316095922303   -0.007699279814940382
-0.22171550633883688   -0.021920543547952274   0.025064785394176243
-0.22171550633883688   -0.021920543547952274   0.025064785394176243
-0.22171550633883688   -0.021920543547952274   0.025064785394176243
-0.22171550633883688   -0.021920543547952274   0.025064785394176243
-0.20760611390994238   -0.1027885595235138   -0.020945983219378256
-0.20760611390994238   -0.1027885595235138   -0.020945983219378256
-0.20760611390994238   -0.1027885595235138   -0.020945983219378256
-0.20760611390994238   -0.1027885595235138   -0.020945983219378256
-0.18076290206771248   -0.02586375502617201   0.02705492374070475
-0.18076290206771248   -0.02586375502617201   0.02705492374070475
-0.18076290206771248   -0.02586375502617201   0.02705492374070475
-0.18076290206771248   -0.02586375502617201   0.02705492374070475
-0.24661913560152202   -0.11568187436844204   -0.014541419660943807
-0.24661913560152202   -0.11568187436844204   -0.014541419660943807
-0.24661913560152202   -0.11568187436844204   -0.014541419660943807
-0.24661913560152202   -0.11568187436844204   -0.014541419660943807
-0.21432716744092908   -0.06552119673432114   -0.013064508167995677
-0.21432716744092908   -0.06552119673432114   -0.013064508167995677
-0.21432716744092908   -0.06552119673432114   -0.013064508167995677
-0.21432716744092908   -0.06552119673432114   -0.013064508167995677
-0.22161941905145113   -0.03374248785572375   0.028517776576684688
-0.22161941905145113   -0.03374248785572375   0.028517776576684688
-0.22161941905145113   -0.03374248785572375   0.028517776576684688
-0.22161941905145113   -0.03374248785572375   0.028517776576684688
-0.20697509067471787   -0.10901561359582479   -0.02085416072466943
-0.20697509067471787   -0.10901561359582479   -0.02085416072466943
-0.20697509067471787   -0.10901561359582479   -0.02085416072466943
-0.20697509067471787   -0.10901561359582479   -0.02085416072466943
-0.17915517917583595   -0.037314709234416536   0.03135178757565977
-0.17915517917583595   -0.037314709234416536   0.03135178757565977
-0.17915517917583595   -0.037314709234416536   0.03135178757565977
-0.17915517917583595   -0.037314709234416536   0.03135178757565977
-0.24264587772913074   -0.12232827343852258   -0.009947912467322635
-0.24264587772913074   -0.12232827343852258   -0.009947912467322635
-0.24264587772913074   -0.12232827343852258   -0.009947912467322635
-0.24264587772913074   -0.12232827343852258   -0.009947912467322635
-0.21361706452781426   -0.07394066796964402   -0.016788831534923308
-0.21361706452781426   -0.07394066796964402   -0.016788831534923308
-0.21361706452781426   -0.07394066796964402   -0.016788831534923308
-0.21361706452781426   -0.07394066796964402   -0.016788831534923308
-0.17524937271488766   0.024497637945120707   0.033867456977134835
-0.17524937271488766   0.024497637945120707   0.033867456977134835
-0.17524937271488766   0.024497637945120707   0.033867456977134835
-0.17524937271488766   0.024497637945120707   0.033867456977134835
-0.11631702491641926   -0.031005304900742953   -0.011316559612000766
-0.11631702491641926   -0.031005304900742953   -0.011316559612000766
-0.11631702491641926   -0.031005304900742953   -0.011316559612000766
-0.11631702491641926   -0.031005304900742953   -0.011316559612000766
-0.10149088310479468   0.028810674185421756   0.03343827452197656
-0.10149088310479468   0.028810674185421756   0.03343827452197656
-0.10149088310479468   0.028810674185421756   0.03343827452197656
-0.10149088310479468   0.028810674185421756   0.03343827452197656
-0.19353233611842   -0.04750688582590218   -0.005858767959377955
-0.19353233611842   -0.04750688582590218   -0.005858767959377955
-0.19353233611842   -0.04750688582590218   -0.005858767959377955
-0.19353233611842   -0.04750688582590218   -0.005858767959377955
-0.14463957207865138   -0.003029551717589469   -0.0061250361152401555
-0.14463957207865138   -0.003029551717589469   -0.0061250361152401555
-0.14463957207865138   -0.003029551717589469   -0.0061250361152401555
-0.14463957207865138   -0.003029551717589469   -0.0061250361152401555
-0.172398713995555   0.015334953723901493   0.03696750310515094
-0.172398713995555   0.015334953723901493   0.03696750310515094
-0.172398713995555   0.015334953723901493   0.03696750310515094
-0.172398713995555   0.015334953723901493   0.03696750310515094
-0.12282572153781239   -0.034232381674535926   -0.010192861783154325
-0.12282572153781239   -0.034232381674535926   -0.010192861783154325
-0.12282572153781239   -0.034232381674535926   -0.010192861783154325
-0.12282572153781239   -0.034232381674535926   -0.010192861783154325
-0.10594239966871824   0.02287569303277286   0.04206924998554673
-0.10594239966871824   0.02287569303277286   0.04206924998554673
-0.10594239966871824   0.02287569303277286   0.04206924998554673
-0.10594239966871824   0.02287569303277286   0.04206924998554673
-0.19261504631473886   -0.05056624560413694   -0.007503306916462275
-0.19261504631473886   -0.05056624560413694   -0.007503306916462275
-0.19261504631473886   -0.05056624560413694   -0.007503306916462275
-0.19261504631473886   -0.05056624560413694   -0.007503306916462275
-0.14890583968064394   -0.009511961539051626   -0.008636960958201465
-0.14890583968064394   -0.009511961539051626   -0.008636960958201465
-0.14890583968064394   -0.009511961539051626   -0.008636960958201465
-0.14890583968064394   -0.009511961539051626   -0.008636960958201465
-0.17047457083759962   0.010068311479088859   0.04256451338600811
-0.17047457083759962   0.010068311479088859   0.04256451338600811
-0.17047457083759962   0.010068311479088859   0.04256451338600811
-0.17047457083759962   0.010068311479088859   0.04256451338600811
-0.12959863981452172   -0.03927462871911717   -0.014061628991580557
-0.12959863981452172   -0.03927462871911717   -0.014061628991580557
-0.12959863981452172   -0.03927462871911717   -0.014061628991580557
-0.12959863981452172   -0.03927462871911717   -0.014061628991580557
-0.12122819899928872   0.006558172346477025   0.04377637006466097
-0.12122819899928872   0.006558172346477025   0.04377637006466097
-0.12122819899928872   0.006558172346477025   0.04377637006466097
-0.12122819899928872   0.006558172346477025   0.04377637006466097
-0.18988163032714697   -0.053302359566101076   -0.006292817849210698
-0.18988163032714697   -0.053302359566101076   -0.006292817849210698
-0.18988163032714697   -0.053302359566101076   -0.006292817849210698
-0.18988163032714697   -0.053302359566101076   -0.006292817849210698
-0.1509482370153416   -0.014198018156142668   -0.012711028152154764
-0.1509482370153416   -0.014198018156142668   -0.012711028152154764
-0.1509482370153416   -0.014198018156142668   -0.012711028152154764
-0.1509482370153416   -0.014198018156142668   -0.012711028152154764
-1.8073179079538446   -0.2562477713138335   -0.1504555598231181
-1.8073179079538446   -0.2562477713138335   -0.1504555598231181
-1.8073179079538446   -0.2562477713138335   -0.1504555598231181
-1.8073179079538446   -0.2562477713138335   -0.1504555598231181
-0.627425643187652   -0.9889809508685403   -0.11773181235467486
-0.627425643187652   -0.9889809508685403   -0.11773181235467486
-0.627425643187652   -0.9889809508685403   -0.11773181235467486
-0.627425643187652   -0.9889809508685403   -0.11773181235467486
-0.4846427492636872   -0.041779246896594666   0.0006454448942685952
-0.4846427492636872   -0.041779246896594666   0.0006454448942685952
-0.4846427492636872   -0.041779246896594666   0.0006454448942685952
-0.4846427492636872   -0.041779246896594666   0.0006454448942685952
-1.9302455439660144   -1.1620701057236262   -0.6184631299379282
-1.9302455439660144   -1.1620701057236262   -0.6184631299379282
-1.9302455439660144   -1.1620701057236262   -0.6184631299379282
-1.9302455439660144   -1.1620701057236262   -0.6184631299379282
-1.182094086678323   -0.5780510622801733   -0.08423811576784848
-1.182094086678323   -0.5780510622801733   -0.08423811576784848
-1.182094086678323   -0.5780510622801733   -0.08423811576784848
-1.182094086678323   -0.5780510622801733   -0.08423811576784848
-1.679388285322079   -0.32175569297958756   -0.20449124946230426
-1.679388285322079   -0.32175569297958756   -0.20449124946230426
-1.679388285322079   -0.32175569297958756   -0.20449124946230426
-1.679388285322079   -0.32175569297958756   -0.20449124946230426
-0.6776315967083817   -0.8242252484413938   -0.1818527907843993
-0.6776315967083817   -0.8242252484413938   -0.1818527907843993
-0.6776315967083817   -0.8242252484413938   -0.1818527907843993
-0.6776315967083817   -0.8242252484413938   -0.1818527907843993
-0.4944833095236622   -0.055622912169692555   0.018595349683693106
-0.4944833095236622   -0.055622912169692555   0.018595349683693106
-0.4944833095236622   -0.055622912169692555   0.018595349683693106
-0.4944833095236622   -0.055622912169692555   0.018595349683693106
-1.8063136938649313   -1.0368414902239185   -0.5686310368177699
-1.8063136938649313   -1.0368414902239185   -0.5686310368177699
-1.8063136938649313   -1.0368414902239185   -0.5686310368177699
-1.8063136938649313   -1.0368414902239185   -0.5686310368177699
-1.1134195227232038   -0.521327760322591   0.045004597573321634
-1.1134195227232038   -0.521327760322591   0.045004597573321634
-1.1134195227232038   -0.521327760322591   0.045004597573321634
-1.1134195227232038   -0.521327760322591   0.045004597573321634
-1.5770017718445268   -0.30635688163211633   -0.1525560353075612
-1.5770017718445268   -0.30635688163211633   -0.1525560353075612
-1.5770017718445268   -0.30635688163211633   -0.1525560353075612
-1.5770017718445268   -0.30635688163211633   -0.1525560353075612
-0.6594861520203938   -0.7217984412378232   -0.14024333373183143
-0.6594861520203938   -0.7217984412378232   -0.14024333373183143
-0.6594861520203938   -0.7217984412378232   -0.14024333373183143
-0.6594861520203938   -0.7217984412378232   -0.14024333373183143
-0.5683893865445672   -0.1457709411066288   -0.029609758501733127
-0.5683893865445672   -0.1457709411066288   -0.029609758501733127
-0.5683893865445672   -0.1457709411066288   -0.029609758501733127
-0.5683893865445672   -0.1457709411066288   -0.029609758501733127
-1.6463466932547817   -0.8717386329595924   -0.5036170652428749
-1.6463466932547817   -0.8717386329595924   -0.5036170652428749
-1.6463466932547817   -0.8717386329595924   -0.5036170652428749
-1.6463466932547817   -0.8717386329595924   -0.5036170652428749
-1.0314026281795863   -0.45203514494728786   0.19102284269971348
-1.0314026281795863   -0.45203514494728786   0.19102284269971348
-1.0314026281795863   -0.45203514494728786   0.19102284269971348
-1.0314026281795863   -0.45203514494728786   0.19102284269971348
-0.46403596123608204   -0.2524058377870647   -0.03735851567830438
-0.46403596123608204   -0.2524058377870647   -0.03735851567830438
-0.46403596123608204   -0.2524058377870647   -0.03735851567830438
-0.46403596123608204   -0.2524058377870647   -0.03735851567830438
-0.21476456769563929   -0.3129962562221363   -0.05307467026273454
-0.21476456769563929   -0.3129962562221363   -0.05307467026273454
-0.21476456769563929   -0.3129962562221363   -0.05307467026273454
-0.21476456769563929   -0.3129962562221363   -0.05307467026273454
-0.18930333036140456   -0.1614130177199708   0.004875714767139883
-0.18930333036140456   -0.1614130177199708   0.004875714767139883
-0.18930333036140456   -0.1614130177199708   0.004875714767139883
-0.18930333036140456   -0.1614130177199708   0.004875714767139883
-0.5679085270900862   -0.4578587434773853   0.0003960523430692475
-0.5679085270900862   -0.4578587434773853   0.0003960523430692475
-0.5679085270900862   -0.4578587434773853   0.0003960523430692475
-0.5679085270900862   -0.4578587434773853   0.0003960523430692475
-0.30494604304181433   -0.22199451732134226   0.09778142826325707
-0.30494604304181433   -0.22199451732134226   0.09778142826325707
-0.30494604304181433   -0.22199451732134226   0.09778142826325707
-0.30494604304181433   -0.22199451732134226   0.09778142826325707
-0.5282152377865669   -0.23497482590148033   -0.024021418715245393
-0.5282152377865669   -0.23497482590148033   -0.024021418715245393
-0.5282152377865669   -0.23497482590148033   -0.024021418715245393
-0.5282152377865669   -0.23497482590148033   -0.024021418715245393
-0.24504908497469718   -0.40034940060565016   -0.03491667541364378
-0.24504908497469718   -0.40034940060565016   -0.03491667541364378
-0.24504908497469718   -0.40034940060565016   -0.03491667541364378
-0.24504908497469718   -0.40034940060565016   -0.03491667541364378
-0.2045231003957917   -0.16726362682692847   0.00502583167299607
-0.2045231003957917   -0.16726362682692847   0.00502583167299607
-0.2045231003957917   -0.16726362682692847   0.00502583167299607
-0.2045231003957917   -0.16726362682692847   0.00502583167299607
-0.5956973149629792   -0.4520639207796173   -0.09103366890296338
-0.5956973149629792   -0.4520639207796173   -0.09103366890296338
-0.5956973149629792   -0.4520639207796173   -0.09103366890296338
-0.5956973149629792   -0.4520639207796173   -0.09103366890296338
-0.36373079921080065   -0.28470928154067937   0.044587086627998276
-0.36373079921080065   -0.28470928154067937   0.044587086627998276
-0.36373079921080065   -0.28470928154067937   0.044587086627998276
-0.36373079921080065   -0.28470928154067937   0.044587086627998276
-0.545125848377698   -0.2453644950909538   -0.044875761665224265
-0.545125848377698   -0.2453644950909538   -0.044875761665224265
-0.545125848377698   -0.2453644950909538   -0.044875761665224265
-0.545125848377698   -0.2453644950909538   -0.044875761665224265
-0.25360013283167526   -0.37246861836619494   -0.03515433896715528
-0.25360013283167526   -0.37246861836619494   -0.03515433896715528
-0.25360013283167526   -0.37246861836619494   -0.03515433896715528
-0.25360013283167526   -0.37246861836619494   -0.03515433896715528
-0.2280116199200382   -0.17267759838089974   0.007403088925604907
-0.2280116199200382   -0.17267759838089974   0.007403088925604907
-0.2280116199200382   -0.17267759838089974   0.007403088925604907
-0.2280116199200382   -0.17267759838089974   0.007403088925604907
-0.6370240553700017   -0.43930234798445417   -0.07925169575107889
-0.6370240553700017   -0.43930234798445417   -0.07925169575107889
-0.6370240553700017   -0.43930234798445417   -0.07925169575107889
-0.6370240553700017   -0.43930234798445417   -0.07925169575107889
-0.3806507685895085   -0.2683502216586295   0.0471648861975812
-0.3806507685895085   -0.2683502216586295   0.0471648861975812
-0.3806507685895085   -0.2683502216586295   0.0471648861975812
-0.3806507685895085   -0.2683502216586295   0.0471648861975812
-0.16944979188633966   -0.15052172787043328   0.0110246804320605
-0.16944979188633966   -0.15052172787043328   0.0110246804320605
-0.16944979188633966   -0.15052172787043328   0.0110246804320605
-0.16944979188633966   -0.15052172787043328   0.0110246804320605
-0.10367202076058805   -0.09785880646183547   -0.0259221968328649
-0.10367202076058805   -0.09785880646183547   -0.0259221968328649
-0.10367202076058805   -0.09785880646183547   -0.0259221968328649
-0.10367202076058805   -0.09785880646183547   -0.0259221968328649
-0.10048448039504382   -0.13458785951529464   0.011101876058563519
-0.10048448039504382   -0.13458785951529464   0.011101876058563519
-0.10048448039504382   -0.13458785951529464   0.011101876058563519
-0.10048448039504382   -0.13458785951529464   0.011101876058563519
-0.18718045693361796   -0.13413694912332905   -0.011785986690568736
-0.18718045693361796   -0.13413694912332905   -0.011785986690568736
-0.18718045693361796   -0.13413694912332905   -0.011785986690568736
-0.18718045693361796   -0.13413694912332905   -0.011785986690568736
-0.11838146294300224   -0.1090412467126109   0.0490443580743266
-0.11838146294300224   -0.1090412467126109   0.0490443580743266
-0.11838146294300224   -0.1090412467126109   0.0490443580743266
-0.11838146294300224   -0.1090412467126109   0.0490443580743266
-0.18591990017050247   -0.1515161242348033   0.011895972236478952
-0.18591990017050247   -0.1515161242348033   0.011895972236478952
-0.18591990017050247   -0.1515161242348033   0.011895972236478952
-0.18591990017050247   -0.1515161242348033   0.011895972236478952
-0.1033783860345704   -0.11884203328023091   -0.01911347837412554
-0.1033783860345704   -0.11884203328023091   -0.01911347837412554
-0.1033783860345704   -0.11884203328023091   -0.01911347837412554
-0.1033783860345704   -0.11884203328023091   -0.01911347837412554
-0.10161022145847835   -0.13863016352065857   0.009870705337221758
-0.10161022145847835   -0.13863016352065857   0.009870705337221758
-0.10161022145847835   -0.13863016352065857   0.009870705337221758
-0.10161022145847835   -0.13863016352065857   0.009870705337221758
-0.19875391498436   -0.15650342233527306   0.023111554238499248
-0.19875391498436   -0.15650342233527306   0.023111554238499248
-0.19875391498436   -0.15650342233527306   0.023111554238499248
-0.19875391498436   -0.15650342233527306   0.023111554238499248
-0.1287225732905094   -0.12149907897930567   0.04154454157394776
-0.1287225732905094   -0.12149907897930567   0.04154454157394776
-0.1287225732905094   -0.12149907897930567   0.04154454157394776
-0.1287225732905094   -0.12149907897930567   0.04154454157394776
-0.20028985921406509   -0.15712879165689883   0.01605720241159956
-0.20028985921406509   -0.15712879165689883   0.01605720241159956
-0.20028985921406509   -0.15712879165689883   0.01605720241159956
-0.20028985921406509   -0.15712879165689883   0.01605720241159956
-0.10869265072861853   -0.14662316769887682   -0.017548436835260944
-0.10869265072861853   -0.14662316769887682   -0.017548436835260944
-0.10869265072861853   -0.14662316769887682   -0.017548436835260944
-0.10869265072861853   -0.14662316769887682   -0.017548436835260944
-0.10276186813437413   -0.143131524799085   0.013868239179516385
-0.10276186813437413   -0.143131524799085   0.013868239179516385
-0.10276186813437413   -0.143131524799085   0.013868239179516385
-0.10276186813437413   -0.143131524799085   0.013868239179516385
-0.23245573743221715   -0.19255280066847094   0.005057703652281323
-0.23245573743221715   -0.19255280066847094   0.005057703652281323
-0.23245573743221715   -0.19255280066847094   0.005057703652281323
-0.23245573743221715   -0.19255280066847094   0.005057703652281323
-0.14372935054618044   -0.13851442539157646   0.01962704454063731
-0.14372935054618044   -0.13851442539157646   0.01962704454063731
-0.14372935054618044   -0.13851442539157646   0.01962704454063731
-0.14372935054618044   -0.13851442539157646   0.01962704454063731
-0.08508214029063478   -0.05994293077286525   0.029111329827931284
-0.08508214029063478   -0.05994293077286525   0.029111329827931284
-0.08508214029063478   -0.05994293077286525   0.029111329827931284
-0.08508214029063478   -0.05994293077286525   0.029111329827931284
-0.05967775504319575   -0.00010454284345212499   -0.005821184290309128
-0.05967775504319575   -0.00010454284345212499   -0.005821184290309128
-0.05967775504319575   -0.00010454284345212499   -0.005821184290309128
-0.05967775504319575   -0.00010454284345212499   -0.005821184290309128
-0.056633687726597895   -0.06479209361055818   0.018063920162055363
-0.056633687726597895   -0.06479209361055818   0.018063920162055363
-0.056633687726597895   -0.06479209361055818   0.018063920162055363
-0.056633687726597895   -0.06479209361055818   0.018063920162055363
-0.0788203326561632   -0.011487622368922904   -0.003677622393397441
-0.0788203326561632   -0.011487622368922904   -0.003677622393397441
-0.0788203326561632   -0.011487622368922904   -0.003677622393397441
-0.0788203326561632   -0.011487622368922904   -0.003677622393397441
-0.06477486076501285   -0.032783556989437336   0.014439950632679915
-0.06477486076501285   -0.032783556989437336   0.014439950632679915
-0.06477486076501285   -0.032783556989437336   0.014439950632679915
-0.06477486076501285   -0.032783556989437336   0.014439950632679915
-0.08397458127205475   -0.06838362826701354   0.027447140425235435
-0.08397458127205475   -0.06838362826701354   0.027447140425235435
-0.08397458127205475   -0.06838362826701354   0.027447140425235435
-0.08397458127205475   -0.06838362826701354   0.027447140425235435
-0.050000206022225116   -0.006416854623986324   -0.007143910302652623
-0.050000206022225116   -0.006416854623986324   -0.007143910302652623
-0.050000206022225116   -0.006416854623986324   -0.007143910302652623
-0.050000206022225116   -0.006416854623986324   -0.007143910302652623
-0.05189101158141259   -0.07049689146044302   0.016655370858941858
-0.05189101158141259   -0.07049689146044302   0.016655370858941858
-0.05189101158141259   -0.07049689146044302   0.016655370858941858
-0.05189101158141259   -0.07049689146044302   0.016655370858941858
-0.07938730532352369   -0.022581684943994616   0.004936807435331061
-0.07938730532352369   -0.022581684943994616   0.004936807435331061
-0.07938730532352369   -0.022581684943994616   0.004936807435331061
-0.07938730532352369   -0.022581684943994616   0.004936807435331061
-0.05942051253754799   -0.03757650758436566   0.01721484971845344
-0.05942051253754799   -0.03757650758436566   0.01721484971845344
-0.05942051253754799   -0.03757650758436566   0.01721484971845344
-0.05942051253754799   -0.03757650758436566   0.01721484971845344
-0.08439893467691967   -0.07405846258871664   0.031355438313080866
-0.08439893467691967   -0.07405846258871664   0.031355438313080866
-0.08439893467691967   -0.07405846258871664   0.031355438313080866
-0.08439893467691967   -0.07405846258871664   0.031355438313080866
-0.047329150859396846   -0.019469882447099948   -0.011562334544322456
-0.047329150859396846   -0.019469882447099948   -0.011562334544322456
-0.047329150859396846   -0.019469882447099948   -0.011562334544322456
-0.047329150859396846   -0.019469882447099948   -0.011562334544322456
-0.043366354777429374   -0.07682150470825745   0.01830640823230164
-0.043366354777429374   -0.07682150470825745   0.01830640823230164
-0.043366354777429374   -0.07682150470825745   0.01830640823230164
-0.043366354777429374   -0.07682150470825745   0.01830640823230164
-0.08554591888748202   -0.04965756871487485   0.006474029329766795
-0.08554591888748202   -0.04965756871487485   0.006474029329766795
-0.08554591888748202   -0.04965756871487485   0.006474029329766795
-0.08554591888748202   -0.04965756871487485   0.006474029329766795
-0.0571434257903182   -0.04742714041813106   0.014890556964665073
-0.0571434257903182   -0.04742714041813106   0.014890556964665073
-0.0571434257903182   -0.04742714041813106   0.014890556964665073
-0.0571434257903182   -0.04742714041813106   0.014890556964665073
-0.05474998611981843   -0.010571634768664639   0.029284752251789965
-0.05474998611981843   -0.010571634768664639   0.029284752251789965
-0.05474998611981843   -0.010571634768664639   0.029284752251789965
-0.05474998611981843   -0.010571634768664639   0.029284752251789965
-0.009605459152314491   0.006382902518278341   -0.0005913438093471408
-0.009605459152314491   0.006382902518278341   -0.0005913438093471408
-0.009605459152314491   0.006382902518278341   -0.0005913438093471408
-0.009605459152314491   0.006382902518278341   -0.0005913438093471408
0.003192147637492228   -0.0033676753198522034   0.01811280081495968
0.003192147637492228   -0.0033676753198522034   0.01811280081495968
0.003192147637492228   -0.0033676753198522034   0.01811280081495968
0.003192147637492228   -0.0033676753198522034   0.01811280081495968
-0.04678545200388822   0.00477901689900226   -0.002266011733956747
-0.04678545200388822   0.00477901689900226   -0.002266011733956747
-0.04678545200388822   0.00477901689900226   -0.002266011733956747
-0.04678545200388822   0.00477901689900226   -0.002266011733956747
-0.027444048406368143   -0.0020626294368347124   -0.0022702657777330755
-0.027444048406368143   -0.0020626294368347124   -0.0022702657777330755
-0.027444048406368143   -0.0020626294368347124   -0.0022702657777330755
-0.027444048406368143   -0.0020626294368347124   -0.0022702657777330755
-0.04323553491406036   -0.010186044891930125   0.030448635506114985
-0.04323553491406036   -0.010186044891930125   0.030448635506114985
-0.04323553491406036   -0.010186044891930125   0.030448635506114985
-0.04323553491406036   -0.010186044891930125   0.030448635506114985
0.0012776781740534665   0.013232834097473126   -0.008060055919544111
0.0012776781740534665   0.013232834097473126   -0.008060055919544111
0.0012776781740534665   0.013232834097473126   -0.008060055919544111
0.0012776781740534665   0.013232834097473126   -0.008060055919544111
0.009661756762592373   -0.004145834961470286   0.022321943219539755
0.009661756762592373   -0.004145834961470286   0.022321943219539755
0.009661756762592373   -0.004145834961470286   0.022321943219539755
0.009661756762592373   -0.004145834961470286   0.022321943219539755
-0.04105941949286418   0.0036573515943533995   -0.003340911753112491
-0.04105941949286418   0.0036573515943533995   -0.003340911753112491
-0.04105941949286418   0.0036573515943533995   -0.003340911753112491
-0.04105941949286418   0.0036573515943533995   -0.003340911753112491
-0.017953018058574882   -0.0004748442675416233   0.0028893030531898616
-0.017953018058574882   -0.0004748442675416233   0.0028893030531898616
-0.017953018058574882   -0.0004748442675416233   0.0028893030531898616
-0.017953018058574882   -0.0004748442675416233   0.0028893030531898616
-0.03685817352025199   -0.01137472976757228   0.03269739947187415
-0.03685817352025199   -0.01137472976757228   0.03269739947187415
-0.03685817352025199   -0.01137472976757228   0.03269739947187415
-0.03685817352025199   -0.01137472976757228   0.03269739947187415
0.006933114154638833   0.012358849765114045   -0.007825954546812277
0.006933114154638833   0.012358849765114045   -0.007825954546812277
0.006933114154638833   0.012358849765114045   -0.007825954546812277
0.006933114154638833   0.012358849765114045   -0.007825954546812277
0.016273745391781638   -0.006478298014346382   0.021672114190634174
0.016273745391781638   -0.006478298014346382   0.021672114190634174
0.016273745391781638   -0.006478298014346382   0.021672114190634174
0.016273745391781638   -0.006478298014346382   0.021672114190634174
-0.031671347340467365   0.0037472817166423304   -0.0037873410077881036
-0.031671347340467365   0.0037472817166423304   -0.0037873410077881036
-0.031671347340467365   0.0037472817166423304   -0.0037873410077881036
-0.031671347340467365   0.0037472817166423304   -0.0037873410077881036
-0.009473729964494231   0.0005141906952828427   0.007433653720956508
-0.009473729964494231   0.0005141906952828427   0.007433653720956508
-0.009473729964494231   0.0005141906952828427   0.007433653720956508
-0.009473729964494231   0.0005141906952828427   0.007433653720956508
              </DataArray>   
             <DataArray type="Float64" NumberOfComponents="3" Name="Displacements" format="ascii">   
0.0   0.0   0.0
-0.00503159487998381   -0.003301399501342789   -0.0016855452601660513
0.0   0.0   0.0
0.0   0.0   0.0
-0.00503159487998381   -0.003301399501342789   -0.0016855452601660513
-0.0032017849092162813   -0.002966889682520019   -0.0012383817733872993
0.0   0.0   0.0
-0.003138530983774431   -0.0031157585241237333   -0.0010374867009399534
0.0   0.0   0.0
0.0   0.0   0.0
-0.003138530983774431   -0.0031157585241237333   -0.0010374867009399534
0.0   0.0   0.0
0.0   0.0   0.0
-0.003138530983774431   -0.0031157585241237333   -0.0010374867009399534
-0.005265885044773209   -0.003517155242401855   -0.0013532389359562783
-0.00503159487998381   -0.003301399501342789   -0.0016855452601660513
0.0   0.0   0.0
-0.003138530983774431   -0.0031157585241237333   -0.0010374867009399534
-0.00503159487998381   -0.003301399501342789   -0.0016855452601660513
0.0   0.0   0.0
0.0   0.0   0.0
-0.005265885044773209   -0.003517155242401855   -0.0013532389359562783
0.0   0.0   0.0
0.0   0.0   0.0
-0.005265885044773209   -0.003517155242401855   -0.0013532389359562783
-0.003138530983774431   -0.0031157585241237333   -0.0010374867009399534
0.0   0.0   0.0
-0.0031474546656273653   -0.0031920408509990574   -0.000836872752582244
0.0   0.0   0.0
0.0   0.0   0.0
-0.0031474546656273653   -0.0031920408509990574   -0.000836872752582244
0.0   0.0   0.0
0.0   0.0   0.0
-0.0031474546656273653   -0.0031920408509990574   -0.000836872752582244
-0.005430458000988865   -0.003622068176973982   -0.001034822131441674
-0.005265885044773209   -0.003517155242401855   -0.0013532389359562783
0.0   0.0   0.0
-0.0031474546656273653   -0.0031920408509990574   -0.000836872752582244
-0.005265885044773209   -0.003517155242401855   -0.0013532389359562783
0.0   0.0   0.0
0.0   0.0   0.0
-0.005430458000988865   -0.003622068176973982   -0.001034822131441674
0.0   0.0   0.0
0.0   0.0   0.0
-0.005430458000988865   -0.003622068176973982   -0.001034822131441674
-0.0031474546656273653   -0.0031920408509990574   -0.000836872752582244
0.0   0.0   0.0
-0.003145881986853907   -0.0032116309390443983   -0.0006294249736123914
0.0   0.0   0.0
0.0   0.0   0.0
-0.003145881986853907   -0.0032116309390443983   -0.0006294249736123914
0.0   0.0   0.0
0.0   0.0   0.0
-0.003145881986853907   -0.0032116309390443983   -0.0006294249736123914
-0.005784921569658343   -0.003701492843634177   -0.0006654031395461681
-0.005430458000988865   -0.003622068176973982   -0.001034822131441674
0.0   0.0   0.0
-0.003145881986853907   -0.0032116309390443983   -0.0006294249736123914
-0.005430458000988865   -0.003622068176973982   -0.001034822131441674
0.0   0.0   0.0
0.0   0.0   0.0
-0.0032017849092162813   -0.002966889682520019   -0.0012383817733872993
0.0   0.0   0.0
0.0   0.0   0.0
-0.0032017849092162813   -0.002966889682520019   -0.0012383817733872993
-0.0014580263563495712   -0.0028441916523943176   -0.0009419076156021812
0.0   0.0   0.0
-0.0014023797536370196   -0.002941096702033627   -0.0008470757457748092
0.0   0.0   0.0
0.0   0.0   0.0
-0.0014023797536370196   -0.002941096702033627   -0.0008470757457748092
0.0   0.0   0.0
0.0   0.0   0.0
-0.0014023797536370196   -0.002941096702033627   -0.0008470757457748092
-0.003138530983774431   -0.0031157585241237333   -0.0010374867009399534
-0.0032017849092162813   -0.002966889682520019   -0.0012383817733872993
0.0   0.0   0.0
-0.0014023797536370196   -0.002941096702033627   -0.0008470757457748092
-0.0032017849092162813   -0.002966889682520019   -0.0012383817733872993
0.0   0.0   0.0
0.0   0.0   0.0
-0.003138530983774431   -0.0031157585241237333   -0.0010374867009399534
0.0   0.0   0.0
0.0   0.0   0.0
-0.003138530983774431   -0.0031157585241237333   -0.0010374867009399534
-0.0014023797536370196   -0.002941096702033627   -0.0008470757457748092
0.0   0.0   0.0
-0.0013711565317597915   -0.0029780303870158772   -0.0007547122218561805
0.0   0.0   0.0
0.0   0.0   0.0
-0.0013711565317597915   -0.0029780303870158772   -0.0007547122218561805
0.0   0.0   0.0
0.0   0.0   0.0
-0.0013711565317597915   -0.0029780303870158772   -0.0007547122218561805
-0.0031474546656273653   -0.0031920408509990574   -0.000836872752582244
-0.003138530983774431   -0.0031157585241237333   -0.0010374867009399534
0.0   0.0   0.0
-0.0013711565317597915   -0.0029780303870158772   -0.0007547122218561805
-0.003138530983774431   -0.0031157585241237333   -0.0010374867009399534
0.0   0.0   0.0
0.0   0.0   0.0
-0.0031474546656273653   -0.0031920408509990574   -0.000836872752582244
0.0   0.0   0.0
0.0   0.0   0.0
-0.0031474546656273653   -0.0031920408509990574   -0.000836872752582244
-0.0013711565317597915   -0.0029780303870158772   -0.0007547122218561805
0.0   0.0   0.0
-0.0013427373140695116   -0.002962615100698004   -0.0006592166113537283
0.0   0.0   0.0
0.0   0.0   0.0
-0.0013427373140695116   -0.002962615100698004   -0.0006592166113537283
0.0   0.0   0.0
0.0   0.0   0.0
-0.0013427373140695116   -0.002962615100698004   -0.0006592166113537283
-0.003145881986853907   -0.0032116309390443983   -0.0006294249736123914
-0.0031474546656273653   -0.0031920408509990574   -0.000836872752582244
0.0   0.0   0.0
-0.0013427373140695116   -0.002962615100698004   -0.0006592166113537283
-0.0031474546656273653   -0.0031920408509990574   -0.000836872752582244
0.0   0.0   0.0
0.0   0.0   0.0
-0.0014580263563495712   -0.0028441916523943176   -0.0009419076156021812
0.0   0.0   0.0
0.0   0.0   0.0
-0.0014580263563495712   -0.0028441916523943176   -0.0009419076156021812
0.00018955983568071406   -0.0028599013020141617   -0.0007529757524562051
0.0   0.0   0.0
0.00022504537694518432   -0.002910135940488735   -0.0007661184714054521
0.0   0.0   0.0
0.0   0.0   0.0
0.00022504537694518432   -0.002910135940488735   -0.0007661184714054521
0.0   0.0   0.0
0.0   0.0   0.0
0.00022504537694518432   -0.002910135940488735   -0.0007661184714054521
-0.0014023797536370196   -0.002941096702033627   -0.0008470757457748092
-0.0014580263563495712   -0.0028441916523943176   -0.0009419076156021812
0.0   0.0   0.0
0.00022504537694518432   -0.002910135940488735   -0.0007661184714054521
-0.0014580263563495712   -0.0028441916523943176   -0.0009419076156021812
0.0   0.0   0.0
0.0   0.0   0.0
-0.0014023797536370196   -0.002941096702033627   -0.0008470757457748092
0.0   0.0   0.0
0.0   0.0   0.0
-0.0014023797536370196   -0.002941096702033627   -0.0008470757457748092
0.00022504537694518432   -0.002910135940488735   -0.0007661184714054521
0.0   0.0   0.0
0.0002530432369113042   -0.0029059781172294267   -0.0007779831816561692
0.0   0.0   0.0
0.0   0.0   0.0
0.0002530432369113042   -0.0029059781172294267   -0.0007779831816561692
0.0   0.0   0.0
0.0   0.0   0.0
0.0002530432369113042   -0.0029059781172294267   -0.0007779831816561692
-0.0013711565317597915   -0.0029780303870158772   -0.0007547122218561805
-0.0014023797536370196   -0.002941096702033627   -0.0008470757457748092
0.0   0.0   0.0
0.0002530432369113042   -0.0029059781172294267   -0.0007779831816561692
-0.0014023797536370196   -0.002941096702033627   -0.0008470757457748092
0.0   0.0   0.0
0.0   0.0   0.0
-0.0013711565317597915   -0.0029780303870158772   -0.0007547122218561805
0.0   0.0   0.0
0.0   0.0   0.0
-0.0013711565317597915   -0.0029780303870158772   -0.0007547122218561805
0.0002530432369113042   -0.0029059781172294267   -0.0007779831816561692
0.0   0.0   0.0
0.0002907385478225487   -0.0028429658065013954   -0.0007901689476113266
0.0   0.0   0.0
0.0   0.0   0.0
0.0002907385478225487   -0.0028429658065013954   -0.0007901689476113266
0.0   0.0   0.0
0.0   0.0   0.0
0.0002907385478225487   -0.0028429658065013954   -0.0007901689476113266
-0.0013427373140695116   -0.002962615100698004   -0.0006592166113537283
-0.0013711565317597915   -0.0029780303870158772   -0.0007547122218561805
0.0   0.0   0.0
0.0002907385478225487   -0.0028429658065013954   -0.0007901689476113266
-0.0013711565317597915   -0.0029780303870158772   -0.0007547122218561805
0.0   0.0   0.0
0.0   0.0   0.0
0.00018955983568071406   -0.0028599013020141617   -0.0007529757524562051
0.0   0.0   0.0
0.0   0.0   0.0
0.00018955983568071406   -0.0028599013020141617   -0.0007529757524562051
0.001977928062947706   -0.002999095528349767   -0.0006595311099881963
0.0   0.0   0.0
0.0019813238891725547   -0.00301508222342445   -0.0007862866156154933
0.0   0.0   0.0
0.0   0.0   0.0
0.0019813238891725547   -0.00301508222342445   -0.0007862866156154933
0.0   0.0   0.0
0.0   0.0   0.0
0.0019813238891725547   -0.00301508222342445   -0.0007862866156154933
0.00022504537694518432   -0.002910135940488735   -0.0007661184714054521
0.00018955983568071406   -0.0028599013020141617   -0.0007529757524562051
0.0   0.0   0.0
0.0019813238891725547   -0.00301508222342445   -0.0007862866156154933
0.00018955983568071406   -0.0028599013020141617   -0.0007529757524562051
0.0   0.0   0.0
0.0   0.0   0.0
0.00022504537694518432   -0.002910135940488735   -0.0007661184714054521
0.0   0.0   0.0
0.0   0.0   0.0
0.00022504537694518432   -0.002910135940488735   -0.0007661184714054521
0.0019813238891725547   -0.00301508222342445   -0.0007862866156154933
0.0   0.0   0.0
0.0019727336644573086   -0.0029720271189262004   -0.0009078804690077434
0.0   0.0   0.0
0.0   0.0   0.0
0.0019727336644573086   -0.0029720271189262004   -0.0009078804690077434
0.0   0.0   0.0
0.0   0.0   0.0
0.0019727336644573086   -0.0029720271189262004   -0.0009078804690077434
0.0002530432369113042   -0.0029059781172294267   -0.0007779831816561692
0.00022504537694518432   -0.002910135940488735   -0.0007661184714054521
0.0   0.0   0.0
0.0019727336644573086   -0.0029720271189262004   -0.0009078804690077434
0.00022504537694518432   -0.002910135940488735   -0.0007661184714054521
0.0   0.0   0.0
0.0   0.0   0.0
0.0002530432369113042   -0.0029059781172294267   -0.0007779831816561692
0.0   0.0   0.0
0.0   0.0   0.0
0.0002530432369113042   -0.0029059781172294267   -0.0007779831816561692
0.0019727336644573086   -0.0029720271189262004   -0.0009078804690077434
0.0   0.0   0.0
0.0020108391671076944   -0.0028567417263399343   -0.0010271548526131409
0.0   0.0   0.0
0.0   0.0   0.0
0.0020108391671076944   -0.0028567417263399343   -0.0010271548526131409
0.0   0.0   0.0
0.0   0.0   0.0
0.0020108391671076944   -0.0028567417263399343   -0.0010271548526131409
0.0002907385478225487   -0.0028429658065013954   -0.0007901689476113266
0.0002530432369113042   -0.0029059781172294267   -0.0007779831816561692
0.0   0.0   0.0
0.0020108391671076944   -0.0028567417263399343   -0.0010271548526131409
0.0002530432369113042   -0.0029059781172294267   -0.0007779831816561692
0.0   0.0   0.0
0.0   0.0   0.0
0.001977928062947706   -0.002999095528349767   -0.0006595311099881963
0.0   0.0   0.0
0.0   0.0   0.0
0.001977928062947706   -0.002999095528349767   -0.0006595311099881963
0.0044648138828564865   -0.003351903302776951   -0.0006222864032828087
0.0   0.0   0.0
0.004193023249847592   -0.0033153039269208672   -0.0009096489030752568
0.0   0.0   0.0
0.0   0.0   0.0
0.004193023249847592   -0.0033153039269208672   -0.0009096489030752568
0.0   0.0   0.0
0.0   0.0   0.0
0.004193023249847592   -0.0033153039269208672   -0.0009096489030752568
0.0019813238891725547   -0.00301508222342445   -0.0007862866156154933
0.001977928062947706   -0.002999095528349767   -0.0006595311099881963
0.0   0.0   0.0
0.004193023249847592   -0.0033153039269208672   -0.0009096489030752568
0.001977928062947706   -0.002999095528349767   -0.0006595311099881963
0.0   0.0   0.0
0.0   0.0   0.0
0.0019813238891725547   -0.00301508222342445   -0.0007862866156154933
0.0   0.0   0.0
0.0   0.0   0.0
0.0019813238891725547   -0.00301508222342445   -0.0007862866156154933
0.004193023249847592   -0.0033153039269208672   -0.0009096489030752568
0.0   0.0   0.0
0.004067642519118563   -0.0032463757983965404   -0.0011526467691461916
0.0   0.0   0.0
0.0   0.0   0.0
0.004067642519118563   -0.0032463757983965404   -0.0011526467691461916
0.0   0.0   0.0
0.0   0.0   0.0
0.004067642519118563   -0.0032463757983965404   -0.0011526467691461916
0.0019727336644573086   -0.0029720271189262004   -0.0009078804690077434
0.0019813238891725547   -0.00301508222342445   -0.0007862866156154933
0.0   0.0   0.0
0.004067642519118563   -0.0032463757983965404   -0.0011526467691461916
0.0019813238891725547   -0.00301508222342445   -0.0007862866156154933
0.0   0.0   0.0
0.0   0.0   0.0
0.0019727336644573086   -0.0029720271189262004   -0.0009078804690077434
0.0   0.0   0.0
0.0   0.0   0.0
0.0019727336644573086   -0.0029720271189262004   -0.0009078804690077434
0.004067642519118563   -0.0032463757983965404   -0.0011526467691461916
0.0   0.0   0.0
0.0038810589190796264   -0.00307001730063254   -0.0014097826859162594
0.0   0.0   0.0
0.0   0.0   0.0
0.0038810589190796264   -0.00307001730063254   -0.0014097826859162594
0.0   0.0   0.0
0.0   0.0   0.0
0.0038810589190796264   -0.00307001730063254   -0.0014097826859162594
0.0020108391671076944   -0.0028567417263399343   -0.0010271548526131409
0.0019727336644573086   -0.0029720271189262004   -0.0009078804690077434
0.0   0.0   0.0
0.0038810589190796264   -0.00307001730063254   -0.0014097826859162594
0.0019727336644573086   -0.0029720271189262004   -0.0009078804690077434
0.0   0.0   0.0
-0.00503159487998381   -0.003301399501342789   -0.0016855452601660513
-0.009397844185435678   -0.009215344323659558   -0.002270877745018994
-0.0032017849092162813   -0.002966889682520019   -0.0012383817733872993
-0.005265885044773209   -0.003517155242401855   -0.0013532389359562783
-0.009397844185435678   -0.009215344323659558   -0.002270877745018994
-0.005998275701142207   -0.00891450265360147   -0.0018692095132480633
-0.0032017849092162813   -0.002966889682520019   -0.0012383817733872993
-0.006005432062371388   -0.009066814925474816   -0.0016834050350642107
-0.005265885044773209   -0.003517155242401855   -0.0013532389359562783
-0.003138530983774431   -0.0031157585241237333   -0.0010374867009399534
-0.006005432062371388   -0.009066814925474816   -0.0016834050350642107
-0.0032017849092162813   -0.002966889682520019   -0.0012383817733872993
-0.005265885044773209   -0.003517155242401855   -0.0013532389359562783
-0.006005432062371388   -0.009066814925474816   -0.0016834050350642107
-0.009679502905116268   -0.009427872635159592   -0.0019691506786190457
-0.009397844185435678   -0.009215344323659558   -0.002270877745018994
-0.005265885044773209   -0.003517155242401855   -0.0013532389359562783
-0.006005432062371388   -0.009066814925474816   -0.0016834050350642107
-0.009397844185435678   -0.009215344323659558   -0.002270877745018994
-0.0032017849092162813   -0.002966889682520019   -0.0012383817733872993
-0.005265885044773209   -0.003517155242401855   -0.0013532389359562783
-0.009679502905116268   -0.009427872635159592   -0.0019691506786190457
-0.003138530983774431   -0.0031157585241237333   -0.0010374867009399534
-0.005430458000988865   -0.003622068176973982   -0.001034822131441674
-0.009679502905116268   -0.009427872635159592   -0.0019691506786190457
-0.006005432062371388   -0.009066814925474816   -0.0016834050350642107
-0.003138530983774431   -0.0031157585241237333   -0.0010374867009399534
-0.006029158929073972   -0.00915965973793392   -0.0015048501413522364
-0.005430458000988865   -0.003622068176973982   -0.001034822131441674
-0.0031474546656273653   -0.0031920408509990574   -0.000836872752582244
-0.006029158929073972   -0.00915965973793392   -0.0015048501413522364
-0.003138530983774431   -0.0031157585241237333   -0.0010374867009399534
-0.005430458000988865   -0.003622068176973982   -0.001034822131441674
-0.006029158929073972   -0.00915965973793392   -0.0015048501413522364
-0.009875226669496823   -0.009547893798550314   -0.001673702264560324
-0.009679502905116268   -0.009427872635159592   -0.0019691506786190457
-0.005430458000988865   -0.003622068176973982   -0.001034822131441674
-0.006029158929073972   -0.00915965973793392   -0.0015048501413522364
-0.009679502905116268   -0.009427872635159592   -0.0019691506786190457
-0.003138530983774431   -0.0031157585241237333   -0.0010374867009399534
-0.005430458000988865   -0.003622068176973982   -0.001034822131441674
-0.009875226669496823   -0.009547893798550314   -0.001673702264560324
-0.0031474546656273653   -0.0031920408509990574   -0.000836872752582244
-0.005784921569658343   -0.003701492843634177   -0.0006654031395461681
-0.009875226669496823   -0.009547893798550314   -0.001673702264560324
-0.006029158929073972   -0.00915965973793392   -0.0015048501413522364
-0.0031474546656273653   -0.0031920408509990574   -0.000836872752582244
-0.00601127427403915   -0.009207830112752136   -0.0013377122826880793
-0.005784921569658343   -0.003701492843634177   -0.0006654031395461681
-0.003145881986853907   -0.0032116309390443983   -0.0006294249736123914
-0.00601127427403915   -0.009207830112752136   -0.0013377122826880793
-0.0031474546656273653   -0.0031920408509990574   -0.000836872752582244
-0.005784921569658343   -0.003701492843634177   -0.0006654031395461681
-0.00601127427403915   -0.009207830112752136   -0.0013377122826880793
-0.010106567566263592   -0.009617662923808   -0.001404889411092586
-0.009875226669496823   -0.009547893798550314   -0.001673702264560324
-0.005784921569658343   -0.003701492843634177   -0.0006654031395461681
-0.00601127427403915   -0.009207830112752136   -0.0013377122826880793
-0.009875226669496823   -0.009547893798550314   -0.001673702264560324
-0.0031474546656273653   -0.0031920408509990574   -0.000836872752582244
-0.0032017849092162813   -0.002966889682520019   -0.0012383817733872993
-0.005998275701142207   -0.00891450265360147   -0.0018692095132480633
-0.0014580263563495712   -0.0028441916523943176   -0.0009419076156021812
-0.003138530983774431   -0.0031157585241237333   -0.0010374867009399534
-0.005998275701142207   -0.00891450265360147   -0.0018692095132480633
-0.0027830618431986137   -0.008774517104084247   -0.0015950128521934601
-0.0014580263563495712   -0.0028441916523943176   -0.0009419076156021812
-0.0027591254829928686   -0.008871456330310315   -0.0014998043428047665
-0.003138530983774431   -0.0031157585241237333   -0.0010374867009399534
-0.0014023797536370196   -0.002941096702033627   -0.0008470757457748092
-0.0027591254829928686   -0.008871456330310315   -0.0014998043428047665
-0.0014580263563495712   -0.0028441916523943176   -0.0009419076156021812
-0.003138530983774431   -0.0031157585241237333   -0.0010374867009399534
-0.0027591254829928686   -0.008871456330310315   -0.0014998043428047665
-0.006005432062371388   -0.009066814925474816   -0.0016834050350642107
-0.005998275701142207   -0.00891450265360147   -0.0018692095132480633
-0.003138530983774431   -0.0031157585241237333   -0.0010374867009399534
-0.0027591254829928686   -0.008871456330310315   -0.0014998043428047665
-0.005998275701142207   -0.00891450265360147   -0.0018692095132480633
-0.0014580263563495712   -0.0028441916523943176   -0.0009419076156021812
-0.003138530983774431   -0.0031157585241237333   -0.0010374867009399534
-0.006005432062371388   -0.009066814925474816   -0.0016834050350642107
-0.0014023797536370196   -0.002941096702033627   -0.0008470757457748092
-0.0031474546656273653   -0.0031920408509990574   -0.000836872752582244
-0.006005432062371388   -0.009066814925474816   -0.0016834050350642107
-0.0027591254829928686   -0.008871456330310315   -0.0014998043428047665
-0.0014023797536370196   -0.002941096702033627   -0.0008470757457748092
-0.002737922344186198   -0.008918469897297476   -0.0014134931658100777
-0.0031474546656273653   -0.0031920408509990574   -0.000836872752582244
-0.0013711565317597915   -0.0029780303870158772   -0.0007547122218561805
-0.002737922344186198   -0.008918469897297476   -0.0014134931658100777
-0.0014023797536370196   -0.002941096702033627   -0.0008470757457748092
-0.0031474546656273653   -0.0031920408509990574   -0.000836872752582244
-0.002737922344186198   -0.008918469897297476   -0.0014134931658100777
-0.006029158929073972   -0.00915965973793392   -0.0015048501413522364
-0.006005432062371388   -0.009066814925474816   -0.0016834050350642107
-0.0031474546656273653   -0.0031920408509990574   -0.000836872752582244
-0.002737922344186198   -0.008918469897297476   -0.0014134931658100777
-0.006005432062371388   -0.009066814925474816   -0.0016834050350642107
-0.0014023797536370196   -0.002941096702033627   -0.0008470757457748092
-0.0031474546656273653   -0.0031920408509990574   -0.000836872752582244
-0.006029158929073972   -0.00915965973793392   -0.0015048501413522364
-0.0013711565317597915   -0.0029780303870158772   -0.0007547122218561805
-0.003145881986853907   -0.0032116309390443983   -0.0006294249736123914
-0.006029158929073972   -0.00915965973793392   -0.0015048501413522364
-0.002737922344186198   -0.008918469897297476   -0.0014134931658100777
-0.0013711565317597915   -0.0029780303870158772   -0.0007547122218561805
-0.002706246376527409   -0.008917330141028336   -0.0013383458052301132
-0.003145881986853907   -0.0032116309390443983   -0.0006294249736123914
-0.0013427373140695116   -0.002962615100698004   -0.0006592166113537283
-0.002706246376527409   -0.008917330141028336   -0.0013383458052301132
-0.0013711565317597915   -0.0029780303870158772   -0.0007547122218561805
-0.003145881986853907   -0.0032116309390443983   -0.0006294249736123914
-0.002706246376527409   -0.008917330141028336   -0.0013383458052301132
-0.00601127427403915   -0.009207830112752136   -0.0013377122826880793
-0.006029158929073972   -0.00915965973793392   -0.0015048501413522364
-0.003145881986853907   -0.0032116309390443983   -0.0006294249736123914
-0.002706246376527409   -0.008917330141028336   -0.0013383458052301132
-0.006029158929073972   -0.00915965973793392   -0.0015048501413522364
-0.0013711565317597915   -0.0029780303870158772   -0.0007547122218561805
-0.0014580263563495712   -0.0028441916523943176   -0.0009419076156021812
-0.0027830618431986137   -0.008774517104084247   -0.0015950128521934601
0.00018955983568071406   -0.0028599013020141617   -0.0007529757524562051
-0.0014023797536370196   -0.002941096702033627   -0.0008470757457748092
-0.0027830618431986137   -0.008774517104084247   -0.0015950128521934601
0.000317427293516918   -0.00877868056616351   -0.0014216594533757625
0.00018955983568071406   -0.0028599013020141617   -0.0007529757524562051
0.0003468613187267606   -0.008824602748911508   -0.0014153689505721598
-0.0014023797536370196   -0.002941096702033627   -0.0008470757457748092
0.00022504537694518432   -0.002910135940488735   -0.0007661184714054521
0.0003468613187267606   -0.008824602748911508   -0.0014153689505721598
0.00018955983568071406   -0.0028599013020141617   -0.0007529757524562051
-0.0014023797536370196   -0.002941096702033627   -0.0008470757457748092
0.0003468613187267606   -0.008824602748911508   -0.0014153689505721598
-0.0027591254829928686   -0.008871456330310315   -0.0014998043428047665
-0.0027830618431986137   -0.008774517104084247   -0.0015950128521934601
-0.0014023797536370196   -0.002941096702033627   -0.0008470757457748092
0.0003468613187267606   -0.008824602748911508   -0.0014153689505721598
-0.0027830618431986137   -0.008774517104084247   -0.0015950128521934601
0.00018955983568071406   -0.0028599013020141617   -0.0007529757524562051
-0.0014023797536370196   -0.002941096702033627   -0.0008470757457748092
-0.0027591254829928686   -0.008871456330310315   -0.0014998043428047665
0.00022504537694518432   -0.002910135940488735   -0.0007661184714054521
-0.0013711565317597915   -0.0029780303870158772   -0.0007547122218561805
-0.0027591254829928686   -0.008871456330310315   -0.0014998043428047665
0.0003468613187267606   -0.008824602748911508   -0.0014153689505721598
0.00022504537694518432   -0.002910135940488735   -0.0007661184714054521
0.0003666425892309934   -0.008821769871408723   -0.0014191770593344215
-0.0013711565317597915   -0.0029780303870158772   -0.0007547122218561805
0.0002530432369113042   -0.0029059781172294267   -0.0007779831816561692
0.0003666425892309934   -0.008821769871408723   -0.0014191770593344215
0.00022504537694518432   -0.002910135940488735   -0.0007661184714054521
-0.0013711565317597915   -0.0029780303870158772   -0.0007547122218561805
0.0003666425892309934   -0.008821769871408723   -0.0014191770593344215
-0.002737922344186198   -0.008918469897297476   -0.0014134931658100777
-0.0027591254829928686   -0.008871456330310315   -0.0014998043428047665
-0.0013711565317597915   -0.0029780303870158772   -0.0007547122218561805
0.0003666425892309934   -0.008821769871408723   -0.0014191770593344215
-0.0027591254829928686   -0.008871456330310315   -0.0014998043428047665
0.00022504537694518432   -0.002910135940488735   -0.0007661184714054521
-0.0013711565317597915   -0.0029780303870158772   -0.0007547122218561805
-0.002737922344186198   -0.008918469897297476   -0.0014134931658100777
0.0002530432369113042   -0.0029059781172294267   -0.0007779831816561692
-0.0013427373140695116   -0.002962615100698004   -0.0006592166113537283
-0.002737922344186198   -0.008918469897297476   -0.0014134931658100777
0.0003666425892309934   -0.008821769871408723   -0.0014191770593344215
0.0002530432369113042   -0.0029059781172294267   -0.0007779831816561692
0.00038787046494252855   -0.008768693796605713   -0.0014332435541833232
-0.0013427373140695116   -0.002962615100698004   -0.0006592166113537283
0.0002907385478225487   -0.0028429658065013954   -0.0007901689476113266
0.00038787046494252855   -0.008768693796605713   -0.0014332435541833232
0.0002530432369113042   -0.0029059781172294267   -0.0007779831816561692
-0.0013427373140695116   -0.002962615100698004   -0.0006592166113537283
0.00038787046494252855   -0.008768693796605713   -0.0014332435541833232
-0.002706246376527409   -0.008917330141028336   -0.0013383458052301132
-0.002737922344186198   -0.008918469897297476   -0.0014134931658100777
-0.0013427373140695116   -0.002962615100698004   -0.0006592166113537283
0.00038787046494252855   -0.008768693796605713   -0.0014332435541833232
-0.002737922344186198   -0.008918469897297476   -0.0014134931658100777
0.0002530432369113042   -0.0029059781172294267   -0.0007779831816561692
0.00018955983568071406   -0.0028599013020141617   -0.0007529757524562051
0.000317427293516918   -0.00877868056616351   -0.0014216594533757625
0.001977928062947706   -0.002999095528349767   -0.0006595311099881963
0.00022504537694518432   -0.002910135940488735   -0.0007661184714054521
0.000317427293516918   -0.00877868056616351   -0.0014216594533757625
0.003603036767391502   -0.008921788422867205   -0.0013408001975310196
0.001977928062947706   -0.002999095528349767   -0.0006595311099881963
0.0036196645878002823   -0.008921359981060768   -0.0014263116773904675
0.00022504537694518432   -0.002910135940488735   -0.0007661184714054521
0.0019813238891725547   -0.00301508222342445   -0.0007862866156154933
0.0036196645878002823   -0.008921359981060768   -0.0014263116773904675
0.001977928062947706   -0.002999095528349767   -0.0006595311099881963
0.00022504537694518432   -0.002910135940488735   -0.0007661184714054521
0.0036196645878002823   -0.008921359981060768   -0.0014263116773904675
0.0003468613187267606   -0.008824602748911508   -0.0014153689505721598
0.000317427293516918   -0.00877868056616351   -0.0014216594533757625
0.00022504537694518432   -0.002910135940488735   -0.0007661184714054521
0.0036196645878002823   -0.008921359981060768   -0.0014263116773904675
0.000317427293516918   -0.00877868056616351   -0.0014216594533757625
0.001977928062947706   -0.002999095528349767   -0.0006595311099881963
0.00022504537694518432   -0.002910135940488735   -0.0007661184714054521
0.0003468613187267606   -0.008824602748911508   -0.0014153689505721598
0.0019813238891725547   -0.00301508222342445   -0.0007862866156154933
0.0002530432369113042   -0.0029059781172294267   -0.0007779831816561692
0.0003468613187267606   -0.008824602748911508   -0.0014153689505721598
0.0036196645878002823   -0.008921359981060768   -0.0014263116773904675
0.0019813238891725547   -0.00301508222342445   -0.0007862866156154933
0.0036028820388508713   -0.008873122248708443   -0.0015232486806306912
0.0002530432369113042   -0.0029059781172294267   -0.0007779831816561692
0.0019727336644573086   -0.0029720271189262004   -0.0009078804690077434
0.0036028820388508713   -0.008873122248708443   -0.0015232486806306912
0.0019813238891725547   -0.00301508222342445   -0.0007862866156154933
0.0002530432369113042   -0.0029059781172294267   -0.0007779831816561692
0.0036028820388508713   -0.008873122248708443   -0.0015232486806306912
0.0003666425892309934   -0.008821769871408723   -0.0014191770593344215
0.0003468613187267606   -0.008824602748911508   -0.0014153689505721598
0.0002530432369113042   -0.0029059781172294267   -0.0007779831816561692
0.0036028820388508713   -0.008873122248708443   -0.0015232486806306912
0.0003468613187267606   -0.008824602748911508   -0.0014153689505721598
0.0019813238891725547   -0.00301508222342445   -0.0007862866156154933
0.0002530432369113042   -0.0029059781172294267   -0.0007779831816561692
0.0003666425892309934   -0.008821769871408723   -0.0014191770593344215
0.0019727336644573086   -0.0029720271189262004   -0.0009078804690077434
0.0002907385478225487   -0.0028429658065013954   -0.0007901689476113266
0.0003666425892309934   -0.008821769871408723   -0.0014191770593344215
0.0036028820388508713   -0.008873122248708443   -0.0015232486806306912
0.0019727336644573086   -0.0029720271189262004   -0.0009078804690077434
0.003593244235133393   -0.008763883300950742   -0.001628024888613637
0.0002907385478225487   -0.0028429658065013954   -0.0007901689476113266
0.0020108391671076944   -0.0028567417263399343   -0.0010271548526131409
0.003593244235133393   -0.008763883300950742   -0.001628024888613637
0.0019727336644573086   -0.0029720271189262004   -0.0009078804690077434
0.0002907385478225487   -0.0028429658065013954   -0.0007901689476113266
0.003593244235133393   -0.008763883300950742   -0.001628024888613637
0.00038787046494252855   -0.008768693796605713   -0.0014332435541833232
0.0003666425892309934   -0.008821769871408723   -0.0014191770593344215
0.0002907385478225487   -0.0028429658065013954   -0.0007901689476113266
0.003593244235133393   -0.008763883300950742   -0.001628024888613637
0.0003666425892309934   -0.008821769871408723   -0.0014191770593344215
0.0019727336644573086   -0.0029720271189262004   -0.0009078804690077434
0.001977928062947706   -0.002999095528349767   -0.0006595311099881963
0.003603036767391502   -0.008921788422867205   -0.0013408001975310196
0.0044648138828564865   -0.003351903302776951   -0.0006222864032828087
0.0019813238891725547   -0.00301508222342445   -0.0007862866156154933
0.003603036767391502   -0.008921788422867205   -0.0013408001975310196
0.007567758450928794   -0.009187800163492582   -0.001319080624174025
0.0044648138828564865   -0.003351903302776951   -0.0006222864032828087
0.0074137274424422315   -0.009162708356908841   -0.0015114530178583316
0.0019813238891725547   -0.00301508222342445   -0.0007862866156154933
0.004193023249847592   -0.0033153039269208672   -0.0009096489030752568
0.0074137274424422315   -0.009162708356908841   -0.0015114530178583316
0.0044648138828564865   -0.003351903302776951   -0.0006222864032828087
0.0019813238891725547   -0.00301508222342445   -0.0007862866156154933
0.0074137274424422315   -0.009162708356908841   -0.0015114530178583316
0.0036196645878002823   -0.008921359981060768   -0.0014263116773904675
0.003603036767391502   -0.008921788422867205   -0.0013408001975310196
0.0019813238891725547   -0.00301508222342445   -0.0007862866156154933
0.0074137274424422315   -0.009162708356908841   -0.0015114530178583316
0.003603036767391502   -0.008921788422867205   -0.0013408001975310196
0.0044648138828564865   -0.003351903302776951   -0.0006222864032828087
0.0019813238891725547   -0.00301508222342445   -0.0007862866156154933
0.0036196645878002823   -0.008921359981060768   -0.0014263116773904675
0.004193023249847592   -0.0033153039269208672   -0.0009096489030752568
0.0019727336644573086   -0.0029720271189262004   -0.0009078804690077434
0.0036196645878002823   -0.008921359981060768   -0.0014263116773904675
0.0074137274424422315   -0.009162708356908841   -0.0015114530178583316
0.004193023249847592   -0.0033153039269208672   -0.0009096489030752568
0.007276078396492084   -0.00908834066333398   -0.0017278660057773964
0.0019727336644573086   -0.0029720271189262004   -0.0009078804690077434
0.004067642519118563   -0.0032463757983965404   -0.0011526467691461916
0.007276078396492084   -0.00908834066333398   -0.0017278660057773964
0.004193023249847592   -0.0033153039269208672   -0.0009096489030752568
0.0019727336644573086   -0.0029720271189262004   -0.0009078804690077434
0.007276078396492084   -0.00908834066333398   -0.0017278660057773964
0.0036028820388508713   -0.008873122248708443   -0.0015232486806306912
0.0036196645878002823   -0.008921359981060768   -0.0014263116773904675
0.0019727336644573086   -0.0029720271189262004   -0.0009078804690077434
0.007276078396492084   -0.00908834066333398   -0.0017278660057773964
0.0036196645878002823   -0.008921359981060768   -0.0014263116773904675
0.004193023249847592   -0.0033153039269208672   -0.0009096489030752568
0.0019727336644573086   -0.0029720271189262004   -0.0009078804690077434
0.0036028820388508713   -0.008873122248708443   -0.0015232486806306912
0.004067642519118563   -0.0032463757983965404   -0.0011526467691461916
0.0020108391671076944   -0.0028567417263399343   -0.0010271548526131409
0.0036028820388508713   -0.008873122248708443   -0.0015232486806306912
0.007276078396492084   -0.00908834066333398   -0.0017278660057773964
0.004067642519118563   -0.0032463757983965404   -0.0011526467691461916
0.007069844997962998   -0.008922868951618784   -0.001953142844194046
0.0020108391671076944   -0.0028567417263399343   -0.0010271548526131409
0.0038810589190796264   -0.00307001730063254   -0.0014097826859162594
0.007069844997962998   -0.008922868951618784   -0.001953142844194046
0.004067642519118563   -0.0032463757983965404   -0.0011526467691461916
0.0020108391671076944   -0.0028567417263399343   -0.0010271548526131409
0.007069844997962998   -0.008922868951618784   -0.001953142844194046
0.003593244235133393   -0.008763883300950742   -0.001628024888613637
0.0036028820388508713   -0.008873122248708443   -0.0015232486806306912
0.0020108391671076944   -0.0028567417263399343   -0.0010271548526131409
0.007069844997962998   -0.008922868951618784   -0.001953142844194046
0.0036028820388508713   -0.008873122248708443   -0.0015232486806306912
0.004067642519118563   -0.0032463757983965404   -0.0011526467691461916
-0.009397844185435678   -0.009215344323659558   -0.002270877745018994
-0.012876471936435471   -0.017281981101224204   -0.002586550399563383
-0.005998275701142207   -0.00891450265360147   -0.0018692095132480633
-0.009679502905116268   -0.009427872635159592   -0.0019691506786190457
-0.012876471936435471   -0.017281981101224204   -0.002586550399563383
-0.008278709761945557   -0.017052081291561806   -0.002260788521230384
-0.005998275701142207   -0.00891450265360147   -0.0018692095132480633
-0.008296930268325469   -0.017183541790416135   -0.00211663631212852
-0.009679502905116268   -0.009427872635159592   -0.0019691506786190457
-0.006005432062371388   -0.009066814925474816   -0.0016834050350642107
-0.008296930268325469   -0.017183541790416135   -0.00211663631212852
-0.005998275701142207   -0.00891450265360147   -0.0018692095132480633
-0.009679502905116268   -0.009427872635159592   -0.0019691506786190457
-0.008296930268325469   -0.017183541790416135   -0.00211663631212852
-0.01310553633744373   -0.017461640369456098   -0.002361538349838495
-0.012876471936435471   -0.017281981101224204   -0.002586550399563383
-0.009679502905116268   -0.009427872635159592   -0.0019691506786190457
-0.008296930268325469   -0.017183541790416135   -0.00211663631212852
-0.012876471936435471   -0.017281981101224204   -0.002586550399563383
-0.005998275701142207   -0.00891450265360147   -0.0018692095132480633
-0.009679502905116268   -0.009427872635159592   -0.0019691506786190457
-0.01310553633744373   -0.017461640369456098   -0.002361538349838495
-0.006005432062371388   -0.009066814925474816   -0.0016834050350642107
-0.009875226669496823   -0.009547893798550314   -0.001673702264560324
-0.01310553633744373   -0.017461640369456098   -0.002361538349838495
-0.008296930268325469   -0.017183541790416135   -0.00211663631212852
-0.006005432062371388   -0.009066814925474816   -0.0016834050350642107
-0.008318377949397283   -0.017275027150385005   -0.0019829142254132637
-0.009875226669496823   -0.009547893798550314   -0.001673702264560324
-0.006029158929073972   -0.00915965973793392   -0.0015048501413522364
-0.008318377949397283   -0.017275027150385005   -0.0019829142254132637
-0.006005432062371388   -0.009066814925474816   -0.0016834050350642107
-0.009875226669496823   -0.009547893798550314   -0.001673702264560324
-0.008318377949397283   -0.017275027150385005   -0.0019829142254132637
-0.013249972925651218   -0.017574299886158693   -0.0021518155908664496
-0.01310553633744373   -0.017461640369456098   -0.002361538349838495
-0.009875226669496823   -0.009547893798550314   -0.001673702264560324
-0.008318377949397283   -0.017275027150385005   -0.0019829142254132637
-0.01310553633744373   -0.017461640369456098   -0.002361538349838495
-0.006005432062371388   -0.009066814925474816   -0.0016834050350642107
-0.009875226669496823   -0.009547893798550314   -0.001673702264560324
-0.013249972925651218   -0.017574299886158693   -0.0021518155908664496
-0.006029158929073972   -0.00915965973793392   -0.0015048501413522364
-0.010106567566263592   -0.009617662923808   -0.001404889411092586
-0.013249972925651218   -0.017574299886158693   -0.0021518155908664496
-0.008318377949397283   -0.017275027150385005   -0.0019829142254132637
-0.006029158929073972   -0.00915965973793392   -0.0015048501413522364
-0.008302857551578707   -0.017335216727343256   -0.0018574003157495347
-0.010106567566263592   -0.009617662923808   -0.001404889411092586
-0.00601127427403915   -0.009207830112752136   -0.0013377122826880793
-0.008302857551578707   -0.017335216727343256   -0.0018574003157495347
-0.006029158929073972   -0.00915965973793392   -0.0015048501413522364
-0.010106567566263592   -0.009617662923808   -0.001404889411092586
-0.008302857551578707   -0.017335216727343256   -0.0018574003157495347
-0.01341431254181202   -0.01765532355290681   -0.001958811886714284
-0.013249972925651218   -0.017574299886158693   -0.0021518155908664496
-0.010106567566263592   -0.009617662923808   -0.001404889411092586
-0.008302857551578707   -0.017335216727343256   -0.0018574003157495347
-0.013249972925651218   -0.017574299886158693   -0.0021518155908664496
-0.006029158929073972   -0.00915965973793392   -0.0015048501413522364
-0.005998275701142207   -0.00891450265360147   -0.0018692095132480633
-0.008278709761945557   -0.017052081291561806   -0.002260788521230384
-0.0027830618431986137   -0.008774517104084247   -0.0015950128521934601
-0.006005432062371388   -0.009066814925474816   -0.0016834050350642107
-0.008278709761945557   -0.017052081291561806   -0.002260788521230384
-0.003943585914567152   -0.016937456072567785   -0.002034463218017759
-0.0027830618431986137   -0.008774517104084247   -0.0015950128521934601
-0.003933780609739928   -0.017021515572003133   -0.0019529988308269143
-0.006005432062371388   -0.009066814925474816   -0.0016834050350642107
-0.0027591254829928686   -0.008871456330310315   -0.0014998043428047665
-0.003933780609739928   -0.017021515572003133   -0.0019529988308269143
-0.0027830618431986137   -0.008774517104084247   -0.0015950128521934601
-0.006005432062371388   -0.009066814925474816   -0.0016834050350642107
-0.003933780609739928   -0.017021515572003133   -0.0019529988308269143
-0.008296930268325469   -0.017183541790416135   -0.00211663631212852
-0.008278709761945557   -0.017052081291561806   -0.002260788521230384
-0.006005432062371388   -0.009066814925474816   -0.0016834050350642107
-0.003933780609739928   -0.017021515572003133   -0.0019529988308269143
-0.008278709761945557   -0.017052081291561806   -0.002260788521230384
-0.0027830618431986137   -0.008774517104084247   -0.0015950128521934601
-0.006005432062371388   -0.009066814925474816   -0.0016834050350642107
-0.008296930268325469   -0.017183541790416135   -0.00211663631212852
-0.0027591254829928686   -0.008871456330310315   -0.0014998043428047665
-0.006029158929073972   -0.00915965973793392   -0.0015048501413522364
-0.008296930268325469   -0.017183541790416135   -0.00211663631212852
-0.003933780609739928   -0.017021515572003133   -0.0019529988308269143
-0.0027591254829928686   -0.008871456330310315   -0.0014998043428047665
-0.003921753466252663   -0.01707089199192357   -0.0018814666260473845
-0.006029158929073972   -0.00915965973793392   -0.0015048501413522364
-0.002737922344186198   -0.008918469897297476   -0.0014134931658100777
-0.003921753466252663   -0.01707089199192357   -0.0018814666260473845
-0.0027591254829928686   -0.008871456330310315   -0.0014998043428047665
-0.006029158929073972   -0.00915965973793392   -0.0015048501413522364
-0.003921753466252663   -0.01707089199192357   -0.0018814666260473845
-0.008318377949397283   -0.017275027150385005   -0.0019829142254132637
-0.008296930268325469   -0.017183541790416135   -0.00211663631212852
-0.006029158929073972   -0.00915965973793392   -0.0015048501413522364
-0.003921753466252663   -0.01707089199192357   -0.0018814666260473845
-0.008296930268325469   -0.017183541790416135   -0.00211663631212852
-0.0027591254829928686   -0.008871456330310315   -0.0014998043428047665
-0.006029158929073972   -0.00915965973793392   -0.0015048501413522364
-0.008318377949397283   -0.017275027150385005   -0.0019829142254132637
-0.002737922344186198   -0.008918469897297476   -0.0014134931658100777
-0.00601127427403915   -0.009207830112752136   -0.0013377122826880793
-0.008318377949397283   -0.017275027150385005   -0.0019829142254132637
-0.003921753466252663   -0.01707089199192357   -0.0018814666260473845
-0.002737922344186198   -0.008918469897297476   -0.0014134931658100777
-0.003901937911662815   -0.017086291226423665   -0.0018198368793675545
-0.00601127427403915   -0.009207830112752136   -0.0013377122826880793
-0.002706246376527409   -0.008917330141028336   -0.0013383458052301132
-0.003901937911662815   -0.017086291226423665   -0.0018198368793675545
-0.002737922344186198   -0.008918469897297476   -0.0014134931658100777
-0.00601127427403915   -0.009207830112752136   -0.0013377122826880793
-0.003901937911662815   -0.017086291226423665   -0.0018198368793675545
-0.008302857551578707   -0.017335216727343256   -0.0018574003157495347
-0.008318377949397283   -0.017275027150385005   -0.0019829142254132637
-0.00601127427403915   -0.009207830112752136   -0.0013377122826880793
-0.003901937911662815   -0.017086291226423665   -0.0018198368793675545
-0.008318377949397283   -0.017275027150385005   -0.0019829142254132637
-0.002737922344186198   -0.008918469897297476   -0.0014134931658100777
-0.0027830618431986137   -0.008774517104084247   -0.0015950128521934601
-0.003943585914567152   -0.016937456072567785   -0.002034463218017759
0.000317427293516918   -0.00877868056616351   -0.0014216594533757625
-0.0027591254829928686   -0.008871456330310315   -0.0014998043428047665
-0.003943585914567152   -0.016937456072567785   -0.002034463218017759
0.0002642468337315141   -0.016931355355719276   -0.0018941439281087598
0.000317427293516918   -0.00877868056616351   -0.0014216594533757625
0.0002823380653796579   -0.016968758059845886   -0.0018750311700729356
-0.0027591254829928686   -0.008871456330310315   -0.0014998043428047665
0.0003468613187267606   -0.008824602748911508   -0.0014153689505721598
0.0002823380653796579   -0.016968758059845886   -0.0018750311700729356
0.000317427293516918   -0.00877868056616351   -0.0014216594533757625
-0.0027591254829928686   -0.008871456330310315   -0.0014998043428047665
0.0002823380653796579   -0.016968758059845886   -0.0018750311700729356
-0.003933780609739928   -0.017021515572003133   -0.0019529988308269143
-0.003943585914567152   -0.016937456072567785   -0.002034463218017759
-0.0027591254829928686   -0.008871456330310315   -0.0014998043428047665
0.0002823380653796579   -0.016968758059845886   -0.0018750311700729356
-0.003943585914567152   -0.016937456072567785   -0.002034463218017759
0.000317427293516918   -0.00877868056616351   -0.0014216594533757625
-0.0027591254829928686   -0.008871456330310315   -0.0014998043428047665
-0.003933780609739928   -0.017021515572003133   -0.0019529988308269143
0.0003468613187267606   -0.008824602748911508   -0.0014153689505721598
-0.002737922344186198   -0.008918469897297476   -0.0014134931658100777
-0.003933780609739928   -0.017021515572003133   -0.0019529988308269143
0.0002823380653796579   -0.016968758059845886   -0.0018750311700729356
0.0003468613187267606   -0.008824602748911508   -0.0014153689505721598
0.0002939108035233757   -0.01697161699721457   -0.0018655909714384395
-0.002737922344186198   -0.008918469897297476   -0.0014134931658100777
0.0003666425892309934   -0.008821769871408723   -0.0014191770593344215
0.0002939108035233757   -0.01697161699721457   -0.0018655909714384395
0.0003468613187267606   -0.008824602748911508   -0.0014153689505721598
-0.002737922344186198   -0.008918469897297476   -0.0014134931658100777
0.0002939108035233757   -0.01697161699721457   -0.0018655909714384395
-0.003921753466252663   -0.01707089199192357   -0.0018814666260473845
-0.003933780609739928   -0.017021515572003133   -0.0019529988308269143
-0.002737922344186198   -0.008918469897297476   -0.0014134931658100777
0.0002939108035233757   -0.01697161699721457   -0.0018655909714384395
-0.003933780609739928   -0.017021515572003133   -0.0019529988308269143
0.0003468613187267606   -0.008824602748911508   -0.0014153689505721598
-0.002737922344186198   -0.008918469897297476   -0.0014134931658100777
-0.003921753466252663   -0.01707089199192357   -0.0018814666260473845
0.0003666425892309934   -0.008821769871408723   -0.0014191770593344215
-0.002706246376527409   -0.008917330141028336   -0.0013383458052301132
-0.003921753466252663   -0.01707089199192357   -0.0018814666260473845
0.0002939108035233757   -0.01697161699721457   -0.0018655909714384395
0.0003666425892309934   -0.008821769871408723   -0.0014191770593344215
0.0003022617308447981   -0.01693941708455162   -0.0018664113469152078
-0.002706246376527409   -0.008917330141028336   -0.0013383458052301132
0.00038787046494252855   -0.008768693796605713   -0.0014332435541833232
0.0003022617308447981   -0.01693941708455162   -0.0018664113469152078
0.0003666425892309934   -0.008821769871408723   -0.0014191770593344215
-0.002706246376527409   -0.008917330141028336   -0.0013383458052301132
0.0003022617308447981   -0.01693941708455162   -0.0018664113469152078
-0.003901937911662815   -0.017086291226423665   -0.0018198368793675545
-0.003921753466252663   -0.01707089199192357   -0.0018814666260473845
-0.002706246376527409   -0.008917330141028336   -0.0013383458052301132
0.0003022617308447981   -0.01693941708455162   -0.0018664113469152078
-0.003921753466252663   -0.01707089199192357   -0.0018814666260473845
0.0003666425892309934   -0.008821769871408723   -0.0014191770593344215
0.000317427293516918   -0.00877868056616351   -0.0014216594533757625
0.0002642468337315141   -0.016931355355719276   -0.0018941439281087598
0.003603036767391502   -0.008921788422867205   -0.0013408001975310196
0.0003468613187267606   -0.008824602748911508   -0.0014153689505721598
0.0002642468337315141   -0.016931355355719276   -0.0018941439281087598
0.004651655296866352   -0.01702732872176529   -0.0018374317592107
0.003603036767391502   -0.008921788422867205   -0.0013408001975310196
0.0046674430658690666   -0.01702196787866514   -0.0018819659094604993
0.0003468613187267606   -0.008824602748911508   -0.0014153689505721598
0.0036196645878002823   -0.008921359981060768   -0.0014263116773904675
0.0046674430658690666   -0.01702196787866514   -0.0018819659094604993
0.003603036767391502   -0.008921788422867205   -0.0013408001975310196
0.0003468613187267606   -0.008824602748911508   -0.0014153689505721598
0.0046674430658690666   -0.01702196787866514   -0.0018819659094604993
0.0002823380653796579   -0.016968758059845886   -0.0018750311700729356
0.0002642468337315141   -0.016931355355719276   -0.0018941439281087598
0.0003468613187267606   -0.008824602748911508   -0.0014153689505721598
0.0046674430658690666   -0.01702196787866514   -0.0018819659094604993
0.0002642468337315141   -0.016931355355719276   -0.0018941439281087598
0.003603036767391502   -0.008921788422867205   -0.0013408001975310196
0.0003468613187267606   -0.008824602748911508   -0.0014153689505721598
0.0002823380653796579   -0.016968758059845886   -0.0018750311700729356
0.0036196645878002823   -0.008921359981060768   -0.0014263116773904675
0.0003666425892309934   -0.008821769871408723   -0.0014191770593344215
0.0002823380653796579   -0.016968758059845886   -0.0018750311700729356
0.0046674430658690666   -0.01702196787866514   -0.0018819659094604993
0.0036196645878002823   -0.008921359981060768   -0.0014263116773904675
0.004655565448587342   -0.016982803370624442   -0.0019354618838537852
0.0003666425892309934   -0.008821769871408723   -0.0014191770593344215
0.0036028820388508713   -0.008873122248708443   -0.0015232486806306912
0.004655565448587342   -0.016982803370624442   -0.0019354618838537852
0.0036196645878002823   -0.008921359981060768   -0.0014263116773904675
0.0003666425892309934   -0.008821769871408723   -0.0014191770593344215
0.004655565448587342   -0.016982803370624442   -0.0019354618838537852
0.0002939108035233757   -0.01697161699721457   -0.0018655909714384395
0.0002823380653796579   -0.016968758059845886   -0.0018750311700729356
0.0003666425892309934   -0.008821769871408723   -0.0014191770593344215
0.004655565448587342   -0.016982803370624442   -0.0019354618838537852
0.0002823380653796579   -0.016968758059845886   -0.0018750311700729356
0.0036196645878002823   -0.008921359981060768   -0.0014263116773904675
0.0003666425892309934   -0.008821769871408723   -0.0014191770593344215
0.0002939108035233757   -0.01697161699721457   -0.0018655909714384395
0.0036028820388508713   -0.008873122248708443   -0.0015232486806306912
0.00038787046494252855   -0.008768693796605713   -0.0014332435541833232
0.0002939108035233757   -0.01697161699721457   -0.0018655909714384395
0.004655565448587342   -0.016982803370624442   -0.0019354618838537852
0.0036028820388508713   -0.008873122248708443   -0.0015232486806306912
0.0046378054529356266   -0.01690146560819836   -0.0019989813058854614
0.00038787046494252855   -0.008768693796605713   -0.0014332435541833232
0.003593244235133393   -0.008763883300950742   -0.001628024888613637
0.0046378054529356266   -0.01690146560819836   -0.0019989813058854614
0.0036028820388508713   -0.008873122248708443   -0.0015232486806306912
0.00038787046494252855   -0.008768693796605713   -0.0014332435541833232
0.0046378054529356266   -0.01690146560819836   -0.0019989813058854614
0.0003022617308447981   -0.01693941708455162   -0.0018664113469152078
0.0002939108035233757   -0.01697161699721457   -0.0018655909714384395
0.00038787046494252855   -0.008768693796605713   -0.0014332435541833232
0.0046378054529356266   -0.01690146560819836   -0.0019989813058854614
0.0002939108035233757   -0.01697161699721457   -0.0018655909714384395
0.0036028820388508713   -0.008873122248708443   -0.0015232486806306912
0.003603036767391502   -0.008921788422867205   -0.0013408001975310196
0.004651655296866352   -0.01702732872176529   -0.0018374317592107
0.007567758450928794   -0.009187800163492582   -0.001319080624174025
0.0036196645878002823   -0.008921359981060768   -0.0014263116773904675
0.004651655296866352   -0.01702732872176529   -0.0018374317592107
0.009648227602520893   -0.01720141231537056   -0.0018385711361797194
0.007567758450928794   -0.009187800163492582   -0.001319080624174025
0.009564245093538214   -0.017171413460124015   -0.0019549462889741688
0.0036196645878002823   -0.008921359981060768   -0.0014263116773904675
0.0074137274424422315   -0.009162708356908841   -0.0015114530178583316
0.009564245093538214   -0.017171413460124015   -0.0019549462889741688
0.007567758450928794   -0.009187800163492582   -0.001319080624174025
0.0036196645878002823   -0.008921359981060768   -0.0014263116773904675
0.009564245093538214   -0.017171413460124015   -0.0019549462889741688
0.0046674430658690666   -0.01702196787866514   -0.0018819659094604993
0.004651655296866352   -0.01702732872176529   -0.0018374317592107
0.0036196645878002823   -0.008921359981060768   -0.0014263116773904675
0.009564245093538214   -0.017171413460124015   -0.0019549462889741688
0.004651655296866352   -0.01702732872176529   -0.0018374317592107
0.007567758450928794   -0.009187800163492582   -0.001319080624174025
0.0036196645878002823   -0.008921359981060768   -0.0014263116773904675
0.0046674430658690666   -0.01702196787866514   -0.0018819659094604993
0.0074137274424422315   -0.009162708356908841   -0.0015114530178583316
0.0036028820388508713   -0.008873122248708443   -0.0015232486806306912
0.0046674430658690666   -0.01702196787866514   -0.0018819659094604993
0.009564245093538214   -0.017171413460124015   -0.0019549462889741688
0.0074137274424422315   -0.009162708356908841   -0.0015114530178583316
0.009480420009332725   -0.01711111316555493   -0.0020874818341290475
0.0036028820388508713   -0.008873122248708443   -0.0015232486806306912
0.007276078396492084   -0.00908834066333398   -0.0017278660057773964
0.009480420009332725   -0.01711111316555493   -0.0020874818341290475
0.0074137274424422315   -0.009162708356908841   -0.0015114530178583316
0.0036028820388508713   -0.008873122248708443   -0.0015232486806306912
0.009480420009332725   -0.01711111316555493   -0.0020874818341290475
0.004655565448587342   -0.016982803370624442   -0.0019354618838537852
0.0046674430658690666   -0.01702196787866514   -0.0018819659094604993
0.0036028820388508713   -0.008873122248708443   -0.0015232486806306912
0.009480420009332725   -0.01711111316555493   -0.0020874818341290475
0.0046674430658690666   -0.01702196787866514   -0.0018819659094604993
0.0074137274424422315   -0.009162708356908841   -0.0015114530178583316
0.0036028820388508713   -0.008873122248708443   -0.0015232486806306912
0.004655565448587342   -0.016982803370624442   -0.0019354618838537852
0.007276078396492084   -0.00908834066333398   -0.0017278660057773964
0.003593244235133393   -0.008763883300950742   -0.001628024888613637
0.004655565448587342   -0.016982803370624442   -0.0019354618838537852
0.009480420009332725   -0.01711111316555493   -0.0020874818341290475
0.007276078396492084   -0.00908834066333398   -0.0017278660057773964
0.009331529584661978   -0.016984622126329178   -0.0022361949532308622
0.003593244235133393   -0.008763883300950742   -0.001628024888613637
0.007069844997962998   -0.008922868951618784   -0.001953142844194046
0.009331529584661978   -0.016984622126329178   -0.0022361949532308622
0.007276078396492084   -0.00908834066333398   -0.0017278660057773964
0.003593244235133393   -0.008763883300950742   -0.001628024888613637
0.009331529584661978   -0.016984622126329178   -0.0022361949532308622
0.0046378054529356266   -0.01690146560819836   -0.0019989813058854614
0.004655565448587342   -0.016982803370624442   -0.0019354618838537852
0.003593244235133393   -0.008763883300950742   -0.001628024888613637
0.009331529584661978   -0.016984622126329178   -0.0022361949532308622
0.004655565448587342   -0.016982803370624442   -0.0019354618838537852
0.007276078396492084   -0.00908834066333398   -0.0017278660057773964
-0.012876471936435471   -0.017281981101224204   -0.002586550399563383
-0.015376627351139094   -0.026846792319957062   -0.0027585381786665777
-0.008278709761945557   -0.017052081291561806   -0.002260788521230384
-0.01310553633744373   -0.017461640369456098   -0.002361538349838495
-0.015376627351139094   -0.026846792319957062   -0.0027585381786665777
-0.009980932043348954   -0.026700524120803544   -0.002492952636837862
-0.008278709761945557   -0.017052081291561806   -0.002260788521230384
-0.009992958854960394   -0.026813599548991946   -0.0023897758305510336
-0.01310553633744373   -0.017461640369456098   -0.002361538349838495
-0.008296930268325469   -0.017183541790416135   -0.00211663631212852
-0.009992958854960394   -0.026813599548991946   -0.0023897758305510336
-0.008278709761945557   -0.017052081291561806   -0.002260788521230384
-0.01310553633744373   -0.017461640369456098   -0.002361538349838495
-0.009992958854960394   -0.026813599548991946   -0.0023897758305510336
-0.015530942693091685   -0.026999768139394746   -0.0026091328679055
-0.015376627351139094   -0.026846792319957062   -0.0027585381786665777
-0.01310553633744373   -0.017461640369456098   -0.002361538349838495
-0.009992958854960394   -0.026813599548991946   -0.0023897758305510336
-0.015376627351139094   -0.026846792319957062   -0.0027585381786665777
-0.008278709761945557   -0.017052081291561806   -0.002260788521230384
-0.01310553633744373   -0.017461640369456098   -0.002361538349838495
-0.015530942693091685   -0.026999768139394746   -0.0026091328679055
-0.008296930268325469   -0.017183541790416135   -0.00211663631212852
-0.013249972925651218   -0.017574299886158693   -0.0021518155908664496
-0.015530942693091685   -0.026999768139394746   -0.0026091328679055
-0.009992958854960394   -0.026813599548991946   -0.0023897758305510336
-0.008296930268325469   -0.017183541790416135   -0.00211663631212852
-0.010001545926583612   -0.026903246457792566   -0.0022968803594682202
-0.013249972925651218   -0.017574299886158693   -0.0021518155908664496
-0.008318377949397283   -0.017275027150385005   -0.0019829142254132637
-0.010001545926583612   -0.026903246457792566   -0.0022968803594682202
-0.008296930268325469   -0.017183541790416135   -0.00211663631212852
-0.013249972925651218   -0.017574299886158693   -0.0021518155908664496
-0.010001545926583612   -0.026903246457792566   -0.0022968803594682202
-0.015619497498267562   -0.02710800393372356   -0.002474063493096528
-0.015530942693091685   -0.026999768139394746   -0.0026091328679055
-0.013249972925651218   -0.017574299886158693   -0.0021518155908664496
-0.010001545926583612   -0.026903246457792566   -0.0022968803594682202
-0.015530942693091685   -0.026999768139394746   -0.0026091328679055
-0.008296930268325469   -0.017183541790416135   -0.00211663631212852
-0.013249972925651218   -0.017574299886158693   -0.0021518155908664496
-0.015619497498267562   -0.02710800393372356   -0.002474063493096528
-0.008318377949397283   -0.017275027150385005   -0.0019829142254132637
-0.01341431254181202   -0.01765532355290681   -0.001958811886714284
-0.015619497498267562   -0.02710800393372356   -0.002474063493096528
-0.010001545926583612   -0.026903246457792566   -0.0022968803594682202
-0.008318377949397283   -0.017275027150385005   -0.0019829142254132637
-0.009980874218706802   -0.026976899428254337   -0.0022128996023327075
-0.01341431254181202   -0.01765532355290681   -0.001958811886714284
-0.008302857551578707   -0.017335216727343256   -0.0018574003157495347
-0.009980874218706802   -0.026976899428254337   -0.0022128996023327075
-0.008318377949397283   -0.017275027150385005   -0.0019829142254132637
-0.01341431254181202   -0.01765532355290681   -0.001958811886714284
-0.009980874218706802   -0.026976899428254337   -0.0022128996023327075
-0.015710714801791377   -0.02720502944124399   -0.0023550340350627806
-0.015619497498267562   -0.02710800393372356   -0.002474063493096528
-0.01341431254181202   -0.01765532355290681   -0.001958811886714284
-0.009980874218706802   -0.026976899428254337   -0.0022128996023327075
-0.015619497498267562   -0.02710800393372356   -0.002474063493096528
-0.008318377949397283   -0.017275027150385005   -0.0019829142254132637
-0.008278709761945557   -0.017052081291561806   -0.002260788521230384
-0.009980932043348954   -0.026700524120803544   -0.002492952636837862
-0.003943585914567152   -0.016937456072567785   -0.002034463218017759
-0.008296930268325469   -0.017183541790416135   -0.00211663631212852
-0.009980932043348954   -0.026700524120803544   -0.002492952636837862
-0.0049225945143474645   -0.02662491464443959   -0.002309050169354784
-0.003943585914567152   -0.016937456072567785   -0.002034463218017759
-0.004913263564541662   -0.02669586728986436   -0.0022409303306490515
-0.008296930268325469   -0.017183541790416135   -0.00211663631212852
-0.003933780609739928   -0.017021515572003133   -0.0019529988308269143
-0.004913263564541662   -0.02669586728986436   -0.0022409303306490515
-0.003943585914567152   -0.016937456072567785   -0.002034463218017759
-0.008296930268325469   -0.017183541790416135   -0.00211663631212852
-0.004913263564541662   -0.02669586728986436   -0.0022409303306490515
-0.009992958854960394   -0.026813599548991946   -0.0023897758305510336
-0.009980932043348954   -0.026700524120803544   -0.002492952636837862
-0.008296930268325469   -0.017183541790416135   -0.00211663631212852
-0.004913263564541662   -0.02669586728986436   -0.0022409303306490515
-0.009980932043348954   -0.026700524120803544   -0.002492952636837862
-0.003943585914567152   -0.016937456072567785   -0.002034463218017759
-0.008296930268325469   -0.017183541790416135   -0.00211663631212852
-0.009992958854960394   -0.026813599548991946   -0.0023897758305510336
-0.003933780609739928   -0.017021515572003133   -0.0019529988308269143
-0.008318377949397283   -0.017275027150385005   -0.0019829142254132637
-0.009992958854960394   -0.026813599548991946   -0.0023897758305510336
-0.004913263564541662   -0.02669586728986436   -0.0022409303306490515
-0.003933780609739928   -0.017021515572003133   -0.0019529988308269143
-0.0049005094266539396   -0.026747187027233353   -0.002182937330158872
-0.008318377949397283   -0.017275027150385005   -0.0019829142254132637
-0.003921753466252663   -0.01707089199192357   -0.0018814666260473845
-0.0049005094266539396   -0.026747187027233353   -0.002182937330158872
-0.003933780609739928   -0.017021515572003133   -0.0019529988308269143
-0.008318377949397283   -0.017275027150385005   -0.0019829142254132637
-0.0049005094266539396   -0.026747187027233353   -0.002182937330158872
-0.010001545926583612   -0.026903246457792566   -0.0022968803594682202
-0.009992958854960394   -0.026813599548991946   -0.0023897758305510336
-0.008318377949397283   -0.017275027150385005   -0.0019829142254132637
-0.0049005094266539396   -0.026747187027233353   -0.002182937330158872
-0.009992958854960394   -0.026813599548991946   -0.0023897758305510336
-0.003933780609739928   -0.017021515572003133   -0.0019529988308269143
-0.008318377949397283   -0.017275027150385005   -0.0019829142254132637
-0.010001545926583612   -0.026903246457792566   -0.0022968803594682202
-0.003921753466252663   -0.01707089199192357   -0.0018814666260473845
-0.008302857551578707   -0.017335216727343256   -0.0018574003157495347
-0.010001545926583612   -0.026903246457792566   -0.0022968803594682202
-0.0049005094266539396   -0.026747187027233353   -0.002182937330158872
-0.003921753466252663   -0.01707089199192357   -0.0018814666260473845
-0.004881472741784412   -0.026779210253576286   -0.002135238955439603
-0.008302857551578707   -0.017335216727343256   -0.0018574003157495347
-0.003901937911662815   -0.017086291226423665   -0.0018198368793675545
-0.004881472741784412   -0.026779210253576286   -0.002135238955439603
-0.003921753466252663   -0.01707089199192357   -0.0018814666260473845
-0.008302857551578707   -0.017335216727343256   -0.0018574003157495347
-0.004881472741784412   -0.026779210253576286   -0.002135238955439603
-0.009980874218706802   -0.026976899428254337   -0.0022128996023327075
-0.010001545926583612   -0.026903246457792566   -0.0022968803594682202
-0.008302857551578707   -0.017335216727343256   -0.0018574003157495347
-0.004881472741784412   -0.026779210253576286   -0.002135238955439603
-0.010001545926583612   -0.026903246457792566   -0.0022968803594682202
-0.003921753466252663   -0.01707089199192357   -0.0018814666260473845
-0.003943585914567152   -0.016937456072567785   -0.002034463218017759
-0.0049225945143474645   -0.02662491464443959   -0.002309050169354784
0.0002642468337315141   -0.016931355355719276   -0.0018941439281087598
-0.003933780609739928   -0.017021515572003133   -0.0019529988308269143
-0.0049225945143474645   -0.02662491464443959   -0.002309050169354784
-1.6149582937399773e-06   -0.02661190459796576   -0.0022019519127304365
0.0002642468337315141   -0.016931355355719276   -0.0018941439281087598
1.5973562649395842e-05   -0.026640507715445235   -0.0021691614098200574
-0.003933780609739928   -0.017021515572003133   -0.0019529988308269143
0.0002823380653796579   -0.016968758059845886   -0.0018750311700729356
1.5973562649395842e-05   -0.026640507715445235   -0.0021691614098200574
0.0002642468337315141   -0.016931355355719276   -0.0018941439281087598
-0.003933780609739928   -0.017021515572003133   -0.0019529988308269143
1.5973562649395842e-05   -0.026640507715445235   -0.0021691614098200574
-0.004913263564541662   -0.02669586728986436   -0.0022409303306490515
-0.0049225945143474645   -0.02662491464443959   -0.002309050169354784
-0.003933780609739928   -0.017021515572003133   -0.0019529988308269143
1.5973562649395842e-05   -0.026640507715445235   -0.0021691614098200574
-0.0049225945143474645   -0.02662491464443959   -0.002309050169354784
0.0002642468337315141   -0.016931355355719276   -0.0018941439281087598
-0.003933780609739928   -0.017021515572003133   -0.0019529988308269143
-0.004913263564541662   -0.02669586728986436   -0.0022409303306490515
0.0002823380653796579   -0.016968758059845886   -0.0018750311700729356
-0.003921753466252663   -0.01707089199192357   -0.0018814666260473845
-0.004913263564541662   -0.02669586728986436   -0.0022409303306490515
1.5973562649395842e-05   -0.026640507715445235   -0.0021691614098200574
0.0002823380653796579   -0.016968758059845886   -0.0018750311700729356
2.848724130206493e-05   -0.02664934256787798   -0.0021463693633424928
-0.003921753466252663   -0.01707089199192357   -0.0018814666260473845
0.0002939108035233757   -0.01697161699721457   -0.0018655909714384395
2.848724130206493e-05   -0.02664934256787798   -0.0021463693633424928
0.0002823380653796579   -0.016968758059845886   -0.0018750311700729356
-0.003921753466252663   -0.01707089199192357   -0.0018814666260473845
2.848724130206493e-05   -0.02664934256787798   -0.0021463693633424928
-0.0049005094266539396   -0.026747187027233353   -0.002182937330158872
-0.004913263564541662   -0.02669586728986436   -0.0022409303306490515
-0.003921753466252663   -0.01707089199192357   -0.0018814666260473845
2.848724130206493e-05   -0.02664934256787798   -0.0021463693633424928
-0.004913263564541662   -0.02669586728986436   -0.0022409303306490515
0.0002823380653796579   -0.016968758059845886   -0.0018750311700729356
-0.003921753466252663   -0.01707089199192357   -0.0018814666260473845
-0.0049005094266539396   -0.026747187027233353   -0.002182937330158872
0.0002939108035233757   -0.01697161699721457   -0.0018655909714384395
-0.003901937911662815   -0.017086291226423665   -0.0018198368793675545
-0.0049005094266539396   -0.026747187027233353   -0.002182937330158872
2.848724130206493e-05   -0.02664934256787798   -0.0021463693633424928
0.0002939108035233757   -0.01697161699721457   -0.0018655909714384395
3.642255166365328e-05   -0.02663813810228332   -0.002134018254481906
-0.003901937911662815   -0.017086291226423665   -0.0018198368793675545
0.0003022617308447981   -0.01693941708455162   -0.0018664113469152078
3.642255166365328e-05   -0.02663813810228332   -0.002134018254481906
0.0002939108035233757   -0.01697161699721457   -0.0018655909714384395
-0.003901937911662815   -0.017086291226423665   -0.0018198368793675545
3.642255166365328e-05   -0.02663813810228332   -0.002134018254481906
-0.004881472741784412   -0.026779210253576286   -0.002135238955439603
-0.0049005094266539396   -0.026747187027233353   -0.002182937330158872
-0.003901937911662815   -0.017086291226423665   -0.0018198368793675545
3.642255166365328e-05   -0.02663813810228332   -0.002134018254481906
-0.0049005094266539396   -0.026747187027233353   -0.002182937330158872
0.0002939108035233757   -0.01697161699721457   -0.0018655909714384395
0.0002642468337315141   -0.016931355355719276   -0.0018941439281087598
-1.6149582937399773e-06   -0.02661190459796576   -0.0022019519127304365
0.004651655296866352   -0.01702732872176529   -0.0018374317592107
0.0002823380653796579   -0.016968758059845886   -0.0018750311700729356
-1.6149582937399773e-06   -0.02661190459796576   -0.0022019519127304365
0.005088586422469122   -0.02665614657889419   -0.0021712254082729273
0.004651655296866352   -0.01702732872176529   -0.0018374317592107
0.0051101133408810425   -0.026644862574100044   -0.0021745089769516983
0.0002823380653796579   -0.016968758059845886   -0.0018750311700729356
0.0046674430658690666   -0.01702196787866514   -0.0018819659094604993
0.0051101133408810425   -0.026644862574100044   -0.0021745089769516983
0.004651655296866352   -0.01702732872176529   -0.0018374317592107
0.0002823380653796579   -0.016968758059845886   -0.0018750311700729356
0.0051101133408810425   -0.026644862574100044   -0.0021745089769516983
1.5973562649395842e-05   -0.026640507715445235   -0.0021691614098200574
-1.6149582937399773e-06   -0.02661190459796576   -0.0022019519127304365
0.0002823380653796579   -0.016968758059845886   -0.0018750311700729356
0.0051101133408810425   -0.026644862574100044   -0.0021745089769516983
-1.6149582937399773e-06   -0.02661190459796576   -0.0022019519127304365
0.004651655296866352   -0.01702732872176529   -0.0018374317592107
0.0002823380653796579   -0.016968758059845886   -0.0018750311700729356
1.5973562649395842e-05   -0.026640507715445235   -0.0021691614098200574
0.0046674430658690666   -0.01702196787866514   -0.0018819659094604993
0.0002939108035233757   -0.01697161699721457   -0.0018655909714384395
1.5973562649395842e-05   -0.026640507715445235   -0.0021691614098200574
0.0051101133408810425   -0.026644862574100044   -0.0021745089769516983
0.0046674430658690666   -0.01702196787866514   -0.0018819659094604993
0.005111756196863192   -0.026615322850429727   -0.002187252787302986
0.0002939108035233757   -0.01697161699721457   -0.0018655909714384395
0.004655565448587342   -0.016982803370624442   -0.0019354618838537852
0.005111756196863192   -0.026615322850429727   -0.002187252787302986
0.0046674430658690666   -0.01702196787866514   -0.0018819659094604993
0.0002939108035233757   -0.01697161699721457   -0.0018655909714384395
0.005111756196863192   -0.026615322850429727   -0.002187252787302986
2.848724130206493e-05   -0.02664934256787798   -0.0021463693633424928
1.5973562649395842e-05   -0.026640507715445235   -0.0021691614098200574
0.0002939108035233757   -0.01697161699721457   -0.0018655909714384395
0.005111756196863192   -0.026615322850429727   -0.002187252787302986
1.5973562649395842e-05   -0.026640507715445235   -0.0021691614098200574
0.0046674430658690666   -0.01702196787866514   -0.0018819659094604993
0.0002939108035233757   -0.01697161699721457   -0.0018655909714384395
2.848724130206493e-05   -0.02664934256787798   -0.0021463693633424928
0.004655565448587342   -0.016982803370624442   -0.0019354618838537852
0.0003022617308447981   -0.01693941708455162   -0.0018664113469152078
2.848724130206493e-05   -0.02664934256787798   -0.0021463693633424928
0.005111756196863192   -0.026615322850429727   -0.002187252787302986
0.004655565448587342   -0.016982803370624442   -0.0019354618838537852
0.005100611897854194   -0.026560133772198662   -0.0022098170811770766
0.0003022617308447981   -0.01693941708455162   -0.0018664113469152078
0.0046378054529356266   -0.01690146560819836   -0.0019989813058854614
0.005100611897854194   -0.026560133772198662   -0.0022098170811770766
0.004655565448587342   -0.016982803370624442   -0.0019354618838537852
0.0003022617308447981   -0.01693941708455162   -0.0018664113469152078
0.005100611897854194   -0.026560133772198662   -0.0022098170811770766
3.642255166365328e-05   -0.02663813810228332   -0.002134018254481906
2.848724130206493e-05   -0.02664934256787798   -0.0021463693633424928
0.0003022617308447981   -0.01693941708455162   -0.0018664113469152078
0.005100611897854194   -0.026560133772198662   -0.0022098170811770766
2.848724130206493e-05   -0.02664934256787798   -0.0021463693633424928
0.004655565448587342   -0.016982803370624442   -0.0019354618838537852
0.004651655296866352   -0.01702732872176529   -0.0018374317592107
0.005088586422469122   -0.02665614657889419   -0.0021712254082729273
0.009648227602520893   -0.01720141231537056   -0.0018385711361797194
0.0046674430658690666   -0.01702196787866514   -0.0018819659094604993
0.005088586422469122   -0.02665614657889419   -0.0021712254082729273
0.010709423157476944   -0.02673745509684464   -0.002200190819979815
0.009648227602520893   -0.01720141231537056   -0.0018385711361797194
0.010699557957879594   -0.026699157164339245   -0.002242399818409191
0.0046674430658690666   -0.01702196787866514   -0.0018819659094604993
0.009564245093538214   -0.017171413460124015   -0.0019549462889741688
0.010699557957879594   -0.026699157164339245   -0.002242399818409191
0.009648227602520893   -0.01720141231537056   -0.0018385711361797194
0.0046674430658690666   -0.01702196787866514   -0.0018819659094604993
0.010699557957879594   -0.026699157164339245   -0.002242399818409191
0.0051101133408810425   -0.026644862574100044   -0.0021745089769516983
0.005088586422469122   -0.02665614657889419   -0.0021712254082729273
0.0046674430658690666   -0.01702196787866514   -0.0018819659094604993
0.010699557957879594   -0.026699157164339245   -0.002242399818409191
0.005088586422469122   -0.02665614657889419   -0.0021712254082729273
0.009648227602520893   -0.01720141231537056   -0.0018385711361797194
0.0046674430658690666   -0.01702196787866514   -0.0018819659094604993
0.0051101133408810425   -0.026644862574100044   -0.0021745089769516983
0.009564245093538214   -0.017171413460124015   -0.0019549462889741688
0.004655565448587342   -0.016982803370624442   -0.0019354618838537852
0.0051101133408810425   -0.026644862574100044   -0.0021745089769516983
0.010699557957879594   -0.026699157164339245   -0.002242399818409191
0.009564245093538214   -0.017171413460124015   -0.0019549462889741688
0.010672779693490692   -0.026650965672508953   -0.0022999573428207644
0.004655565448587342   -0.016982803370624442   -0.0019354618838537852
0.009480420009332725   -0.01711111316555493   -0.0020874818341290475
0.010672779693490692   -0.026650965672508953   -0.0022999573428207644
0.009564245093538214   -0.017171413460124015   -0.0019549462889741688
0.004655565448587342   -0.016982803370624442   -0.0019354618838537852
0.010672779693490692   -0.026650965672508953   -0.0022999573428207644
0.005111756196863192   -0.026615322850429727   -0.002187252787302986
0.0051101133408810425   -0.026644862574100044   -0.0021745089769516983
0.004655565448587342   -0.016982803370624442   -0.0019354618838537852
0.010672779693490692   -0.026650965672508953   -0.0022999573428207644
0.0051101133408810425   -0.026644862574100044   -0.0021745089769516983
0.009564245093538214   -0.017171413460124015   -0.0019549462889741688
0.004655565448587342   -0.016982803370624442   -0.0019354618838537852
0.005111756196863192   -0.026615322850429727   -0.002187252787302986
0.009480420009332725   -0.01711111316555493   -0.0020874818341290475
0.0046378054529356266   -0.01690146560819836   -0.0019989813058854614
0.005111756196863192   -0.026615322850429727   -0.002187252787302986
0.010672779693490692   -0.026650965672508953   -0.0022999573428207644
0.009480420009332725   -0.01711111316555493   -0.0020874818341290475
0.01059969796310488   -0.026559105805171592   -0.0023727521009929272
0.0046378054529356266   -0.01690146560819836   -0.0019989813058854614
0.009331529584661978   -0.016984622126329178   -0.0022361949532308622
0.01059969796310488   -0.026559105805171592   -0.0023727521009929272
0.009480420009332725   -0.01711111316555493   -0.0020874818341290475
0.0046378054529356266   -0.01690146560819836   -0.0019989813058854614
0.01059969796310488   -0.026559105805171592   -0.0023727521009929272
0.005100611897854194   -0.026560133772198662   -0.0022098170811770766
0.005111756196863192   -0.026615322850429727   -0.002187252787302986
0.0046378054529356266   -0.01690146560819836   -0.0019989813058854614
0.01059969796310488   -0.026559105805171592   -0.0023727521009929272
0.005111756196863192   -0.026615322850429727   -0.002187252787302986
0.009480420009332725   -0.01711111316555493   -0.0020874818341290475
-0.015376627351139094   -0.026846792319957062   -0.0027585381786665777
-0.016890272889173958   -0.03725800321886652   -0.0028091109318669535
-0.009980932043348954   -0.026700524120803544   -0.002492952636837862
-0.015530942693091685   -0.026999768139394746   -0.0026091328679055
-0.016890272889173958   -0.03725800321886652   -0.0028091109318669535
-0.011098513786323273   -0.03719840246705047   -0.0025975791601231413
-0.009980932043348954   -0.026700524120803544   -0.002492952636837862
-0.011094099819810067   -0.03729484448131268   -0.0025342990200546652
-0.015530942693091685   -0.026999768139394746   -0.0026091328679055
-0.009992958854960394   -0.026813599548991946   -0.0023897758305510336
-0.011094099819810067   -0.03729484448131268   -0.0025342990200546652
-0.009980932043348954   -0.026700524120803544   -0.002492952636837862
-0.015530942693091685   -0.026999768139394746   -0.0026091328679055
-0.011094099819810067   -0.03729484448131268   -0.0025342990200546652
-0.016962348784551624   -0.03738764782333089   -0.002732076269582627
-0.016890272889173958   -0.03725800321886652   -0.0028091109318669535
-0.015530942693091685   -0.026999768139394746   -0.0026091328679055
-0.011094099819810067   -0.03729484448131268   -0.0025342990200546652
-0.016890272889173958   -0.03725800321886652   -0.0028091109318669535
-0.009980932043348954   -0.026700524120803544   -0.002492952636837862
-0.015530942693091685   -0.026999768139394746   -0.0026091328679055
-0.016962348784551624   -0.03738764782333089   -0.002732076269582627
-0.009992958854960394   -0.026813599548991946   -0.0023897758305510336
-0.015619497498267562   -0.02710800393372356   -0.002474063493096528
-0.016962348784551624   -0.03738764782333089   -0.002732076269582627
-0.011094099819810067   -0.03729484448131268   -0.0025342990200546652
-0.009992958854960394   -0.026813599548991946   -0.0023897758305510336
-0.01107922309061001   -0.03738381845840727   -0.0024815264712982695
-0.015619497498267562   -0.02710800393372356   -0.002474063493096528
-0.010001545926583612   -0.026903246457792566   -0.0022968803594682202
-0.01107922309061001   -0.03738381845840727   -0.0024815264712982695
-0.009992958854960394   -0.026813599548991946   -0.0023897758305510336
-0.015619497498267562   -0.02710800393372356   -0.002474063493096528
-0.01107922309061001   -0.03738381845840727   -0.0024815264712982695
-0.01698530118396009   -0.03749339659335367   -0.002670165302030902
-0.016962348784551624   -0.03738764782333089   -0.002732076269582627
-0.015619497498267562   -0.02710800393372356   -0.002474063493096528
-0.01107922309061001   -0.03738381845840727   -0.0024815264712982695
-0.016962348784551624   -0.03738764782333089   -0.002732076269582627
-0.009992958854960394   -0.026813599548991946   -0.0023897758305510336
-0.015619497498267562   -0.02710800393372356   -0.002474063493096528
-0.01698530118396009   -0.03749339659335367   -0.002670165302030902
-0.010001545926583612   -0.026903246457792566   -0.0022968803594682202
-0.015710714801791377   -0.02720502944124399   -0.0023550340350627806
-0.01698530118396009   -0.03749339659335367   -0.002670165302030902
-0.01107922309061001   -0.03738381845840727   -0.0024815264712982695
-0.010001545926583612   -0.026903246457792566   -0.0022968803594682202
-0.011042563171654406   -0.03747210710550387   -0.0024385246951719656
-0.015710714801791377   -0.02720502944124399   -0.0023550340350627806
-0.009980874218706802   -0.026976899428254337   -0.0022128996023327075
-0.011042563171654406   -0.03747210710550387   -0.0024385246951719656
-0.010001545926583612   -0.026903246457792566   -0.0022968803594682202
-0.015710714801791377   -0.02720502944124399   -0.0023550340350627806
-0.011042563171654406   -0.03747210710550387   -0.0024385246951719656
-0.016992982520482907   -0.037608256870116444   -0.00262467759871589
-0.01698530118396009   -0.03749339659335367   -0.002670165302030902
-0.015710714801791377   -0.02720502944124399   -0.0023550340350627806
-0.011042563171654406   -0.03747210710550387   -0.0024385246951719656
-0.01698530118396009   -0.03749339659335367   -0.002670165302030902
-0.010001545926583612   -0.026903246457792566   -0.0022968803594682202
-0.009980932043348954   -0.026700524120803544   -0.002492952636837862
-0.011098513786323273   -0.03719840246705047   -0.0025975791601231413
-0.0049225945143474645   -0.02662491464443959   -0.002309050169354784
-0.009992958854960394   -0.026813599548991946   -0.0023897758305510336
-0.011098513786323273   -0.03719840246705047   -0.0025975791601231413
-0.005718375417975094   -0.03716418910826186   -0.002453570714767039
-0.0049225945143474645   -0.02662491464443959   -0.002309050169354784
-0.005698277544826898   -0.03722255963987495   -0.002398395707363194
-0.009992958854960394   -0.026813599548991946   -0.0023897758305510336
-0.004913263564541662   -0.02669586728986436   -0.0022409303306490515
-0.005698277544826898   -0.03722255963987495   -0.002398395707363194
-0.0049225945143474645   -0.02662491464443959   -0.002309050169354784
-0.009992958854960394   -0.026813599548991946   -0.0023897758305510336
-0.005698277544826898   -0.03722255963987495   -0.002398395707363194
-0.011094099819810067   -0.03729484448131268   -0.0025342990200546652
-0.011098513786323273   -0.03719840246705047   -0.0025975791601231413
-0.009992958854960394   -0.026813599548991946   -0.0023897758305510336
-0.005698277544826898   -0.03722255963987495   -0.002398395707363194
-0.011098513786323273   -0.03719840246705047   -0.0025975791601231413
-0.0049225945143474645   -0.02662491464443959   -0.002309050169354784
-0.009992958854960394   -0.026813599548991946   -0.0023897758305510336
-0.011094099819810067   -0.03729484448131268   -0.0025342990200546652
-0.004913263564541662   -0.02669586728986436   -0.0022409303306490515
-0.010001545926583612   -0.026903246457792566   -0.0022968803594682202
-0.011094099819810067   -0.03729484448131268   -0.0025342990200546652
-0.005698277544826898   -0.03722255963987495   -0.002398395707363194
-0.004913263564541662   -0.02669586728986436   -0.0022409303306490515
-0.0056736326101574355   -0.03727613381395693   -0.0023537367308252076
-0.010001545926583612   -0.026903246457792566   -0.0022968803594682202
-0.0049005094266539396   -0.026747187027233353   -0.002182937330158872
-0.0056736326101574355   -0.03727613381395693   -0.0023537367308252076
-0.004913263564541662   -0.02669586728986436   -0.0022409303306490515
-0.010001545926583612   -0.026903246457792566   -0.0022968803594682202
-0.0056736326101574355   -0.03727613381395693   -0.0023537367308252076
-0.01107922309061001   -0.03738381845840727   -0.0024815264712982695
-0.011094099819810067   -0.03729484448131268   -0.0025342990200546652
-0.010001545926583612   -0.026903246457792566   -0.0022968803594682202
-0.0056736326101574355   -0.03727613381395693   -0.0023537367308252076
-0.011094099819810067   -0.03729484448131268   -0.0025342990200546652
-0.004913263564541662   -0.02669586728986436   -0.0022409303306490515
-0.010001545926583612   -0.026903246457792566   -0.0022968803594682202
-0.01107922309061001   -0.03738381845840727   -0.0024815264712982695
-0.0049005094266539396   -0.026747187027233353   -0.002182937330158872
-0.009980874218706802   -0.026976899428254337   -0.0022128996023327075
-0.01107922309061001   -0.03738381845840727   -0.0024815264712982695
-0.0056736326101574355   -0.03727613381395693   -0.0023537367308252076
-0.0049005094266539396   -0.026747187027233353   -0.002182937330158872
-0.005644020419112182   -0.03732508787600989   -0.002319846790783731
-0.009980874218706802   -0.026976899428254337   -0.0022128996023327075
-0.004881472741784412   -0.026779210253576286   -0.002135238955439603
-0.005644020419112182   -0.03732508787600989   -0.002319846790783731
-0.0049005094266539396   -0.026747187027233353   -0.002182937330158872
-0.009980874218706802   -0.026976899428254337   -0.0022128996023327075
-0.005644020419112182   -0.03732508787600989   -0.002319846790783731
-0.011042563171654406   -0.03747210710550387   -0.0024385246951719656
-0.01107922309061001   -0.03738381845840727   -0.0024815264712982695
-0.009980874218706802   -0.026976899428254337   -0.0022128996023327075
-0.005644020419112182   -0.03732508787600989   -0.002319846790783731
-0.01107922309061001   -0.03738381845840727   -0.0024815264712982695
-0.0049005094266539396   -0.026747187027233353   -0.002182937330158872
-0.0049225945143474645   -0.02662491464443959   -0.002309050169354784
-0.005718375417975094   -0.03716418910826186   -0.002453570714767039
-1.6149582937399773e-06   -0.02661190459796576   -0.0022019519127304365
-0.004913263564541662   -0.02669586728986436   -0.0022409303306490515
-0.005718375417975094   -0.03716418910826186   -0.002453570714767039
-0.00048382136996079995   -0.037144583671935856   -0.0023790937611168302
-1.6149582937399773e-06   -0.02661190459796576   -0.0022019519127304365
-0.0004557392339015438   -0.03716417848524328   -0.0023325757209026157
-0.004913263564541662   -0.02669586728986436   -0.0022409303306490515
1.5973562649395842e-05   -0.026640507715445235   -0.0021691614098200574
-0.0004557392339015438   -0.03716417848524328   -0.0023325757209026157
-1.6149582937399773e-06   -0.02661190459796576   -0.0022019519127304365
-0.004913263564541662   -0.02669586728986436   -0.0022409303306490515
-0.0004557392339015438   -0.03716417848524328   -0.0023325757209026157
-0.005698277544826898   -0.03722255963987495   -0.002398395707363194
-0.005718375417975094   -0.03716418910826186   -0.002453570714767039
-0.004913263564541662   -0.02669586728986436   -0.0022409303306490515
-0.0004557392339015438   -0.03716417848524328   -0.0023325757209026157
-0.005718375417975094   -0.03716418910826186   -0.002453570714767039
-1.6149582937399773e-06   -0.02661190459796576   -0.0022019519127304365
-0.004913263564541662   -0.02669586728986436   -0.0022409303306490515
-0.005698277544826898   -0.03722255963987495   -0.002398395707363194
1.5973562649395842e-05   -0.026640507715445235   -0.0021691614098200574
-0.0049005094266539396   -0.026747187027233353   -0.002182937330158872
-0.005698277544826898   -0.03722255963987495   -0.002398395707363194
-0.0004557392339015438   -0.03716417848524328   -0.0023325757209026157
1.5973562649395842e-05   -0.026640507715445235   -0.0021691614098200574
-0.0004314199849613381   -0.03717863721189889   -0.002296483170070068
-0.0049005094266539396   -0.026747187027233353   -0.002182937330158872
2.848724130206493e-05   -0.02664934256787798   -0.0021463693633424928
-0.0004314199849613381   -0.03717863721189889   -0.002296483170070068
1.5973562649395842e-05   -0.026640507715445235   -0.0021691614098200574
-0.0049005094266539396   -0.026747187027233353   -0.002182937330158872
-0.0004314199849613381   -0.03717863721189889   -0.002296483170070068
-0.0056736326101574355   -0.03727613381395693   -0.0023537367308252076
-0.005698277544826898   -0.03722255963987495   -0.002398395707363194
-0.0049005094266539396   -0.026747187027233353   -0.002182937330158872
-0.0004314199849613381   -0.03717863721189889   -0.002296483170070068
-0.005698277544826898   -0.03722255963987495   -0.002398395707363194
1.5973562649395842e-05   -0.026640507715445235   -0.0021691614098200574
-0.0049005094266539396   -0.026747187027233353   -0.002182937330158872
-0.0056736326101574355   -0.03727613381395693   -0.0023537367308252076
2.848724130206493e-05   -0.02664934256787798   -0.0021463693633424928
-0.004881472741784412   -0.026779210253576286   -0.002135238955439603
-0.0056736326101574355   -0.03727613381395693   -0.0023537367308252076
-0.0004314199849613381   -0.03717863721189889   -0.002296483170070068
2.848724130206493e-05   -0.02664934256787798   -0.0021463693633424928
-0.0004128781159203766   -0.037187885553760854   -0.002271196099654
-0.004881472741784412   -0.026779210253576286   -0.002135238955439603
3.642255166365328e-05   -0.02663813810228332   -0.002134018254481906
-0.0004128781159203766   -0.037187885553760854   -0.002271196099654
2.848724130206493e-05   -0.02664934256787798   -0.0021463693633424928
-0.004881472741784412   -0.026779210253576286   -0.002135238955439603
-0.0004128781159203766   -0.037187885553760854   -0.002271196099654
-0.005644020419112182   -0.03732508787600989   -0.002319846790783731
-0.0056736326101574355   -0.03727613381395693   -0.0023537367308252076
-0.004881472741784412   -0.026779210253576286   -0.002135238955439603
-0.0004128781159203766   -0.037187885553760854   -0.002271196099654
-0.0056736326101574355   -0.03727613381395693   -0.0023537367308252076
2.848724130206493e-05   -0.02664934256787798   -0.0021463693633424928
-1.6149582937399773e-06   -0.02661190459796576   -0.0022019519127304365
-0.00048382136996079995   -0.037144583671935856   -0.0023790937611168302
0.005088586422469122   -0.02665614657889419   -0.0021712254082729273
1.5973562649395842e-05   -0.026640507715445235   -0.0021691614098200574
-0.00048382136996079995   -0.037144583671935856   -0.0023790937611168302
0.004910493678645392   -0.037136208474477975   -0.002374803915082381
0.005088586422469122   -0.02665614657889419   -0.0021712254082729273
0.004947698318040599   -0.03711824327295746   -0.0023373768716420155
1.5973562649395842e-05   -0.026640507715445235   -0.0021691614098200574
0.0051101133408810425   -0.026644862574100044   -0.0021745089769516983
0.004947698318040599   -0.03711824327295746   -0.0023373768716420155
0.005088586422469122   -0.02665614657889419   -0.0021712254082729273
1.5973562649395842e-05   -0.026640507715445235   -0.0021691614098200574
0.004947698318040599   -0.03711824327295746   -0.0023373768716420155
-0.0004557392339015438   -0.03716417848524328   -0.0023325757209026157
-0.00048382136996079995   -0.037144583671935856   -0.0023790937611168302
1.5973562649395842e-05   -0.026640507715445235   -0.0021691614098200574
0.004947698318040599   -0.03711824327295746   -0.0023373768716420155
-0.00048382136996079995   -0.037144583671935856   -0.0023790937611168302
0.005088586422469122   -0.02665614657889419   -0.0021712254082729273
1.5973562649395842e-05   -0.026640507715445235   -0.0021691614098200574
-0.0004557392339015438   -0.03716417848524328   -0.0023325757209026157
0.0051101133408810425   -0.026644862574100044   -0.0021745089769516983
2.848724130206493e-05   -0.02664934256787798   -0.0021463693633424928
-0.0004557392339015438   -0.03716417848524328   -0.0023325757209026157
0.004947698318040599   -0.03711824327295746   -0.0023373768716420155
0.0051101133408810425   -0.026644862574100044   -0.0021745089769516983
0.004972616219033082   -0.037097306670476386   -0.0023100763884796975
2.848724130206493e-05   -0.02664934256787798   -0.0021463693633424928
0.005111756196863192   -0.026615322850429727   -0.002187252787302986
0.004972616219033082   -0.037097306670476386   -0.0023100763884796975
0.0051101133408810425   -0.026644862574100044   -0.0021745089769516983
2.848724130206493e-05   -0.02664934256787798   -0.0021463693633424928
0.004972616219033082   -0.037097306670476386   -0.0023100763884796975
-0.0004314199849613381   -0.03717863721189889   -0.002296483170070068
-0.0004557392339015438   -0.03716417848524328   -0.0023325757209026157
2.848724130206493e-05   -0.02664934256787798   -0.0021463693633424928
0.004972616219033082   -0.037097306670476386   -0.0023100763884796975
-0.0004557392339015438   -0.03716417848524328   -0.0023325757209026157
0.0051101133408810425   -0.026644862574100044   -0.0021745089769516983
2.848724130206493e-05   -0.02664934256787798   -0.0021463693633424928
-0.0004314199849613381   -0.03717863721189889   -0.002296483170070068
0.005111756196863192   -0.026615322850429727   -0.002187252787302986
3.642255166365328e-05   -0.02663813810228332   -0.002134018254481906
-0.0004314199849613381   -0.03717863721189889   -0.002296483170070068
0.004972616219033082   -0.037097306670476386   -0.0023100763884796975
0.005111756196863192   -0.026615322850429727   -0.002187252787302986
0.004977722842461253   -0.03706653147283266   -0.002292694886447289
3.642255166365328e-05   -0.02663813810228332   -0.002134018254481906
0.005100611897854194   -0.026560133772198662   -0.0022098170811770766
0.004977722842461253   -0.03706653147283266   -0.002292694886447289
0.005111756196863192   -0.026615322850429727   -0.002187252787302986
3.642255166365328e-05   -0.02663813810228332   -0.002134018254481906
0.004977722842461253   -0.03706653147283266   -0.002292694886447289
-0.0004128781159203766   -0.037187885553760854   -0.002271196099654
-0.0004314199849613381   -0.03717863721189889   -0.002296483170070068
3.642255166365328e-05   -0.02663813810228332   -0.002134018254481906
0.004977722842461253   -0.03706653147283266   -0.002292694886447289
-0.0004314199849613381   -0.03717863721189889   -0.002296483170070068
0.005111756196863192   -0.026615322850429727   -0.002187252787302986
0.005088586422469122   -0.02665614657889419   -0.0021712254082729273
0.004910493678645392   -0.037136208474477975   -0.002374803915082381
0.010709423157476944   -0.02673745509684464   -0.002200190819979815
0.0051101133408810425   -0.026644862574100044   -0.0021745089769516983
0.004910493678645392   -0.037136208474477975   -0.002374803915082381
0.010756299198504802   -0.03712460032724493   -0.002433667822844828
0.010709423157476944   -0.02673745509684464   -0.002200190819979815
0.010829145289869105   -0.037076948970752595   -0.0024029862181068266
0.0051101133408810425   -0.026644862574100044   -0.0021745089769516983
0.010699557957879594   -0.026699157164339245   -0.002242399818409191
0.010829145289869105   -0.037076948970752595   -0.0024029862181068266
0.010709423157476944   -0.02673745509684464   -0.002200190819979815
0.0051101133408810425   -0.026644862574100044   -0.0021745089769516983
0.010829145289869105   -0.037076948970752595   -0.0024029862181068266
0.004947698318040599   -0.03711824327295746   -0.0023373768716420155
0.004910493678645392   -0.037136208474477975   -0.002374803915082381
0.0051101133408810425   -0.026644862574100044   -0.0021745089769516983
0.010829145289869105   -0.037076948970752595   -0.0024029862181068266
0.004910493678645392   -0.037136208474477975   -0.002374803915082381
0.010709423157476944   -0.02673745509684464   -0.002200190819979815
0.0051101133408810425   -0.026644862574100044   -0.0021745089769516983
0.004947698318040599   -0.03711824327295746   -0.0023373768716420155
0.010699557957879594   -0.026699157164339245   -0.002242399818409191
0.005111756196863192   -0.026615322850429727   -0.002187252787302986
0.004947698318040599   -0.03711824327295746   -0.0023373768716420155
0.010829145289869105   -0.037076948970752595   -0.0024029862181068266
0.010699557957879594   -0.026699157164339245   -0.002242399818409191
0.010867675295551214   -0.03703931630898482   -0.0023876916004916984
0.005111756196863192   -0.026615322850429727   -0.002187252787302986
0.010672779693490692   -0.026650965672508953   -0.0022999573428207644
0.010867675295551214   -0.03703931630898482   -0.0023876916004916984
0.010699557957879594   -0.026699157164339245   -0.002242399818409191
0.005111756196863192   -0.026615322850429727   -0.002187252787302986
0.010867675295551214   -0.03703931630898482   -0.0023876916004916984
0.004972616219033082   -0.037097306670476386   -0.0023100763884796975
0.004947698318040599   -0.03711824327295746   -0.0023373768716420155
0.005111756196863192   -0.026615322850429727   -0.002187252787302986
0.010867675295551214   -0.03703931630898482   -0.0023876916004916984
0.004947698318040599   -0.03711824327295746   -0.0023373768716420155
0.010699557957879594   -0.026699157164339245   -0.002242399818409191
0.005111756196863192   -0.026615322850429727   -0.002187252787302986
0.004972616219033082   -0.037097306670476386   -0.0023100763884796975
0.010672779693490692   -0.026650965672508953   -0.0022999573428207644
0.005100611897854194   -0.026560133772198662   -0.0022098170811770766
0.004972616219033082   -0.037097306670476386   -0.0023100763884796975
0.010867675295551214   -0.03703931630898482   -0.0023876916004916984
0.010672779693490692   -0.026650965672508953   -0.0022999573428207644
0.01087699746205437   -0.03697892984972003   -0.002388046171199405
0.005100611897854194   -0.026560133772198662   -0.0022098170811770766
0.01059969796310488   -0.026559105805171592   -0.0023727521009929272
0.01087699746205437   -0.03697892984972003   -0.002388046171199405
0.010672779693490692   -0.026650965672508953   -0.0022999573428207644
0.005100611897854194   -0.026560133772198662   -0.0022098170811770766
0.01087699746205437   -0.03697892984972003   -0.002388046171199405
0.004977722842461253   -0.03706653147283266   -0.002292694886447289
0.004972616219033082   -0.037097306670476386   -0.0023100763884796975
0.005100611897854194   -0.026560133772198662   -0.0022098170811770766
0.01087699746205437   -0.03697892984972003   -0.002388046171199405
0.004972616219033082   -0.037097306670476386   -0.0023100763884796975
0.010672779693490692   -0.026650965672508953   -0.0022999573428207644
-0.016890272889173958   -0.03725800321886652   -0.0028091109318669535
-0.01741775211194277   -0.04785648682443923   -0.002761722405904857
-0.011098513786323273   -0.03719840246705047   -0.0025975791601231413
-0.016962348784551624   -0.03738764782333089   -0.002732076269582627
-0.01741775211194277   -0.04785648682443923   -0.002761722405904857
-0.011632933485496993   -0.047884193100337924   -0.0026053294238842315
-0.011098513786323273   -0.03719840246705047   -0.0025975791601231413
-0.011601742615626407   -0.047963670504522826   -0.002581333569108065
-0.016962348784551624   -0.03738764782333089   -0.002732076269582627
-0.011094099819810067   -0.03729484448131268   -0.0025342990200546652
-0.011601742615626407   -0.047963670504522826   -0.002581333569108065
-0.011098513786323273   -0.03719840246705047   -0.0025975791601231413
-0.016962348784551624   -0.03738764782333089   -0.002732076269582627
-0.011601742615626407   -0.047963670504522826   -0.002581333569108065
-0.01739770549857396   -0.04796282558607367   -0.002756745211451888
-0.01741775211194277   -0.04785648682443923   -0.002761722405904857
-0.016962348784551624   -0.03738764782333089   -0.002732076269582627
-0.011601742615626407   -0.047963670504522826   -0.002581333569108065
-0.01741775211194277   -0.04785648682443923   -0.002761722405904857
-0.011098513786323273   -0.03719840246705047   -0.0025975791601231413
-0.016962348784551624   -0.03738764782333089   -0.002732076269582627
-0.01739770549857396   -0.04796282558607367   -0.002756745211451888
-0.011094099819810067   -0.03729484448131268   -0.0025342990200546652
-0.01698530118396009   -0.03749339659335367   -0.002670165302030902
-0.01739770549857396   -0.04796282558607367   -0.002756745211451888
-0.011601742615626407   -0.047963670504522826   -0.002581333569108065
-0.011094099819810067   -0.03729484448131268   -0.0025342990200546652
-0.011553090153843997   -0.04805173533553903   -0.0025681670421417785
-0.01698530118396009   -0.03749339659335367   -0.002670165302030902
-0.01107922309061001   -0.03738381845840727   -0.0024815264712982695
-0.011553090153843997   -0.04805173533553903   -0.0025681670421417785
-0.011094099819810067   -0.03729484448131268   -0.0025342990200546652
-0.01698530118396009   -0.03749339659335367   -0.002670165302030902
-0.011553090153843997   -0.04805173533553903   -0.0025681670421417785
-0.017344472391575962   -0.04806608456910904   -0.0027679510455393334
-0.01739770549857396   -0.04796282558607367   -0.002756745211451888
-0.01698530118396009   -0.03749339659335367   -0.002670165302030902
-0.011553090153843997   -0.04805173533553903   -0.0025681670421417785
-0.01739770549857396   -0.04796282558607367   -0.002756745211451888
-0.011094099819810067   -0.03729484448131268   -0.0025342990200546652
-0.01698530118396009   -0.03749339659335367   -0.002670165302030902
-0.017344472391575962   -0.04806608456910904   -0.0027679510455393334
-0.01107922309061001   -0.03738381845840727   -0.0024815264712982695
-0.016992982520482907   -0.037608256870116444   -0.00262467759871589
-0.017344472391575962   -0.04806608456910904   -0.0027679510455393334
-0.011553090153843997   -0.04805173533553903   -0.0025681670421417785
-0.01107922309061001   -0.03738381845840727   -0.0024815264712982695
-0.011490082271613675   -0.04815445182509386   -0.002565653713822091
-0.016992982520482907   -0.037608256870116444   -0.00262467759871589
-0.011042563171654406   -0.03747210710550387   -0.0024385246951719656
-0.011490082271613675   -0.04815445182509386   -0.002565653713822091
-0.01107922309061001   -0.03738381845840727   -0.0024815264712982695
-0.016992982520482907   -0.037608256870116444   -0.00262467759871589
-0.011490082271613675   -0.04815445182509386   -0.002565653713822091
-0.01725808910304861   -0.04819910513048684   -0.002796158699415459
-0.017344472391575962   -0.04806608456910904   -0.0027679510455393334
-0.016992982520482907   -0.037608256870116444   -0.00262467759871589
-0.011490082271613675   -0.04815445182509386   -0.002565653713822091
-0.017344472391575962   -0.04806608456910904   -0.0027679510455393334
-0.01107922309061001   -0.03738381845840727   -0.0024815264712982695
-0.011098513786323273   -0.03719840246705047   -0.0025975791601231413
-0.011632933485496993   -0.047884193100337924   -0.0026053294238842315
-0.005718375417975094   -0.03716418910826186   -0.002453570714767039
-0.011094099819810067   -0.03729484448131268   -0.0025342990200546652
-0.011632933485496993   -0.047884193100337924   -0.0026053294238842315
-0.006334020018346269   -0.047890198109675826   -0.0025013819554450213
-0.005718375417975094   -0.03716418910826186   -0.002453570714767039
-0.0062922842556580785   -0.047935783922016216   -0.002458772738304792
-0.011094099819810067   -0.03729484448131268   -0.0025342990200546652
-0.005698277544826898   -0.03722255963987495   -0.002398395707363194
-0.0062922842556580785   -0.047935783922016216   -0.002458772738304792
-0.005718375417975094   -0.03716418910826186   -0.002453570714767039
-0.011094099819810067   -0.03729484448131268   -0.0025342990200546652
-0.0062922842556580785   -0.047935783922016216   -0.002458772738304792
-0.011601742615626407   -0.047963670504522826   -0.002581333569108065
-0.011632933485496993   -0.047884193100337924   -0.0026053294238842315
-0.011094099819810067   -0.03729484448131268   -0.0025342990200546652
-0.0062922842556580785   -0.047935783922016216   -0.002458772738304792
-0.011632933485496993   -0.047884193100337924   -0.0026053294238842315
-0.005718375417975094   -0.03716418910826186   -0.002453570714767039
-0.011094099819810067   -0.03729484448131268   -0.0025342990200546652
-0.011601742615626407   -0.047963670504522826   -0.002581333569108065
-0.005698277544826898   -0.03722255963987495   -0.002398395707363194
-0.01107922309061001   -0.03738381845840727   -0.0024815264712982695
-0.011601742615626407   -0.047963670504522826   -0.002581333569108065
-0.0062922842556580785   -0.047935783922016216   -0.002458772738304792
-0.005698277544826898   -0.03722255963987495   -0.002398395707363194
-0.006245135173787989   -0.047991219352965846   -0.0024270336077883716
-0.01107922309061001   -0.03738381845840727   -0.0024815264712982695
-0.0056736326101574355   -0.03727613381395693   -0.0023537367308252076
-0.006245135173787989   -0.047991219352965846   -0.0024270336077883716
-0.005698277544826898   -0.03722255963987495   -0.002398395707363194
-0.01107922309061001   -0.03738381845840727   -0.0024815264712982695
-0.006245135173787989   -0.047991219352965846   -0.0024270336077883716
-0.011553090153843997   -0.04805173533553903   -0.0025681670421417785
-0.011601742615626407   -0.047963670504522826   -0.002581333569108065
-0.01107922309061001   -0.03738381845840727   -0.0024815264712982695
-0.006245135173787989   -0.047991219352965846   -0.0024270336077883716
-0.011601742615626407   -0.047963670504522826   -0.002581333569108065
-0.005698277544826898   -0.03722255963987495   -0.002398395707363194
-0.01107922309061001   -0.03738381845840727   -0.0024815264712982695
-0.011553090153843997   -0.04805173533553903   -0.0025681670421417785
-0.0056736326101574355   -0.03727613381395693   -0.0023537367308252076
-0.011042563171654406   -0.03747210710550387   -0.0024385246951719656
-0.011553090153843997   -0.04805173533553903   -0.0025681670421417785
-0.006245135173787989   -0.047991219352965846   -0.0024270336077883716
-0.0056736326101574355   -0.03727613381395693   -0.0023537367308252076
-0.006194327207932095   -0.04805667724317304   -0.0024065173783719544
-0.011042563171654406   -0.03747210710550387   -0.0024385246951719656
-0.005644020419112182   -0.03732508787600989   -0.002319846790783731
-0.006194327207932095   -0.04805667724317304   -0.0024065173783719544
-0.0056736326101574355   -0.03727613381395693   -0.0023537367308252076
-0.011042563171654406   -0.03747210710550387   -0.0024385246951719656
-0.006194327207932095   -0.04805667724317304   -0.0024065173783719544
-0.011490082271613675   -0.04815445182509386   -0.002565653713822091
-0.011553090153843997   -0.04805173533553903   -0.0025681670421417785
-0.011042563171654406   -0.03747210710550387   -0.0024385246951719656
-0.006194327207932095   -0.04805667724317304   -0.0024065173783719544
-0.011553090153843997   -0.04805173533553903   -0.0025681670421417785
-0.0056736326101574355   -0.03727613381395693   -0.0023537367308252076
-0.005718375417975094   -0.03716418910826186   -0.002453570714767039
-0.006334020018346269   -0.047890198109675826   -0.0025013819554450213
-0.00048382136996079995   -0.037144583671935856   -0.0023790937611168302
-0.005698277544826898   -0.03722255963987495   -0.002398395707363194
-0.006334020018346269   -0.047890198109675826   -0.0025013819554450213
-0.0011850119344181545   -0.04786209678026201   -0.002458902301900775
-0.00048382136996079995   -0.037144583671935856   -0.0023790937611168302
-0.0011356642973158414   -0.04787265365547019   -0.0023986062581108623
-0.005698277544826898   -0.03722255963987495   -0.002398395707363194
-0.0004557392339015438   -0.03716417848524328   -0.0023325757209026157
-0.0011356642973158414   -0.04787265365547019   -0.0023986062581108623
-0.00048382136996079995   -0.037144583671935856   -0.0023790937611168302
-0.005698277544826898   -0.03722255963987495   -0.002398395707363194
-0.0011356642973158414   -0.04787265365547019   -0.0023986062581108623
-0.0062922842556580785   -0.047935783922016216   -0.002458772738304792
-0.006334020018346269   -0.047890198109675826   -0.0025013819554450213
-0.005698277544826898   -0.03722255963987495   -0.002398395707363194
-0.0011356642973158414   -0.04787265365547019   -0.0023986062581108623
-0.006334020018346269   -0.047890198109675826   -0.0025013819554450213
-0.00048382136996079995   -0.037144583671935856   -0.0023790937611168302
-0.005698277544826898   -0.03722255963987495   -0.002398395707363194
-0.0062922842556580785   -0.047935783922016216   -0.002458772738304792
-0.0004557392339015438   -0.03716417848524328   -0.0023325757209026157
-0.0056736326101574355   -0.03727613381395693   -0.0023537367308252076
-0.0062922842556580785   -0.047935783922016216   -0.002458772738304792
-0.0011356642973158414   -0.04787265365547019   -0.0023986062581108623
-0.0004557392339015438   -0.03716417848524328   -0.0023325757209026157
-0.0010889793661919944   -0.04789228997152377   -0.002349103718590188
-0.0056736326101574355   -0.03727613381395693   -0.0023537367308252076
-0.0004314199849613381   -0.03717863721189889   -0.002296483170070068
-0.0010889793661919944   -0.04789228997152377   -0.002349103718590188
-0.0004557392339015438   -0.03716417848524328   -0.0023325757209026157
-0.0056736326101574355   -0.03727613381395693   -0.0023537367308252076
-0.0010889793661919944   -0.04789228997152377   -0.002349103718590188
-0.006245135173787989   -0.047991219352965846   -0.0024270336077883716
-0.0062922842556580785   -0.047935783922016216   -0.002458772738304792
-0.0056736326101574355   -0.03727613381395693   -0.0023537367308252076
-0.0010889793661919944   -0.04789228997152377   -0.002349103718590188
-0.0062922842556580785   -0.047935783922016216   -0.002458772738304792
-0.0004557392339015438   -0.03716417848524328   -0.0023325757209026157
-0.0056736326101574355   -0.03727613381395693   -0.0023537367308252076
-0.006245135173787989   -0.047991219352965846   -0.0024270336077883716
-0.0004314199849613381   -0.03717863721189889   -0.002296483170070068
-0.005644020419112182   -0.03732508787600989   -0.002319846790783731
-0.006245135173787989   -0.047991219352965846   -0.0024270336077883716
-0.0010889793661919944   -0.04789228997152377   -0.002349103718590188
-0.0004314199849613381   -0.03717863721189889   -0.002296483170070068
-0.0010493434106093223   -0.0479214533677255   -0.0023107714917169992
-0.005644020419112182   -0.03732508787600989   -0.002319846790783731
-0.0004128781159203766   -0.037187885553760854   -0.002271196099654
-0.0010493434106093223   -0.0479214533677255   -0.0023107714917169992
-0.0004314199849613381   -0.03717863721189889   -0.002296483170070068
-0.005644020419112182   -0.03732508787600989   -0.002319846790783731
-0.0010493434106093223   -0.0479214533677255   -0.0023107714917169992
-0.006194327207932095   -0.04805667724317304   -0.0024065173783719544
-0.006245135173787989   -0.047991219352965846   -0.0024270336077883716
-0.005644020419112182   -0.03732508787600989   -0.002319846790783731
-0.0010493434106093223   -0.0479214533677255   -0.0023107714917169992
-0.006245135173787989   -0.047991219352965846   -0.0024270336077883716
-0.0004314199849613381   -0.03717863721189889   -0.002296483170070068
-0.00048382136996079995   -0.037144583671935856   -0.0023790937611168302
-0.0011850119344181545   -0.04786209678026201   -0.002458902301900775
0.004910493678645392   -0.037136208474477975   -0.002374803915082381
-0.0004557392339015438   -0.03716417848524328   -0.0023325757209026157
-0.0011850119344181545   -0.04786209678026201   -0.002458902301900775
0.004118981635602342   -0.04779963637786913   -0.0024799219082546195
0.004910493678645392   -0.037136208474477975   -0.002374803915082381
0.004181915580433839   -0.04777504649799861   -0.0024022514615118554
-0.0004557392339015438   -0.03716417848524328   -0.0023325757209026157
0.004947698318040599   -0.03711824327295746   -0.0023373768716420155
0.004181915580433839   -0.04777504649799861   -0.0024022514615118554
0.004910493678645392   -0.037136208474477975   -0.002374803915082381
-0.0004557392339015438   -0.03716417848524328   -0.0023325757209026157
0.004181915580433839   -0.04777504649799861   -0.0024022514615118554
-0.0011356642973158414   -0.04787265365547019   -0.0023986062581108623
-0.0011850119344181545   -0.04786209678026201   -0.002458902301900775
-0.0004557392339015438   -0.03716417848524328   -0.0023325757209026157
0.004181915580433839   -0.04777504649799861   -0.0024022514615118554
-0.0011850119344181545   -0.04786209678026201   -0.002458902301900775
0.004910493678645392   -0.037136208474477975   -0.002374803915082381
-0.0004557392339015438   -0.03716417848524328   -0.0023325757209026157
-0.0011356642973158414   -0.04787265365547019   -0.0023986062581108623
0.004947698318040599   -0.03711824327295746   -0.0023373768716420155
-0.0004314199849613381   -0.03717863721189889   -0.002296483170070068
-0.0011356642973158414   -0.04787265365547019   -0.0023986062581108623
0.004181915580433839   -0.04777504649799861   -0.0024022514615118554
0.004947698318040599   -0.03711824327295746   -0.0023373768716420155
0.0042400803410389985   -0.04776225880166824   -0.0023353420176339497
-0.0004314199849613381   -0.03717863721189889   -0.002296483170070068
0.004972616219033082   -0.037097306670476386   -0.0023100763884796975
0.0042400803410389985   -0.04776225880166824   -0.0023353420176339497
0.004947698318040599   -0.03711824327295746   -0.0023373768716420155
-0.0004314199849613381   -0.03717863721189889   -0.002296483170070068
0.0042400803410389985   -0.04776225880166824   -0.0023353420176339497
-0.0010889793661919944   -0.04789228997152377   -0.002349103718590188
-0.0011356642973158414   -0.04787265365547019   -0.0023986062581108623
-0.0004314199849613381   -0.03717863721189889   -0.002296483170070068
0.0042400803410389985   -0.04776225880166824   -0.0023353420176339497
-0.0011356642973158414   -0.04787265365547019   -0.0023986062581108623
0.004947698318040599   -0.03711824327295746   -0.0023373768716420155
-0.0004314199849613381   -0.03717863721189889   -0.002296483170070068
-0.0010889793661919944   -0.04789228997152377   -0.002349103718590188
0.004972616219033082   -0.037097306670476386   -0.0023100763884796975
-0.0004128781159203766   -0.037187885553760854   -0.002271196099654
-0.0010889793661919944   -0.04789228997152377   -0.002349103718590188
0.0042400803410389985   -0.04776225880166824   -0.0023353420176339497
0.004972616219033082   -0.037097306670476386   -0.0023100763884796975
0.004271306309899121   -0.04775508392188155   -0.002278491043802644
-0.0004128781159203766   -0.037187885553760854   -0.002271196099654
0.004977722842461253   -0.03706653147283266   -0.002292694886447289
0.004271306309899121   -0.04775508392188155   -0.002278491043802644
0.004972616219033082   -0.037097306670476386   -0.0023100763884796975
-0.0004128781159203766   -0.037187885553760854   -0.002271196099654
0.004271306309899121   -0.04775508392188155   -0.002278491043802644
-0.0010493434106093223   -0.0479214533677255   -0.0023107714917169992
-0.0010889793661919944   -0.04789228997152377   -0.002349103718590188
-0.0004128781159203766   -0.037187885553760854   -0.002271196099654
0.004271306309899121   -0.04775508392188155   -0.002278491043802644
-0.0010889793661919944   -0.04789228997152377   -0.002349103718590188
0.004972616219033082   -0.037097306670476386   -0.0023100763884796975
0.004910493678645392   -0.037136208474477975   -0.002374803915082381
0.004118981635602342   -0.04779963637786913   -0.0024799219082546195
0.010756299198504802   -0.03712460032724493   -0.002433667822844828
0.004947698318040599   -0.03711824327295746   -0.0023373768716420155
0.004118981635602342   -0.04779963637786913   -0.0024799219082546195
0.009797756949033008   -0.04769467942493414   -0.00256776887542085
0.010756299198504802   -0.03712460032724493   -0.002433667822844828
0.009961965838536042   -0.04763822646512301   -0.002465811097109502
0.004947698318040599   -0.03711824327295746   -0.0023373768716420155
0.010829145289869105   -0.037076948970752595   -0.0024029862181068266
0.009961965838536042   -0.04763822646512301   -0.002465811097109502
0.010756299198504802   -0.03712460032724493   -0.002433667822844828
0.004947698318040599   -0.03711824327295746   -0.0023373768716420155
0.009961965838536042   -0.04763822646512301   -0.002465811097109502
0.004181915580433839   -0.04777504649799861   -0.0024022514615118554
0.004118981635602342   -0.04779963637786913   -0.0024799219082546195
0.004947698318040599   -0.03711824327295746   -0.0023373768716420155
0.009961965838536042   -0.04763822646512301   -0.002465811097109502
0.004118981635602342   -0.04779963637786913   -0.0024799219082546195
0.010756299198504802   -0.03712460032724493   -0.002433667822844828
0.004947698318040599   -0.03711824327295746   -0.0023373768716420155
0.004181915580433839   -0.04777504649799861   -0.0024022514615118554
0.010829145289869105   -0.037076948970752595   -0.0024029862181068266
0.004972616219033082   -0.037097306670476386   -0.0023100763884796975
0.004181915580433839   -0.04777504649799861   -0.0024022514615118554
0.009961965838536042   -0.04763822646512301   -0.002465811097109502
0.010829145289869105   -0.037076948970752595   -0.0024029862181068266
0.01007480670117329   -0.047610849515382525   -0.002379178811087451
0.004972616219033082   -0.037097306670476386   -0.0023100763884796975
0.010867675295551214   -0.03703931630898482   -0.0023876916004916984
0.01007480670117329   -0.047610849515382525   -0.002379178811087451
0.010829145289869105   -0.037076948970752595   -0.0024029862181068266
0.004972616219033082   -0.037097306670476386   -0.0023100763884796975
0.01007480670117329   -0.047610849515382525   -0.002379178811087451
0.0042400803410389985   -0.04776225880166824   -0.0023353420176339497
0.004181915580433839   -0.04777504649799861   -0.0024022514615118554
0.004972616219033082   -0.037097306670476386   -0.0023100763884796975
0.01007480670117329   -0.047610849515382525   -0.002379178811087451
0.004181915580433839   -0.04777504649799861   -0.0024022514615118554
0.010829145289869105   -0.037076948970752595   -0.0024029862181068266
0.004972616219033082   -0.037097306670476386   -0.0023100763884796975
0.0042400803410389985   -0.04776225880166824   -0.0023353420176339497
0.010867675295551214   -0.03703931630898482   -0.0023876916004916984
0.004977722842461253   -0.03706653147283266   -0.002292694886447289
0.0042400803410389985   -0.04776225880166824   -0.0023353420176339497
0.01007480670117329   -0.047610849515382525   -0.002379178811087451
0.010867675295551214   -0.03703931630898482   -0.0023876916004916984
0.010175011703880705   -0.047581066063037684   -0.002308508327363055
0.004977722842461253   -0.03706653147283266   -0.002292694886447289
0.01087699746205437   -0.03697892984972003   -0.002388046171199405
0.010175011703880705   -0.047581066063037684   -0.002308508327363055
0.010867675295551214   -0.03703931630898482   -0.0023876916004916984
0.004977722842461253   -0.03706653147283266   -0.002292694886447289
0.010175011703880705   -0.047581066063037684   -0.002308508327363055
0.004271306309899121   -0.04775508392188155   -0.002278491043802644
0.0042400803410389985   -0.04776225880166824   -0.0023353420176339497
0.004977722842461253   -0.03706653147283266   -0.002292694886447289
0.010175011703880705   -0.047581066063037684   -0.002308508327363055
0.0042400803410389985   -0.04776225880166824   -0.0023353420176339497
0.010867675295551214   -0.03703931630898482   -0.0023876916004916984
-0.01741775211194277   -0.04785648682443923   -0.002761722405904857
-0.016951009855087726   -0.05797674375081234   -0.0026405218070975033
-0.011632933485496993   -0.047884193100337924   -0.0026053294238842315
-0.01739770549857396   -0.04796282558607367   -0.002756745211451888
-0.016951009855087726   -0.05797674375081234   -0.0026405218070975033
-0.011585071347067055   -0.05809332130922515   -0.0025463359096264573
-0.011632933485496993   -0.047884193100337924   -0.0026053294238842315
-0.011517168013329419   -0.058152651643241494   -0.0025605794687373513
-0.01739770549857396   -0.04796282558607367   -0.002756745211451888
-0.011601742615626407   -0.047963670504522826   -0.002581333569108065
-0.011517168013329419   -0.058152651643241494   -0.0025605794687373513
-0.011632933485496993   -0.047884193100337924   -0.0026053294238842315
-0.01739770549857396   -0.04796282558607367   -0.002756745211451888
-0.011517168013329419   -0.058152651643241494   -0.0025605794687373513
-0.01682843177980229   -0.05805685219274279   -0.002707749612076839
-0.016951009855087726   -0.05797674375081234   -0.0026405218070975033
-0.01739770549857396   -0.04796282558607367   -0.002756745211451888
-0.011517168013329419   -0.058152651643241494   -0.0025605794687373513
-0.016951009855087726   -0.05797674375081234   -0.0026405218070975033
-0.011632933485496993   -0.047884193100337924   -0.0026053294238842315
-0.01739770549857396   -0.04796282558607367   -0.002756745211451888
-0.01682843177980229   -0.05805685219274279   -0.002707749612076839
-0.011601742615626407   -0.047963670504522826   -0.002581333569108065
-0.017344472391575962   -0.04806608456910904   -0.0027679510455393334
-0.01682843177980229   -0.05805685219274279   -0.002707749612076839
-0.011517168013329419   -0.058152651643241494   -0.0025605794687373513
-0.011601742615626407   -0.047963670504522826   -0.002581333569108065
-0.011425239077282488   -0.05823712534112579   -0.0025859259525080505
-0.017344472391575962   -0.04806608456910904   -0.0027679510455393334
-0.011553090153843997   -0.04805173533553903   -0.0025681670421417785
-0.011425239077282488   -0.05823712534112579   -0.0025859259525080505
-0.011601742615626407   -0.047963670504522826   -0.002581333569108065
-0.017344472391575962   -0.04806608456910904   -0.0027679510455393334
-0.011425239077282488   -0.05823712534112579   -0.0025859259525080505
-0.016688528321502975   -0.058155176898614935   -0.002792439129066211
-0.01682843177980229   -0.05805685219274279   -0.002707749612076839
-0.017344472391575962   -0.04806608456910904   -0.0027679510455393334
-0.011425239077282488   -0.05823712534112579   -0.0025859259525080505
-0.01682843177980229   -0.05805685219274279   -0.002707749612076839
-0.011601742615626407   -0.047963670504522826   -0.002581333569108065
-0.017344472391575962   -0.04806608456910904   -0.0027679510455393334
-0.016688528321502975   -0.058155176898614935   -0.002792439129066211
-0.011553090153843997   -0.04805173533553903   -0.0025681670421417785
-0.01725808910304861   -0.04819910513048684   -0.002796158699415459
-0.016688528321502975   -0.058155176898614935   -0.002792439129066211
-0.011425239077282488   -0.05823712534112579   -0.0025859259525080505
-0.011553090153843997   -0.04805173533553903   -0.0025681670421417785
-0.011326602706097836   -0.05835189569804323   -0.0026227024280057725
-0.01725808910304861   -0.04819910513048684   -0.002796158699415459
-0.011490082271613675   -0.04815445182509386   -0.002565653713822091
-0.011326602706097836   -0.05835189569804323   -0.0026227024280057725
-0.011553090153843997   -0.04805173533553903   -0.0025681670421417785
-0.01725808910304861   -0.04819910513048684   -0.002796158699415459
-0.011326602706097836   -0.05835189569804323   -0.0026227024280057725
-0.016498032554709947   -0.05830484969388519   -0.0028949132040654987
-0.016688528321502975   -0.058155176898614935   -0.002792439129066211
-0.01725808910304861   -0.04819910513048684   -0.002796158699415459
-0.011326602706097836   -0.05835189569804323   -0.0026227024280057725
-0.016688528321502975   -0.058155176898614935   -0.002792439129066211
-0.011553090153843997   -0.04805173533553903   -0.0025681670421417785
-0.011632933485496993   -0.047884193100337924   -0.0026053294238842315
-0.011585071347067055   -0.05809332130922515   -0.0025463359096264573
-0.006334020018346269   -0.047890198109675826   -0.0025013819554450213
-0.011601742615626407   -0.047963670504522826   -0.002581333569108065
-0.011585071347067055   -0.05809332130922515   -0.0025463359096264573
-0.006775034666812636   -0.05813943925281971   -0.002486055224388285
-0.006334020018346269   -0.047890198109675826   -0.0025013819554450213
-0.00670109329698218   -0.05817028380124289   -0.002455029466423199
-0.011601742615626407   -0.047963670504522826   -0.002581333569108065
-0.0062922842556580785   -0.047935783922016216   -0.002458772738304792
-0.00670109329698218   -0.05817028380124289   -0.002455029466423199
-0.006334020018346269   -0.047890198109675826   -0.0025013819554450213
-0.011601742615626407   -0.047963670504522826   -0.002581333569108065
-0.00670109329698218   -0.05817028380124289   -0.002455029466423199
-0.011517168013329419   -0.058152651643241494   -0.0025605794687373513
-0.011585071347067055   -0.05809332130922515   -0.0025463359096264573
-0.011601742615626407   -0.047963670504522826   -0.002581333569108065
-0.00670109329698218   -0.05817028380124289   -0.002455029466423199
-0.011585071347067055   -0.05809332130922515   -0.0025463359096264573
-0.006334020018346269   -0.047890198109675826   -0.0025013819554450213
-0.011601742615626407   -0.047963670504522826   -0.002581333569108065
-0.011517168013329419   -0.058152651643241494   -0.0025605794687373513
-0.0062922842556580785   -0.047935783922016216   -0.002458772738304792
-0.011553090153843997   -0.04805173533553903   -0.0025681670421417785
-0.011517168013329419   -0.058152651643241494   -0.0025605794687373513
-0.00670109329698218   -0.05817028380124289   -0.002455029466423199
-0.0062922842556580785   -0.047935783922016216   -0.002458772738304792
-0.006621555022076738   -0.05822530305323812   -0.002434971284147059
-0.011553090153843997   -0.04805173533553903   -0.0025681670421417785
-0.006245135173787989   -0.047991219352965846   -0.0024270336077883716
-0.006621555022076738   -0.05822530305323812   -0.002434971284147059
-0.0062922842556580785   -0.047935783922016216   -0.002458772738304792
-0.011553090153843997   -0.04805173533553903   -0.0025681670421417785
-0.006621555022076738   -0.05822530305323812   -0.002434971284147059
-0.011425239077282488   -0.05823712534112579   -0.0025859259525080505
-0.011517168013329419   -0.058152651643241494   -0.0025605794687373513
-0.011553090153843997   -0.04805173533553903   -0.0025681670421417785
-0.006621555022076738   -0.05822530305323812   -0.002434971284147059
-0.011517168013329419   -0.058152651643241494   -0.0025605794687373513
-0.0062922842556580785   -0.047935783922016216   -0.002458772738304792
-0.011553090153843997   -0.04805173533553903   -0.0025681670421417785
-0.011425239077282488   -0.05823712534112579   -0.0025859259525080505
-0.006245135173787989   -0.047991219352965846   -0.0024270336077883716
-0.011490082271613675   -0.04815445182509386   -0.002565653713822091
-0.011425239077282488   -0.05823712534112579   -0.0025859259525080505
-0.006621555022076738   -0.05822530305323812   -0.002434971284147059
-0.006245135173787989   -0.047991219352965846   -0.0024270336077883716
-0.006539799180602542   -0.05830519260690254   -0.0024264173515938657
-0.011490082271613675   -0.04815445182509386   -0.002565653713822091
-0.006194327207932095   -0.04805667724317304   -0.0024065173783719544
-0.006539799180602542   -0.05830519260690254   -0.0024264173515938657
-0.006245135173787989   -0.047991219352965846   -0.0024270336077883716
-0.011490082271613675   -0.04815445182509386   -0.002565653713822091
-0.006539799180602542   -0.05830519260690254   -0.0024264173515938657
-0.011326602706097836   -0.05835189569804323   -0.0026227024280057725
-0.011425239077282488   -0.05823712534112579   -0.0025859259525080505
-0.011490082271613675   -0.04815445182509386   -0.002565653713822091
-0.006539799180602542   -0.05830519260690254   -0.0024264173515938657
-0.011425239077282488   -0.05823712534112579   -0.0025859259525080505
-0.006245135173787989   -0.047991219352965846   -0.0024270336077883716
-0.006334020018346269   -0.047890198109675826   -0.0025013819554450213
-0.006775034666812636   -0.05813943925281971   -0.002486055224388285
-0.0011850119344181545   -0.04786209678026201   -0.002458902301900775
-0.0062922842556580785   -0.047935783922016216   -0.002458772738304792
-0.006775034666812636   -0.05813943925281971   -0.002486055224388285
-0.0021106625387358373   -0.05810401507118398   -0.0024760944701574983
-0.0011850119344181545   -0.04786209678026201   -0.002458902301900775
-0.0020288800064338754   -0.0581047220221745   -0.002401352180225951
-0.0062922842556580785   -0.047935783922016216   -0.002458772738304792
-0.0011356642973158414   -0.04787265365547019   -0.0023986062581108623
-0.0020288800064338754   -0.0581047220221745   -0.002401352180225951
-0.0011850119344181545   -0.04786209678026201   -0.002458902301900775
-0.0062922842556580785   -0.047935783922016216   -0.002458772738304792
-0.0020288800064338754   -0.0581047220221745   -0.002401352180225951
-0.00670109329698218   -0.05817028380124289   -0.002455029466423199
-0.006775034666812636   -0.05813943925281971   -0.002486055224388285
-0.0062922842556580785   -0.047935783922016216   -0.002458772738304792
-0.0020288800064338754   -0.0581047220221745   -0.002401352180225951
-0.006775034666812636   -0.05813943925281971   -0.002486055224388285
-0.0011850119344181545   -0.04786209678026201   -0.002458902301900775
-0.0062922842556580785   -0.047935783922016216   -0.002458772738304792
-0.00670109329698218   -0.05817028380124289   -0.002455029466423199
-0.0011356642973158414   -0.04787265365547019   -0.0023986062581108623
-0.006245135173787989   -0.047991219352965846   -0.0024270336077883716
-0.00670109329698218   -0.05817028380124289   -0.002455029466423199
-0.0020288800064338754   -0.0581047220221745   -0.002401352180225951
-0.0011356642973158414   -0.04787265365547019   -0.0023986062581108623
-0.0019492396396375141   -0.05812783343894061   -0.0023376048023241213
-0.006245135173787989   -0.047991219352965846   -0.0024270336077883716
-0.0010889793661919944   -0.04789228997152377   -0.002349103718590188
-0.0019492396396375141   -0.05812783343894061   -0.0023376048023241213
-0.0011356642973158414   -0.04787265365547019   -0.0023986062581108623
-0.006245135173787989   -0.047991219352965846   -0.0024270336077883716
-0.0019492396396375141   -0.05812783343894061   -0.0023376048023241213
-0.006621555022076738   -0.05822530305323812   -0.002434971284147059
-0.00670109329698218   -0.05817028380124289   -0.002455029466423199
-0.006245135173787989   -0.047991219352965846   -0.0024270336077883716
-0.0019492396396375141   -0.05812783343894061   -0.0023376048023241213
-0.00670109329698218   -0.05817028380124289   -0.002455029466423199
-0.0011356642973158414   -0.04787265365547019   -0.0023986062581108623
-0.006245135173787989   -0.047991219352965846   -0.0024270336077883716
-0.006621555022076738   -0.05822530305323812   -0.002434971284147059
-0.0010889793661919944   -0.04789228997152377   -0.002349103718590188
-0.006194327207932095   -0.04805667724317304   -0.0024065173783719544
-0.006621555022076738   -0.05822530305323812   -0.002434971284147059
-0.0019492396396375141   -0.05812783343894061   -0.0023376048023241213
-0.0010889793661919944   -0.04789228997152377   -0.002349103718590188
-0.0018781785995610086   -0.05817526369327707   -0.0022852344748263676
-0.006194327207932095   -0.04805667724317304   -0.0024065173783719544
-0.0010493434106093223   -0.0479214533677255   -0.0023107714917169992
-0.0018781785995610086   -0.05817526369327707   -0.0022852344748263676
-0.0010889793661919944   -0.04789228997152377   -0.002349103718590188
-0.006194327207932095   -0.04805667724317304   -0.0024065173783719544
-0.0018781785995610086   -0.05817526369327707   -0.0022852344748263676
-0.006539799180602542   -0.05830519260690254   -0.0024264173515938657
-0.006621555022076738   -0.05822530305323812   -0.002434971284147059
-0.006194327207932095   -0.04805667724317304   -0.0024065173783719544
-0.0018781785995610086   -0.05817526369327707   -0.0022852344748263676
-0.006621555022076738   -0.05822530305323812   -0.002434971284147059
-0.0010889793661919944   -0.04789228997152377   -0.002349103718590188
-0.0011850119344181545   -0.04786209678026201   -0.002458902301900775
-0.0021106625387358373   -0.05810401507118398   -0.0024760944701574983
0.004118981635602342   -0.04779963637786913   -0.0024799219082546195
-0.0011356642973158414   -0.04787265365547019   -0.0023986062581108623
-0.0021106625387358373   -0.05810401507118398   -0.0024760944701574983
0.0027144765434839067   -0.0579894493285194   -0.0025204034128201735
0.004118981635602342   -0.04779963637786913   -0.0024799219082546195
0.0028144695871143736   -0.05795798739580987   -0.002402355761083226
-0.0011356642973158414   -0.04787265365547019   -0.0023986062581108623
0.004181915580433839   -0.04777504649799861   -0.0024022514615118554
0.0028144695871143736   -0.05795798739580987   -0.002402355761083226
0.004118981635602342   -0.04779963637786913   -0.0024799219082546195
-0.0011356642973158414   -0.04787265365547019   -0.0023986062581108623
0.0028144695871143736   -0.05795798739580987   -0.002402355761083226
-0.0020288800064338754   -0.0581047220221745   -0.002401352180225951
-0.0021106625387358373   -0.05810401507118398   -0.0024760944701574983
-0.0011356642973158414   -0.04787265365547019   -0.0023986062581108623
0.0028144695871143736   -0.05795798739580987   -0.002402355761083226
-0.0021106625387358373   -0.05810401507118398   -0.0024760944701574983
0.004118981635602342   -0.04779963637786913   -0.0024799219082546195
-0.0011356642973158414   -0.04787265365547019   -0.0023986062581108623
-0.0020288800064338754   -0.0581047220221745   -0.002401352180225951
0.004181915580433839   -0.04777504649799861   -0.0024022514615118554
-0.0010889793661919944   -0.04789228997152377   -0.002349103718590188
-0.0020288800064338754   -0.0581047220221745   -0.002401352180225951
0.0028144695871143736   -0.05795798739580987   -0.002402355761083226
0.004181915580433839   -0.04777504649799861   -0.0024022514615118554
0.0029170027309013058   -0.05795212201868537   -0.002296007080045955
-0.0010889793661919944   -0.04789228997152377   -0.002349103718590188
0.0042400803410389985   -0.04776225880166824   -0.0023353420176339497
0.0029170027309013058   -0.05795212201868537   -0.002296007080045955
0.004181915580433839   -0.04777504649799861   -0.0024022514615118554
-0.0010889793661919944   -0.04789228997152377   -0.002349103718590188
0.0029170027309013058   -0.05795212201868537   -0.002296007080045955
-0.0019492396396375141   -0.05812783343894061   -0.0023376048023241213
-0.0020288800064338754   -0.0581047220221745   -0.002401352180225951
-0.0010889793661919944   -0.04789228997152377   -0.002349103718590188
0.0029170027309013058   -0.05795212201868537   -0.002296007080045955
-0.0020288800064338754   -0.0581047220221745   -0.002401352180225951
0.004181915580433839   -0.04777504649799861   -0.0024022514615118554
-0.0010889793661919944   -0.04789228997152377   -0.002349103718590188
-0.0019492396396375141   -0.05812783343894061   -0.0023376048023241213
0.0042400803410389985   -0.04776225880166824   -0.0023353420176339497
-0.0010493434106093223   -0.0479214533677255   -0.0023107714917169992
-0.0019492396396375141   -0.05812783343894061   -0.0023376048023241213
0.0029170027309013058   -0.05795212201868537   -0.002296007080045955
0.0042400803410389985   -0.04776225880166824   -0.0023353420176339497
0.0029851938772345074   -0.057967130634140655   -0.0021998145694746944
-0.0010493434106093223   -0.0479214533677255   -0.0023107714917169992
0.004271306309899121   -0.04775508392188155   -0.002278491043802644
0.0029851938772345074   -0.057967130634140655   -0.0021998145694746944
0.0042400803410389985   -0.04776225880166824   -0.0023353420176339497
-0.0010493434106093223   -0.0479214533677255   -0.0023107714917169992
0.0029851938772345074   -0.057967130634140655   -0.0021998145694746944
-0.0018781785995610086   -0.05817526369327707   -0.0022852344748263676
-0.0019492396396375141   -0.05812783343894061   -0.0023376048023241213
-0.0010493434106093223   -0.0479214533677255   -0.0023107714917169992
0.0029851938772345074   -0.057967130634140655   -0.0021998145694746944
-0.0019492396396375141   -0.05812783343894061   -0.0023376048023241213
0.0042400803410389985   -0.04776225880166824   -0.0023353420176339497
0.004118981635602342   -0.04779963637786913   -0.0024799219082546195
0.0027144765434839067   -0.0579894493285194   -0.0025204034128201735
0.009797756949033008   -0.04769467942493414   -0.00256776887542085
0.004181915580433839   -0.04777504649799861   -0.0024022514615118554
0.0027144765434839067   -0.0579894493285194   -0.0025204034128201735
0.007847517411255393   -0.057792484349508844   -0.0026347549104678543
0.009797756949033008   -0.04769467942493414   -0.00256776887542085
0.008113553482662652   -0.05772762508923925   -0.002462983081275444
0.004181915580433839   -0.04777504649799861   -0.0024022514615118554
0.009961965838536042   -0.04763822646512301   -0.002465811097109502
0.008113553482662652   -0.05772762508923925   -0.002462983081275444
0.009797756949033008   -0.04769467942493414   -0.00256776887542085
0.004181915580433839   -0.04777504649799861   -0.0024022514615118554
0.008113553482662652   -0.05772762508923925   -0.002462983081275444
0.0028144695871143736   -0.05795798739580987   -0.002402355761083226
0.0027144765434839067   -0.0579894493285194   -0.0025204034128201735
0.004181915580433839   -0.04777504649799861   -0.0024022514615118554
0.008113553482662652   -0.05772762508923925   -0.002462983081275444
0.0027144765434839067   -0.0579894493285194   -0.0025204034128201735
0.009797756949033008   -0.04769467942493414   -0.00256776887542085
0.004181915580433839   -0.04777504649799861   -0.0024022514615118554
0.0028144695871143736   -0.05795798739580987   -0.002402355761083226
0.009961965838536042   -0.04763822646512301   -0.002465811097109502
0.0042400803410389985   -0.04776225880166824   -0.0023353420176339497
0.0028144695871143736   -0.05795798739580987   -0.002402355761083226
0.008113553482662652   -0.05772762508923925   -0.002462983081275444
0.009961965838536042   -0.04763822646512301   -0.002465811097109502
0.008310555500616906   -0.05770979333531849   -0.002306769590622606
0.0042400803410389985   -0.04776225880166824   -0.0023353420176339497
0.01007480670117329   -0.047610849515382525   -0.002379178811087451
0.008310555500616906   -0.05770979333531849   -0.002306769590622606
0.009961965838536042   -0.04763822646512301   -0.002465811097109502
0.0042400803410389985   -0.04776225880166824   -0.0023353420176339497
0.008310555500616906   -0.05770979333531849   -0.002306769590622606
0.0029170027309013058   -0.05795212201868537   -0.002296007080045955
0.0028144695871143736   -0.05795798739580987   -0.002402355761083226
0.0042400803410389985   -0.04776225880166824   -0.0023353420176339497
0.008310555500616906   -0.05770979333531849   -0.002306769590622606
0.0028144695871143736   -0.05795798739580987   -0.002402355761083226
0.009961965838536042   -0.04763822646512301   -0.002465811097109502
0.0042400803410389985   -0.04776225880166824   -0.0023353420176339497
0.0029170027309013058   -0.05795212201868537   -0.002296007080045955
0.01007480670117329   -0.047610849515382525   -0.002379178811087451
0.004271306309899121   -0.04775508392188155   -0.002278491043802644
0.0029170027309013058   -0.05795212201868537   -0.002296007080045955
0.008310555500616906   -0.05770979333531849   -0.002306769590622606
0.01007480670117329   -0.047610849515382525   -0.002379178811087451
0.008510285936510322   -0.05770962383135256   -0.0021668236031975427
0.004271306309899121   -0.04775508392188155   -0.002278491043802644
0.010175011703880705   -0.047581066063037684   -0.002308508327363055
0.008510285936510322   -0.05770962383135256   -0.0021668236031975427
0.01007480670117329   -0.047610849515382525   -0.002379178811087451
0.004271306309899121   -0.04775508392188155   -0.002278491043802644
0.008510285936510322   -0.05770962383135256   -0.0021668236031975427
0.0029851938772345074   -0.057967130634140655   -0.0021998145694746944
0.0029170027309013058   -0.05795212201868537   -0.002296007080045955
0.004271306309899121   -0.04775508392188155   -0.002278491043802644
0.008510285936510322   -0.05770962383135256   -0.0021668236031975427
0.0029170027309013058   -0.05795212201868537   -0.002296007080045955
0.01007480670117329   -0.047610849515382525   -0.002379178811087451
-0.016951009855087726   -0.05797674375081234   -0.0026405218070975033
-0.015469902352528493   -0.06693147499342095   -0.002462423550483204
-0.011585071347067055   -0.05809332130922515   -0.0025463359096264573
-0.01682843177980229   -0.05805685219274279   -0.002707749612076839
-0.015469902352528493   -0.06693147499342095   -0.002462423550483204
-0.01095379367151025   -0.06714179125401927   -0.0024472419049529647
-0.011585071347067055   -0.05809332130922515   -0.0025463359096264573
-0.010841110780523282   -0.06717221147629138   -0.002496973566820366
-0.01682843177980229   -0.05805685219274279   -0.002707749612076839
-0.011517168013329419   -0.058152651643241494   -0.0025605794687373513
-0.010841110780523282   -0.06717221147629138   -0.002496973566820366
-0.011585071347067055   -0.05809332130922515   -0.0025463359096264573
-0.01682843177980229   -0.05805685219274279   -0.002707749612076839
-0.010841110780523282   -0.06717221147629138   -0.002496973566820366
-0.01523520548470239   -0.06697661942830259   -0.002601646310685067
-0.015469902352528493   -0.06693147499342095   -0.002462423550483204
-0.01682843177980229   -0.05805685219274279   -0.002707749612076839
-0.010841110780523282   -0.06717221147629138   -0.002496973566820366
-0.015469902352528493   -0.06693147499342095   -0.002462423550483204
-0.011585071347067055   -0.05809332130922515   -0.0025463359096264573
-0.01682843177980229   -0.05805685219274279   -0.002707749612076839
-0.01523520548470239   -0.06697661942830259   -0.002601646310685067
-0.011517168013329419   -0.058152651643241494   -0.0025605794687373513
-0.016688528321502975   -0.058155176898614935   -0.002792439129066211
-0.01523520548470239   -0.06697661942830259   -0.002601646310685067
-0.010841110780523282   -0.06717221147629138   -0.002496973566820366
-0.011517168013329419   -0.058152651643241494   -0.0025605794687373513
-0.010699578390844754   -0.06724508987591016   -0.0025579725718521216
-0.016688528321502975   -0.058155176898614935   -0.002792439129066211
-0.011425239077282488   -0.05823712534112579   -0.0025859259525080505
-0.010699578390844754   -0.06724508987591016   -0.0025579725718521216
-0.011517168013329419   -0.058152651643241494   -0.0025605794687373513
-0.016688528321502975   -0.058155176898614935   -0.002792439129066211
-0.010699578390844754   -0.06724508987591016   -0.0025579725718521216
-0.015001105073877629   -0.06706214723466758   -0.0027592156642856605
-0.01523520548470239   -0.06697661942830259   -0.002601646310685067
-0.016688528321502975   -0.058155176898614935   -0.002792439129066211
-0.010699578390844754   -0.06724508987591016   -0.0025579725718521216
-0.01523520548470239   -0.06697661942830259   -0.002601646310685067
-0.011517168013329419   -0.058152651643241494   -0.0025605794687373513
-0.016688528321502975   -0.058155176898614935   -0.002792439129066211
-0.015001105073877629   -0.06706214723466758   -0.0027592156642856605
-0.011425239077282488   -0.05823712534112579   -0.0025859259525080505
-0.016498032554709947   -0.05830484969388519   -0.0028949132040654987
-0.015001105073877629   -0.06706214723466758   -0.0027592156642856605
-0.010699578390844754   -0.06724508987591016   -0.0025579725718521216
-0.011425239077282488   -0.05823712534112579   -0.0025859259525080505
-0.010559931060124194   -0.06736456584348753   -0.002630133128918055
-0.016498032554709947   -0.05830484969388519   -0.0028949132040654987
-0.011326602706097836   -0.05835189569804323   -0.0026227024280057725
-0.010559931060124194   -0.06736456584348753   -0.002630133128918055
-0.011425239077282488   -0.05823712534112579   -0.0025859259525080505
-0.016498032554709947   -0.05830484969388519   -0.0028949132040654987
-0.010559931060124194   -0.06736456584348753   -0.002630133128918055
-0.014701237656872304   -0.06722163113952681   -0.002934793516133918
-0.015001105073877629   -0.06706214723466758   -0.0027592156642856605
-0.016498032554709947   -0.05830484969388519   -0.0028949132040654987
-0.010559931060124194   -0.06736456584348753   -0.002630133128918055
-0.015001105073877629   -0.06706214723466758   -0.0027592156642856605
-0.011425239077282488   -0.05823712534112579   -0.0025859259525080505
-0.011585071347067055   -0.05809332130922515   -0.0025463359096264573
-0.01095379367151025   -0.06714179125401927   -0.0024472419049529647
-0.006775034666812636   -0.05813943925281971   -0.002486055224388285
-0.011517168013329419   -0.058152651643241494   -0.0025605794687373513
-0.01095379367151025   -0.06714179125401927   -0.0024472419049529647
-0.0070434057361050025   -0.06724030866136634   -0.002441217553431062
-0.006775034666812636   -0.05813943925281971   -0.002486055224388285
-0.006927794441463126   -0.06725028455596205   -0.002418963297649193
-0.011517168013329419   -0.058152651643241494   -0.0025605794687373513
-0.00670109329698218   -0.05817028380124289   -0.002455029466423199
-0.006927794441463126   -0.06725028455596205   -0.002418963297649193
-0.006775034666812636   -0.05813943925281971   -0.002486055224388285
-0.011517168013329419   -0.058152651643241494   -0.0025605794687373513
-0.006927794441463126   -0.06725028455596205   -0.002418963297649193
-0.010841110780523282   -0.06717221147629138   -0.002496973566820366
-0.01095379367151025   -0.06714179125401927   -0.0024472419049529647
-0.011517168013329419   -0.058152651643241494   -0.0025605794687373513
-0.006927794441463126   -0.06725028455596205   -0.002418963297649193
-0.01095379367151025   -0.06714179125401927   -0.0024472419049529647
-0.006775034666812636   -0.05813943925281971   -0.002486055224388285
-0.011517168013329419   -0.058152651643241494   -0.0025605794687373513
-0.010841110780523282   -0.06717221147629138   -0.002496973566820366
-0.00670109329698218   -0.05817028380124289   -0.002455029466423199
-0.011425239077282488   -0.05823712534112579   -0.0025859259525080505
-0.010841110780523282   -0.06717221147629138   -0.002496973566820366
-0.006927794441463126   -0.06725028455596205   -0.002418963297649193
-0.00670109329698218   -0.05817028380124289   -0.002455029466423199
-0.006808469770173307   -0.06729817191832153   -0.0024076427926898523
-0.011425239077282488   -0.05823712534112579   -0.0025859259525080505
-0.006621555022076738   -0.05822530305323812   -0.002434971284147059
-0.006808469770173307   -0.06729817191832153   -0.0024076427926898523
-0.00670109329698218   -0.05817028380124289   -0.002455029466423199
-0.011425239077282488   -0.05823712534112579   -0.0025859259525080505
-0.006808469770173307   -0.06729817191832153   -0.0024076427926898523
-0.010699578390844754   -0.06724508987591016   -0.0025579725718521216
-0.010841110780523282   -0.06717221147629138   -0.002496973566820366
-0.011425239077282488   -0.05823712534112579   -0.0025859259525080505
-0.006808469770173307   -0.06729817191832153   -0.0024076427926898523
-0.010841110780523282   -0.06717221147629138   -0.002496973566820366
-0.00670109329698218   -0.05817028380124289   -0.002455029466423199
-0.011425239077282488   -0.05823712534112579   -0.0025859259525080505
-0.010699578390844754   -0.06724508987591016   -0.0025579725718521216
-0.006621555022076738   -0.05822530305323812   -0.002434971284147059
-0.011326602706097836   -0.05835189569804323   -0.0026227024280057725
-0.010699578390844754   -0.06724508987591016   -0.0025579725718521216
-0.006808469770173307   -0.06729817191832153   -0.0024076427926898523
-0.006621555022076738   -0.05822530305323812   -0.002434971284147059
-0.006689340284066935   -0.0673862049112843   -0.0024071158292499036
-0.011326602706097836   -0.05835189569804323   -0.0026227024280057725
-0.006539799180602542   -0.05830519260690254   -0.0024264173515938657
-0.006689340284066935   -0.0673862049112843   -0.0024071158292499036
-0.006621555022076738   -0.05822530305323812   -0.002434971284147059
-0.011326602706097836   -0.05835189569804323   -0.0026227024280057725
-0.006689340284066935   -0.0673862049112843   -0.0024071158292499036
-0.010559931060124194   -0.06736456584348753   -0.002630133128918055
-0.010699578390844754   -0.06724508987591016   -0.0025579725718521216
-0.011326602706097836   -0.05835189569804323   -0.0026227024280057725
-0.006689340284066935   -0.0673862049112843   -0.0024071158292499036
-0.010699578390844754   -0.06724508987591016   -0.0025579725718521216
-0.006621555022076738   -0.05822530305323812   -0.002434971284147059
-0.006775034666812636   -0.05813943925281971   -0.002486055224388285
-0.0070434057361050025   -0.06724030866136634   -0.002441217553431062
-0.0021106625387358373   -0.05810401507118398   -0.0024760944701574983
-0.00670109329698218   -0.05817028380124289   -0.002455029466423199
-0.0070434057361050025   -0.06724030866136634   -0.002441217553431062
-0.003262836433704989   -0.06722242606609671   -0.0024692683550869366
-0.0021106625387358373   -0.05810401507118398   -0.0024760944701574983
-0.0031362017164895126   -0.06720944114702919   -0.002377553948077958
-0.00670109329698218   -0.05817028380124289   -0.002455029466423199
-0.0020288800064338754   -0.0581047220221745   -0.002401352180225951
-0.0031362017164895126   -0.06720944114702919   -0.002377553948077958
-0.0021106625387358373   -0.05810401507118398   -0.0024760944701574983
-0.00670109329698218   -0.05817028380124289   -0.002455029466423199
-0.0031362017164895126   -0.06720944114702919   -0.002377553948077958
-0.006927794441463126   -0.06725028455596205   -0.002418963297649193
-0.0070434057361050025   -0.06724030866136634   -0.002441217553431062
-0.00670109329698218   -0.05817028380124289   -0.002455029466423199
-0.0031362017164895126   -0.06720944114702919   -0.002377553948077958
-0.0070434057361050025   -0.06724030866136634   -0.002441217553431062
-0.0021106625387358373   -0.05810401507118398   -0.0024760944701574983
-0.00670109329698218   -0.05817028380124289   -0.002455029466423199
-0.006927794441463126   -0.06725028455596205   -0.002418963297649193
-0.0020288800064338754   -0.0581047220221745   -0.002401352180225951
-0.006621555022076738   -0.05822530305323812   -0.002434971284147059
-0.006927794441463126   -0.06725028455596205   -0.002418963297649193
-0.0031362017164895126   -0.06720944114702919   -0.002377553948077958
-0.0020288800064338754   -0.0581047220221745   -0.002401352180225951
-0.0030133015557616363   -0.06723073758568252   -0.0022974944003630116
-0.006621555022076738   -0.05822530305323812   -0.002434971284147059
-0.0019492396396375141   -0.05812783343894061   -0.0023376048023241213
-0.0030133015557616363   -0.06723073758568252   -0.0022974944003630116
-0.0020288800064338754   -0.0581047220221745   -0.002401352180225951
-0.006621555022076738   -0.05822530305323812   -0.002434971284147059
-0.0030133015557616363   -0.06723073758568252   -0.0022974944003630116
-0.006808469770173307   -0.06729817191832153   -0.0024076427926898523
-0.006927794441463126   -0.06725028455596205   -0.002418963297649193
-0.006621555022076738   -0.05822530305323812   -0.002434971284147059
-0.0030133015557616363   -0.06723073758568252   -0.0022974944003630116
-0.006927794441463126   -0.06725028455596205   -0.002418963297649193
-0.0020288800064338754   -0.0581047220221745   -0.002401352180225951
-0.006621555022076738   -0.05822530305323812   -0.002434971284147059
-0.006808469770173307   -0.06729817191832153   -0.0024076427926898523
-0.0019492396396375141   -0.05812783343894061   -0.0023376048023241213
-0.006539799180602542   -0.05830519260690254   -0.0024264173515938657
-0.006808469770173307   -0.06729817191832153   -0.0024076427926898523
-0.0030133015557616363   -0.06723073758568252   -0.0022974944003630116
-0.0019492396396375141   -0.05812783343894061   -0.0023376048023241213
-0.0029022659745136037   -0.06729128939168492   -0.0022280803904981858
-0.006539799180602542   -0.05830519260690254   -0.0024264173515938657
-0.0018781785995610086   -0.05817526369327707   -0.0022852344748263676
-0.0029022659745136037   -0.06729128939168492   -0.0022280803904981858
-0.0019492396396375141   -0.05812783343894061   -0.0023376048023241213
-0.006539799180602542   -0.05830519260690254   -0.0024264173515938657
-0.0029022659745136037   -0.06729128939168492   -0.0022280803904981858
-0.006689340284066935   -0.0673862049112843   -0.0024071158292499036
-0.006808469770173307   -0.06729817191832153   -0.0024076427926898523
-0.006539799180602542   -0.05830519260690254   -0.0024264173515938657
-0.0029022659745136037   -0.06729128939168492   -0.0022280803904981858
-0.006808469770173307   -0.06729817191832153   -0.0024076427926898523
-0.0019492396396375141   -0.05812783343894061   -0.0023376048023241213
-0.0021106625387358373   -0.05810401507118398   -0.0024760944701574983
-0.003262836433704989   -0.06722242606609671   -0.0024692683550869366
0.0027144765434839067   -0.0579894493285194   -0.0025204034128201735
-0.0020288800064338754   -0.0581047220221745   -0.002401352180225951
-0.003262836433704989   -0.06722242606609671   -0.0024692683550869366
0.0006949145277326936   -0.06708397946046336   -0.002537552911773641
0.0027144765434839067   -0.0579894493285194   -0.0025204034128201735
0.0008489658184311493   -0.06704183455179182   -0.002376616934302485
-0.0020288800064338754   -0.0581047220221745   -0.002401352180225951
0.0028144695871143736   -0.05795798739580987   -0.002402355761083226
0.0008489658184311493   -0.06704183455179182   -0.002376616934302485
0.0027144765434839067   -0.0579894493285194   -0.0025204034128201735
-0.0020288800064338754   -0.0581047220221745   -0.002401352180225951
0.0008489658184311493   -0.06704183455179182   -0.002376616934302485
-0.0031362017164895126   -0.06720944114702919   -0.002377553948077958
-0.003262836433704989   -0.06722242606609671   -0.0024692683550869366
-0.0020288800064338754   -0.0581047220221745   -0.002401352180225951
0.0008489658184311493   -0.06704183455179182   -0.002376616934302485
-0.003262836433704989   -0.06722242606609671   -0.0024692683550869366
0.0027144765434839067   -0.0579894493285194   -0.0025204034128201735
-0.0020288800064338754   -0.0581047220221745   -0.002401352180225951
-0.0031362017164895126   -0.06720944114702919   -0.002377553948077958
0.0028144695871143736   -0.05795798739580987   -0.002402355761083226
-0.0019492396396375141   -0.05812783343894061   -0.0023376048023241213
-0.0031362017164895126   -0.06720944114702919   -0.002377553948077958
0.0008489658184311493   -0.06704183455179182   -0.002376616934302485
0.0028144695871143736   -0.05795798739580987   -0.002402355761083226
0.0010113110545405797   -0.06703801808892414   -0.0022304550172218608
-0.0019492396396375141   -0.05812783343894061   -0.0023376048023241213
0.0029170027309013058   -0.05795212201868537   -0.002296007080045955
0.0010113110545405797   -0.06703801808892414   -0.0022304550172218608
0.0028144695871143736   -0.05795798739580987   -0.002402355761083226
-0.0019492396396375141   -0.05812783343894061   -0.0023376048023241213
0.0010113110545405797   -0.06703801808892414   -0.0022304550172218608
-0.0030133015557616363   -0.06723073758568252   -0.0022974944003630116
-0.0031362017164895126   -0.06720944114702919   -0.002377553948077958
-0.0019492396396375141   -0.05812783343894061   -0.0023376048023241213
0.0010113110545405797   -0.06703801808892414   -0.0022304550172218608
-0.0031362017164895126   -0.06720944114702919   -0.002377553948077958
0.0028144695871143736   -0.05795798739580987   -0.002402355761083226
-0.0019492396396375141   -0.05812783343894061   -0.0023376048023241213
-0.0030133015557616363   -0.06723073758568252   -0.0022974944003630116
0.0029170027309013058   -0.05795212201868537   -0.002296007080045955
-0.0018781785995610086   -0.05817526369327707   -0.0022852344748263676
-0.0030133015557616363   -0.06723073758568252   -0.0022974944003630116
0.0010113110545405797   -0.06703801808892414   -0.0022304550172218608
0.0029170027309013058   -0.05795212201868537   -0.002296007080045955
0.0011300448579498958   -0.06707078615104092   -0.002094465864702595
-0.0018781785995610086   -0.05817526369327707   -0.0022852344748263676
0.0029851938772345074   -0.057967130634140655   -0.0021998145694746944
0.0011300448579498958   -0.06707078615104092   -0.002094465864702595
0.0029170027309013058   -0.05795212201868537   -0.002296007080045955
-0.0018781785995610086   -0.05817526369327707   -0.0022852344748263676
0.0011300448579498958   -0.06707078615104092   -0.002094465864702595
-0.0029022659745136037   -0.06729128939168492   -0.0022280803904981858
-0.0030133015557616363   -0.06723073758568252   -0.0022974944003630116
-0.0018781785995610086   -0.05817526369327707   -0.0022852344748263676
0.0011300448579498958   -0.06707078615104092   -0.002094465864702595
-0.0030133015557616363   -0.06723073758568252   -0.0022974944003630116
0.0029170027309013058   -0.05795212201868537   -0.002296007080045955
0.0027144765434839067   -0.0579894493285194   -0.0025204034128201735
0.0006949145277326936   -0.06708397946046336   -0.002537552911773641
0.007847517411255393   -0.057792484349508844   -0.0026347549104678543
0.0028144695871143736   -0.05795798739580987   -0.002402355761083226
0.0006949145277326936   -0.06708397946046336   -0.002537552911773641
0.0049143792159980675   -0.06681184095681177   -0.0026835563215435554
0.007847517411255393   -0.057792484349508844   -0.0026347549104678543
0.005304540239810911   -0.06673095214601851   -0.0024372493653813695
0.0028144695871143736   -0.05795798739580987   -0.002402355761083226
0.008113553482662652   -0.05772762508923925   -0.002462983081275444
0.005304540239810911   -0.06673095214601851   -0.0024372493653813695
0.007847517411255393   -0.057792484349508844   -0.0026347549104678543
0.0028144695871143736   -0.05795798739580987   -0.002402355761083226
0.005304540239810911   -0.06673095214601851   -0.0024372493653813695
0.0008489658184311493   -0.06704183455179182   -0.002376616934302485
0.0006949145277326936   -0.06708397946046336   -0.002537552911773641
0.0028144695871143736   -0.05795798739580987   -0.002402355761083226
0.005304540239810911   -0.06673095214601851   -0.0024372493653813695
0.0006949145277326936   -0.06708397946046336   -0.002537552911773641
0.007847517411255393   -0.057792484349508844   -0.0026347549104678543
0.0028144695871143736   -0.05795798739580987   -0.002402355761083226
0.0008489658184311493   -0.06704183455179182   -0.002376616934302485
0.008113553482662652   -0.05772762508923925   -0.002462983081275444
0.0029170027309013058   -0.05795212201868537   -0.002296007080045955
0.0008489658184311493   -0.06704183455179182   -0.002376616934302485
0.005304540239810911   -0.06673095214601851   -0.0024372493653813695
0.008113553482662652   -0.05772762508923925   -0.002462983081275444
0.005603684406124484   -0.06671694579401412   -0.0022092635586300835
0.0029170027309013058   -0.05795212201868537   -0.002296007080045955
0.008310555500616906   -0.05770979333531849   -0.002306769590622606
0.005603684406124484   -0.06671694579401412   -0.0022092635586300835
0.008113553482662652   -0.05772762508923925   -0.002462983081275444
0.0029170027309013058   -0.05795212201868537   -0.002296007080045955
0.005603684406124484   -0.06671694579401412   -0.0022092635586300835
0.0010113110545405797   -0.06703801808892414   -0.0022304550172218608
0.0008489658184311493   -0.06704183455179182   -0.002376616934302485
0.0029170027309013058   -0.05795212201868537   -0.002296007080045955
0.005603684406124484   -0.06671694579401412   -0.0022092635586300835
0.0008489658184311493   -0.06704183455179182   -0.002376616934302485
0.008113553482662652   -0.05772762508923925   -0.002462983081275444
0.0029170027309013058   -0.05795212201868537   -0.002296007080045955
0.0010113110545405797   -0.06703801808892414   -0.0022304550172218608
0.008310555500616906   -0.05770979333531849   -0.002306769590622606
0.0029851938772345074   -0.057967130634140655   -0.0021998145694746944
0.0010113110545405797   -0.06703801808892414   -0.0022304550172218608
0.005603684406124484   -0.06671694579401412   -0.0022092635586300835
0.008310555500616906   -0.05770979333531849   -0.002306769590622606
0.005913599420774105   -0.06674093095100346   -0.0020014617962569787
0.0029851938772345074   -0.057967130634140655   -0.0021998145694746944
0.008510285936510322   -0.05770962383135256   -0.0021668236031975427
0.005913599420774105   -0.06674093095100346   -0.0020014617962569787
0.008310555500616906   -0.05770979333531849   -0.002306769590622606
0.0029851938772345074   -0.057967130634140655   -0.0021998145694746944
0.005913599420774105   -0.06674093095100346   -0.0020014617962569787
0.0011300448579498958   -0.06707078615104092   -0.002094465864702595
0.0010113110545405797   -0.06703801808892414   -0.0022304550172218608
0.0029851938772345074   -0.057967130634140655   -0.0021998145694746944
0.005913599420774105   -0.06674093095100346   -0.0020014617962569787
0.0010113110545405797   -0.06703801808892414   -0.0022304550172218608
0.008310555500616906   -0.05770979333531849   -0.002306769590622606
-0.015469902352528493   -0.06693147499342095   -0.002462423550483204
-0.012956280140125011   -0.07396037974014637   -0.002234133964000658
-0.01095379367151025   -0.06714179125401927   -0.0024472419049529647
-0.01523520548470239   -0.06697661942830259   -0.002601646310685067
-0.012956280140125011   -0.07396037974014637   -0.002234133964000658
-0.009742351930197766   -0.074271833046413   -0.0023275559498004738
-0.01095379367151025   -0.06714179125401927   -0.0024472419049529647
-0.009580039328621118   -0.07425578418268435   -0.002404092504455724
-0.01523520548470239   -0.06697661942830259   -0.002601646310685067
-0.010841110780523282   -0.06717221147629138   -0.002496973566820366
-0.009580039328621118   -0.07425578418268435   -0.002404092504455724
-0.01095379367151025   -0.06714179125401927   -0.0024472419049529647
-0.01523520548470239   -0.06697661942830259   -0.002601646310685067
-0.009580039328621118   -0.07425578418268435   -0.002404092504455724
-0.012606401560036224   -0.07395160876675788   -0.002440496235433515
-0.012956280140125011   -0.07396037974014637   -0.002234133964000658
-0.01523520548470239   -0.06697661942830259   -0.002601646310685067
-0.009580039328621118   -0.07425578418268435   -0.002404092504455724
-0.012956280140125011   -0.07396037974014637   -0.002234133964000658
-0.01095379367151025   -0.06714179125401927   -0.0024472419049529647
-0.01523520548470239   -0.06697661942830259   -0.002601646310685067
-0.012606401560036224   -0.07395160876675788   -0.002440496235433515
-0.010841110780523282   -0.06717221147629138   -0.002496973566820366
-0.015001105073877629   -0.06706214723466758   -0.0027592156642856605
-0.012606401560036224   -0.07395160876675788   -0.002440496235433515
-0.009580039328621118   -0.07425578418268435   -0.002404092504455724
-0.010841110780523282   -0.06717221147629138   -0.002496973566820366
-0.0093891371353867   -0.07430060152447929   -0.0024921412237895787
-0.015001105073877629   -0.06706214723466758   -0.0027592156642856605
-0.010699578390844754   -0.06724508987591016   -0.0025579725718521216
-0.0093891371353867   -0.07430060152447929   -0.0024921412237895787
-0.010841110780523282   -0.06717221147629138   -0.002496973566820366
-0.015001105073877629   -0.06706214723466758   -0.0027592156642856605
-0.0093891371353867   -0.07430060152447929   -0.0024921412237895787
-0.012283884641306071   -0.07400698475006985   -0.0026630715245750617
-0.012606401560036224   -0.07395160876675788   -0.002440496235433515
-0.015001105073877629   -0.06706214723466758   -0.0027592156642856605
-0.0093891371353867   -0.07430060152447929   -0.0024921412237895787
-0.012606401560036224   -0.07395160876675788   -0.002440496235433515
-0.010841110780523282   -0.06717221147629138   -0.002496973566820366
-0.015001105073877629   -0.06706214723466758   -0.0027592156642856605
-0.012283884641306071   -0.07400698475006985   -0.0026630715245750617
-0.010699578390844754   -0.06724508987591016   -0.0025579725718521216
-0.014701237656872304   -0.06722163113952681   -0.002934793516133918
-0.012283884641306071   -0.07400698475006985   -0.0026630715245750617
-0.0093891371353867   -0.07430060152447929   -0.0024921412237895787
-0.010699578390844754   -0.06724508987591016   -0.0025579725718521216
-0.009215951241088519   -0.07440730577803539   -0.0025909657268523836
-0.014701237656872304   -0.06722163113952681   -0.002934793516133918
-0.010559931060124194   -0.06736456584348753   -0.002630133128918055
-0.009215951241088519   -0.07440730577803539   -0.0025909657268523836
-0.010699578390844754   -0.06724508987591016   -0.0025579725718521216
-0.014701237656872304   -0.06722163113952681   -0.002934793516133918
-0.009215951241088519   -0.07440730577803539   -0.0025909657268523836
-0.01189052465588449   -0.07415487799695288   -0.002900904378404252
-0.012283884641306071   -0.07400698475006985   -0.0026630715245750617
-0.014701237656872304   -0.06722163113952681   -0.002934793516133918
-0.009215951241088519   -0.07440730577803539   -0.0025909657268523836
-0.012283884641306071   -0.07400698475006985   -0.0026630715245750617
-0.010699578390844754   -0.06724508987591016   -0.0025579725718521216
-0.01095379367151025   -0.06714179125401927   -0.0024472419049529647
-0.009742351930197766   -0.074271833046413   -0.0023275559498004738
-0.0070434057361050025   -0.06724030866136634   -0.002441217553431062
-0.010841110780523282   -0.06717221147629138   -0.002496973566820366
-0.009742351930197766   -0.074271833046413   -0.0023275559498004738
-0.007116535664060951   -0.07447374263950253   -0.0024006665542415056
-0.0070434057361050025   -0.06724030866136634   -0.002441217553431062
-0.00694997559179259   -0.0744480380309462   -0.0023772536912891953
-0.010841110780523282   -0.06717221147629138   -0.002496973566820366
-0.006927794441463126   -0.06725028455596205   -0.002418963297649193
-0.00694997559179259   -0.0744480380309462   -0.0023772536912891953
-0.0070434057361050025   -0.06724030866136634   -0.002441217553431062
-0.010841110780523282   -0.06717221147629138   -0.002496973566820366
-0.00694997559179259   -0.0744480380309462   -0.0023772536912891953
-0.009580039328621118   -0.07425578418268435   -0.002404092504455724
-0.009742351930197766   -0.074271833046413   -0.0023275559498004738
-0.010841110780523282   -0.06717221147629138   -0.002496973566820366
-0.00694997559179259   -0.0744480380309462   -0.0023772536912891953
-0.009742351930197766   -0.074271833046413   -0.0023275559498004738
-0.0070434057361050025   -0.06724030866136634   -0.002441217553431062
-0.010841110780523282   -0.06717221147629138   -0.002496973566820366
-0.009580039328621118   -0.07425578418268435   -0.002404092504455724
-0.006927794441463126   -0.06725028455596205   -0.002418963297649193
-0.010699578390844754   -0.06724508987591016   -0.0025579725718521216
-0.009580039328621118   -0.07425578418268435   -0.002404092504455724
-0.00694997559179259   -0.0744480380309462   -0.0023772536912891953
-0.006927794441463126   -0.06725028455596205   -0.002418963297649193
-0.006785760280182894   -0.07447487078110562   -0.0023650220331784514
-0.010699578390844754   -0.06724508987591016   -0.0025579725718521216
-0.006808469770173307   -0.06729817191832153   -0.0024076427926898523
-0.006785760280182894   -0.07447487078110562   -0.0023650220331784514
-0.006927794441463126   -0.06725028455596205   -0.002418963297649193
-0.010699578390844754   -0.06724508987591016   -0.0025579725718521216
-0.006785760280182894   -0.07447487078110562   -0.0023650220331784514
-0.0093891371353867   -0.07430060152447929   -0.0024921412237895787
-0.009580039328621118   -0.07425578418268435   -0.002404092504455724
-0.010699578390844754   -0.06724508987591016   -0.0025579725718521216
-0.006785760280182894   -0.07447487078110562   -0.0023650220331784514
-0.009580039328621118   -0.07425578418268435   -0.002404092504455724
-0.006927794441463126   -0.06725028455596205   -0.002418963297649193
-0.010699578390844754   -0.06724508987591016   -0.0025579725718521216
-0.0093891371353867   -0.07430060152447929   -0.0024921412237895787
-0.006808469770173307   -0.06729817191832153   -0.0024076427926898523
-0.010559931060124194   -0.06736456584348753   -0.002630133128918055
-0.0093891371353867   -0.07430060152447929   -0.0024921412237895787
-0.006785760280182894   -0.07447487078110562   -0.0023650220331784514
-0.006808469770173307   -0.06729817191832153   -0.0024076427926898523
-0.006634664752411953   -0.07455598763033912   -0.0023663142474836633
-0.010559931060124194   -0.06736456584348753   -0.002630133128918055
-0.006689340284066935   -0.0673862049112843   -0.0024071158292499036
-0.006634664752411953   -0.07455598763033912   -0.0023663142474836633
-0.006808469770173307   -0.06729817191832153   -0.0024076427926898523
-0.010559931060124194   -0.06736456584348753   -0.002630133128918055
-0.006634664752411953   -0.07455598763033912   -0.0023663142474836633
-0.009215951241088519   -0.07440730577803539   -0.0025909657268523836
-0.0093891371353867   -0.07430060152447929   -0.0024921412237895787
-0.010559931060124194   -0.06736456584348753   -0.002630133128918055
-0.006634664752411953   -0.07455598763033912   -0.0023663142474836633
-0.0093891371353867   -0.07430060152447929   -0.0024921412237895787
-0.006808469770173307   -0.06729817191832153   -0.0024076427926898523
-0.0070434057361050025   -0.06724030866136634   -0.002441217553431062
-0.007116535664060951   -0.07447374263950253   -0.0024006665542415056
-0.003262836433704989   -0.06722242606609671   -0.0024692683550869366
-0.006927794441463126   -0.06725028455596205   -0.002418963297649193
-0.007116535664060951   -0.07447374263950253   -0.0024006665542415056
-0.004601561348692153   -0.07457988440788614   -0.002487047975934062
-0.003262836433704989   -0.06722242606609671   -0.0024692683550869366
-0.004413799296565802   -0.07454280623075692   -0.0023693787766078753
-0.006927794441463126   -0.06725028455596205   -0.002418963297649193
-0.0031362017164895126   -0.06720944114702919   -0.002377553948077958
-0.004413799296565802   -0.07454280623075692   -0.0023693787766078753
-0.003262836433704989   -0.06722242606609671   -0.0024692683550869366
-0.006927794441463126   -0.06725028455596205   -0.002418963297649193
-0.004413799296565802   -0.07454280623075692   -0.0023693787766078753
-0.00694997559179259   -0.0744480380309462   -0.0023772536912891953
-0.007116535664060951   -0.07447374263950253   -0.0024006665542415056
-0.006927794441463126   -0.06725028455596205   -0.002418963297649193
-0.004413799296565802   -0.07454280623075692   -0.0023693787766078753
-0.007116535664060951   -0.07447374263950253   -0.0024006665542415056
-0.003262836433704989   -0.06722242606609671   -0.0024692683550869366
-0.006927794441463126   -0.06725028455596205   -0.002418963297649193
-0.00694997559179259   -0.0744480380309462   -0.0023772536912891953
-0.0031362017164895126   -0.06720944114702919   -0.002377553948077958
-0.006808469770173307   -0.06729817191832153   -0.0024076427926898523
-0.00694997559179259   -0.0744480380309462   -0.0023772536912891953
-0.004413799296565802   -0.07454280623075692   -0.0023693787766078753
-0.0031362017164895126   -0.06720944114702919   -0.002377553948077958
-0.0042348177321387135   -0.07455192191156025   -0.0022615914614130756
-0.006808469770173307   -0.06729817191832153   -0.0024076427926898523
-0.0030133015557616363   -0.06723073758568252   -0.0022974944003630116
-0.0042348177321387135   -0.07455192191156025   -0.0022615914614130756
-0.0031362017164895126   -0.06720944114702919   -0.002377553948077958
-0.006808469770173307   -0.06729817191832153   -0.0024076427926898523
-0.0042348177321387135   -0.07455192191156025   -0.0022615914614130756
-0.006785760280182894   -0.07447487078110562   -0.0023650220331784514
-0.00694997559179259   -0.0744480380309462   -0.0023772536912891953
-0.006808469770173307   -0.06729817191832153   -0.0024076427926898523
-0.0042348177321387135   -0.07455192191156025   -0.0022615914614130756
-0.00694997559179259   -0.0744480380309462   -0.0023772536912891953
-0.0031362017164895126   -0.06720944114702919   -0.002377553948077958
-0.006808469770173307   -0.06729817191832153   -0.0024076427926898523
-0.006785760280182894   -0.07447487078110562   -0.0023650220331784514
-0.0030133015557616363   -0.06723073758568252   -0.0022974944003630116
-0.006689340284066935   -0.0673862049112843   -0.0024071158292499036
-0.006785760280182894   -0.07447487078110562   -0.0023650220331784514
-0.0042348177321387135   -0.07455192191156025   -0.0022615914614130756
-0.0030133015557616363   -0.06723073758568252   -0.0022974944003630116
-0.004085967424031516   -0.07461623939671683   -0.0021698641593862833
-0.006689340284066935   -0.0673862049112843   -0.0024071158292499036
-0.0029022659745136037   -0.06729128939168492   -0.0022280803904981858
-0.004085967424031516   -0.07461623939671683   -0.0021698641593862833
-0.0030133015557616363   -0.06723073758568252   -0.0022974944003630116
-0.006689340284066935   -0.0673862049112843   -0.0024071158292499036
-0.004085967424031516   -0.07461623939671683   -0.0021698641593862833
-0.006634664752411953   -0.07455598763033912   -0.0023663142474836633
-0.006785760280182894   -0.07447487078110562   -0.0023650220331784514
-0.006689340284066935   -0.0673862049112843   -0.0024071158292499036
-0.004085967424031516   -0.07461623939671683   -0.0021698641593862833
-0.006785760280182894   -0.07447487078110562   -0.0023650220331784514
-0.0030133015557616363   -0.06723073758568252   -0.0022974944003630116
-0.003262836433704989   -0.06722242606609671   -0.0024692683550869366
-0.004601561348692153   -0.07457988440788614   -0.002487047975934062
0.0006949145277326936   -0.06708397946046336   -0.002537552911773641
-0.0031362017164895126   -0.06720944114702919   -0.002377553948077958
-0.004601561348692153   -0.07457988440788614   -0.002487047975934062
-0.0019270252478074282   -0.07455320035524418   -0.002588788437472991
0.0006949145277326936   -0.06708397946046336   -0.002537552911773641
-0.001685954417989542   -0.07449507484185261   -0.002380950263113123
-0.0031362017164895126   -0.06720944114702919   -0.002377553948077958
0.0008489658184311493   -0.06704183455179182   -0.002376616934302485
-0.001685954417989542   -0.07449507484185261   -0.002380950263113123
0.0006949145277326936   -0.06708397946046336   -0.002537552911773641
-0.0031362017164895126   -0.06720944114702919   -0.002377553948077958
-0.001685954417989542   -0.07449507484185261   -0.002380950263113123
-0.004413799296565802   -0.07454280623075692   -0.0023693787766078753
-0.004601561348692153   -0.07457988440788614   -0.002487047975934062
-0.0031362017164895126   -0.06720944114702919   -0.002377553948077958
-0.001685954417989542   -0.07449507484185261   -0.002380950263113123
-0.004601561348692153   -0.07457988440788614   -0.002487047975934062
0.0006949145277326936   -0.06708397946046336   -0.002537552911773641
-0.0031362017164895126   -0.06720944114702919   -0.002377553948077958
-0.004413799296565802   -0.07454280623075692   -0.0023693787766078753
0.0008489658184311493   -0.06704183455179182   -0.002376616934302485
-0.0030133015557616363   -0.06723073758568252   -0.0022974944003630116
-0.004413799296565802   -0.07454280623075692   -0.0023693787766078753
-0.001685954417989542   -0.07449507484185261   -0.002380950263113123
0.0008489658184311493   -0.06704183455179182   -0.002376616934302485
-0.001439496781535769   -0.07448481337136854   -0.002183684411061279
-0.0030133015557616363   -0.06723073758568252   -0.0022974944003630116
0.0010113110545405797   -0.06703801808892414   -0.0022304550172218608
-0.001439496781535769   -0.07448481337136854   -0.002183684411061279
0.0008489658184311493   -0.06704183455179182   -0.002376616934302485
-0.0030133015557616363   -0.06723073758568252   -0.0022974944003630116
-0.001439496781535769   -0.07448481337136854   -0.002183684411061279
-0.0042348177321387135   -0.07455192191156025   -0.0022615914614130756
-0.004413799296565802   -0.07454280623075692   -0.0023693787766078753
-0.0030133015557616363   -0.06723073758568252   -0.0022974944003630116
-0.001439496781535769   -0.07448481337136854   -0.002183684411061279
-0.004413799296565802   -0.07454280623075692   -0.0023693787766078753
0.0008489658184311493   -0.06704183455179182   -0.002376616934302485
-0.0030133015557616363   -0.06723073758568252   -0.0022974944003630116
-0.0042348177321387135   -0.07455192191156025   -0.0022615914614130756
0.0010113110545405797   -0.06703801808892414   -0.0022304550172218608
-0.0029022659745136037   -0.06729128939168492   -0.0022280803904981858
-0.0042348177321387135   -0.07455192191156025   -0.0022615914614130756
-0.001439496781535769   -0.07448481337136854   -0.002183684411061279
0.0010113110545405797   -0.06703801808892414   -0.0022304550172218608
-0.0012569449256036307   -0.0745327360793508   -0.0020045298008261807
-0.0029022659745136037   -0.06729128939168492   -0.0022280803904981858
0.0011300448579498958   -0.06707078615104092   -0.002094465864702595
-0.0012569449256036307   -0.0745327360793508   -0.0020045298008261807
0.0010113110545405797   -0.06703801808892414   -0.0022304550172218608
-0.0029022659745136037   -0.06729128939168492   -0.0022280803904981858
-0.0012569449256036307   -0.0745327360793508   -0.0020045298008261807
-0.004085967424031516   -0.07461623939671683   -0.0021698641593862833
-0.0042348177321387135   -0.07455192191156025   -0.0022615914614130756
-0.0029022659745136037   -0.06729128939168492   -0.0022280803904981858
-0.0012569449256036307   -0.0745327360793508   -0.0020045298008261807
-0.0042348177321387135   -0.07455192191156025   -0.0022615914614130756
0.0010113110545405797   -0.06703801808892414   -0.0022304550172218608
0.0006949145277326936   -0.06708397946046336   -0.002537552911773641
-0.0019270252478074282   -0.07455320035524418   -0.002588788437472991
0.0049143792159980675   -0.06681184095681177   -0.0026835563215435554
0.0008489658184311493   -0.06704183455179182   -0.002376616934302485
-0.0019270252478074282   -0.07455320035524418   -0.002588788437472991
0.000951828631091262   -0.07429632970479297   -0.0027973266004932716
0.0049143792159980675   -0.06681184095681177   -0.0026835563215435554
0.0015135875922276066   -0.07416983029095514   -0.0024573403099983843
0.0008489658184311493   -0.06704183455179182   -0.002376616934302485
0.005304540239810911   -0.06673095214601851   -0.0024372493653813695
0.0015135875922276066   -0.07416983029095514   -0.0024573403099983843
0.0049143792159980675   -0.06681184095681177   -0.0026835563215435554
0.0008489658184311493   -0.06704183455179182   -0.002376616934302485
0.0015135875922276066   -0.07416983029095514   -0.0024573403099983843
-0.001685954417989542   -0.07449507484185261   -0.002380950263113123
-0.0019270252478074282   -0.07455320035524418   -0.002588788437472991
0.0008489658184311493   -0.06704183455179182   -0.002376616934302485
0.0015135875922276066   -0.07416983029095514   -0.0024573403099983843
-0.0019270252478074282   -0.07455320035524418   -0.002588788437472991
0.0049143792159980675   -0.06681184095681177   -0.0026835563215435554
0.0008489658184311493   -0.06704183455179182   -0.002376616934302485
-0.001685954417989542   -0.07449507484185261   -0.002380950263113123
0.005304540239810911   -0.06673095214601851   -0.0024372493653813695
0.0010113110545405797   -0.06703801808892414   -0.0022304550172218608
-0.001685954417989542   -0.07449507484185261   -0.002380950263113123
0.0015135875922276066   -0.07416983029095514   -0.0024573403099983843
0.005304540239810911   -0.06673095214601851   -0.0024372493653813695
0.0019550644783094566   -0.07414420541450246   -0.002138121856428354
0.0010113110545405797   -0.06703801808892414   -0.0022304550172218608
0.005603684406124484   -0.06671694579401412   -0.0022092635586300835
0.0019550644783094566   -0.07414420541450246   -0.002138121856428354
0.005304540239810911   -0.06673095214601851   -0.0024372493653813695
0.0010113110545405797   -0.06703801808892414   -0.0022304550172218608
0.0019550644783094566   -0.07414420541450246   -0.002138121856428354
-0.001439496781535769   -0.07448481337136854   -0.002183684411061279
-0.001685954417989542   -0.07449507484185261   -0.002380950263113123
0.0010113110545405797   -0.06703801808892414   -0.0022304550172218608
0.0019550644783094566   -0.07414420541450246   -0.002138121856428354
-0.001685954417989542   -0.07449507484185261   -0.002380950263113123
0.005304540239810911   -0.06673095214601851   -0.0024372493653813695
0.0010113110545405797   -0.06703801808892414   -0.0022304550172218608
-0.001439496781535769   -0.07448481337136854   -0.002183684411061279
0.005603684406124484   -0.06671694579401412   -0.0022092635586300835
0.0011300448579498958   -0.06707078615104092   -0.002094465864702595
-0.001439496781535769   -0.07448481337136854   -0.002183684411061279
0.0019550644783094566   -0.07414420541450246   -0.002138121856428354
0.005603684406124484   -0.06671694579401412   -0.0022092635586300835
0.0024138279659581935   -0.07416572315235696   -0.0018465961243897989
0.0011300448579498958   -0.06707078615104092   -0.002094465864702595
0.005913599420774105   -0.06674093095100346   -0.0020014617962569787
0.0024138279659581935   -0.07416572315235696   -0.0018465961243897989
0.005603684406124484   -0.06671694579401412   -0.0022092635586300835
0.0011300448579498958   -0.06707078615104092   -0.002094465864702595
0.0024138279659581935   -0.07416572315235696   -0.0018465961243897989
-0.0012569449256036307   -0.0745327360793508   -0.0020045298008261807
-0.001439496781535769   -0.07448481337136854   -0.002183684411061279
0.0011300448579498958   -0.06707078615104092   -0.002094465864702595
0.0024138279659581935   -0.07416572315235696   -0.0018465961243897989
-0.001439496781535769   -0.07448481337136854   -0.002183684411061279
0.005603684406124484   -0.06671694579401412   -0.0022092635586300835
-0.012956280140125011   -0.07396037974014637   -0.002234133964000658
-0.009500537417319679   -0.07813832233552602   -0.0019660245346510537
-0.009742351930197766   -0.074271833046413   -0.0023275559498004738
-0.012606401560036224   -0.07395160876675788   -0.002440496235433515
-0.009500537417319679   -0.07813832233552602   -0.0019660245346510537
-0.008005184627114336   -0.0785322345284661   -0.002202759325522167
-0.009742351930197766   -0.074271833046413   -0.0023275559498004738
-0.0078003930383315845   -0.0784543837545671   -0.0022841912988055897
-0.012606401560036224   -0.07395160876675788   -0.002440496235433515
-0.009580039328621118   -0.07425578418268435   -0.002404092504455724
-0.0078003930383315845   -0.0784543837545671   -0.0022841912988055897
-0.009742351930197766   -0.074271833046413   -0.0023275559498004738
-0.012606401560036224   -0.07395160876675788   -0.002440496235433515
-0.0078003930383315845   -0.0784543837545671   -0.0022841912988055897
-0.009064500621607791   -0.07805061763783364   -0.0022136068993641876
-0.009500537417319679   -0.07813832233552602   -0.0019660245346510537
-0.012606401560036224   -0.07395160876675788   -0.002440496235433515
-0.0078003930383315845   -0.0784543837545671   -0.0022841912988055897
-0.009500537417319679   -0.07813832233552602   -0.0019660245346510537
-0.009742351930197766   -0.074271833046413   -0.0023275559498004738
-0.012606401560036224   -0.07395160876675788   -0.002440496235433515
-0.009064500621607791   -0.07805061763783364   -0.0022136068993641876
-0.009580039328621118   -0.07425578418268435   -0.002404092504455724
-0.012283884641306071   -0.07400698475006985   -0.0026630715245750617
-0.009064500621607791   -0.07805061763783364   -0.0022136068993641876
-0.0078003930383315845   -0.0784543837545671   -0.0022841912988055897
-0.009580039328621118   -0.07425578418268435   -0.002404092504455724
-0.007573584805602036   -0.07845821149766145   -0.0023664482303549107
-0.012283884641306071   -0.07400698475006985   -0.0026630715245750617
-0.0093891371353867   -0.07430060152447929   -0.0024921412237895787
-0.007573584805602036   -0.07845821149766145   -0.0023664482303549107
-0.009580039328621118   -0.07425578418268435   -0.002404092504455724
-0.012283884641306071   -0.07400698475006985   -0.0026630715245750617
-0.007573584805602036   -0.07845821149766145   -0.0023664482303549107
-0.00868828548563716   -0.07805809918504988   -0.0024602340227559754
-0.009064500621607791   -0.07805061763783364   -0.0022136068993641876
-0.012283884641306071   -0.07400698475006985   -0.0026630715245750617
-0.007573584805602036   -0.07845821149766145   -0.0023664482303549107
-0.009064500621607791   -0.07805061763783364   -0.0022136068993641876
-0.009580039328621118   -0.07425578418268435   -0.002404092504455724
-0.012283884641306071   -0.07400698475006985   -0.0026630715245750617
-0.00868828548563716   -0.07805809918504988   -0.0024602340227559754
-0.0093891371353867   -0.07430060152447929   -0.0024921412237895787
-0.01189052465588449   -0.07415487799695288   -0.002900904378404252
-0.00868828548563716   -0.07805809918504988   -0.0024602340227559754
-0.007573584805602036   -0.07845821149766145   -0.0023664482303549107
-0.0093891371353867   -0.07430060152447929   -0.0024921412237895787
-0.007362880235369677   -0.07854409616939773   -0.002449874573194301
-0.01189052465588449   -0.07415487799695288   -0.002900904378404252
-0.009215951241088519   -0.07440730577803539   -0.0025909657268523836
-0.007362880235369677   -0.07854409616939773   -0.002449874573194301
-0.0093891371353867   -0.07430060152447929   -0.0024921412237895787
-0.01189052465588449   -0.07415487799695288   -0.002900904378404252
-0.007362880235369677   -0.07854409616939773   -0.002449874573194301
-0.008242051655535829   -0.07816623059819315   -0.002712173952730488
-0.00868828548563716   -0.07805809918504988   -0.0024602340227559754
-0.01189052465588449   -0.07415487799695288   -0.002900904378404252
-0.007362880235369677   -0.07854409616939773   -0.002449874573194301
-0.00868828548563716   -0.07805809918504988   -0.0024602340227559754
-0.0093891371353867   -0.07430060152447929   -0.0024921412237895787
-0.009742351930197766   -0.074271833046413   -0.0023275559498004738
-0.008005184627114336   -0.0785322345284661   -0.002202759325522167
-0.007116535664060951   -0.07447374263950253   -0.0024006665542415056
-0.009580039328621118   -0.07425578418268435   -0.002404092504455724
-0.008005184627114336   -0.0785322345284661   -0.002202759325522167
-0.006910127419160221   -0.0789276182522122   -0.0024119895085824576
-0.007116535664060951   -0.07447374263950253   -0.0024006665542415056
-0.006694054815881095   -0.07884774326557582   -0.0023549217416081827
-0.009580039328621118   -0.07425578418268435   -0.002404092504455724
-0.00694997559179259   -0.0744480380309462   -0.0023772536912891953
-0.006694054815881095   -0.07884774326557582   -0.0023549217416081827
-0.007116535664060951   -0.07447374263950253   -0.0024006665542415056
-0.009580039328621118   -0.07425578418268435   -0.002404092504455724
-0.006694054815881095   -0.07884774326557582   -0.0023549217416081827
-0.0078003930383315845   -0.0784543837545671   -0.0022841912988055897
-0.008005184627114336   -0.0785322345284661   -0.002202759325522167
-0.009580039328621118   -0.07425578418268435   -0.002404092504455724
-0.006694054815881095   -0.07884774326557582   -0.0023549217416081827
-0.008005184627114336   -0.0785322345284661   -0.002202759325522167
-0.007116535664060951   -0.07447374263950253   -0.0024006665542415056
-0.009580039328621118   -0.07425578418268435   -0.002404092504455724
-0.0078003930383315845   -0.0784543837545671   -0.0022841912988055897
-0.00694997559179259   -0.0744480380309462   -0.0023772536912891953
-0.0093891371353867   -0.07430060152447929   -0.0024921412237895787
-0.0078003930383315845   -0.0784543837545671   -0.0022841912988055897
-0.006694054815881095   -0.07884774326557582   -0.0023549217416081827
-0.00694997559179259   -0.0744480380309462   -0.0023772536912891953
-0.006485145849660507   -0.07884629644059409   -0.0022971440870507643
-0.0093891371353867   -0.07430060152447929   -0.0024921412237895787
-0.006785760280182894   -0.07447487078110562   -0.0023650220331784514
-0.006485145849660507   -0.07884629644059409   -0.0022971440870507643
-0.00694997559179259   -0.0744480380309462   -0.0023772536912891953
-0.0093891371353867   -0.07430060152447929   -0.0024921412237895787
-0.006485145849660507   -0.07884629644059409   -0.0022971440870507643
-0.007573584805602036   -0.07845821149766145   -0.0023664482303549107
-0.0078003930383315845   -0.0784543837545671   -0.0022841912988055897
-0.0093891371353867   -0.07430060152447929   -0.0024921412237895787
-0.006485145849660507   -0.07884629644059409   -0.0022971440870507643
-0.0078003930383315845   -0.0784543837545671   -0.0022841912988055897
-0.00694997559179259   -0.0744480380309462   -0.0023772536912891953
-0.0093891371353867   -0.07430060152447929   -0.0024921412237895787
-0.007573584805602036   -0.07845821149766145   -0.0023664482303549107
-0.006785760280182894   -0.07447487078110562   -0.0023650220331784514
-0.009215951241088519   -0.07440730577803539   -0.0025909657268523836
-0.007573584805602036   -0.07845821149766145   -0.0023664482303549107
-0.006485145849660507   -0.07884629644059409   -0.0022971440870507643
-0.006785760280182894   -0.07447487078110562   -0.0023650220331784514
-0.006267349077596696   -0.07892163976165044   -0.002241647700928858
-0.009215951241088519   -0.07440730577803539   -0.0025909657268523836
-0.006634664752411953   -0.07455598763033912   -0.0023663142474836633
-0.006267349077596696   -0.07892163976165044   -0.002241647700928858
-0.006785760280182894   -0.07447487078110562   -0.0023650220331784514
-0.009215951241088519   -0.07440730577803539   -0.0025909657268523836
-0.006267349077596696   -0.07892163976165044   -0.002241647700928858
-0.007362880235369677   -0.07854409616939773   -0.002449874573194301
-0.007573584805602036   -0.07845821149766145   -0.0023664482303549107
-0.009215951241088519   -0.07440730577803539   -0.0025909657268523836
-0.006267349077596696   -0.07892163976165044   -0.002241647700928858
-0.007573584805602036   -0.07845821149766145   -0.0023664482303549107
-0.006785760280182894   -0.07447487078110562   -0.0023650220331784514
-0.007116535664060951   -0.07447374263950253   -0.0024006665542415056
-0.006910127419160221   -0.0789276182522122   -0.0024119895085824576
-0.004601561348692153   -0.07457988440788614   -0.002487047975934062
-0.00694997559179259   -0.0744480380309462   -0.0023772536912891953
-0.006910127419160221   -0.0789276182522122   -0.0024119895085824576
-0.005910096518611539   -0.07940480652243798   -0.002642391723926778
-0.004601561348692153   -0.07457988440788614   -0.002487047975934062
-0.005645212354407031   -0.07933549332976386   -0.002439054237795157
-0.00694997559179259   -0.0744480380309462   -0.0023772536912891953
-0.004413799296565802   -0.07454280623075692   -0.0023693787766078753
-0.005645212354407031   -0.07933549332976386   -0.002439054237795157
-0.004601561348692153   -0.07457988440788614   -0.002487047975934062
-0.00694997559179259   -0.0744480380309462   -0.0023772536912891953
-0.005645212354407031   -0.07933549332976386   -0.002439054237795157
-0.006694054815881095   -0.07884774326557582   -0.0023549217416081827
-0.006910127419160221   -0.0789276182522122   -0.0024119895085824576
-0.00694997559179259   -0.0744480380309462   -0.0023772536912891953
-0.005645212354407031   -0.07933549332976386   -0.002439054237795157
-0.006910127419160221   -0.0789276182522122   -0.0024119895085824576
-0.004601561348692153   -0.07457988440788614   -0.002487047975934062
-0.00694997559179259   -0.0744480380309462   -0.0023772536912891953
-0.006694054815881095   -0.07884774326557582   -0.0023549217416081827
-0.004413799296565802   -0.07454280623075692   -0.0023693787766078753
-0.006785760280182894   -0.07447487078110562   -0.0023650220331784514
-0.006694054815881095   -0.07884774326557582   -0.0023549217416081827
-0.005645212354407031   -0.07933549332976386   -0.002439054237795157
-0.004413799296565802   -0.07454280623075692   -0.0023693787766078753
-0.00539977652414788   -0.07933177513260362   -0.0022364055780953692
-0.006785760280182894   -0.07447487078110562   -0.0023650220331784514
-0.0042348177321387135   -0.07455192191156025   -0.0022615914614130756
-0.00539977652414788   -0.07933177513260362   -0.0022364055780953692
-0.004413799296565802   -0.07454280623075692   -0.0023693787766078753
-0.006785760280182894   -0.07447487078110562   -0.0023650220331784514
-0.00539977652414788   -0.07933177513260362   -0.0022364055780953692
-0.006485145849660507   -0.07884629644059409   -0.0022971440870507643
-0.006694054815881095   -0.07884774326557582   -0.0023549217416081827
-0.006785760280182894   -0.07447487078110562   -0.0023650220331784514
-0.00539977652414788   -0.07933177513260362   -0.0022364055780953692
-0.006694054815881095   -0.07884774326557582   -0.0023549217416081827
-0.004413799296565802   -0.07454280623075692   -0.0023693787766078753
-0.006785760280182894   -0.07447487078110562   -0.0023650220331784514
-0.006485145849660507   -0.07884629644059409   -0.0022971440870507643
-0.0042348177321387135   -0.07455192191156025   -0.0022615914614130756
-0.006634664752411953   -0.07455598763033912   -0.0023663142474836633
-0.006485145849660507   -0.07884629644059409   -0.0022971440870507643
-0.00539977652414788   -0.07933177513260362   -0.0022364055780953692
-0.0042348177321387135   -0.07455192191156025   -0.0022615914614130756
-0.005136270465087318   -0.07939010719773601   -0.002033302475599356
-0.006634664752411953   -0.07455598763033912   -0.0023663142474836633
-0.004085967424031516   -0.07461623939671683   -0.0021698641593862833
-0.005136270465087318   -0.07939010719773601   -0.002033302475599356
-0.0042348177321387135   -0.07455192191156025   -0.0022615914614130756
-0.006634664752411953   -0.07455598763033912   -0.0023663142474836633
-0.005136270465087318   -0.07939010719773601   -0.002033302475599356
-0.006267349077596696   -0.07892163976165044   -0.002241647700928858
-0.006485145849660507   -0.07884629644059409   -0.0022971440870507643
-0.006634664752411953   -0.07455598763033912   -0.0023663142474836633
-0.005136270465087318   -0.07939010719773601   -0.002033302475599356
-0.006485145849660507   -0.07884629644059409   -0.0022971440870507643
-0.0042348177321387135   -0.07455192191156025   -0.0022615914614130756
-0.004601561348692153   -0.07457988440788614   -0.002487047975934062
-0.005910096518611539   -0.07940480652243798   -0.002642391723926778
-0.0019270252478074282   -0.07455320035524418   -0.002588788437472991
-0.004413799296565802   -0.07454280623075692   -0.0023693787766078753
-0.005910096518611539   -0.07940480652243798   -0.002642391723926778
-0.00492589063717409   -0.08   -0.0028193666981017667
-0.0019270252478074282   -0.07455320035524418   -0.002588788437472991
-0.004592743482260501   -0.08   -0.0025105564266792624
-0.004413799296565802   -0.07454280623075692   -0.0023693787766078753
-0.001685954417989542   -0.07449507484185261   -0.002380950263113123
-0.004592743482260501   -0.08   -0.0025105564266792624
-0.0019270252478074282   -0.07455320035524418   -0.002588788437472991
-0.004413799296565802   -0.07454280623075692   -0.0023693787766078753
-0.004592743482260501   -0.08   -0.0025105564266792624
-0.005645212354407031   -0.07933549332976386   -0.002439054237795157
-0.005910096518611539   -0.07940480652243798   -0.002642391723926778
-0.004413799296565802   -0.07454280623075692   -0.0023693787766078753
-0.004592743482260501   -0.08   -0.0025105564266792624
-0.005910096518611539   -0.07940480652243798   -0.002642391723926778
-0.0019270252478074282   -0.07455320035524418   -0.002588788437472991
-0.004413799296565802   -0.07454280623075692   -0.0023693787766078753
-0.005645212354407031   -0.07933549332976386   -0.002439054237795157
-0.001685954417989542   -0.07449507484185261   -0.002380950263113123
-0.0042348177321387135   -0.07455192191156025   -0.0022615914614130756
-0.005645212354407031   -0.07933549332976386   -0.002439054237795157
-0.004592743482260501   -0.08   -0.0025105564266792624
-0.001685954417989542   -0.07449507484185261   -0.002380950263113123
-0.004258019280598732   -0.08   -0.002198083698999422
-0.0042348177321387135   -0.07455192191156025   -0.0022615914614130756
-0.001439496781535769   -0.07448481337136854   -0.002183684411061279
-0.004258019280598732   -0.08   -0.002198083698999422
-0.001685954417989542   -0.07449507484185261   -0.002380950263113123
-0.0042348177321387135   -0.07455192191156025   -0.0022615914614130756
-0.004258019280598732   -0.08   -0.002198083698999422
-0.00539977652414788   -0.07933177513260362   -0.0022364055780953692
-0.005645212354407031   -0.07933549332976386   -0.002439054237795157
-0.0042348177321387135   -0.07455192191156025   -0.0022615914614130756
-0.004258019280598732   -0.08   -0.002198083698999422
-0.005645212354407031   -0.07933549332976386   -0.002439054237795157
-0.001685954417989542   -0.07449507484185261   -0.002380950263113123
-0.0042348177321387135   -0.07455192191156025   -0.0022615914614130756
-0.00539977652414788   -0.07933177513260362   -0.0022364055780953692
-0.001439496781535769   -0.07448481337136854   -0.002183684411061279
-0.004085967424031516   -0.07461623939671683   -0.0021698641593862833
-0.00539977652414788   -0.07933177513260362   -0.0022364055780953692
-0.004258019280598732   -0.08   -0.002198083698999422
-0.001439496781535769   -0.07448481337136854   -0.002183684411061279
-0.003930810376377554   -0.08   -0.0018897414335346033
-0.004085967424031516   -0.07461623939671683   -0.0021698641593862833
-0.0012569449256036307   -0.0745327360793508   -0.0020045298008261807
-0.003930810376377554   -0.08   -0.0018897414335346033
-0.001439496781535769   -0.07448481337136854   -0.002183684411061279
-0.004085967424031516   -0.07461623939671683   -0.0021698641593862833
-0.003930810376377554   -0.08   -0.0018897414335346033
-0.005136270465087318   -0.07939010719773601   -0.002033302475599356
-0.00539977652414788   -0.07933177513260362   -0.0022364055780953692
-0.004085967424031516   -0.07461623939671683   -0.0021698641593862833
-0.003930810376377554   -0.08   -0.0018897414335346033
-0.00539977652414788   -0.07933177513260362   -0.0022364055780953692
-0.001439496781535769   -0.07448481337136854   -0.002183684411061279
-0.0019270252478074282   -0.07455320035524418   -0.002588788437472991
-0.00492589063717409   -0.08   -0.0028193666981017667
0.000951828631091262   -0.07429632970479297   -0.0027973266004932716
-0.001685954417989542   -0.07449507484185261   -0.002380950263113123
-0.00492589063717409   -0.08   -0.0028193666981017667
-0.004212035545044899   -0.08   -0.003033701172298457
0.000951828631091262   -0.07429632970479297   -0.0027973266004932716
-0.003515531487588782   -0.08   -0.0025869596198342063
-0.001685954417989542   -0.07449507484185261   -0.002380950263113123
0.0015135875922276066   -0.07416983029095514   -0.0024573403099983843
-0.003515531487588782   -0.08   -0.0025869596198342063
0.000951828631091262   -0.07429632970479297   -0.0027973266004932716
-0.001685954417989542   -0.07449507484185261   -0.002380950263113123
-0.003515531487588782   -0.08   -0.0025869596198342063
-0.004592743482260501   -0.08   -0.0025105564266792624
-0.00492589063717409   -0.08   -0.0028193666981017667
-0.001685954417989542   -0.07449507484185261   -0.002380950263113123
-0.003515531487588782   -0.08   -0.0025869596198342063
-0.00492589063717409   -0.08   -0.0028193666981017667
0.000951828631091262   -0.07429632970479297   -0.0027973266004932716
-0.001685954417989542   -0.07449507484185261   -0.002380950263113123
-0.004592743482260501   -0.08   -0.0025105564266792624
0.0015135875922276066   -0.07416983029095514   -0.0024573403099983843
-0.001439496781535769   -0.07448481337136854   -0.002183684411061279
-0.004592743482260501   -0.08   -0.0025105564266792624
-0.003515531487588782   -0.08   -0.0025869596198342063
0.0015135875922276066   -0.07416983029095514   -0.0024573403099983843
-0.0029600791832934624   -0.08   -0.002159594716895958
-0.001439496781535769   -0.07448481337136854   -0.002183684411061279
0.0019550644783094566   -0.07414420541450246   -0.002138121856428354
-0.0029600791832934624   -0.08   -0.002159594716895958
0.0015135875922276066   -0.07416983029095514   -0.0024573403099983843
-0.001439496781535769   -0.07448481337136854   -0.002183684411061279
-0.0029600791832934624   -0.08   -0.002159594716895958
-0.004258019280598732   -0.08   -0.002198083698999422
-0.004592743482260501   -0.08   -0.0025105564266792624
-0.001439496781535769   -0.07448481337136854   -0.002183684411061279
-0.0029600791832934624   -0.08   -0.002159594716895958
-0.004592743482260501   -0.08   -0.0025105564266792624
0.0015135875922276066   -0.07416983029095514   -0.0024573403099983843
-0.001439496781535769   -0.07448481337136854   -0.002183684411061279
-0.004258019280598732   -0.08   -0.002198083698999422
0.0019550644783094566   -0.07414420541450246   -0.002138121856428354
-0.0012569449256036307   -0.0745327360793508   -0.0020045298008261807
-0.004258019280598732   -0.08   -0.002198083698999422
-0.0029600791832934624   -0.08   -0.002159594716895958
0.0019550644783094566   -0.07414420541450246   -0.002138121856428354
-0.002273924005737461   -0.08   -0.0017159426889577604
-0.0012569449256036307   -0.0745327360793508   -0.0020045298008261807
0.0024138279659581935   -0.07416572315235696   -0.0018465961243897989
-0.002273924005737461   -0.08   -0.0017159426889577604
0.0019550644783094566   -0.07414420541450246   -0.002138121856428354
-0.0012569449256036307   -0.0745327360793508   -0.0020045298008261807
-0.002273924005737461   -0.08   -0.0017159426889577604
-0.003930810376377554   -0.08   -0.0018897414335346033
-0.004258019280598732   -0.08   -0.002198083698999422
-0.0012569449256036307   -0.0745327360793508   -0.0020045298008261807
-0.002273924005737461   -0.08   -0.0017159426889577604
-0.004258019280598732   -0.08   -0.002198083698999422
0.0019550644783094566   -0.07414420541450246   -0.002138121856428354
-0.009500537417319679   -0.07813832233552602   -0.0019660245346510537
-0.00567730574713603   -0.07834837623202795   -0.0016827301884282824
-0.008005184627114336   -0.0785322345284661   -0.002202759325522167
-0.009064500621607791   -0.07805061763783364   -0.0022136068993641876
-0.00567730574713603   -0.07834837623202795   -0.0016827301884282824
-0.0060215160645291895   -0.07865189812502252   -0.001987543416653819
-0.008005184627114336   -0.0785322345284661   -0.002202759325522167
-0.005866638020098775   -0.07854558698167977   -0.0020986601422154005
-0.009064500621607791   -0.07805061763783364   -0.0022136068993641876
-0.0078003930383315845   -0.0784543837545671   -0.0022841912988055897
-0.005866638020098775   -0.07854558698167977   -0.0020986601422154005
-0.008005184627114336   -0.0785322345284661   -0.002202759325522167
-0.009064500621607791   -0.07805061763783364   -0.0022136068993641876
-0.005866638020098775   -0.07854558698167977   -0.0020986601422154005
-0.005282172501777495   -0.07821187234173861   -0.0019428551029122426
-0.00567730574713603   -0.07834837623202795   -0.0016827301884282824
-0.009064500621607791   -0.07805061763783364   -0.0022136068993641876
-0.005866638020098775   -0.07854558698167977   -0.0020986601422154005
-0.00567730574713603   -0.07834837623202795   -0.0016827301884282824
-0.008005184627114336   -0.0785322345284661   -0.002202759325522167
-0.009064500621607791   -0.07805061763783364   -0.0022136068993641876
-0.005282172501777495   -0.07821187234173861   -0.0019428551029122426
-0.0078003930383315845   -0.0784543837545671   -0.0022841912988055897
-0.00868828548563716   -0.07805809918504988   -0.0024602340227559754
-0.005282172501777495   -0.07821187234173861   -0.0019428551029122426
-0.005866638020098775   -0.07854558698167977   -0.0020986601422154005
-0.0078003930383315845   -0.0784543837545671   -0.0022841912988055897
-0.005684982020492697   -0.07850632066735098   -0.00220117187303564
-0.00868828548563716   -0.07805809918504988   -0.0024602340227559754
-0.007573584805602036   -0.07845821149766145   -0.0023664482303549107
-0.005684982020492697   -0.07850632066735098   -0.00220117187303564
-0.0078003930383315845   -0.0784543837545671   -0.0022841912988055897
-0.00868828548563716   -0.07805809918504988   -0.0024602340227559754
-0.005684982020492697   -0.07850632066735098   -0.00220117187303564
-0.004953260565640427   -0.07816982702533429   -0.0021923015040110324
-0.005282172501777495   -0.07821187234173861   -0.0019428551029122426
-0.00868828548563716   -0.07805809918504988   -0.0024602340227559754
-0.005684982020492697   -0.07850632066735098   -0.00220117187303564
-0.005282172501777495   -0.07821187234173861   -0.0019428551029122426
-0.0078003930383315845   -0.0784543837545671   -0.0022841912988055897
-0.00868828548563716   -0.07805809918504988   -0.0024602340227559754
-0.004953260565640427   -0.07816982702533429   -0.0021923015040110324
-0.007573584805602036   -0.07845821149766145   -0.0023664482303549107
-0.008242051655535829   -0.07816623059819315   -0.002712173952730488
-0.004953260565640427   -0.07816982702533429   -0.0021923015040110324
-0.005684982020492697   -0.07850632066735098   -0.00220117187303564
-0.007573584805602036   -0.07845821149766145   -0.0023664482303549107
-0.005529363978324306   -0.07853466578901708   -0.002294541871425004
-0.008242051655535829   -0.07816623059819315   -0.002712173952730488
-0.007362880235369677   -0.07854409616939773   -0.002449874573194301
-0.005529363978324306   -0.07853466578901708   -0.002294541871425004
-0.007573584805602036   -0.07845821149766145   -0.0023664482303549107
-0.008242051655535829   -0.07816623059819315   -0.002712173952730488
-0.005529363978324306   -0.07853466578901708   -0.002294541871425004
-0.00458114222835919   -0.07820519077371925   -0.002429959862568581
-0.004953260565640427   -0.07816982702533429   -0.0021923015040110324
-0.008242051655535829   -0.07816623059819315   -0.002712173952730488
-0.005529363978324306   -0.07853466578901708   -0.002294541871425004
-0.004953260565640427   -0.07816982702533429   -0.0021923015040110324
-0.007573584805602036   -0.07845821149766145   -0.0023664482303549107
-0.008005184627114336   -0.0785322345284661   -0.002202759325522167
-0.0060215160645291895   -0.07865189812502252   -0.001987543416653819
-0.006910127419160221   -0.0789276182522122   -0.0024119895085824576
-0.0078003930383315845   -0.0784543837545671   -0.0022841912988055897
-0.0060215160645291895   -0.07865189812502252   -0.001987543416653819
-0.006487473506438074   -0.07883959336768934   -0.0022312641080534635
-0.006910127419160221   -0.0789276182522122   -0.0024119895085824576
-0.006350396067208565   -0.07874466554244836   -0.0022341805972784425
-0.0078003930383315845   -0.0784543837545671   -0.0022841912988055897
-0.006694054815881095   -0.07884774326557582   -0.0023549217416081827
-0.006350396067208565   -0.07874466554244836   -0.0022341805972784425
-0.006910127419160221   -0.0789276182522122   -0.0024119895085824576
-0.0078003930383315845   -0.0784543837545671   -0.0022841912988055897
-0.006350396067208565   -0.07874466554244836   -0.0022341805972784425
-0.005866638020098775   -0.07854558698167977   -0.0020986601422154005
-0.0060215160645291895   -0.07865189812502252   -0.001987543416653819
-0.0078003930383315845   -0.0784543837545671   -0.0022841912988055897
-0.006350396067208565   -0.07874466554244836   -0.0022341805972784425
-0.0060215160645291895   -0.07865189812502252   -0.001987543416653819
-0.006910127419160221   -0.0789276182522122   -0.0024119895085824576
-0.0078003930383315845   -0.0784543837545671   -0.0022841912988055897
-0.005866638020098775   -0.07854558698167977   -0.0020986601422154005
-0.006694054815881095   -0.07884774326557582   -0.0023549217416081827
-0.007573584805602036   -0.07845821149766145   -0.0023664482303549107
-0.005866638020098775   -0.07854558698167977   -0.0020986601422154005
-0.006350396067208565   -0.07874466554244836   -0.0022341805972784425
-0.006694054815881095   -0.07884774326557582   -0.0023549217416081827
-0.006197818183966148   -0.07871046148248433   -0.0022259408519680825
-0.007573584805602036   -0.07845821149766145   -0.0023664482303549107
-0.006485145849660507   -0.07884629644059409   -0.0022971440870507643
-0.006197818183966148   -0.07871046148248433   -0.0022259408519680825
-0.006694054815881095   -0.07884774326557582   -0.0023549217416081827
-0.007573584805602036   -0.07845821149766145   -0.0023664482303549107
-0.006197818183966148   -0.07871046148248433   -0.0022259408519680825
-0.005684982020492697   -0.07850632066735098   -0.00220117187303564
-0.005866638020098775   -0.07854558698167977   -0.0020986601422154005
-0.007573584805602036   -0.07845821149766145   -0.0023664482303549107
-0.006197818183966148   -0.07871046148248433   -0.0022259408519680825
-0.005866638020098775   -0.07854558698167977   -0.0020986601422154005
-0.006694054815881095   -0.07884774326557582   -0.0023549217416081827
-0.007573584805602036   -0.07845821149766145   -0.0023664482303549107
-0.005684982020492697   -0.07850632066735098   -0.00220117187303564
-0.006485145849660507   -0.07884629644059409   -0.0022971440870507643
-0.007362880235369677   -0.07854409616939773   -0.002449874573194301
-0.005684982020492697   -0.07850632066735098   -0.00220117187303564
-0.006197818183966148   -0.07871046148248433   -0.0022259408519680825
-0.006485145849660507   -0.07884629644059409   -0.0022971440870507643
-0.006042684822236312   -0.07873420434352263   -0.0022089470351962744
-0.007362880235369677   -0.07854409616939773   -0.002449874573194301
-0.006267349077596696   -0.07892163976165044   -0.002241647700928858
-0.006042684822236312   -0.07873420434352263   -0.0022089470351962744
-0.006485145849660507   -0.07884629644059409   -0.0022971440870507643
-0.007362880235369677   -0.07854409616939773   -0.002449874573194301
-0.006042684822236312   -0.07873420434352263   -0.0022089470351962744
-0.005529363978324306   -0.07853466578901708   -0.002294541871425004
-0.005684982020492697   -0.07850632066735098   -0.00220117187303564
-0.007362880235369677   -0.07854409616939773   -0.002449874573194301
-0.006042684822236312   -0.07873420434352263   -0.0022089470351962744
-0.005684982020492697   -0.07850632066735098   -0.00220117187303564
-0.006485145849660507   -0.07884629644059409   -0.0022971440870507643
-0.006910127419160221   -0.0789276182522122   -0.0024119895085824576
-0.006487473506438074   -0.07883959336768934   -0.0022312641080534635
-0.005910096518611539   -0.07940480652243798   -0.002642391723926778
-0.006694054815881095   -0.07884774326557582   -0.0023549217416081827
-0.006487473506438074   -0.07883959336768934   -0.0022312641080534635
-0.006986985364890981   -0.0789185516718105   -0.0024711341113755232
-0.005910096518611539   -0.07940480652243798   -0.002642391723926778
-0.006844988313158678   -0.07882804222097811   -0.002370009816241788
-0.006694054815881095   -0.07884774326557582   -0.0023549217416081827
-0.005645212354407031   -0.07933549332976386   -0.002439054237795157
-0.006844988313158678   -0.07882804222097811   -0.002370009816241788
-0.005910096518611539   -0.07940480652243798   -0.002642391723926778
-0.006694054815881095   -0.07884774326557582   -0.0023549217416081827
-0.006844988313158678   -0.07882804222097811   -0.002370009816241788
-0.006350396067208565   -0.07874466554244836   -0.0022341805972784425
-0.006487473506438074   -0.07883959336768934   -0.0022312641080534635
-0.006694054815881095   -0.07884774326557582   -0.0023549217416081827
-0.006844988313158678   -0.07882804222097811   -0.002370009816241788
-0.006487473506438074   -0.07883959336768934   -0.0022312641080534635
-0.005910096518611539   -0.07940480652243798   -0.002642391723926778
-0.006694054815881095   -0.07884774326557582   -0.0023549217416081827
-0.006350396067208565   -0.07874466554244836   -0.0022341805972784425
-0.005645212354407031   -0.07933549332976386   -0.002439054237795157
-0.006485145849660507   -0.07884629644059409   -0.0022971440870507643
-0.006350396067208565   -0.07874466554244836   -0.0022341805972784425
-0.006844988313158678   -0.07882804222097811   -0.002370009816241788
-0.005645212354407031   -0.07933549332976386   -0.002439054237795157
-0.0066746600665461685   -0.07879924972403332   -0.0022552985185021997
-0.006485145849660507   -0.07884629644059409   -0.0022971440870507643
-0.00539977652414788   -0.07933177513260362   -0.0022364055780953692
-0.0066746600665461685   -0.07879924972403332   -0.0022552985185021997
-0.005645212354407031   -0.07933549332976386   -0.002439054237795157
-0.006485145849660507   -0.07884629644059409   -0.0022971440870507643
-0.0066746600665461685   -0.07879924972403332   -0.0022552985185021997
-0.006197818183966148   -0.07871046148248433   -0.0022259408519680825
-0.006350396067208565   -0.07874466554244836   -0.0022341805972784425
-0.006485145849660507   -0.07884629644059409   -0.0022971440870507643
-0.0066746600665461685   -0.07879924972403332   -0.0022552985185021997
-0.006350396067208565   -0.07874466554244836   -0.0022341805972784425
-0.005645212354407031   -0.07933549332976386   -0.002439054237795157
-0.006485145849660507   -0.07884629644059409   -0.0022971440870507643
-0.006197818183966148   -0.07871046148248433   -0.0022259408519680825
-0.00539977652414788   -0.07933177513260362   -0.0022364055780953692
-0.006267349077596696   -0.07892163976165044   -0.002241647700928858
-0.006197818183966148   -0.07871046148248433   -0.0022259408519680825
-0.0066746600665461685   -0.07879924972403332   -0.0022552985185021997
-0.00539977652414788   -0.07933177513260362   -0.0022364055780953692
-0.006499493173730458   -0.07882246977050529   -0.0021331129010304854
-0.006267349077596696   -0.07892163976165044   -0.002241647700928858
-0.005136270465087318   -0.07939010719773601   -0.002033302475599356
-0.006499493173730458   -0.07882246977050529   -0.0021331129010304854
-0.00539977652414788   -0.07933177513260362   -0.0022364055780953692
-0.006267349077596696   -0.07892163976165044   -0.002241647700928858
-0.006499493173730458   -0.07882246977050529   -0.0021331129010304854
-0.006042684822236312   -0.07873420434352263   -0.0022089470351962744
-0.006197818183966148   -0.07871046148248433   -0.0022259408519680825
-0.006267349077596696   -0.07892163976165044   -0.002241647700928858
-0.006499493173730458   -0.07882246977050529   -0.0021331129010304854
-0.006197818183966148   -0.07871046148248433   -0.0022259408519680825
-0.00539977652414788   -0.07933177513260362   -0.0022364055780953692
-0.005910096518611539   -0.07940480652243798   -0.002642391723926778
-0.006986985364890981   -0.0789185516718105   -0.0024711341113755232
-0.00492589063717409   -0.08   -0.0028193666981017667
-0.005645212354407031   -0.07933549332976386   -0.002439054237795157
-0.006986985364890981   -0.0789185516718105   -0.0024711341113755232
-0.0077104128787237   -0.07883373359903305   -0.002699013735454623
-0.00492589063717409   -0.08   -0.0028193666981017667
-0.007524931228862602   -0.07874829654964714   -0.0024988387987935545
-0.005645212354407031   -0.07933549332976386   -0.002439054237795157
-0.004592743482260501   -0.08   -0.0025105564266792624
-0.007524931228862602   -0.07874829654964714   -0.0024988387987935545
-0.00492589063717409   -0.08   -0.0028193666981017667
-0.005645212354407031   -0.07933549332976386   -0.002439054237795157
-0.007524931228862602   -0.07874829654964714   -0.0024988387987935545
-0.006844988313158678   -0.07882804222097811   -0.002370009816241788
-0.006986985364890981   -0.0789185516718105   -0.0024711341113755232
-0.005645212354407031   -0.07933549332976386   -0.002439054237795157
-0.007524931228862602   -0.07874829654964714   -0.0024988387987935545
-0.006986985364890981   -0.0789185516718105   -0.0024711341113755232
-0.00492589063717409   -0.08   -0.0028193666981017667
-0.005645212354407031   -0.07933549332976386   -0.002439054237795157
-0.006844988313158678   -0.07882804222097811   -0.002370009816241788
-0.004592743482260501   -0.08   -0.0025105564266792624
-0.00539977652414788   -0.07933177513260362   -0.0022364055780953692
-0.006844988313158678   -0.07882804222097811   -0.002370009816241788
-0.007524931228862602   -0.07874829654964714   -0.0024988387987935545
-0.004592743482260501   -0.08   -0.0025105564266792624
-0.007280211986818194   -0.0787288484649256   -0.002283536510342358
-0.00539977652414788   -0.07933177513260362   -0.0022364055780953692
-0.004258019280598732   -0.08   -0.002198083698999422
-0.007280211986818194   -0.0787288484649256   -0.002283536510342358
-0.004592743482260501   -0.08   -0.0025105564266792624
-0.00539977652414788   -0.07933177513260362   -0.0022364055780953692
-0.007280211986818194   -0.0787288484649256   -0.002283536510342358
-0.0066746600665461685   -0.07879924972403332   -0.0022552985185021997
-0.006844988313158678   -0.07882804222097811   -0.002370009816241788
-0.00539977652414788   -0.07933177513260362   -0.0022364055780953692
-0.007280211986818194   -0.0787288484649256   -0.002283536510342358
-0.006844988313158678   -0.07882804222097811   -0.002370009816241788
-0.004592743482260501   -0.08   -0.0025105564266792624
-0.00539977652414788   -0.07933177513260362   -0.0022364055780953692
-0.0066746600665461685   -0.07879924972403332   -0.0022552985185021997
-0.004258019280598732   -0.08   -0.002198083698999422
-0.005136270465087318   -0.07939010719773601   -0.002033302475599356
-0.0066746600665461685   -0.07879924972403332   -0.0022552985185021997
-0.007280211986818194   -0.0787288484649256   -0.002283536510342358
-0.004258019280598732   -0.08   -0.002198083698999422
-0.007049977961086141   -0.0787626477027767   -0.002059915293457472
-0.005136270465087318   -0.07939010719773601   -0.002033302475599356
-0.003930810376377554   -0.08   -0.0018897414335346033
-0.007049977961086141   -0.0787626477027767   -0.002059915293457472
-0.004258019280598732   -0.08   -0.002198083698999422
-0.005136270465087318   -0.07939010719773601   -0.002033302475599356
-0.007049977961086141   -0.0787626477027767   -0.002059915293457472
-0.006499493173730458   -0.07882246977050529   -0.0021331129010304854
-0.0066746600665461685   -0.07879924972403332   -0.0022552985185021997
-0.005136270465087318   -0.07939010719773601   -0.002033302475599356
-0.007049977961086141   -0.0787626477027767   -0.002059915293457472
-0.0066746600665461685   -0.07879924972403332   -0.0022552985185021997
-0.004258019280598732   -0.08   -0.002198083698999422
-0.00492589063717409   -0.08   -0.0028193666981017667
-0.0077104128787237   -0.07883373359903305   -0.002699013735454623
-0.004212035545044899   -0.08   -0.003033701172298457
-0.004592743482260501   -0.08   -0.0025105564266792624
-0.0077104128787237   -0.07883373359903305   -0.002699013735454623
-0.009116350791193285   -0.07844791245492966   -0.002940604928595651
-0.004212035545044899   -0.08   -0.003033701172298457
-0.00862350498731646   -0.0783759244762431   -0.002612186930827071
-0.004592743482260501   -0.08   -0.0025105564266792624
-0.003515531487588782   -0.08   -0.0025869596198342063
-0.00862350498731646   -0.0783759244762431   -0.002612186930827071
-0.004212035545044899   -0.08   -0.003033701172298457
-0.004592743482260501   -0.08   -0.0025105564266792624
-0.00862350498731646   -0.0783759244762431   -0.002612186930827071
-0.007524931228862602   -0.07874829654964714   -0.0024988387987935545
-0.0077104128787237   -0.07883373359903305   -0.002699013735454623
-0.004592743482260501   -0.08   -0.0025105564266792624
-0.00862350498731646   -0.0783759244762431   -0.002612186930827071
-0.0077104128787237   -0.07883373359903305   -0.002699013735454623
-0.004212035545044899   -0.08   -0.003033701172298457
-0.004592743482260501   -0.08   -0.0025105564266792624
-0.007524931228862602   -0.07874829654964714   -0.0024988387987935545
-0.003515531487588782   -0.08   -0.0025869596198342063
-0.004258019280598732   -0.08   -0.002198083698999422
-0.007524931228862602   -0.07874829654964714   -0.0024988387987935545
-0.00862350498731646   -0.0783759244762431   -0.002612186930827071
-0.003515531487588782   -0.08   -0.0025869596198342063
-0.008170622976379691   -0.07836602845794842   -0.0022616134510525395
-0.004258019280598732   -0.08   -0.002198083698999422
-0.0029600791832934624   -0.08   -0.002159594716895958
-0.008170622976379691   -0.07836602845794842   -0.0022616134510525395
-0.003515531487588782   -0.08   -0.0025869596198342063
-0.004258019280598732   -0.08   -0.002198083698999422
-0.008170622976379691   -0.07836602845794842   -0.0022616134510525395
-0.007280211986818194   -0.0787288484649256   -0.002283536510342358
-0.007524931228862602   -0.07874829654964714   -0.0024988387987935545
-0.004258019280598732   -0.08   -0.002198083698999422
-0.008170622976379691   -0.07836602845794842   -0.0022616134510525395
-0.007524931228862602   -0.07874829654964714   -0.0024988387987935545
-0.003515531487588782   -0.08   -0.0025869596198342063
-0.004258019280598732   -0.08   -0.002198083698999422
-0.007280211986818194   -0.0787288484649256   -0.002283536510342358
-0.0029600791832934624   -0.08   -0.002159594716895958
-0.003930810376377554   -0.08   -0.0018897414335346033
-0.007280211986818194   -0.0787288484649256   -0.002283536510342358
-0.008170622976379691   -0.07836602845794842   -0.0022616134510525395
-0.0029600791832934624   -0.08   -0.002159594716895958
-0.0075986918641638874   -0.07846051126438885   -0.0018949458355203644
-0.003930810376377554   -0.08   -0.0018897414335346033
-0.002273924005737461   -0.08   -0.0017159426889577604
-0.0075986918641638874   -0.07846051126438885   -0.0018949458355203644
-0.0029600791832934624   -0.08   -0.002159594716895958
-0.003930810376377554   -0.08   -0.0018897414335346033
-0.0075986918641638874   -0.07846051126438885   -0.0018949458355203644
-0.007049977961086141   -0.0787626477027767   -0.002059915293457472
-0.007280211986818194   -0.0787288484649256   -0.002283536510342358
-0.003930810376377554   -0.08   -0.0018897414335346033
-0.0075986918641638874   -0.07846051126438885   -0.0018949458355203644
-0.007280211986818194   -0.0787288484649256   -0.002283536510342358
-0.0029600791832934624   -0.08   -0.002159594716895958
-0.00567730574713603   -0.07834837623202795   -0.0016827301884282824
-0.002314706208651809   -0.0753872703917795   -0.0014540483201657408
-0.0060215160645291895   -0.07865189812502252   -0.001987543416653819
-0.005282172501777495   -0.07821187234173861   -0.0019428551029122426
-0.002314706208651809   -0.0753872703917795   -0.0014540483201657408
-0.004320822760636019   -0.07561617211994805   -0.0017777964268770878
-0.0060215160645291895   -0.07865189812502252   -0.001987543416653819
-0.0042108337126801725   -0.07548753586363059   -0.0018768524089591808
-0.005282172501777495   -0.07821187234173861   -0.0019428551029122426
-0.005866638020098775   -0.07854558698167977   -0.0020986601422154005
-0.0042108337126801725   -0.07548753586363059   -0.0018768524089591808
-0.0060215160645291895   -0.07865189812502252   -0.001987543416653819
-0.005282172501777495   -0.07821187234173861   -0.0019428551029122426
-0.0042108337126801725   -0.07548753586363059   -0.0018768524089591808
-0.0019997195124291127   -0.07522809812677449   -0.0016788275982641276
-0.002314706208651809   -0.0753872703917795   -0.0014540483201657408
-0.005282172501777495   -0.07821187234173861   -0.0019428551029122426
-0.0042108337126801725   -0.07548753586363059   -0.0018768524089591808
-0.002314706208651809   -0.0753872703917795   -0.0014540483201657408
-0.0060215160645291895   -0.07865189812502252   -0.001987543416653819
-0.005282172501777495   -0.07821187234173861   -0.0019428551029122426
-0.0019997195124291127   -0.07522809812677449   -0.0016788275982641276
-0.005866638020098775   -0.07854558698167977   -0.0020986601422154005
-0.004953260565640427   -0.07816982702533429   -0.0021923015040110324
-0.0019997195124291127   -0.07522809812677449   -0.0016788275982641276
-0.0042108337126801725   -0.07548753586363059   -0.0018768524089591808
-0.005866638020098775   -0.07854558698167977   -0.0020986601422154005
-0.00408702006474469   -0.07541622381486426   -0.0019669711908423125
-0.004953260565640427   -0.07816982702533429   -0.0021923015040110324
-0.005684982020492697   -0.07850632066735098   -0.00220117187303564
-0.00408702006474469   -0.07541622381486426   -0.0019669711908423125
-0.005866638020098775   -0.07854558698167977   -0.0020986601422154005
-0.004953260565640427   -0.07816982702533429   -0.0021923015040110324
-0.00408702006474469   -0.07541622381486426   -0.0019669711908423125
-0.001751863500432092   -0.07515224595088858   -0.0018903591543784695
-0.0019997195124291127   -0.07522809812677449   -0.0016788275982641276
-0.004953260565640427   -0.07816982702533429   -0.0021923015040110324
-0.00408702006474469   -0.07541622381486426   -0.0019669711908423125
-0.0019997195124291127   -0.07522809812677449   -0.0016788275982641276
-0.005866638020098775   -0.07854558698167977   -0.0020986601422154005
-0.004953260565640427   -0.07816982702533429   -0.0021923015040110324
-0.001751863500432092   -0.07515224595088858   -0.0018903591543784695
-0.005684982020492697   -0.07850632066735098   -0.00220117187303564
-0.00458114222835919   -0.07820519077371925   -0.002429959862568581
-0.001751863500432092   -0.07515224595088858   -0.0018903591543784695
-0.00408702006474469   -0.07541622381486426   -0.0019669711908423125
-0.005684982020492697   -0.07850632066735098   -0.00220117187303564
-0.003992088307883163   -0.07540024428409457   -0.0020484378481715536
-0.00458114222835919   -0.07820519077371925   -0.002429959862568581
-0.005529363978324306   -0.07853466578901708   -0.002294541871425004
-0.003992088307883163   -0.07540024428409457   -0.0020484378481715536
-0.005684982020492697   -0.07850632066735098   -0.00220117187303564
-0.00458114222835919   -0.07820519077371925   -0.002429959862568581
-0.003992088307883163   -0.07540024428409457   -0.0020484378481715536
-0.0014812093337497705   -0.07513793058086975   -0.002088082404329824
-0.001751863500432092   -0.07515224595088858   -0.0018903591543784695
-0.00458114222835919   -0.07820519077371925   -0.002429959862568581
-0.003992088307883163   -0.07540024428409457   -0.0020484378481715536
-0.001751863500432092   -0.07515224595088858   -0.0018903591543784695
-0.005684982020492697   -0.07850632066735098   -0.00220117187303564
-0.0060215160645291895   -0.07865189812502252   -0.001987543416653819
-0.004320822760636019   -0.07561617211994805   -0.0017777964268770878
-0.006487473506438074   -0.07883959336768934   -0.0022312641080534635
-0.005866638020098775   -0.07854558698167977   -0.0020986601422154005
-0.004320822760636019   -0.07561617211994805   -0.0017777964268770878
-0.006300947998909563   -0.07569694365282323   -0.002041885117072464
-0.006487473506438074   -0.07883959336768934   -0.0022312641080534635
-0.006208461832660257   -0.07558471745821596   -0.0020473512097355204
-0.005866638020098775   -0.07854558698167977   -0.0020986601422154005
-0.006350396067208565   -0.07874466554244836   -0.0022341805972784425
-0.006208461832660257   -0.07558471745821596   -0.0020473512097355204
-0.006487473506438074   -0.07883959336768934   -0.0022312641080534635
-0.005866638020098775   -0.07854558698167977   -0.0020986601422154005
-0.006208461832660257   -0.07558471745821596   -0.0020473512097355204
-0.0042108337126801725   -0.07548753586363059   -0.0018768524089591808
-0.004320822760636019   -0.07561617211994805   -0.0017777964268770878
-0.005866638020098775   -0.07854558698167977   -0.0020986601422154005
-0.006208461832660257   -0.07558471745821596   -0.0020473512097355204
-0.004320822760636019   -0.07561617211994805   -0.0017777964268770878
-0.006487473506438074   -0.07883959336768934   -0.0022312641080534635
-0.005866638020098775   -0.07854558698167977   -0.0020986601422154005
-0.0042108337126801725   -0.07548753586363059   -0.0018768524089591808
-0.006350396067208565   -0.07874466554244836   -0.0022341805972784425
-0.005684982020492697   -0.07850632066735098   -0.00220117187303564
-0.0042108337126801725   -0.07548753586363059   -0.0018768524089591808
-0.006208461832660257   -0.07558471745821596   -0.0020473512097355204
-0.006350396067208565   -0.07874466554244836   -0.0022341805972784425
-0.00611280697334588   -0.07552416723671795   -0.002044540611838267
-0.005684982020492697   -0.07850632066735098   -0.00220117187303564
-0.006197818183966148   -0.07871046148248433   -0.0022259408519680825
-0.00611280697334588   -0.07552416723671795   -0.002044540611838267
-0.006350396067208565   -0.07874466554244836   -0.0022341805972784425
-0.005684982020492697   -0.07850632066735098   -0.00220117187303564
-0.00611280697334588   -0.07552416723671795   -0.002044540611838267
-0.00408702006474469   -0.07541622381486426   -0.0019669711908423125
-0.0042108337126801725   -0.07548753586363059   -0.0018768524089591808
-0.005684982020492697   -0.07850632066735098   -0.00220117187303564
-0.00611280697334588   -0.07552416723671795   -0.002044540611838267
-0.0042108337126801725   -0.07548753586363059   -0.0018768524089591808
-0.006350396067208565   -0.07874466554244836   -0.0022341805972784425
-0.005684982020492697   -0.07850632066735098   -0.00220117187303564
-0.00408702006474469   -0.07541622381486426   -0.0019669711908423125
-0.006197818183966148   -0.07871046148248433   -0.0022259408519680825
-0.005529363978324306   -0.07853466578901708   -0.002294541871425004
-0.00408702006474469   -0.07541622381486426   -0.0019669711908423125
-0.00611280697334588   -0.07552416723671795   -0.002044540611838267
-0.006197818183966148   -0.07871046148248433   -0.0022259408519680825
-0.0060205558273303305   -0.07551279976259663   -0.0020333748223293167
-0.005529363978324306   -0.07853466578901708   -0.002294541871425004
-0.006042684822236312   -0.07873420434352263   -0.0022089470351962744
-0.0060205558273303305   -0.07551279976259663   -0.0020333748223293167
-0.006197818183966148   -0.07871046148248433   -0.0022259408519680825
-0.005529363978324306   -0.07853466578901708   -0.002294541871425004
-0.0060205558273303305   -0.07551279976259663   -0.0020333748223293167
-0.003992088307883163   -0.07540024428409457   -0.0020484378481715536
-0.00408702006474469   -0.07541622381486426   -0.0019669711908423125
-0.005529363978324306   -0.07853466578901708   -0.002294541871425004
-0.0060205558273303305   -0.07551279976259663   -0.0020333748223293167
-0.00408702006474469   -0.07541622381486426   -0.0019669711908423125
-0.006197818183966148   -0.07871046148248433   -0.0022259408519680825
-0.006487473506438074   -0.07883959336768934   -0.0022312641080534635
-0.006300947998909563   -0.07569694365282323   -0.002041885117072464
-0.006986985364890981   -0.0789185516718105   -0.0024711341113755232
-0.006350396067208565   -0.07874466554244836   -0.0022341805972784425
-0.006300947998909563   -0.07569694365282323   -0.002041885117072464
-0.008267350775971124   -0.07562516798791669   -0.0022890410819941588
-0.006986985364890981   -0.0789185516718105   -0.0024711341113755232
-0.00817559519388118   -0.07552550158116661   -0.002204769294181276
-0.006350396067208565   -0.07874466554244836   -0.0022341805972784425
-0.006844988313158678   -0.07882804222097811   -0.002370009816241788
-0.00817559519388118   -0.07552550158116661   -0.002204769294181276
-0.006986985364890981   -0.0789185516718105   -0.0024711341113755232
-0.006350396067208565   -0.07874466554244836   -0.0022341805972784425
-0.00817559519388118   -0.07552550158116661   -0.002204769294181276
-0.006208461832660257   -0.07558471745821596   -0.0020473512097355204
-0.006300947998909563   -0.07569694365282323   -0.002041885117072464
-0.006350396067208565   -0.07874466554244836   -0.0022341805972784425
-0.00817559519388118   -0.07552550158116661   -0.002204769294181276
-0.006300947998909563   -0.07569694365282323   -0.002041885117072464
-0.006986985364890981   -0.0789185516718105   -0.0024711341113755232
-0.006350396067208565   -0.07874466554244836   -0.0022341805972784425
-0.006208461832660257   -0.07558471745821596   -0.0020473512097355204
-0.006844988313158678   -0.07882804222097811   -0.002370009816241788
-0.006197818183966148   -0.07871046148248433   -0.0022259408519680825
-0.006208461832660257   -0.07558471745821596   -0.0020473512097355204
-0.00817559519388118   -0.07552550158116661   -0.002204769294181276
-0.006844988313158678   -0.07882804222097811   -0.002370009816241788
-0.008072624394535462   -0.0754766430829046   -0.0021123429638104734
-0.006197818183966148   -0.07871046148248433   -0.0022259408519680825
-0.0066746600665461685   -0.07879924972403332   -0.0022552985185021997
-0.008072624394535462   -0.0754766430829046   -0.0021123429638104734
-0.006844988313158678   -0.07882804222097811   -0.002370009816241788
-0.006197818183966148   -0.07871046148248433   -0.0022259408519680825
-0.008072624394535462   -0.0754766430829046   -0.0021123429638104734
-0.00611280697334588   -0.07552416723671795   -0.002044540611838267
-0.006208461832660257   -0.07558471745821596   -0.0020473512097355204
-0.006197818183966148   -0.07871046148248433   -0.0022259408519680825
-0.008072624394535462   -0.0754766430829046   -0.0021123429638104734
-0.006208461832660257   -0.07558471745821596   -0.0020473512097355204
-0.006844988313158678   -0.07882804222097811   -0.002370009816241788
-0.006197818183966148   -0.07871046148248433   -0.0022259408519680825
-0.00611280697334588   -0.07552416723671795   -0.002044540611838267
-0.0066746600665461685   -0.07879924972403332   -0.0022552985185021997
-0.006042684822236312   -0.07873420434352263   -0.0022089470351962744
-0.00611280697334588   -0.07552416723671795   -0.002044540611838267
-0.008072624394535462   -0.0754766430829046   -0.0021123429638104734
-0.0066746600665461685   -0.07879924972403332   -0.0022552985185021997
-0.007969222032871533   -0.07547369703547424   -0.0020107684993811124
-0.006042684822236312   -0.07873420434352263   -0.0022089470351962744
-0.006499493173730458   -0.07882246977050529   -0.0021331129010304854
-0.007969222032871533   -0.07547369703547424   -0.0020107684993811124
-0.0066746600665461685   -0.07879924972403332   -0.0022552985185021997
-0.006042684822236312   -0.07873420434352263   -0.0022089470351962744
-0.007969222032871533   -0.07547369703547424   -0.0020107684993811124
-0.0060205558273303305   -0.07551279976259663   -0.0020333748223293167
-0.00611280697334588   -0.07552416723671795   -0.002044540611838267
-0.006042684822236312   -0.07873420434352263   -0.0022089470351962744
-0.007969222032871533   -0.07547369703547424   -0.0020107684993811124
-0.00611280697334588   -0.07552416723671795   -0.002044540611838267
-0.0066746600665461685   -0.07879924972403332   -0.0022552985185021997
-0.006986985364890981   -0.0789185516718105   -0.0024711341113755232
-0.008267350775971124   -0.07562516798791669   -0.0022890410819941588
-0.0077104128787237   -0.07883373359903305   -0.002699013735454623
-0.006844988313158678   -0.07882804222097811   -0.002370009816241788
-0.008267350775971124   -0.07562516798791669   -0.0022890410819941588
-0.010427836908589767   -0.07539133389874444   -0.0025160423391428818
-0.0077104128787237   -0.07883373359903305   -0.002699013735454623
-0.010315530322965585   -0.0753042587602244   -0.002344036993942041
-0.006844988313158678   -0.07882804222097811   -0.002370009816241788
-0.007524931228862602   -0.07874829654964714   -0.0024988387987935545
-0.010315530322965585   -0.0753042587602244   -0.002344036993942041
-0.0077104128787237   -0.07883373359903305   -0.002699013735454623
-0.006844988313158678   -0.07882804222097811   -0.002370009816241788
-0.010315530322965585   -0.0753042587602244   -0.002344036993942041
-0.00817559519388118   -0.07552550158116661   -0.002204769294181276
-0.008267350775971124   -0.07562516798791669   -0.0022890410819941588
-0.006844988313158678   -0.07882804222097811   -0.002370009816241788
-0.010315530322965585   -0.0753042587602244   -0.002344036993942041
-0.008267350775971124   -0.07562516798791669   -0.0022890410819941588
-0.0077104128787237   -0.07883373359903305   -0.002699013735454623
-0.006844988313158678   -0.07882804222097811   -0.002370009816241788
-0.00817559519388118   -0.07552550158116661   -0.002204769294181276
-0.007524931228862602   -0.07874829654964714   -0.0024988387987935545
-0.0066746600665461685   -0.07879924972403332   -0.0022552985185021997
-0.00817559519388118   -0.07552550158116661   -0.002204769294181276
-0.010315530322965585   -0.0753042587602244   -0.002344036993942041
-0.007524931228862602   -0.07874829654964714   -0.0024988387987935545
-0.010160486862298685   -0.07526704535906956   -0.0021644741605846406
-0.0066746600665461685   -0.07879924972403332   -0.0022552985185021997
-0.007280211986818194   -0.0787288484649256   -0.002283536510342358
-0.010160486862298685   -0.07526704535906956   -0.0021644741605846406
-0.007524931228862602   -0.07874829654964714   -0.0024988387987935545
-0.0066746600665461685   -0.07879924972403332   -0.0022552985185021997
-0.010160486862298685   -0.07526704535906956   -0.0021644741605846406
-0.008072624394535462   -0.0754766430829046   -0.0021123429638104734
-0.00817559519388118   -0.07552550158116661   -0.002204769294181276
-0.0066746600665461685   -0.07879924972403332   -0.0022552985185021997
-0.010160486862298685   -0.07526704535906956   -0.0021644741605846406
-0.00817559519388118   -0.07552550158116661   -0.002204769294181276
-0.007524931228862602   -0.07874829654964714   -0.0024988387987935545
-0.0066746600665461685   -0.07879924972403332   -0.0022552985185021997
-0.008072624394535462   -0.0754766430829046   -0.0021123429638104734
-0.007280211986818194   -0.0787288484649256   -0.002283536510342358
-0.006499493173730458   -0.07882246977050529   -0.0021331129010304854
-0.008072624394535462   -0.0754766430829046   -0.0021123429638104734
-0.010160486862298685   -0.07526704535906956   -0.0021644741605846406
-0.007280211986818194   -0.0787288484649256   -0.002283536510342358
-0.01002513797872014   -0.07527975400366665   -0.0019723466809598157
-0.006499493173730458   -0.07882246977050529   -0.0021331129010304854
-0.007049977961086141   -0.0787626477027767   -0.002059915293457472
-0.01002513797872014   -0.07527975400366665   -0.0019723466809598157
-0.007280211986818194   -0.0787288484649256   -0.002283536510342358
-0.006499493173730458   -0.07882246977050529   -0.0021331129010304854
-0.01002513797872014   -0.07527975400366665   -0.0019723466809598157
-0.007969222032871533   -0.07547369703547424   -0.0020107684993811124
-0.008072624394535462   -0.0754766430829046   -0.0021123429638104734
-0.006499493173730458   -0.07882246977050529   -0.0021331129010304854
-0.01002513797872014   -0.07527975400366665   -0.0019723466809598157
-0.008072624394535462   -0.0754766430829046   -0.0021123429638104734
-0.007280211986818194   -0.0787288484649256   -0.002283536510342358
-0.0077104128787237   -0.07883373359903305   -0.002699013735454623
-0.010427836908589767   -0.07539133389874444   -0.0025160423391428818
-0.009116350791193285   -0.07844791245492966   -0.002940604928595651
-0.007524931228862602   -0.07874829654964714   -0.0024988387987935545
-0.010427836908589767   -0.07539133389874444   -0.0025160423391428818
-0.013210042731156583   -0.07501104386259339   -0.002733846334961495
-0.009116350791193285   -0.07844791245492966   -0.002940604928595651
-0.012848553480127946   -0.07491667314403648   -0.00246228723101987
-0.007524931228862602   -0.07874829654964714   -0.0024988387987935545
-0.00862350498731646   -0.0783759244762431   -0.002612186930827071
-0.012848553480127946   -0.07491667314403648   -0.00246228723101987
-0.009116350791193285   -0.07844791245492966   -0.002940604928595651
-0.007524931228862602   -0.07874829654964714   -0.0024988387987935545
-0.012848553480127946   -0.07491667314403648   -0.00246228723101987
-0.010315530322965585   -0.0753042587602244   -0.002344036993942041
-0.010427836908589767   -0.07539133389874444   -0.0025160423391428818
-0.007524931228862602   -0.07874829654964714   -0.0024988387987935545
-0.012848553480127946   -0.07491667314403648   -0.00246228723101987
-0.010427836908589767   -0.07539133389874444   -0.0025160423391428818
-0.009116350791193285   -0.07844791245492966   -0.002940604928595651
-0.007524931228862602   -0.07874829654964714   -0.0024988387987935545
-0.010315530322965585   -0.0753042587602244   -0.002344036993942041
-0.00862350498731646   -0.0783759244762431   -0.002612186930827071
-0.007280211986818194   -0.0787288484649256   -0.002283536510342358
-0.010315530322965585   -0.0753042587602244   -0.002344036993942041
-0.012848553480127946   -0.07491667314403648   -0.00246228723101987
-0.00862350498731646   -0.0783759244762431   -0.002612186930827071
-0.012524486342554417   -0.07488225188568089   -0.002174882782388712
-0.007280211986818194   -0.0787288484649256   -0.002283536510342358
-0.008170622976379691   -0.07836602845794842   -0.0022616134510525395
-0.012524486342554417   -0.07488225188568089   -0.002174882782388712
-0.00862350498731646   -0.0783759244762431   -0.002612186930827071
-0.007280211986818194   -0.0787288484649256   -0.002283536510342358
-0.012524486342554417   -0.07488225188568089   -0.002174882782388712
-0.010160486862298685   -0.07526704535906956   -0.0021644741605846406
-0.010315530322965585   -0.0753042587602244   -0.002344036993942041
-0.007280211986818194   -0.0787288484649256   -0.002283536510342358
-0.012524486342554417   -0.07488225188568089   -0.002174882782388712
-0.010315530322965585   -0.0753042587602244   -0.002344036993942041
-0.00862350498731646   -0.0783759244762431   -0.002612186930827071
-0.007280211986818194   -0.0787288484649256   -0.002283536510342358
-0.010160486862298685   -0.07526704535906956   -0.0021644741605846406
-0.008170622976379691   -0.07836602845794842   -0.0022616134510525395
-0.007049977961086141   -0.0787626477027767   -0.002059915293457472
-0.010160486862298685   -0.07526704535906956   -0.0021644741605846406
-0.012524486342554417   -0.07488225188568089   -0.002174882782388712
-0.008170622976379691   -0.07836602845794842   -0.0022616134510525395
-0.012104473517597495   -0.0749255249963899   -0.001874365665798759
-0.007049977961086141   -0.0787626477027767   -0.002059915293457472
-0.0075986918641638874   -0.07846051126438885   -0.0018949458355203644
-0.012104473517597495   -0.0749255249963899   -0.001874365665798759
-0.008170622976379691   -0.07836602845794842   -0.0022616134510525395
-0.007049977961086141   -0.0787626477027767   -0.002059915293457472
-0.012104473517597495   -0.0749255249963899   -0.001874365665798759
-0.01002513797872014   -0.07527975400366665   -0.0019723466809598157
-0.010160486862298685   -0.07526704535906956   -0.0021644741605846406
-0.007049977961086141   -0.0787626477027767   -0.002059915293457472
-0.012104473517597495   -0.0749255249963899   -0.001874365665798759
-0.010160486862298685   -0.07526704535906956   -0.0021644741605846406
-0.008170622976379691   -0.07836602845794842   -0.0022616134510525395
-0.002314706208651809   -0.0753872703917795   -0.0014540483201657408
0.0004122786555968722   -0.06993932150204711   -0.0012028476708729403
-0.004320822760636019   -0.07561617211994805   -0.0017777964268770878
-0.0019997195124291127   -0.07522809812677449   -0.0016788275982641276
0.0004122786555968722   -0.06993932150204711   -0.0012028476708729403
-0.002970684391103566   -0.07010713266824099   -0.0015206726018467311
-0.004320822760636019   -0.07561617211994805   -0.0017777964268770878
-0.0029124032414881047   -0.06997232599725797   -0.0015992373193842795
-0.0019997195124291127   -0.07522809812677449   -0.0016788275982641276
-0.0042108337126801725   -0.07548753586363059   -0.0018768524089591808
-0.0029124032414881047   -0.06997232599725797   -0.0015992373193842795
-0.004320822760636019   -0.07561617211994805   -0.0017777964268770878
-0.0019997195124291127   -0.07522809812677449   -0.0016788275982641276
-0.0029124032414881047   -0.06997232599725797   -0.0015992373193842795
0.0006321673917812033   -0.06977761386731066   -0.0013817865555530908
0.0004122786555968722   -0.06993932150204711   -0.0012028476708729403
-0.0019997195124291127   -0.07522809812677449   -0.0016788275982641276
-0.0029124032414881047   -0.06997232599725797   -0.0015992373193842795
0.0004122786555968722   -0.06993932150204711   -0.0012028476708729403
-0.004320822760636019   -0.07561617211994805   -0.0017777964268770878
-0.0019997195124291127   -0.07522809812677449   -0.0016788275982641276
0.0006321673917812033   -0.06977761386731066   -0.0013817865555530908
-0.0042108337126801725   -0.07548753586363059   -0.0018768524089591808
-0.001751863500432092   -0.07515224595088858   -0.0018903591543784695
0.0006321673917812033   -0.06977761386731066   -0.0013817865555530908
-0.0029124032414881047   -0.06997232599725797   -0.0015992373193842795
-0.0042108337126801725   -0.07548753586363059   -0.0018768524089591808
-0.002846045900122078   -0.06988425211467299   -0.001668643220398808
-0.001751863500432092   -0.07515224595088858   -0.0018903591543784695
-0.00408702006474469   -0.07541622381486426   -0.0019669711908423125
-0.002846045900122078   -0.06988425211467299   -0.001668643220398808
-0.0042108337126801725   -0.07548753586363059   -0.0018768524089591808
-0.001751863500432092   -0.07515224595088858   -0.0018903591543784695
-0.002846045900122078   -0.06988425211467299   -0.001668643220398808
0.000793911368151543   -0.06968413454165767   -0.0015479061814360133
0.0006321673917812033   -0.06977761386731066   -0.0013817865555530908
-0.001751863500432092   -0.07515224595088858   -0.0018903591543784695
-0.002846045900122078   -0.06988425211467299   -0.001668643220398808
0.0006321673917812033   -0.06977761386731066   -0.0013817865555530908
-0.0042108337126801725   -0.07548753586363059   -0.0018768524089591808
-0.001751863500432092   -0.07515224595088858   -0.0018903591543784695
0.000793911368151543   -0.06968413454165767   -0.0015479061814360133
-0.00408702006474469   -0.07541622381486426   -0.0019669711908423125
-0.0014812093337497705   -0.07513793058086975   -0.002088082404329824
0.000793911368151543   -0.06968413454165767   -0.0015479061814360133
-0.002846045900122078   -0.06988425211467299   -0.001668643220398808
-0.00408702006474469   -0.07541622381486426   -0.0019669711908423125
-0.0028063746582378626   -0.06984030582193637   -0.0017297945228282375
-0.0014812093337497705   -0.07513793058086975   -0.002088082404329824
-0.003992088307883163   -0.07540024428409457   -0.0020484378481715536
-0.0028063746582378626   -0.06984030582193637   -0.0017297945228282375
-0.00408702006474469   -0.07541622381486426   -0.0019669711908423125
-0.0014812093337497705   -0.07513793058086975   -0.002088082404329824
-0.0028063746582378626   -0.06984030582193637   -0.0017297945228282375
0.0009670385312206241   -0.069637997384324   -0.0017011434516310368
0.000793911368151543   -0.06968413454165767   -0.0015479061814360133
-0.0014812093337497705   -0.07513793058086975   -0.002088082404329824
-0.0028063746582378626   -0.06984030582193637   -0.0017297945228282375
0.000793911368151543   -0.06968413454165767   -0.0015479061814360133
-0.00408702006474469   -0.07541622381486426   -0.0019669711908423125
-0.004320822760636019   -0.07561617211994805   -0.0017777964268770878
-0.002970684391103566   -0.07010713266824099   -0.0015206726018467311
-0.006300947998909563   -0.07569694365282323   -0.002041885117072464
-0.0042108337126801725   -0.07548753586363059   -0.0018768524089591808
-0.002970684391103566   -0.07010713266824099   -0.0015206726018467311
-0.006243186790504036   -0.07013922740594043   -0.001782582407064833
-0.006300947998909563   -0.07569694365282323   -0.002041885117072464
-0.0062003376111207115   -0.07002349737934518   -0.0017846118575059642
-0.0042108337126801725   -0.07548753586363059   -0.0018768524089591808
-0.006208461832660257   -0.07558471745821596   -0.0020473512097355204
-0.0062003376111207115   -0.07002349737934518   -0.0017846118575059642
-0.006300947998909563   -0.07569694365282323   -0.002041885117072464
-0.0042108337126801725   -0.07548753586363059   -0.0018768524089591808
-0.0062003376111207115   -0.07002349737934518   -0.0017846118575059642
-0.0029124032414881047   -0.06997232599725797   -0.0015992373193842795
-0.002970684391103566   -0.07010713266824099   -0.0015206726018467311
-0.0042108337126801725   -0.07548753586363059   -0.0018768524089591808
-0.0062003376111207115   -0.07002349737934518   -0.0017846118575059642
-0.002970684391103566   -0.07010713266824099   -0.0015206726018467311
-0.006300947998909563   -0.07569694365282323   -0.002041885117072464
-0.0042108337126801725   -0.07548753586363059   -0.0018768524089591808
-0.0029124032414881047   -0.06997232599725797   -0.0015992373193842795
-0.006208461832660257   -0.07558471745821596   -0.0020473512097355204
-0.00408702006474469   -0.07541622381486426   -0.0019669711908423125
-0.0029124032414881047   -0.06997232599725797   -0.0015992373193842795
-0.0062003376111207115   -0.07002349737934518   -0.0017846118575059642
-0.006208461832660257   -0.07558471745821596   -0.0020473512097355204
-0.0061562771601286525   -0.06994959632793656   -0.0017778668483084906
-0.00408702006474469   -0.07541622381486426   -0.0019669711908423125
-0.00611280697334588   -0.07552416723671795   -0.002044540611838267
-0.0061562771601286525   -0.06994959632793656   -0.0017778668483084906
-0.006208461832660257   -0.07558471745821596   -0.0020473512097355204
-0.00408702006474469   -0.07541622381486426   -0.0019669711908423125
-0.0061562771601286525   -0.06994959632793656   -0.0017778668483084906
-0.002846045900122078   -0.06988425211467299   -0.001668643220398808
-0.0029124032414881047   -0.06997232599725797   -0.0015992373193842795
-0.00408702006474469   -0.07541622381486426   -0.0019669711908423125
-0.0061562771601286525   -0.06994959632793656   -0.0017778668483084906
-0.0029124032414881047   -0.06997232599725797   -0.0015992373193842795
-0.006208461832660257   -0.07558471745821596   -0.0020473512097355204
-0.00408702006474469   -0.07541622381486426   -0.0019669711908423125
-0.002846045900122078   -0.06988425211467299   -0.001668643220398808
-0.00611280697334588   -0.07552416723671795   -0.002044540611838267
-0.003992088307883163   -0.07540024428409457   -0.0020484378481715536
-0.002846045900122078   -0.06988425211467299   -0.001668643220398808
-0.0061562771601286525   -0.06994959632793656   -0.0017778668483084906
-0.00611280697334588   -0.07552416723671795   -0.002044540611838267
-0.00611773937556372   -0.06991683244830968   -0.0017629307185366625
-0.003992088307883163   -0.07540024428409457   -0.0020484378481715536
-0.0060205558273303305   -0.07551279976259663   -0.0020333748223293167
-0.00611773937556372   -0.06991683244830968   -0.0017629307185366625
-0.00611280697334588   -0.07552416723671795   -0.002044540611838267
-0.003992088307883163   -0.07540024428409457   -0.0020484378481715536
-0.00611773937556372   -0.06991683244830968   -0.0017629307185366625
-0.0028063746582378626   -0.06984030582193637   -0.0017297945228282375
-0.002846045900122078   -0.06988425211467299   -0.001668643220398808
-0.003992088307883163   -0.07540024428409457   -0.0020484378481715536
-0.00611773937556372   -0.06991683244830968   -0.0017629307185366625
-0.002846045900122078   -0.06988425211467299   -0.001668643220398808
-0.00611280697334588   -0.07552416723671795   -0.002044540611838267
-0.006300947998909563   -0.07569694365282323   -0.002041885117072464
-0.006243186790504036   -0.07013922740594043   -0.001782582407064833
-0.008267350775971124   -0.07562516798791669   -0.0022890410819941588
-0.006208461832660257   -0.07558471745821596   -0.0020473512097355204
-0.006243186790504036   -0.07013922740594043   -0.001782582407064833
-0.009464211258799227   -0.0700350292682838   -0.0020190034868760973
-0.008267350775971124   -0.07562516798791669   -0.0022890410819941588
-0.00942431801044564   -0.06993517539222831   -0.0019463439019240505
-0.006208461832660257   -0.07558471745821596   -0.0020473512097355204
-0.00817559519388118   -0.07552550158116661   -0.002204769294181276
-0.00942431801044564   -0.06993517539222831   -0.0019463439019240505
-0.008267350775971124   -0.07562516798791669   -0.0022890410819941588
-0.006208461832660257   -0.07558471745821596   -0.0020473512097355204
-0.00942431801044564   -0.06993517539222831   -0.0019463439019240505
-0.0062003376111207115   -0.07002349737934518   -0.0017846118575059642
-0.006243186790504036   -0.07013922740594043   -0.001782582407064833
-0.006208461832660257   -0.07558471745821596   -0.0020473512097355204
-0.00942431801044564   -0.06993517539222831   -0.0019463439019240505
-0.006243186790504036   -0.07013922740594043   -0.001782582407064833
-0.008267350775971124   -0.07562516798791669   -0.0022890410819941588
-0.006208461832660257   -0.07558471745821596   -0.0020473512097355204
-0.0062003376111207115   -0.07002349737934518   -0.0017846118575059642
-0.00817559519388118   -0.07552550158116661   -0.002204769294181276
-0.00611280697334588   -0.07552416723671795   -0.002044540611838267
-0.0062003376111207115   -0.07002349737934518   -0.0017846118575059642
-0.00942431801044564   -0.06993517539222831   -0.0019463439019240505
-0.00817559519388118   -0.07552550158116661   -0.002204769294181276
-0.009376113262604678   -0.06987669016043116   -0.0018650997334974187
-0.00611280697334588   -0.07552416723671795   -0.002044540611838267
-0.008072624394535462   -0.0754766430829046   -0.0021123429638104734
-0.009376113262604678   -0.06987669016043116   -0.0018650997334974187
-0.00817559519388118   -0.07552550158116661   -0.002204769294181276
-0.00611280697334588   -0.07552416723671795   -0.002044540611838267
-0.009376113262604678   -0.06987669016043116   -0.0018650997334974187
-0.0061562771601286525   -0.06994959632793656   -0.0017778668483084906
-0.0062003376111207115   -0.07002349737934518   -0.0017846118575059642
-0.00611280697334588   -0.07552416723671795   -0.002044540611838267
-0.009376113262604678   -0.06987669016043116   -0.0018650997334974187
-0.0062003376111207115   -0.07002349737934518   -0.0017846118575059642
-0.00817559519388118   -0.07552550158116661   -0.002204769294181276
-0.00611280697334588   -0.07552416723671795   -0.002044540611838267
-0.0061562771601286525   -0.06994959632793656   -0.0017778668483084906
-0.008072624394535462   -0.0754766430829046   -0.0021123429638104734
-0.0060205558273303305   -0.07551279976259663   -0.0020333748223293167
-0.0061562771601286525   -0.06994959632793656   -0.0017778668483084906
-0.009376113262604678   -0.06987669016043116   -0.0018650997334974187
-0.008072624394535462   -0.0754766430829046   -0.0021123429638104734
-0.009329225305747622   -0.0698576483269511   -0.0017755354639257892
-0.0060205558273303305   -0.07551279976259663   -0.0020333748223293167
-0.007969222032871533   -0.07547369703547424   -0.0020107684993811124
-0.009329225305747622   -0.0698576483269511   -0.0017755354639257892
-0.008072624394535462   -0.0754766430829046   -0.0021123429638104734
-0.0060205558273303305   -0.07551279976259663   -0.0020333748223293167
-0.009329225305747622   -0.0698576483269511   -0.0017755354639257892
-0.00611773937556372   -0.06991683244830968   -0.0017629307185366625
-0.0061562771601286525   -0.06994959632793656   -0.0017778668483084906
-0.0060205558273303305   -0.07551279976259663   -0.0020333748223293167
-0.009329225305747622   -0.0698576483269511   -0.0017755354639257892
-0.0061562771601286525   -0.06994959632793656   -0.0017778668483084906
-0.008072624394535462   -0.0754766430829046   -0.0021123429638104734
-0.008267350775971124   -0.07562516798791669   -0.0022890410819941588
-0.009464211258799227   -0.0700350292682838   -0.0020190034868760973
-0.010427836908589767   -0.07539133389874444   -0.0025160423391428818
-0.00817559519388118   -0.07552550158116661   -0.002204769294181276
-0.009464211258799227   -0.0700350292682838   -0.0020190034868760973
-0.012839769532690896   -0.0697982360780254   -0.0022290212565335642
-0.010427836908589767   -0.07539133389874444   -0.0025160423391428818
-0.012787672057027539   -0.06971354476550945   -0.002081581006573579
-0.00817559519388118   -0.07552550158116661   -0.002204769294181276
-0.010315530322965585   -0.0753042587602244   -0.002344036993942041
-0.012787672057027539   -0.06971354476550945   -0.002081581006573579
-0.010427836908589767   -0.07539133389874444   -0.0025160423391428818
-0.00817559519388118   -0.07552550158116661   -0.002204769294181276
-0.012787672057027539   -0.06971354476550945   -0.002081581006573579
-0.00942431801044564   -0.06993517539222831   -0.0019463439019240505
-0.009464211258799227   -0.0700350292682838   -0.0020190034868760973
-0.00817559519388118   -0.07552550158116661   -0.002204769294181276
-0.012787672057027539   -0.06971354476550945   -0.002081581006573579
-0.009464211258799227   -0.0700350292682838   -0.0020190034868760973
-0.010427836908589767   -0.07539133389874444   -0.0025160423391428818
-0.00817559519388118   -0.07552550158116661   -0.002204769294181276
-0.00942431801044564   -0.06993517539222831   -0.0019463439019240505
-0.010315530322965585   -0.0753042587602244   -0.002344036993942041
-0.008072624394535462   -0.0754766430829046   -0.0021123429638104734
-0.00942431801044564   -0.06993517539222831   -0.0019463439019240505
-0.012787672057027539   -0.06971354476550945   -0.002081581006573579
-0.010315530322965585   -0.0753042587602244   -0.002344036993942041
-0.012699360877167344   -0.06966903595564856   -0.001926874616310024
-0.008072624394535462   -0.0754766430829046   -0.0021123429638104734
-0.010160486862298685   -0.07526704535906956   -0.0021644741605846406
-0.012699360877167344   -0.06966903595564856   -0.001926874616310024
-0.010315530322965585   -0.0753042587602244   -0.002344036993942041
-0.008072624394535462   -0.0754766430829046   -0.0021123429638104734
-0.012699360877167344   -0.06966903595564856   -0.001926874616310024
-0.009376113262604678   -0.06987669016043116   -0.0018650997334974187
-0.00942431801044564   -0.06993517539222831   -0.0019463439019240505
-0.008072624394535462   -0.0754766430829046   -0.0021123429638104734
-0.012699360877167344   -0.06966903595564856   -0.001926874616310024
-0.00942431801044564   -0.06993517539222831   -0.0019463439019240505
-0.010315530322965585   -0.0753042587602244   -0.002344036993942041
-0.008072624394535462   -0.0754766430829046   -0.0021123429638104734
-0.009376113262604678   -0.06987669016043116   -0.0018650997334974187
-0.010160486862298685   -0.07526704535906956   -0.0021644741605846406
-0.007969222032871533   -0.07547369703547424   -0.0020107684993811124
-0.009376113262604678   -0.06987669016043116   -0.0018650997334974187
-0.012699360877167344   -0.06966903595564856   -0.001926874616310024
-0.010160486862298685   -0.07526704535906956   -0.0021644741605846406
-0.012627611693906063   -0.06966706098826883   -0.0017626379904200809
-0.007969222032871533   -0.07547369703547424   -0.0020107684993811124
-0.01002513797872014   -0.07527975400366665   -0.0019723466809598157
-0.012627611693906063   -0.06966706098826883   -0.0017626379904200809
-0.010160486862298685   -0.07526704535906956   -0.0021644741605846406
-0.007969222032871533   -0.07547369703547424   -0.0020107684993811124
-0.012627611693906063   -0.06966706098826883   -0.0017626379904200809
-0.009329225305747622   -0.0698576483269511   -0.0017755354639257892
-0.009376113262604678   -0.06987669016043116   -0.0018650997334974187
-0.007969222032871533   -0.07547369703547424   -0.0020107684993811124
-0.012627611693906063   -0.06966706098826883   -0.0017626379904200809
-0.009376113262604678   -0.06987669016043116   -0.0018650997334974187
-0.010160486862298685   -0.07526704535906956   -0.0021644741605846406
-0.010427836908589767   -0.07539133389874444   -0.0025160423391428818
-0.012839769532690896   -0.0697982360780254   -0.0022290212565335642
-0.013210042731156583   -0.07501104386259339   -0.002733846334961495
-0.010315530322965585   -0.0753042587602244   -0.002344036993942041
-0.012839769532690896   -0.0697982360780254   -0.0022290212565335642
-0.016776475547548735   -0.06945733444823377   -0.0024247805637388955
-0.013210042731156583   -0.07501104386259339   -0.002733846334961495
-0.016509801219376556   -0.06936903550833874   -0.0021940128591557083
-0.010315530322965585   -0.0753042587602244   -0.002344036993942041
-0.012848553480127946   -0.07491667314403648   -0.00246228723101987
-0.016509801219376556   -0.06936903550833874   -0.0021940128591557083
-0.013210042731156583   -0.07501104386259339   -0.002733846334961495
-0.010315530322965585   -0.0753042587602244   -0.002344036993942041
-0.016509801219376556   -0.06936903550833874   -0.0021940128591557083
-0.012787672057027539   -0.06971354476550945   -0.002081581006573579
-0.012839769532690896   -0.0697982360780254   -0.0022290212565335642
-0.010315530322965585   -0.0753042587602244   -0.002344036993942041
-0.016509801219376556   -0.06936903550833874   -0.0021940128591557083
-0.012839769532690896   -0.0697982360780254   -0.0022290212565335642
-0.013210042731156583   -0.07501104386259339   -0.002733846334961495
-0.010315530322965585   -0.0753042587602244   -0.002344036993942041
-0.012787672057027539   -0.06971354476550945   -0.002081581006573579
-0.012848553480127946   -0.07491667314403648   -0.00246228723101987
-0.010160486862298685   -0.07526704535906956   -0.0021644741605846406
-0.012787672057027539   -0.06971354476550945   -0.002081581006573579
-0.016509801219376556   -0.06936903550833874   -0.0021940128591557083
-0.012848553480127946   -0.07491667314403648   -0.00246228723101987
-0.016278318270500036   -0.06932832073236839   -0.0019512669718644731
-0.010160486862298685   -0.07526704535906956   -0.0021644741605846406
-0.012524486342554417   -0.07488225188568089   -0.002174882782388712
-0.016278318270500036   -0.06932832073236839   -0.0019512669718644731
-0.012848553480127946   -0.07491667314403648   -0.00246228723101987
-0.010160486862298685   -0.07526704535906956   -0.0021644741605846406
-0.016278318270500036   -0.06932832073236839   -0.0019512669718644731
-0.012699360877167344   -0.06966903595564856   -0.001926874616310024
-0.012787672057027539   -0.06971354476550945   -0.002081581006573579
-0.010160486862298685   -0.07526704535906956   -0.0021644741605846406
-0.016278318270500036   -0.06932832073236839   -0.0019512669718644731
-0.012787672057027539   -0.06971354476550945   -0.002081581006573579
-0.012848553480127946   -0.07491667314403648   -0.00246228723101987
-0.010160486862298685   -0.07526704535906956   -0.0021644741605846406
-0.012699360877167344   -0.06966903595564856   -0.001926874616310024
-0.012524486342554417   -0.07488225188568089   -0.002174882782388712
-0.01002513797872014   -0.07527975400366665   -0.0019723466809598157
-0.012699360877167344   -0.06966903595564856   -0.001926874616310024
-0.016278318270500036   -0.06932832073236839   -0.0019512669718644731
-0.012524486342554417   -0.07488225188568089   -0.002174882782388712
-0.015966434941394197   -0.0693526234597228   -0.0016980901584620755
-0.01002513797872014   -0.07527975400366665   -0.0019723466809598157
-0.012104473517597495   -0.0749255249963899   -0.001874365665798759
-0.015966434941394197   -0.0693526234597228   -0.0016980901584620755
-0.012524486342554417   -0.07488225188568089   -0.002174882782388712
-0.01002513797872014   -0.07527975400366665   -0.0019723466809598157
-0.015966434941394197   -0.0693526234597228   -0.0016980901584620755
-0.012627611693906063   -0.06966706098826883   -0.0017626379904200809
-0.012699360877167344   -0.06966903595564856   -0.001926874616310024
-0.01002513797872014   -0.07527975400366665   -0.0019723466809598157
-0.015966434941394197   -0.0693526234597228   -0.0016980901584620755
-0.012699360877167344   -0.06966903595564856   -0.001926874616310024
-0.012524486342554417   -0.07488225188568089   -0.002174882782388712
0.0004122786555968722   -0.06993932150204711   -0.0012028476708729403
0.002482164106069197   -0.06254422639785175   -0.000916642550317079
-0.002970684391103566   -0.07010713266824099   -0.0015206726018467311
0.0006321673917812033   -0.06977761386731066   -0.0013817865555530908
0.002482164106069197   -0.06254422639785175   -0.000916642550317079
-0.001996206555809531   -0.06265510748155233   -0.001219999162764189
-0.002970684391103566   -0.07010713266824099   -0.0015206726018467311
-0.0019841047058000547   -0.0625210235017655   -0.0012744460508608228
0.0006321673917812033   -0.06977761386731066   -0.0013817865555530908
-0.0029124032414881047   -0.06997232599725797   -0.0015992373193842795
-0.0019841047058000547   -0.0625210235017655   -0.0012744460508608228
-0.002970684391103566   -0.07010713266824099   -0.0015206726018467311
0.0006321673917812033   -0.06977761386731066   -0.0013817865555530908
-0.0019841047058000547   -0.0625210235017655   -0.0012744460508608228
0.002612708286198599   -0.06238643481671606   -0.0010489502268751945
0.002482164106069197   -0.06254422639785175   -0.000916642550317079
0.0006321673917812033   -0.06977761386731066   -0.0013817865555530908
-0.0019841047058000547   -0.0625210235017655   -0.0012744460508608228
0.002482164106069197   -0.06254422639785175   -0.000916642550317079
-0.002970684391103566   -0.07010713266824099   -0.0015206726018467311
0.0006321673917812033   -0.06977761386731066   -0.0013817865555530908
0.002612708286198599   -0.06238643481671606   -0.0010489502268751945
-0.0029124032414881047   -0.06997232599725797   -0.0015992373193842795
0.000793911368151543   -0.06968413454165767   -0.0015479061814360133
0.002612708286198599   -0.06238643481671606   -0.0010489502268751945
-0.0019841047058000547   -0.0625210235017655   -0.0012744460508608228
-0.0029124032414881047   -0.06997232599725797   -0.0015992373193842795
-0.001968714826341175   -0.062423795170279316   -0.0013205251550577493
0.000793911368151543   -0.06968413454165767   -0.0015479061814360133
-0.002846045900122078   -0.06988425211467299   -0.001668643220398808
-0.001968714826341175   -0.062423795170279316   -0.0013205251550577493
-0.0029124032414881047   -0.06997232599725797   -0.0015992373193842795
0.000793911368151543   -0.06968413454165767   -0.0015479061814360133
-0.001968714826341175   -0.062423795170279316   -0.0013205251550577493
0.002696155304865341   -0.062282871607150424   -0.0011694334178110122
0.002612708286198599   -0.06238643481671606   -0.0010489502268751945
0.000793911368151543   -0.06968413454165767   -0.0015479061814360133
-0.001968714826341175   -0.062423795170279316   -0.0013205251550577493
0.002612708286198599   -0.06238643481671606   -0.0010489502268751945
-0.0029124032414881047   -0.06997232599725797   -0.0015992373193842795
0.000793911368151543   -0.06968413454165767   -0.0015479061814360133
0.002696155304865341   -0.062282871607150424   -0.0011694334178110122
-0.002846045900122078   -0.06988425211467299   -0.001668643220398808
0.0009670385312206241   -0.069637997384324   -0.0017011434516310368
0.002696155304865341   -0.062282871607150424   -0.0011694334178110122
-0.001968714826341175   -0.062423795170279316   -0.0013205251550577493
-0.002846045900122078   -0.06988425211467299   -0.001668643220398808
-0.0019761033538161147   -0.062360312627940256   -0.0013588469340001371
0.0009670385312206241   -0.069637997384324   -0.0017011434516310368
-0.0028063746582378626   -0.06984030582193637   -0.0017297945228282375
-0.0019761033538161147   -0.062360312627940256   -0.0013588469340001371
-0.002846045900122078   -0.06988425211467299   -0.001668643220398808
0.0009670385312206241   -0.069637997384324   -0.0017011434516310368
-0.0019761033538161147   -0.062360312627940256   -0.0013588469340001371
0.002781807647108419   -0.06221346218111428   -0.0012783396131358837
0.002696155304865341   -0.062282871607150424   -0.0011694334178110122
0.0009670385312206241   -0.069637997384324   -0.0017011434516310368
-0.0019761033538161147   -0.062360312627940256   -0.0013588469340001371
0.002696155304865341   -0.062282871607150424   -0.0011694334178110122
-0.002846045900122078   -0.06988425211467299   -0.001668643220398808
-0.002970684391103566   -0.07010713266824099   -0.0015206726018467311
-0.001996206555809531   -0.06265510748155233   -0.001219999162764189
-0.006243186790504036   -0.07013922740594043   -0.001782582407064833
-0.0029124032414881047   -0.06997232599725797   -0.0015992373193842795
-0.001996206555809531   -0.06265510748155233   -0.001219999162764189
-0.006305548239662409   -0.06265566385594118   -0.0014702329324479601
-0.006243186790504036   -0.07013922740594043   -0.001782582407064833
-0.006306112230385207   -0.06254220400466518   -0.0014650951699857512
-0.0029124032414881047   -0.06997232599725797   -0.0015992373193842795
-0.0062003376111207115   -0.07002349737934518   -0.0017846118575059642
-0.006306112230385207   -0.06254220400466518   -0.0014650951699857512
-0.006243186790504036   -0.07013922740594043   -0.001782582407064833
-0.0029124032414881047   -0.06997232599725797   -0.0015992373193842795
-0.006306112230385207   -0.06254220400466518   -0.0014650951699857512
-0.0019841047058000547   -0.0625210235017655   -0.0012744460508608228
-0.001996206555809531   -0.06265510748155233   -0.001219999162764189
-0.0029124032414881047   -0.06997232599725797   -0.0015992373193842795
-0.006306112230385207   -0.06254220400466518   -0.0014650951699857512
-0.001996206555809531   -0.06265510748155233   -0.001219999162764189
-0.006243186790504036   -0.07013922740594043   -0.001782582407064833
-0.0029124032414881047   -0.06997232599725797   -0.0015992373193842795
-0.0019841047058000547   -0.0625210235017655   -0.0012744460508608228
-0.0062003376111207115   -0.07002349737934518   -0.0017846118575059642
-0.002846045900122078   -0.06988425211467299   -0.001668643220398808
-0.0019841047058000547   -0.0625210235017655   -0.0012744460508608228
-0.006306112230385207   -0.06254220400466518   -0.0014650951699857512
-0.0062003376111207115   -0.07002349737934518   -0.0017846118575059642
-0.006306387869349087   -0.06246123559114372   -0.0014516228725448294
-0.002846045900122078   -0.06988425211467299   -0.001668643220398808
-0.0061562771601286525   -0.06994959632793656   -0.0017778668483084906
-0.006306387869349087   -0.06246123559114372   -0.0014516228725448294
-0.0062003376111207115   -0.07002349737934518   -0.0017846118575059642
-0.002846045900122078   -0.06988425211467299   -0.001668643220398808
-0.006306387869349087   -0.06246123559114372   -0.0014516228725448294
-0.001968714826341175   -0.062423795170279316   -0.0013205251550577493
-0.0019841047058000547   -0.0625210235017655   -0.0012744460508608228
-0.002846045900122078   -0.06988425211467299   -0.001668643220398808
-0.006306387869349087   -0.06246123559114372   -0.0014516228725448294
-0.0019841047058000547   -0.0625210235017655   -0.0012744460508608228
-0.0062003376111207115   -0.07002349737934518   -0.0017846118575059642
-0.002846045900122078   -0.06988425211467299   -0.001668643220398808
-0.001968714826341175   -0.062423795170279316   -0.0013205251550577493
-0.0061562771601286525   -0.06994959632793656   -0.0017778668483084906
-0.0028063746582378626   -0.06984030582193637   -0.0017297945228282375
-0.001968714826341175   -0.062423795170279316   -0.0013205251550577493
-0.006306387869349087   -0.06246123559114372   -0.0014516228725448294
-0.0061562771601286525   -0.06994959632793656   -0.0017778668483084906
-0.006312426248765704   -0.06241281575746838   -0.0014302475399048382
-0.0028063746582378626   -0.06984030582193637   -0.0017297945228282375
-0.00611773937556372   -0.06991683244830968   -0.0017629307185366625
-0.006312426248765704   -0.06241281575746838   -0.0014302475399048382
-0.0061562771601286525   -0.06994959632793656   -0.0017778668483084906
-0.0028063746582378626   -0.06984030582193637   -0.0017297945228282375
-0.006312426248765704   -0.06241281575746838   -0.0014302475399048382
-0.0019761033538161147   -0.062360312627940256   -0.0013588469340001371
-0.001968714826341175   -0.062423795170279316   -0.0013205251550577493
-0.0028063746582378626   -0.06984030582193637   -0.0017297945228282375
-0.006312426248765704   -0.06241281575746838   -0.0014302475399048382
-0.001968714826341175   -0.062423795170279316   -0.0013205251550577493
-0.0061562771601286525   -0.06994959632793656   -0.0017778668483084906
-0.006243186790504036   -0.07013922740594043   -0.001782582407064833
-0.006305548239662409   -0.06265566385594118   -0.0014702329324479601
-0.009464211258799227   -0.0700350292682838   -0.0020190034868760973
-0.0062003376111207115   -0.07002349737934518   -0.0017846118575059642
-0.006305548239662409   -0.06265566385594118   -0.0014702329324479601
-0.010541659447103469   -0.06254841937510262   -0.0016894454184027059
-0.009464211258799227   -0.0700350292682838   -0.0020190034868760973
-0.0105454113148073   -0.06245308498530653   -0.0016254413107304932
-0.0062003376111207115   -0.07002349737934518   -0.0017846118575059642
-0.00942431801044564   -0.06993517539222831   -0.0019463439019240505
-0.0105454113148073   -0.06245308498530653   -0.0016254413107304932
-0.009464211258799227   -0.0700350292682838   -0.0020190034868760973
-0.0062003376111207115   -0.07002349737934518   -0.0017846118575059642
-0.0105454113148073   -0.06245308498530653   -0.0016254413107304932
-0.006306112230385207   -0.06254220400466518   -0.0014650951699857512
-0.006305548239662409   -0.06265566385594118   -0.0014702329324479601
-0.0062003376111207115   -0.07002349737934518   -0.0017846118575059642
-0.0105454113148073   -0.06245308498530653   -0.0016254413107304932
-0.006305548239662409   -0.06265566385594118   -0.0014702329324479601
-0.009464211258799227   -0.0700350292682838   -0.0020190034868760973
-0.0062003376111207115   -0.07002349737934518   -0.0017846118575059642
-0.006306112230385207   -0.06254220400466518   -0.0014650951699857512
-0.00942431801044564   -0.06993517539222831   -0.0019463439019240505
-0.0061562771601286525   -0.06994959632793656   -0.0017778668483084906
-0.006306112230385207   -0.06254220400466518   -0.0014650951699857512
-0.0105454113148073   -0.06245308498530653   -0.0016254413107304932
-0.00942431801044564   -0.06993517539222831   -0.0019463439019240505
-0.010541942539823584   -0.062389954518414704   -0.0015532639678816958
-0.0061562771601286525   -0.06994959632793656   -0.0017778668483084906
-0.009376113262604678   -0.06987669016043116   -0.0018650997334974187
-0.010541942539823584   -0.062389954518414704   -0.0015532639678816958
-0.00942431801044564   -0.06993517539222831   -0.0019463439019240505
-0.0061562771601286525   -0.06994959632793656   -0.0017778668483084906
-0.010541942539823584   -0.062389954518414704   -0.0015532639678816958
-0.006306387869349087   -0.06246123559114372   -0.0014516228725448294
-0.006306112230385207   -0.06254220400466518   -0.0014650951699857512
-0.0061562771601286525   -0.06994959632793656   -0.0017778668483084906
-0.010541942539823584   -0.062389954518414704   -0.0015532639678816958
-0.006306112230385207   -0.06254220400466518   -0.0014650951699857512
-0.00942431801044564   -0.06993517539222831   -0.0019463439019240505
-0.0061562771601286525   -0.06994959632793656   -0.0017778668483084906
-0.006306387869349087   -0.06246123559114372   -0.0014516228725448294
-0.009376113262604678   -0.06987669016043116   -0.0018650997334974187
-0.00611773937556372   -0.06991683244830968   -0.0017629307185366625
-0.006306387869349087   -0.06246123559114372   -0.0014516228725448294
-0.010541942539823584   -0.062389954518414704   -0.0015532639678816958
-0.009376113262604678   -0.06987669016043116   -0.0018650997334974187
-0.010539773624694607   -0.062358461668741975   -0.001473151942786329
-0.00611773937556372   -0.06991683244830968   -0.0017629307185366625
-0.009329225305747622   -0.0698576483269511   -0.0017755354639257892
-0.010539773624694607   -0.062358461668741975   -0.001473151942786329
-0.009376113262604678   -0.06987669016043116   -0.0018650997334974187
-0.00611773937556372   -0.06991683244830968   -0.0017629307185366625
-0.010539773624694607   -0.062358461668741975   -0.001473151942786329
-0.006312426248765704   -0.06241281575746838   -0.0014302475399048382
-0.006306387869349087   -0.06246123559114372   -0.0014516228725448294
-0.00611773937556372   -0.06991683244830968   -0.0017629307185366625
-0.010539773624694607   -0.062358461668741975   -0.001473151942786329
-0.006306387869349087   -0.06246123559114372   -0.0014516228725448294
-0.009376113262604678   -0.06987669016043116   -0.0018650997334974187
-0.009464211258799227   -0.0700350292682838   -0.0020190034868760973
-0.010541659447103469   -0.06254841937510262   -0.0016894454184027059
-0.012839769532690896   -0.0697982360780254   -0.0022290212565335642
-0.00942431801044564   -0.06993517539222831   -0.0019463439019240505
-0.010541659447103469   -0.06254841937510262   -0.0016894454184027059
-0.014909833639612504   -0.062337439682165915   -0.001878041380460786
-0.012839769532690896   -0.0697982360780254   -0.0022290212565335642
-0.014904697707761887   -0.062259467182961645   -0.00175447520611389
-0.00942431801044564   -0.06993517539222831   -0.0019463439019240505
-0.012787672057027539   -0.06971354476550945   -0.002081581006573579
-0.014904697707761887   -0.062259467182961645   -0.00175447520611389
-0.012839769532690896   -0.0697982360780254   -0.0022290212565335642
-0.00942431801044564   -0.06993517539222831   -0.0019463439019240505
-0.014904697707761887   -0.062259467182961645   -0.00175447520611389
-0.0105454113148073   -0.06245308498530653   -0.0016254413107304932
-0.010541659447103469   -0.06254841937510262   -0.0016894454184027059
-0.00942431801044564   -0.06993517539222831   -0.0019463439019240505
-0.014904697707761887   -0.062259467182961645   -0.00175447520611389
-0.010541659447103469   -0.06254841937510262   -0.0016894454184027059
-0.012839769532690896   -0.0697982360780254   -0.0022290212565335642
-0.00942431801044564   -0.06993517539222831   -0.0019463439019240505
-0.0105454113148073   -0.06245308498530653   -0.0016254413107304932
-0.012787672057027539   -0.06971354476550945   -0.002081581006573579
-0.009376113262604678   -0.06987669016043116   -0.0018650997334974187
-0.0105454113148073   -0.06245308498530653   -0.0016254413107304932
-0.014904697707761887   -0.062259467182961645   -0.00175447520611389
-0.012787672057027539   -0.06971354476550945   -0.002081581006573579
-0.014868086605525611   -0.06221251057756928   -0.0016239675254875019
-0.009376113262604678   -0.06987669016043116   -0.0018650997334974187
-0.012699360877167344   -0.06966903595564856   -0.001926874616310024
-0.014868086605525611   -0.06221251057756928   -0.0016239675254875019
-0.012787672057027539   -0.06971354476550945   -0.002081581006573579
-0.009376113262604678   -0.06987669016043116   -0.0018650997334974187
-0.014868086605525611   -0.06221251057756928   -0.0016239675254875019
-0.010541942539823584   -0.062389954518414704   -0.0015532639678816958
-0.0105454113148073   -0.06245308498530653   -0.0016254413107304932
-0.009376113262604678   -0.06987669016043116   -0.0018650997334974187
-0.014868086605525611   -0.06221251057756928   -0.0016239675254875019
-0.0105454113148073   -0.06245308498530653   -0.0016254413107304932
-0.012787672057027539   -0.06971354476550945   -0.002081581006573579
-0.009376113262604678   -0.06987669016043116   -0.0018650997334974187
-0.010541942539823584   -0.062389954518414704   -0.0015532639678816958
-0.012699360877167344   -0.06966903595564856   -0.001926874616310024
-0.009329225305747622   -0.0698576483269511   -0.0017755354639257892
-0.010541942539823584   -0.062389954518414704   -0.0015532639678816958
-0.014868086605525611   -0.06221251057756928   -0.0016239675254875019
-0.012699360877167344   -0.06966903595564856   -0.001926874616310024
-0.014843612934340817   -0.062199849447026175   -0.0014848880670044007
-0.009329225305747622   -0.0698576483269511   -0.0017755354639257892
-0.012627611693906063   -0.06966706098826883   -0.0017626379904200809
-0.014843612934340817   -0.062199849447026175   -0.0014848880670044007
-0.012699360877167344   -0.06966903595564856   -0.001926874616310024
-0.009329225305747622   -0.0698576483269511   -0.0017755354639257892
-0.014843612934340817   -0.062199849447026175   -0.0014848880670044007
-0.010539773624694607   -0.062358461668741975   -0.001473151942786329
-0.010541942539823584   -0.062389954518414704   -0.0015532639678816958
-0.009329225305747622   -0.0698576483269511   -0.0017755354639257892
-0.014843612934340817   -0.062199849447026175   -0.0014848880670044007
-0.010541942539823584   -0.062389954518414704   -0.0015532639678816958
-0.012699360877167344   -0.06966903595564856   -0.001926874616310024
-0.012839769532690896   -0.0697982360780254   -0.0022290212565335642
-0.014909833639612504   -0.062337439682165915   -0.001878041380460786
-0.016776475547548735   -0.06945733444823377   -0.0024247805637388955
-0.012787672057027539   -0.06971354476550945   -0.002081581006573579
-0.014909833639612504   -0.062337439682165915   -0.001878041380460786
-0.0197890070318215   -0.062046719093679176   -0.002048069269183639
-0.016776475547548735   -0.06945733444823377   -0.0024247805637388955
-0.019606724446263258   -0.061970213360285735   -0.001859059585820298
-0.012787672057027539   -0.06971354476550945   -0.002081581006573579
-0.016509801219376556   -0.06936903550833874   -0.0021940128591557083
-0.019606724446263258   -0.061970213360285735   -0.001859059585820298
-0.016776475547548735   -0.06945733444823377   -0.0024247805637388955
-0.012787672057027539   -0.06971354476550945   -0.002081581006573579
-0.019606724446263258   -0.061970213360285735   -0.001859059585820298
-0.014904697707761887   -0.062259467182961645   -0.00175447520611389
-0.014909833639612504   -0.062337439682165915   -0.001878041380460786
-0.012787672057027539   -0.06971354476550945   -0.002081581006573579
-0.019606724446263258   -0.061970213360285735   -0.001859059585820298
-0.014909833639612504   -0.062337439682165915   -0.001878041380460786
-0.016776475547548735   -0.06945733444823377   -0.0024247805637388955
-0.012787672057027539   -0.06971354476550945   -0.002081581006573579
-0.014904697707761887   -0.062259467182961645   -0.00175447520611389
-0.016509801219376556   -0.06936903550833874   -0.0021940128591557083
-0.012699360877167344   -0.06966903595564856   -0.001926874616310024
-0.014904697707761887   -0.062259467182961645   -0.00175447520611389
-0.019606724446263258   -0.061970213360285735   -0.001859059585820298
-0.016509801219376556   -0.06936903550833874   -0.0021940128591557083
-0.019450808126880784   -0.06192915556165487   -0.001658384857338864
-0.012699360877167344   -0.06966903595564856   -0.001926874616310024
-0.016278318270500036   -0.06932832073236839   -0.0019512669718644731
-0.019450808126880784   -0.06192915556165487   -0.001658384857338864
-0.016509801219376556   -0.06936903550833874   -0.0021940128591557083
-0.012699360877167344   -0.06966903595564856   -0.001926874616310024
-0.019450808126880784   -0.06192915556165487   -0.001658384857338864
-0.014868086605525611   -0.06221251057756928   -0.0016239675254875019
-0.014904697707761887   -0.062259467182961645   -0.00175447520611389
-0.012699360877167344   -0.06966903595564856   -0.001926874616310024
-0.019450808126880784   -0.06192915556165487   -0.001658384857338864
-0.014904697707761887   -0.062259467182961645   -0.00175447520611389
-0.016509801219376556   -0.06936903550833874   -0.0021940128591557083
-0.012699360877167344   -0.06966903595564856   -0.001926874616310024
-0.014868086605525611   -0.06221251057756928   -0.0016239675254875019
-0.016278318270500036   -0.06932832073236839   -0.0019512669718644731
-0.012627611693906063   -0.06966706098826883   -0.0017626379904200809
-0.014868086605525611   -0.06221251057756928   -0.0016239675254875019
-0.019450808126880784   -0.06192915556165487   -0.001658384857338864
-0.016278318270500036   -0.06932832073236839   -0.0019512669718644731
-0.01922576066324244   -0.061942504642322815   -0.0014476429541778928
-0.012627611693906063   -0.06966706098826883   -0.0017626379904200809
-0.015966434941394197   -0.0693526234597228   -0.0016980901584620755
-0.01922576066324244   -0.061942504642322815   -0.0014476429541778928
-0.016278318270500036   -0.06932832073236839   -0.0019512669718644731
-0.012627611693906063   -0.06966706098826883   -0.0017626379904200809
-0.01922576066324244   -0.061942504642322815   -0.0014476429541778928
-0.014843612934340817   -0.062199849447026175   -0.0014848880670044007
-0.014868086605525611   -0.06221251057756928   -0.0016239675254875019
-0.012627611693906063   -0.06966706098826883   -0.0017626379904200809
-0.01922576066324244   -0.061942504642322815   -0.0014476429541778928
-0.014868086605525611   -0.06221251057756928   -0.0016239675254875019
-0.016278318270500036   -0.06932832073236839   -0.0019512669718644731
0.002482164106069197   -0.06254422639785175   -0.000916642550317079
0.003907964897300843   -0.05365028928567167   -0.0006105877422168654
-0.001996206555809531   -0.06265510748155233   -0.001219999162764189
0.002612708286198599   -0.06238643481671606   -0.0010489502268751945
0.003907964897300843   -0.05365028928567167   -0.0006105877422168654
-0.0014046043945307716   -0.053704769965775535   -0.0008959983000936563
-0.001996206555809531   -0.06265510748155233   -0.001219999162764189
-0.0014296395890006264   -0.05357394960844043   -0.0009253227826484931
0.002612708286198599   -0.06238643481671606   -0.0010489502268751945
-0.0019841047058000547   -0.0625210235017655   -0.0012744460508608228
-0.0014296395890006264   -0.05357394960844043   -0.0009253227826484931
-0.001996206555809531   -0.06265510748155233   -0.001219999162764189
0.002612708286198599   -0.06238643481671606   -0.0010489502268751945
-0.0014296395890006264   -0.05357394960844043   -0.0009253227826484931
0.003959464721748558   -0.05349826780564513   -0.000697230555018813
0.003907964897300843   -0.05365028928567167   -0.0006105877422168654
0.002612708286198599   -0.06238643481671606   -0.0010489502268751945
-0.0014296395890006264   -0.05357394960844043   -0.0009253227826484931
0.003907964897300843   -0.05365028928567167   -0.0006105877422168654
-0.001996206555809531   -0.06265510748155233   -0.001219999162764189
0.002612708286198599   -0.06238643481671606   -0.0010489502268751945
0.003959464721748558   -0.05349826780564513   -0.000697230555018813
-0.0019841047058000547   -0.0625210235017655   -0.0012744460508608228
0.002696155304865341   -0.062282871607150424   -0.0011694334178110122
0.003959464721748558   -0.05349826780564513   -0.000697230555018813
-0.0014296395890006264   -0.05357394960844043   -0.0009253227826484931
-0.0019841047058000547   -0.0625210235017655   -0.0012744460508608228
-0.001455956230619025   -0.053470432398486194   -0.0009471795757326312
0.002696155304865341   -0.062282871607150424   -0.0011694334178110122
-0.001968714826341175   -0.062423795170279316   -0.0013205251550577493
-0.001455956230619025   -0.053470432398486194   -0.0009471795757326312
-0.0019841047058000547   -0.0625210235017655   -0.0012744460508608228
0.002696155304865341   -0.062282871607150424   -0.0011694334178110122
-0.001455956230619025   -0.053470432398486194   -0.0009471795757326312
0.0039750614556400155   -0.05338744933192677   -0.0007728568595640618
0.003959464721748558   -0.05349826780564513   -0.000697230555018813
0.002696155304865341   -0.062282871607150424   -0.0011694334178110122
-0.001455956230619025   -0.053470432398486194   -0.0009471795757326312
0.003959464721748558   -0.05349826780564513   -0.000697230555018813
-0.0019841047058000547   -0.0625210235017655   -0.0012744460508608228
0.002696155304865341   -0.062282871607150424   -0.0011694334178110122
0.0039750614556400155   -0.05338744933192677   -0.0007728568595640618
-0.001968714826341175   -0.062423795170279316   -0.0013205251550577493
0.002781807647108419   -0.06221346218111428   -0.0012783396131358837
0.0039750614556400155   -0.05338744933192677   -0.0007728568595640618
-0.001455956230619025   -0.053470432398486194   -0.0009471795757326312
-0.001968714826341175   -0.062423795170279316   -0.0013205251550577493
-0.0015007287325305106   -0.053390969329193065   -0.0009618213141686893
0.002781807647108419   -0.06221346218111428   -0.0012783396131358837
-0.0019761033538161147   -0.062360312627940256   -0.0013588469340001371
-0.0015007287325305106   -0.053390969329193065   -0.0009618213141686893
-0.001968714826341175   -0.062423795170279316   -0.0013205251550577493
0.002781807647108419   -0.06221346218111428   -0.0012783396131358837
-0.0015007287325305106   -0.053390969329193065   -0.0009618213141686893
0.0039837638646356595   -0.05329832556979   -0.000837987702159434
0.0039750614556400155   -0.05338744933192677   -0.0007728568595640618
0.002781807647108419   -0.06221346218111428   -0.0012783396131358837
-0.0015007287325305106   -0.053390969329193065   -0.0009618213141686893
0.0039750614556400155   -0.05338744933192677   -0.0007728568595640618
-0.001968714826341175   -0.062423795170279316   -0.0013205251550577493
-0.001996206555809531   -0.06265510748155233   -0.001219999162764189
-0.0014046043945307716   -0.053704769965775535   -0.0008959983000936563
-0.006305548239662409   -0.06265566385594118   -0.0014702329324479601
-0.0019841047058000547   -0.0625210235017655   -0.0012744460508608228
-0.0014046043945307716   -0.053704769965775535   -0.0008959983000936563
-0.006496783220329341   -0.05367670074780943   -0.0011310813293777357
-0.006305548239662409   -0.06265566385594118   -0.0014702329324479601
-0.006531469320314471   -0.053567348529307245   -0.0011173502154460107
-0.0019841047058000547   -0.0625210235017655   -0.0012744460508608228
-0.006306112230385207   -0.06254220400466518   -0.0014650951699857512
-0.006531469320314471   -0.053567348529307245   -0.0011173502154460107
-0.006305548239662409   -0.06265566385594118   -0.0014702329324479601
-0.0019841047058000547   -0.0625210235017655   -0.0012744460508608228
-0.006531469320314471   -0.053567348529307245   -0.0011173502154460107
-0.0014296395890006264   -0.05357394960844043   -0.0009253227826484931
-0.0014046043945307716   -0.053704769965775535   -0.0008959983000936563
-0.0019841047058000547   -0.0625210235017655   -0.0012744460508608228
-0.006531469320314471   -0.053567348529307245   -0.0011173502154460107
-0.0014046043945307716   -0.053704769965775535   -0.0008959983000936563
-0.006305548239662409   -0.06265566385594118   -0.0014702329324479601
-0.0019841047058000547   -0.0625210235017655   -0.0012744460508608228
-0.0014296395890006264   -0.05357394960844043   -0.0009253227826484931
-0.006306112230385207   -0.06254220400466518   -0.0014650951699857512
-0.001968714826341175   -0.062423795170279316   -0.0013205251550577493
-0.0014296395890006264   -0.05357394960844043   -0.0009253227826484931
-0.006531469320314471   -0.053567348529307245   -0.0011173502154460107
-0.006306112230385207   -0.06254220400466518   -0.0014650951699857512
-0.006566631426911332   -0.053481401394404986   -0.0010959319562575695
-0.001968714826341175   -0.062423795170279316   -0.0013205251550577493
-0.006306387869349087   -0.06246123559114372   -0.0014516228725448294
-0.006566631426911332   -0.053481401394404986   -0.0010959319562575695
-0.006306112230385207   -0.06254220400466518   -0.0014650951699857512
-0.001968714826341175   -0.062423795170279316   -0.0013205251550577493
-0.006566631426911332   -0.053481401394404986   -0.0010959319562575695
-0.001455956230619025   -0.053470432398486194   -0.0009471795757326312
-0.0014296395890006264   -0.05357394960844043   -0.0009253227826484931
-0.001968714826341175   -0.062423795170279316   -0.0013205251550577493
-0.006566631426911332   -0.053481401394404986   -0.0010959319562575695
-0.0014296395890006264   -0.05357394960844043   -0.0009253227826484931
-0.006306112230385207   -0.06254220400466518   -0.0014650951699857512
-0.001968714826341175   -0.062423795170279316   -0.0013205251550577493
-0.001455956230619025   -0.053470432398486194   -0.0009471795757326312
-0.006306387869349087   -0.06246123559114372   -0.0014516228725448294
-0.0019761033538161147   -0.062360312627940256   -0.0013588469340001371
-0.001455956230619025   -0.053470432398486194   -0.0009471795757326312
-0.006566631426911332   -0.053481401394404986   -0.0010959319562575695
-0.006306387869349087   -0.06246123559114372   -0.0014516228725448294
-0.006607262479739547   -0.05341925714783621   -0.0010671963247577683
-0.0019761033538161147   -0.062360312627940256   -0.0013588469340001371
-0.006312426248765704   -0.06241281575746838   -0.0014302475399048382
-0.006607262479739547   -0.05341925714783621   -0.0010671963247577683
-0.006306387869349087   -0.06246123559114372   -0.0014516228725448294
-0.0019761033538161147   -0.062360312627940256   -0.0013588469340001371
-0.006607262479739547   -0.05341925714783621   -0.0010671963247577683
-0.0015007287325305106   -0.053390969329193065   -0.0009618213141686893
-0.001455956230619025   -0.053470432398486194   -0.0009471795757326312
-0.0019761033538161147   -0.062360312627940256   -0.0013588469340001371
-0.006607262479739547   -0.05341925714783621   -0.0010671963247577683
-0.001455956230619025   -0.053470432398486194   -0.0009471795757326312
-0.006306387869349087   -0.06246123559114372   -0.0014516228725448294
-0.006305548239662409   -0.06265566385594118   -0.0014702329324479601
-0.006496783220329341   -0.05367670074780943   -0.0011310813293777357
-0.010541659447103469   -0.06254841937510262   -0.0016894454184027059
-0.006306112230385207   -0.06254220400466518   -0.0014650951699857512
-0.006496783220329341   -0.05367670074780943   -0.0011310813293777357
-0.011502849796829097   -0.0535711745180337   -0.0013322570644545121
-0.010541659447103469   -0.06254841937510262   -0.0016894454184027059
-0.011540263891325802   -0.05348133409458111   -0.0012756768766552062
-0.006306112230385207   -0.06254220400466518   -0.0014650951699857512
-0.0105454113148073   -0.06245308498530653   -0.0016254413107304932
-0.011540263891325802   -0.05348133409458111   -0.0012756768766552062
-0.010541659447103469   -0.06254841937510262   -0.0016894454184027059
-0.006306112230385207   -0.06254220400466518   -0.0014650951699857512
-0.011540263891325802   -0.05348133409458111   -0.0012756768766552062
-0.006531469320314471   -0.053567348529307245   -0.0011173502154460107
-0.006496783220329341   -0.05367670074780943   -0.0011310813293777357
-0.006306112230385207   -0.06254220400466518   -0.0014650951699857512
-0.011540263891325802   -0.05348133409458111   -0.0012756768766552062
-0.006496783220329341   -0.05367670074780943   -0.0011310813293777357
-0.010541659447103469   -0.06254841937510262   -0.0016894454184027059
-0.006306112230385207   -0.06254220400466518   -0.0014650951699857512
-0.006531469320314471   -0.053567348529307245   -0.0011173502154460107
-0.0105454113148073   -0.06245308498530653   -0.0016254413107304932
-0.006306387869349087   -0.06246123559114372   -0.0014516228725448294
-0.006531469320314471   -0.053567348529307245   -0.0011173502154460107
-0.011540263891325802   -0.05348133409458111   -0.0012756768766552062
-0.0105454113148073   -0.06245308498530653   -0.0016254413107304932
-0.011571267862805296   -0.05341467505625683   -0.0012115450897551253
-0.006306387869349087   -0.06246123559114372   -0.0014516228725448294
-0.010541942539823584   -0.062389954518414704   -0.0015532639678816958
-0.011571267862805296   -0.05341467505625683   -0.0012115450897551253
-0.0105454113148073   -0.06245308498530653   -0.0016254413107304932
-0.006306387869349087   -0.06246123559114372   -0.0014516228725448294
-0.011571267862805296   -0.05341467505625683   -0.0012115450897551253
-0.006566631426911332   -0.053481401394404986   -0.0010959319562575695
-0.006531469320314471   -0.053567348529307245   -0.0011173502154460107
-0.006306387869349087   -0.06246123559114372   -0.0014516228725448294
-0.011571267862805296   -0.05341467505625683   -0.0012115450897551253
-0.006531469320314471   -0.053567348529307245   -0.0011173502154460107
-0.0105454113148073   -0.06245308498530653   -0.0016254413107304932
-0.006306387869349087   -0.06246123559114372   -0.0014516228725448294
-0.006566631426911332   -0.053481401394404986   -0.0010959319562575695
-0.010541942539823584   -0.062389954518414704   -0.0015532639678816958
-0.006312426248765704   -0.06241281575746838   -0.0014302475399048382
-0.006566631426911332   -0.053481401394404986   -0.0010959319562575695
-0.011571267862805296   -0.05341467505625683   -0.0012115450897551253
-0.010541942539823584   -0.062389954518414704   -0.0015532639678816958
-0.011603171299324469   -0.05337110062562829   -0.0011400843058951742
-0.006312426248765704   -0.06241281575746838   -0.0014302475399048382
-0.010539773624694607   -0.062358461668741975   -0.001473151942786329
-0.011603171299324469   -0.05337110062562829   -0.0011400843058951742
-0.010541942539823584   -0.062389954518414704   -0.0015532639678816958
-0.006312426248765704   -0.06241281575746838   -0.0014302475399048382
-0.011603171299324469   -0.05337110062562829   -0.0011400843058951742
-0.006607262479739547   -0.05341925714783621   -0.0010671963247577683
-0.006566631426911332   -0.053481401394404986   -0.0010959319562575695
-0.006312426248765704   -0.06241281575746838   -0.0014302475399048382
-0.011603171299324469   -0.05337110062562829   -0.0011400843058951742
-0.006566631426911332   -0.053481401394404986   -0.0010959319562575695
-0.010541942539823584   -0.062389954518414704   -0.0015532639678816958
-0.010541659447103469   -0.06254841937510262   -0.0016894454184027059
-0.011502849796829097   -0.0535711745180337   -0.0013322570644545121
-0.014909833639612504   -0.062337439682165915   -0.001878041380460786
-0.0105454113148073   -0.06245308498530653   -0.0016254413107304932
-0.011502849796829097   -0.0535711745180337   -0.0013322570644545121
-0.016627990504014707   -0.05339029825211952   -0.0015002848785104677
-0.014909833639612504   -0.062337439682165915   -0.001878041380460786
-0.0166589605416385   -0.05331952181043913   -0.001400273123427739
-0.0105454113148073   -0.06245308498530653   -0.0016254413107304932
-0.014904697707761887   -0.062259467182961645   -0.00175447520611389
-0.0166589605416385   -0.05331952181043913   -0.001400273123427739
-0.014909833639612504   -0.062337439682165915   -0.001878041380460786
-0.0105454113148073   -0.06245308498530653   -0.0016254413107304932
-0.0166589605416385   -0.05331952181043913   -0.001400273123427739
-0.011540263891325802   -0.05348133409458111   -0.0012756768766552062
-0.011502849796829097   -0.0535711745180337   -0.0013322570644545121
-0.0105454113148073   -0.06245308498530653   -0.0016254413107304932
-0.0166589605416385   -0.05331952181043913   -0.001400273123427739
-0.011502849796829097   -0.0535711745180337   -0.0013322570644545121
-0.014909833639612504   -0.062337439682165915   -0.001878041380460786
-0.0105454113148073   -0.06245308498530653   -0.0016254413107304932
-0.011540263891325802   -0.05348133409458111   -0.0012756768766552062
-0.014904697707761887   -0.062259467182961645   -0.00175447520611389
-0.010541942539823584   -0.062389954518414704   -0.0015532639678816958
-0.011540263891325802   -0.05348133409458111   -0.0012756768766552062
-0.0166589605416385   -0.05331952181043913   -0.001400273123427739
-0.014904697707761887   -0.062259467182961645   -0.00175447520611389
-0.016662986755395636   -0.053270499134409934   -0.0012937548656148355
-0.010541942539823584   -0.062389954518414704   -0.0015532639678816958
-0.014868086605525611   -0.06221251057756928   -0.0016239675254875019
-0.016662986755395636   -0.053270499134409934   -0.0012937548656148355
-0.014904697707761887   -0.062259467182961645   -0.00175447520611389
-0.010541942539823584   -0.062389954518414704   -0.0015532639678816958
-0.016662986755395636   -0.053270499134409934   -0.0012937548656148355
-0.011571267862805296   -0.05341467505625683   -0.0012115450897551253
-0.011540263891325802   -0.05348133409458111   -0.0012756768766552062
-0.010541942539823584   -0.062389954518414704   -0.0015532639678816958
-0.016662986755395636   -0.053270499134409934   -0.0012937548656148355
-0.011540263891325802   -0.05348133409458111   -0.0012756768766552062
-0.014904697707761887   -0.062259467182961645   -0.00175447520611389
-0.010541942539823584   -0.062389954518414704   -0.0015532639678816958
-0.011571267862805296   -0.05341467505625683   -0.0012115450897551253
-0.014868086605525611   -0.06221251057756928   -0.0016239675254875019
-0.010539773624694607   -0.062358461668741975   -0.001473151942786329
-0.011571267862805296   -0.05341467505625683   -0.0012115450897551253
-0.016662986755395636   -0.053270499134409934   -0.0012937548656148355
-0.014868086605525611   -0.06221251057756928   -0.0016239675254875019
-0.01667464759789008   -0.053246636434086204   -0.0011793525575904758
-0.010539773624694607   -0.062358461668741975   -0.001473151942786329
-0.014843612934340817   -0.062199849447026175   -0.0014848880670044007
-0.01667464759789008   -0.053246636434086204   -0.0011793525575904758
-0.014868086605525611   -0.06221251057756928   -0.0016239675254875019
-0.010539773624694607   -0.062358461668741975   -0.001473151942786329
-0.01667464759789008   -0.053246636434086204   -0.0011793525575904758
-0.011603171299324469   -0.05337110062562829   -0.0011400843058951742
-0.011571267862805296   -0.05341467505625683   -0.0012115450897551253
-0.010539773624694607   -0.062358461668741975   -0.001473151942786329
-0.01667464759789008   -0.053246636434086204   -0.0011793525575904758
-0.011571267862805296   -0.05341467505625683   -0.0012115450897551253
-0.014868086605525611   -0.06221251057756928   -0.0016239675254875019
-0.014909833639612504   -0.062337439682165915   -0.001878041380460786
-0.016627990504014707   -0.05339029825211952   -0.0015002848785104677
-0.0197890070318215   -0.062046719093679176   -0.002048069269183639
-0.014904697707761887   -0.062259467182961645   -0.00175447520611389
-0.016627990504014707   -0.05339029825211952   -0.0015002848785104677
-0.022216770651064244   -0.053153095354036624   -0.0016438175457857546
-0.0197890070318215   -0.062046719093679176   -0.002048069269183639
-0.022109968414999893   -0.05308844446190057   -0.001497900208524366
-0.014904697707761887   -0.062259467182961645   -0.00175447520611389
-0.019606724446263258   -0.061970213360285735   -0.001859059585820298
-0.022109968414999893   -0.05308844446190057   -0.001497900208524366
-0.0197890070318215   -0.062046719093679176   -0.002048069269183639
-0.014904697707761887   -0.062259467182961645   -0.00175447520611389
-0.022109968414999893   -0.05308844446190057   -0.001497900208524366
-0.0166589605416385   -0.05331952181043913   -0.001400273123427739
-0.016627990504014707   -0.05339029825211952   -0.0015002848785104677
-0.014904697707761887   -0.062259467182961645   -0.00175447520611389
-0.022109968414999893   -0.05308844446190057   -0.001497900208524366
-0.016627990504014707   -0.05339029825211952   -0.0015002848785104677
-0.0197890070318215   -0.062046719093679176   -0.002048069269183639
-0.014904697707761887   -0.062259467182961645   -0.00175447520611389
-0.0166589605416385   -0.05331952181043913   -0.001400273123427739
-0.019606724446263258   -0.061970213360285735   -0.001859059585820298
-0.014868086605525611   -0.06221251057756928   -0.0016239675254875019
-0.0166589605416385   -0.05331952181043913   -0.001400273123427739
-0.022109968414999893   -0.05308844446190057   -0.001497900208524366
-0.019606724446263258   -0.061970213360285735   -0.001859059585820298
-0.022019915538687807   -0.05304689762113598   -0.0013406242174316394
-0.014868086605525611   -0.06221251057756928   -0.0016239675254875019
-0.019450808126880784   -0.06192915556165487   -0.001658384857338864
-0.022019915538687807   -0.05304689762113598   -0.0013406242174316394
-0.019606724446263258   -0.061970213360285735   -0.001859059585820298
-0.014868086605525611   -0.06221251057756928   -0.0016239675254875019
-0.022019915538687807   -0.05304689762113598   -0.0013406242174316394
-0.016662986755395636   -0.053270499134409934   -0.0012937548656148355
-0.0166589605416385   -0.05331952181043913   -0.001400273123427739
-0.014868086605525611   -0.06221251057756928   -0.0016239675254875019
-0.022019915538687807   -0.05304689762113598   -0.0013406242174316394
-0.0166589605416385   -0.05331952181043913   -0.001400273123427739
-0.019606724446263258   -0.061970213360285735   -0.001859059585820298
-0.014868086605525611   -0.06221251057756928   -0.0016239675254875019
-0.016662986755395636   -0.053270499134409934   -0.0012937548656148355
-0.019450808126880784   -0.06192915556165487   -0.001658384857338864
-0.014843612934340817   -0.062199849447026175   -0.0014848880670044007
-0.016662986755395636   -0.053270499134409934   -0.0012937548656148355
-0.022019915538687807   -0.05304689762113598   -0.0013406242174316394
-0.019450808126880784   -0.06192915556165487   -0.001658384857338864
-0.021871276653009183   -0.05304811294102144   -0.0011734051424098664
-0.014843612934340817   -0.062199849447026175   -0.0014848880670044007
-0.01922576066324244   -0.061942504642322815   -0.0014476429541778928
-0.021871276653009183   -0.05304811294102144   -0.0011734051424098664
-0.019450808126880784   -0.06192915556165487   -0.001658384857338864
-0.014843612934340817   -0.062199849447026175   -0.0014848880670044007
-0.021871276653009183   -0.05304811294102144   -0.0011734051424098664
-0.01667464759789008   -0.053246636434086204   -0.0011793525575904758
-0.016662986755395636   -0.053270499134409934   -0.0012937548656148355
-0.014843612934340817   -0.062199849447026175   -0.0014848880670044007
-0.021871276653009183   -0.05304811294102144   -0.0011734051424098664
-0.016662986755395636   -0.053270499134409934   -0.0012937548656148355
-0.019450808126880784   -0.06192915556165487   -0.001658384857338864
0.003907964897300843   -0.05365028928567167   -0.0006105877422168654
0.004699341583607094   -0.043671113500007915   -0.0003109123958426041
-0.0014046043945307716   -0.053704769965775535   -0.0008959983000936563
0.003959464721748558   -0.05349826780564513   -0.000697230555018813
0.004699341583607094   -0.043671113500007915   -0.0003109123958426041
-0.0011978435742270195   -0.043669787363633424   -0.0005755959162984694
-0.0014046043945307716   -0.053704769965775535   -0.0008959983000936563
-0.0012506494663130621   -0.04354324193428303   -0.00057948593569518
0.003959464721748558   -0.05349826780564513   -0.000697230555018813
-0.0014296395890006264   -0.05357394960844043   -0.0009253227826484931
-0.0012506494663130621   -0.04354324193428303   -0.00057948593569518
-0.0014046043945307716   -0.053704769965775535   -0.0008959983000936563
0.003959464721748558   -0.05349826780564513   -0.000697230555018813
-0.0012506494663130621   -0.04354324193428303   -0.00057948593569518
0.004682202808248102   -0.04352557291313569   -0.0003524140316800149
0.004699341583607094   -0.043671113500007915   -0.0003109123958426041
0.003959464721748558   -0.05349826780564513   -0.000697230555018813
-0.0012506494663130621   -0.04354324193428303   -0.00057948593569518
0.004699341583607094   -0.043671113500007915   -0.0003109123958426041
-0.0014046043945307716   -0.053704769965775535   -0.0008959983000936563
0.003959464721748558   -0.05349826780564513   -0.000697230555018813
0.004682202808248102   -0.04352557291313569   -0.0003524140316800149
-0.0014296395890006264   -0.05357394960844043   -0.0009253227826484931
0.0039750614556400155   -0.05338744933192677   -0.0007728568595640618
0.004682202808248102   -0.04352557291313569   -0.0003524140316800149
-0.0012506494663130621   -0.04354324193428303   -0.00057948593569518
-0.0014296395890006264   -0.05357394960844043   -0.0009253227826484931
-0.0013093252256689521   -0.04343428530777844   -0.0005767566706957816
0.0039750614556400155   -0.05338744933192677   -0.0007728568595640618
-0.001455956230619025   -0.053470432398486194   -0.0009471795757326312
-0.0013093252256689521   -0.04343428530777844   -0.0005767566706957816
-0.0014296395890006264   -0.05357394960844043   -0.0009253227826484931
0.0039750614556400155   -0.05338744933192677   -0.0007728568595640618
-0.0013093252256689521   -0.04343428530777844   -0.0005767566706957816
0.0046396903416158   -0.04340842202651767   -0.0003833061419385717
0.004682202808248102   -0.04352557291313569   -0.0003524140316800149
0.0039750614556400155   -0.05338744933192677   -0.0007728568595640618
-0.0013093252256689521   -0.04343428530777844   -0.0005767566706957816
0.004682202808248102   -0.04352557291313569   -0.0003524140316800149
-0.0014296395890006264   -0.05357394960844043   -0.0009253227826484931
0.0039750614556400155   -0.05338744933192677   -0.0007728568595640618
0.0046396903416158   -0.04340842202651767   -0.0003833061419385717
-0.001455956230619025   -0.053470432398486194   -0.0009471795757326312
0.0039837638646356595   -0.05329832556979   -0.000837987702159434
0.0046396903416158   -0.04340842202651767   -0.0003833061419385717
-0.0013093252256689521   -0.04343428530777844   -0.0005767566706957816
-0.001455956230619025   -0.053470432398486194   -0.0009471795757326312
-0.001382131315532013   -0.043340098012123185   -0.0005671471679346948
0.0039837638646356595   -0.05329832556979   -0.000837987702159434
-0.0015007287325305106   -0.053390969329193065   -0.0009618213141686893
-0.001382131315532013   -0.043340098012123185   -0.0005671471679346948
-0.001455956230619025   -0.053470432398486194   -0.0009471795757326312
0.0039837638646356595   -0.05329832556979   -0.000837987702159434
-0.001382131315532013   -0.043340098012123185   -0.0005671471679346948
0.004580356013348845   -0.043300577227894724   -0.00040432962094552507
0.0046396903416158   -0.04340842202651767   -0.0003833061419385717
0.0039837638646356595   -0.05329832556979   -0.000837987702159434
-0.001382131315532013   -0.043340098012123185   -0.0005671471679346948
0.0046396903416158   -0.04340842202651767   -0.0003833061419385717
-0.001455956230619025   -0.053470432398486194   -0.0009471795757326312
-0.0014046043945307716   -0.053704769965775535   -0.0008959983000936563
-0.0011978435742270195   -0.043669787363633424   -0.0005755959162984694
-0.006496783220329341   -0.05367670074780943   -0.0011310813293777357
-0.0014296395890006264   -0.05357394960844043   -0.0009253227826484931
-0.0011978435742270195   -0.043669787363633424   -0.0005755959162984694
-0.006822661925251388   -0.04361645767736729   -0.0007941090145571647
-0.006496783220329341   -0.05367670074780943   -0.0011310813293777357
-0.006881740762762496   -0.04351138262511872   -0.0007710706478313965
-0.0014296395890006264   -0.05357394960844043   -0.0009253227826484931
-0.006531469320314471   -0.053567348529307245   -0.0011173502154460107
-0.006881740762762496   -0.04351138262511872   -0.0007710706478313965
-0.006496783220329341   -0.05367670074780943   -0.0011310813293777357
-0.0014296395890006264   -0.05357394960844043   -0.0009253227826484931
-0.006881740762762496   -0.04351138262511872   -0.0007710706478313965
-0.0012506494663130621   -0.04354324193428303   -0.00057948593569518
-0.0011978435742270195   -0.043669787363633424   -0.0005755959162984694
-0.0014296395890006264   -0.05357394960844043   -0.0009253227826484931
-0.006881740762762496   -0.04351138262511872   -0.0007710706478313965
-0.0011978435742270195   -0.043669787363633424   -0.0005755959162984694
-0.006496783220329341   -0.05367670074780943   -0.0011310813293777357
-0.0014296395890006264   -0.05357394960844043   -0.0009253227826484931
-0.0012506494663130621   -0.04354324193428303   -0.00057948593569518
-0.006531469320314471   -0.053567348529307245   -0.0011173502154460107
-0.001455956230619025   -0.053470432398486194   -0.0009471795757326312
-0.0012506494663130621   -0.04354324193428303   -0.00057948593569518
-0.006881740762762496   -0.04351138262511872   -0.0007710706478313965
-0.006531469320314471   -0.053567348529307245   -0.0011173502154460107
-0.006942006580911922   -0.04342062625114338   -0.0007411379890124686
-0.001455956230619025   -0.053470432398486194   -0.0009471795757326312
-0.006566631426911332   -0.053481401394404986   -0.0010959319562575695
-0.006942006580911922   -0.04342062625114338   -0.0007411379890124686
-0.006531469320314471   -0.053567348529307245   -0.0011173502154460107
-0.001455956230619025   -0.053470432398486194   -0.0009471795757326312
-0.006942006580911922   -0.04342062625114338   -0.0007411379890124686
-0.0013093252256689521   -0.04343428530777844   -0.0005767566706957816
-0.0012506494663130621   -0.04354324193428303   -0.00057948593569518
-0.001455956230619025   -0.053470432398486194   -0.0009471795757326312
-0.006942006580911922   -0.04342062625114338   -0.0007411379890124686
-0.0012506494663130621   -0.04354324193428303   -0.00057948593569518
-0.006531469320314471   -0.053567348529307245   -0.0011173502154460107
-0.001455956230619025   -0.053470432398486194   -0.0009471795757326312
-0.0013093252256689521   -0.04343428530777844   -0.0005767566706957816
-0.006566631426911332   -0.053481401394404986   -0.0010959319562575695
-0.0015007287325305106   -0.053390969329193065   -0.0009618213141686893
-0.0013093252256689521   -0.04343428530777844   -0.0005767566706957816
-0.006942006580911922   -0.04342062625114338   -0.0007411379890124686
-0.006566631426911332   -0.053481401394404986   -0.0010959319562575695
-0.00700736530699546   -0.04334504326762603   -0.0007046334626418454
-0.0015007287325305106   -0.053390969329193065   -0.0009618213141686893
-0.006607262479739547   -0.05341925714783621   -0.0010671963247577683
-0.00700736530699546   -0.04334504326762603   -0.0007046334626418454
-0.006566631426911332   -0.053481401394404986   -0.0010959319562575695
-0.0015007287325305106   -0.053390969329193065   -0.0009618213141686893
-0.00700736530699546   -0.04334504326762603   -0.0007046334626418454
-0.001382131315532013   -0.043340098012123185   -0.0005671471679346948
-0.0013093252256689521   -0.04343428530777844   -0.0005767566706957816
-0.0015007287325305106   -0.053390969329193065   -0.0009618213141686893
-0.00700736530699546   -0.04334504326762603   -0.0007046334626418454
-0.0013093252256689521   -0.04343428530777844   -0.0005767566706957816
-0.006566631426911332   -0.053481401394404986   -0.0010959319562575695
-0.006496783220329341   -0.05367670074780943   -0.0011310813293777357
-0.006822661925251388   -0.04361645767736729   -0.0007941090145571647
-0.011502849796829097   -0.0535711745180337   -0.0013322570644545121
-0.006531469320314471   -0.053567348529307245   -0.0011173502154460107
-0.006822661925251388   -0.04361645767736729   -0.0007941090145571647
-0.012352370340308123   -0.043516994215557527   -0.000978492430242593
-0.011502849796829097   -0.0535711745180337   -0.0013322570644545121
-0.012413186123172023   -0.04343171758058356   -0.0009285717922568849
-0.006531469320314471   -0.053567348529307245   -0.0011173502154460107
-0.011540263891325802   -0.05348133409458111   -0.0012756768766552062
-0.012413186123172023   -0.04343171758058356   -0.0009285717922568849
-0.011502849796829097   -0.0535711745180337   -0.0013322570644545121
-0.006531469320314471   -0.053567348529307245   -0.0011173502154460107
-0.012413186123172023   -0.04343171758058356   -0.0009285717922568849
-0.006881740762762496   -0.04351138262511872   -0.0007710706478313965
-0.006822661925251388   -0.04361645767736729   -0.0007941090145571647
-0.006531469320314471   -0.053567348529307245   -0.0011173502154460107
-0.012413186123172023   -0.04343171758058356   -0.0009285717922568849
-0.006822661925251388   -0.04361645767736729   -0.0007941090145571647
-0.011502849796829097   -0.0535711745180337   -0.0013322570644545121
-0.006531469320314471   -0.053567348529307245   -0.0011173502154460107
-0.006881740762762496   -0.04351138262511872   -0.0007710706478313965
-0.011540263891325802   -0.05348133409458111   -0.0012756768766552062
-0.006566631426911332   -0.053481401394404986   -0.0010959319562575695
-0.006881740762762496   -0.04351138262511872   -0.0007710706478313965
-0.012413186123172023   -0.04343171758058356   -0.0009285717922568849
-0.011540263891325802   -0.05348133409458111   -0.0012756768766552062
-0.012468360184288584   -0.04336065837489556   -0.0008719172705610843
-0.006566631426911332   -0.053481401394404986   -0.0010959319562575695
-0.011571267862805296   -0.05341467505625683   -0.0012115450897551253
-0.012468360184288584   -0.04336065837489556   -0.0008719172705610843
-0.011540263891325802   -0.05348133409458111   -0.0012756768766552062
-0.006566631426911332   -0.053481401394404986   -0.0010959319562575695
-0.012468360184288584   -0.04336065837489556   -0.0008719172705610843
-0.006942006580911922   -0.04342062625114338   -0.0007411379890124686
-0.006881740762762496   -0.04351138262511872   -0.0007710706478313965
-0.006566631426911332   -0.053481401394404986   -0.0010959319562575695
-0.012468360184288584   -0.04336065837489556   -0.0008719172705610843
-0.006881740762762496   -0.04351138262511872   -0.0007710706478313965
-0.011540263891325802   -0.05348133409458111   -0.0012756768766552062
-0.006566631426911332   -0.053481401394404986   -0.0010959319562575695
-0.006942006580911922   -0.04342062625114338   -0.0007411379890124686
-0.011571267862805296   -0.05341467505625683   -0.0012115450897551253
-0.006607262479739547   -0.05341925714783621   -0.0010671963247577683
-0.006942006580911922   -0.04342062625114338   -0.0007411379890124686
-0.012468360184288584   -0.04336065837489556   -0.0008719172705610843
-0.011571267862805296   -0.05341467505625683   -0.0012115450897551253
-0.012524056982182643   -0.04330393715991113   -0.0008087859519798512
-0.006607262479739547   -0.05341925714783621   -0.0010671963247577683
-0.011603171299324469   -0.05337110062562829   -0.0011400843058951742
-0.012524056982182643   -0.04330393715991113   -0.0008087859519798512
-0.011571267862805296   -0.05341467505625683   -0.0012115450897551253
-0.006607262479739547   -0.05341925714783621   -0.0010671963247577683
-0.012524056982182643   -0.04330393715991113   -0.0008087859519798512
-0.00700736530699546   -0.04334504326762603   -0.0007046334626418454
-0.006942006580911922   -0.04342062625114338   -0.0007411379890124686
-0.006607262479739547   -0.05341925714783621   -0.0010671963247577683
-0.012524056982182643   -0.04330393715991113   -0.0008087859519798512
-0.006942006580911922   -0.04342062625114338   -0.0007411379890124686
-0.011571267862805296   -0.05341467505625683   -0.0012115450897551253
-0.011502849796829097   -0.0535711745180337   -0.0013322570644545121
-0.012352370340308123   -0.043516994215557527   -0.000978492430242593
-0.016627990504014707   -0.05339029825211952   -0.0015002848785104677
-0.011540263891325802   -0.05348133409458111   -0.0012756768766552062
-0.012352370340308123   -0.043516994215557527   -0.000978492430242593
-0.017991585092212794   -0.043369280260844155   -0.001129155860476331
-0.016627990504014707   -0.05339029825211952   -0.0015002848785104677
-0.01804805906891817   -0.04330397228084887   -0.001052147882799578
-0.011540263891325802   -0.05348133409458111   -0.0012756768766552062
-0.0166589605416385   -0.05331952181043913   -0.001400273123427739
-0.01804805906891817   -0.04330397228084887   -0.001052147882799578
-0.016627990504014707   -0.05339029825211952   -0.0015002848785104677
-0.011540263891325802   -0.05348133409458111   -0.0012756768766552062
-0.01804805906891817   -0.04330397228084887   -0.001052147882799578
-0.012413186123172023   -0.04343171758058356   -0.0009285717922568849
-0.012352370340308123   -0.043516994215557527   -0.000978492430242593
-0.011540263891325802   -0.05348133409458111   -0.0012756768766552062
-0.01804805906891817   -0.04330397228084887   -0.001052147882799578
-0.012352370340308123   -0.043516994215557527   -0.000978492430242593
-0.016627990504014707   -0.05339029825211952   -0.0015002848785104677
-0.011540263891325802   -0.05348133409458111   -0.0012756768766552062
-0.012413186123172023   -0.04343171758058356   -0.0009285717922568849
-0.0166589605416385   -0.05331952181043913   -0.001400273123427739
-0.011571267862805296   -0.05341467505625683   -0.0012115450897551253
-0.012413186123172023   -0.04343171758058356   -0.0009285717922568849
-0.01804805906891817   -0.04330397228084887   -0.001052147882799578
-0.0166589605416385   -0.05331952181043913   -0.001400273123427739
-0.018082293282943477   -0.043251064114565835   -0.000969315414702991
-0.011571267862805296   -0.05341467505625683   -0.0012115450897551253
-0.016662986755395636   -0.053270499134409934   -0.0012937548656148355
-0.018082293282943477   -0.043251064114565835   -0.000969315414702991
-0.0166589605416385   -0.05331952181043913   -0.001400273123427739
-0.011571267862805296   -0.05341467505625683   -0.0012115450897551253
-0.018082293282943477   -0.043251064114565835   -0.000969315414702991
-0.012468360184288584   -0.04336065837489556   -0.0008719172705610843
-0.012413186123172023   -0.04343171758058356   -0.0009285717922568849
-0.011571267862805296   -0.05341467505625683   -0.0012115450897551253
-0.018082293282943477   -0.043251064114565835   -0.000969315414702991
-0.012413186123172023   -0.04343171758058356   -0.0009285717922568849
-0.0166589605416385   -0.05331952181043913   -0.001400273123427739
-0.011571267862805296   -0.05341467505625683   -0.0012115450897551253
-0.012468360184288584   -0.04336065837489556   -0.0008719172705610843
-0.016662986755395636   -0.053270499134409934   -0.0012937548656148355
-0.011603171299324469   -0.05337110062562829   -0.0011400843058951742
-0.012468360184288584   -0.04336065837489556   -0.0008719172705610843
-0.018082293282943477   -0.043251064114565835   -0.000969315414702991
-0.016662986755395636   -0.053270499134409934   -0.0012937548656148355
-0.018119881575069708   -0.04321373617928529   -0.0008794538180462749
-0.011603171299324469   -0.05337110062562829   -0.0011400843058951742
-0.01667464759789008   -0.053246636434086204   -0.0011793525575904758
-0.018119881575069708   -0.04321373617928529   -0.0008794538180462749
-0.016662986755395636   -0.053270499134409934   -0.0012937548656148355
-0.011603171299324469   -0.05337110062562829   -0.0011400843058951742
-0.018119881575069708   -0.04321373617928529   -0.0008794538180462749
-0.012524056982182643   -0.04330393715991113   -0.0008087859519798512
-0.012468360184288584   -0.04336065837489556   -0.0008719172705610843
-0.011603171299324469   -0.05337110062562829   -0.0011400843058951742
-0.018119881575069708   -0.04321373617928529   -0.0008794538180462749
-0.012468360184288584   -0.04336065837489556   -0.0008719172705610843
-0.016662986755395636   -0.053270499134409934   -0.0012937548656148355
-0.016627990504014707   -0.05339029825211952   -0.0015002848785104677
-0.017991585092212794   -0.043369280260844155   -0.001129155860476331
-0.022216770651064244   -0.053153095354036624   -0.0016438175457857546
-0.0166589605416385   -0.05331952181043913   -0.001400273123427739
-0.017991585092212794   -0.043369280260844155   -0.001129155860476331
-0.024043773742159057   -0.04318761003310488   -0.0012489659744813223
-0.022216770651064244   -0.053153095354036624   -0.0016438175457857546
-0.024002343911557072   -0.043132545163301325   -0.0011464052524583275
-0.0166589605416385   -0.05331952181043913   -0.001400273123427739
-0.022109968414999893   -0.05308844446190057   -0.001497900208524366
-0.024002343911557072   -0.043132545163301325   -0.0011464052524583275
-0.022216770651064244   -0.053153095354036624   -0.0016438175457857546
-0.0166589605416385   -0.05331952181043913   -0.001400273123427739
-0.024002343911557072   -0.043132545163301325   -0.0011464052524583275
-0.01804805906891817   -0.04330397228084887   -0.001052147882799578
-0.017991585092212794   -0.043369280260844155   -0.001129155860476331
-0.0166589605416385   -0.05331952181043913   -0.001400273123427739
-0.024002343911557072   -0.043132545163301325   -0.0011464052524583275
-0.017991585092212794   -0.043369280260844155   -0.001129155860476331
-0.022216770651064244   -0.053153095354036624   -0.0016438175457857546
-0.0166589605416385   -0.05331952181043913   -0.001400273123427739
-0.01804805906891817   -0.04330397228084887   -0.001052147882799578
-0.022109968414999893   -0.05308844446190057   -0.001497900208524366
-0.016662986755395636   -0.053270499134409934   -0.0012937548656148355
-0.01804805906891817   -0.04330397228084887   -0.001052147882799578
-0.024002343911557072   -0.043132545163301325   -0.0011464052524583275
-0.022109968414999893   -0.05308844446190057   -0.001497900208524366
-0.0239685846618459   -0.04308818717997072   -0.0010331570351609885
-0.016662986755395636   -0.053270499134409934   -0.0012937548656148355
-0.022019915538687807   -0.05304689762113598   -0.0013406242174316394
-0.0239685846618459   -0.04308818717997072   -0.0010331570351609885
-0.022109968414999893   -0.05308844446190057   -0.001497900208524366
-0.016662986755395636   -0.053270499134409934   -0.0012937548656148355
-0.0239685846618459   -0.04308818717997072   -0.0010331570351609885
-0.018082293282943477   -0.043251064114565835   -0.000969315414702991
-0.01804805906891817   -0.04330397228084887   -0.001052147882799578
-0.016662986755395636   -0.053270499134409934   -0.0012937548656148355
-0.0239685846618459   -0.04308818717997072   -0.0010331570351609885
-0.01804805906891817   -0.04330397228084887   -0.001052147882799578
-0.022109968414999893   -0.05308844446190057   -0.001497900208524366
-0.016662986755395636   -0.053270499134409934   -0.0012937548656148355
-0.018082293282943477   -0.043251064114565835   -0.000969315414702991
-0.022019915538687807   -0.05304689762113598   -0.0013406242174316394
-0.01667464759789008   -0.053246636434086204   -0.0011793525575904758
-0.018082293282943477   -0.043251064114565835   -0.000969315414702991
-0.0239685846618459   -0.04308818717997072   -0.0010331570351609885
-0.022019915538687807   -0.05304689762113598   -0.0013406242174316394
-0.02388733012158258   -0.043074101575628014   -0.0009104405582416782
-0.01667464759789008   -0.053246636434086204   -0.0011793525575904758
-0.021871276653009183   -0.05304811294102144   -0.0011734051424098664
-0.02388733012158258   -0.043074101575628014   -0.0009104405582416782
-0.022019915538687807   -0.05304689762113598   -0.0013406242174316394
-0.01667464759789008   -0.053246636434086204   -0.0011793525575904758
-0.02388733012158258   -0.043074101575628014   -0.0009104405582416782
-0.018119881575069708   -0.04321373617928529   -0.0008794538180462749
-0.018082293282943477   -0.043251064114565835   -0.000969315414702991
-0.01667464759789008   -0.053246636434086204   -0.0011793525575904758
-0.02388733012158258   -0.043074101575628014   -0.0009104405582416782
-0.018082293282943477   -0.043251064114565835   -0.000969315414702991
-0.022019915538687807   -0.05304689762113598   -0.0013406242174316394
0.004699341583607094   -0.043671113500007915   -0.0003109123958426041
0.004856742380208036   -0.033003393145491756   -4.843838948235412e-05
-0.0011978435742270195   -0.043669787363633424   -0.0005755959162984694
0.004682202808248102   -0.04352557291313569   -0.0003524140316800149
0.004856742380208036   -0.033003393145491756   -4.843838948235412e-05
-0.0013746170971239314   -0.032948504937639254   -0.000286441946339661
-0.0011978435742270195   -0.043669787363633424   -0.0005755959162984694
-0.0014470727391186968   -0.032827383145069104   -0.0002649123146665689
0.004682202808248102   -0.04352557291313569   -0.0003524140316800149
-0.0012506494663130621   -0.04354324193428303   -0.00057948593569518
-0.0014470727391186968   -0.032827383145069104   -0.0002649123146665689
-0.0011978435742270195   -0.043669787363633424   -0.0005755959162984694
0.004682202808248102   -0.04352557291313569   -0.0003524140316800149
-0.0014470727391186968   -0.032827383145069104   -0.0002649123146665689
0.004779786646213422   -0.032864552028744755   -4.4025225936399756e-05
0.004856742380208036   -0.033003393145491756   -4.843838948235412e-05
0.004682202808248102   -0.04352557291313569   -0.0003524140316800149
-0.0014470727391186968   -0.032827383145069104   -0.0002649123146665689
0.004856742380208036   -0.033003393145491756   -4.843838948235412e-05
-0.0011978435742270195   -0.043669787363633424   -0.0005755959162984694
0.004682202808248102   -0.04352557291313569   -0.0003524140316800149
0.004779786646213422   -0.032864552028744755   -4.4025225936399756e-05
-0.0012506494663130621   -0.04354324193428303   -0.00057948593569518
0.0046396903416158   -0.04340842202651767   -0.0003833061419385717
0.004779786646213422   -0.032864552028744755   -4.4025225936399756e-05
-0.0014470727391186968   -0.032827383145069104   -0.0002649123146665689
-0.0012506494663130621   -0.04354324193428303   -0.00057948593569518
-0.0015300191471365652   -0.03271303806872453   -0.00023738306112511287
0.0046396903416158   -0.04340842202651767   -0.0003833061419385717
-0.0013093252256689521   -0.04343428530777844   -0.0005767566706957816
-0.0015300191471365652   -0.03271303806872453   -0.00023738306112511287
-0.0012506494663130621   -0.04354324193428303   -0.00057948593569518
0.0046396903416158   -0.04340842202651767   -0.0003833061419385717
-0.0015300191471365652   -0.03271303806872453   -0.00023738306112511287
0.0046853763687515594   -0.03274044668838526   -2.735150224936014e-05
0.004779786646213422   -0.032864552028744755   -4.4025225936399756e-05
0.0046396903416158   -0.04340842202651767   -0.0003833061419385717
-0.0015300191471365652   -0.03271303806872453   -0.00023738306112511287
0.004779786646213422   -0.032864552028744755   -4.4025225936399756e-05
-0.0012506494663130621   -0.04354324193428303   -0.00057948593569518
0.0046396903416158   -0.04340842202651767   -0.0003833061419385717
0.0046853763687515594   -0.03274044668838526   -2.735150224936014e-05
-0.0013093252256689521   -0.04343428530777844   -0.0005767566706957816
0.004580356013348845   -0.043300577227894724   -0.00040432962094552507
0.0046853763687515594   -0.03274044668838526   -2.735150224936014e-05
-0.0015300191471365652   -0.03271303806872453   -0.00023738306112511287
-0.0013093252256689521   -0.04343428530777844   -0.0005767566706957816
-0.0016231044775857175   -0.03260390619900369   -0.00020234990354274707
0.004580356013348845   -0.043300577227894724   -0.00040432962094552507
-0.001382131315532013   -0.043340098012123185   -0.0005671471679346948
-0.0016231044775857175   -0.03260390619900369   -0.00020234990354274707
-0.0013093252256689521   -0.04343428530777844   -0.0005767566706957816
0.004580356013348845   -0.043300577227894724   -0.00040432962094552507
-0.0016231044775857175   -0.03260390619900369   -0.00020234990354274707
0.0045609391729934876   -0.032610607488770274   1.0274544966299297e-06
0.0046853763687515594   -0.03274044668838526   -2.735150224936014e-05
0.004580356013348845   -0.043300577227894724   -0.00040432962094552507
-0.0016231044775857175   -0.03260390619900369   -0.00020234990354274707
0.0046853763687515594   -0.03274044668838526   -2.735150224936014e-05
-0.0013093252256689521   -0.04343428530777844   -0.0005767566706957816
-0.0011978435742270195   -0.043669787363633424   -0.0005755959162984694
-0.0013746170971239314   -0.032948504937639254   -0.000286441946339661
-0.006822661925251388   -0.04361645767736729   -0.0007941090145571647
-0.0012506494663130621   -0.04354324193428303   -0.00057948593569518
-0.0013746170971239314   -0.032948504937639254   -0.000286441946339661
-0.00727916479965067   -0.0328846198112382   -0.00048792552736882217
-0.006822661925251388   -0.04361645767736729   -0.0007941090145571647
-0.007353056106130596   -0.0327832894277307   -0.00045499444856549206
-0.0012506494663130621   -0.04354324193428303   -0.00057948593569518
-0.006881740762762496   -0.04351138262511872   -0.0007710706478313965
-0.007353056106130596   -0.0327832894277307   -0.00045499444856549206
-0.006822661925251388   -0.04361645767736729   -0.0007941090145571647
-0.0012506494663130621   -0.04354324193428303   -0.00057948593569518
-0.007353056106130596   -0.0327832894277307   -0.00045499444856549206
-0.0014470727391186968   -0.032827383145069104   -0.0002649123146665689
-0.0013746170971239314   -0.032948504937639254   -0.000286441946339661
-0.0012506494663130621   -0.04354324193428303   -0.00057948593569518
-0.007353056106130596   -0.0327832894277307   -0.00045499444856549206
-0.0013746170971239314   -0.032948504937639254   -0.000286441946339661
-0.006822661925251388   -0.04361645767736729   -0.0007941090145571647
-0.0012506494663130621   -0.04354324193428303   -0.00057948593569518
-0.0014470727391186968   -0.032827383145069104   -0.0002649123146665689
-0.006881740762762496   -0.04351138262511872   -0.0007710706478313965
-0.0013093252256689521   -0.04343428530777844   -0.0005767566706957816
-0.0014470727391186968   -0.032827383145069104   -0.0002649123146665689
-0.007353056106130596   -0.0327832894277307   -0.00045499444856549206
-0.006881740762762496   -0.04351138262511872   -0.0007710706478313965
-0.007428599216478773   -0.032687219868427694   -0.00041634741429183875
-0.0013093252256689521   -0.04343428530777844   -0.0005767566706957816
-0.006942006580911922   -0.04342062625114338   -0.0007411379890124686
-0.007428599216478773   -0.032687219868427694   -0.00041634741429183875
-0.006881740762762496   -0.04351138262511872   -0.0007710706478313965
-0.0013093252256689521   -0.04343428530777844   -0.0005767566706957816
-0.007428599216478773   -0.032687219868427694   -0.00041634741429183875
-0.0015300191471365652   -0.03271303806872453   -0.00023738306112511287
-0.0014470727391186968   -0.032827383145069104   -0.0002649123146665689
-0.0013093252256689521   -0.04343428530777844   -0.0005767566706957816
-0.007428599216478773   -0.032687219868427694   -0.00041634741429183875
-0.0014470727391186968   -0.032827383145069104   -0.0002649123146665689
-0.006881740762762496   -0.04351138262511872   -0.0007710706478313965
-0.0013093252256689521   -0.04343428530777844   -0.0005767566706957816
-0.0015300191471365652   -0.03271303806872453   -0.00023738306112511287
-0.006942006580911922   -0.04342062625114338   -0.0007411379890124686
-0.001382131315532013   -0.043340098012123185   -0.0005671471679346948
-0.0015300191471365652   -0.03271303806872453   -0.00023738306112511287
-0.007428599216478773   -0.032687219868427694   -0.00041634741429183875
-0.006942006580911922   -0.04342062625114338   -0.0007411379890124686
-0.007508941670229279   -0.032597893978882804   -0.00037192144069907293
-0.001382131315532013   -0.043340098012123185   -0.0005671471679346948
-0.00700736530699546   -0.04334504326762603   -0.0007046334626418454
-0.007508941670229279   -0.032597893978882804   -0.00037192144069907293
-0.006942006580911922   -0.04342062625114338   -0.0007411379890124686
-0.001382131315532013   -0.043340098012123185   -0.0005671471679346948
-0.007508941670229279   -0.032597893978882804   -0.00037192144069907293
-0.0016231044775857175   -0.03260390619900369   -0.00020234990354274707
-0.0015300191471365652   -0.03271303806872453   -0.00023738306112511287
-0.001382131315532013   -0.043340098012123185   -0.0005671471679346948
-0.007508941670229279   -0.032597893978882804   -0.00037192144069907293
-0.0015300191471365652   -0.03271303806872453   -0.00023738306112511287
-0.006942006580911922   -0.04342062625114338   -0.0007411379890124686
-0.006822661925251388   -0.04361645767736729   -0.0007941090145571647
-0.00727916479965067   -0.0328846198112382   -0.00048792552736882217
-0.012352370340308123   -0.043516994215557527   -0.000978492430242593
-0.006881740762762496   -0.04351138262511872   -0.0007710706478313965
-0.00727916479965067   -0.0328846198112382   -0.00048792552736882217
-0.013087701731695819   -0.03280804993418191   -0.0006590716468961636
-0.012352370340308123   -0.043516994215557527   -0.000978492430242593
-0.01316104970930071   -0.03272506512380778   -0.0006147437337048532
-0.006881740762762496   -0.04351138262511872   -0.0007710706478313965
-0.012413186123172023   -0.04343171758058356   -0.0009285717922568849
-0.01316104970930071   -0.03272506512380778   -0.0006147437337048532
-0.012352370340308123   -0.043516994215557527   -0.000978492430242593
-0.006881740762762496   -0.04351138262511872   -0.0007710706478313965
-0.01316104970930071   -0.03272506512380778   -0.0006147437337048532
-0.007353056106130596   -0.0327832894277307   -0.00045499444856549206
-0.00727916479965067   -0.0328846198112382   -0.00048792552736882217
-0.006881740762762496   -0.04351138262511872   -0.0007710706478313965
-0.01316104970930071   -0.03272506512380778   -0.0006147437337048532
-0.00727916479965067   -0.0328846198112382   -0.00048792552736882217
-0.012352370340308123   -0.043516994215557527   -0.000978492430242593
-0.006881740762762496   -0.04351138262511872   -0.0007710706478313965
-0.007353056106130596   -0.0327832894277307   -0.00045499444856549206
-0.012413186123172023   -0.04343171758058356   -0.0009285717922568849
-0.006942006580911922   -0.04342062625114338   -0.0007411379890124686
-0.007353056106130596   -0.0327832894277307   -0.00045499444856549206
-0.01316104970930071   -0.03272506512380778   -0.0006147437337048532
-0.012413186123172023   -0.04343171758058356   -0.0009285717922568849
-0.013229654517389595   -0.032647641554565246   -0.0005648953751849
-0.006942006580911922   -0.04342062625114338   -0.0007411379890124686
-0.012468360184288584   -0.04336065837489556   -0.0008719172705610843
-0.013229654517389595   -0.032647641554565246   -0.0005648953751849
-0.012413186123172023   -0.04343171758058356   -0.0009285717922568849
-0.006942006580911922   -0.04342062625114338   -0.0007411379890124686
-0.013229654517389595   -0.032647641554565246   -0.0005648953751849
-0.007428599216478773   -0.032687219868427694   -0.00041634741429183875
-0.007353056106130596   -0.0327832894277307   -0.00045499444856549206
-0.006942006580911922   -0.04342062625114338   -0.0007411379890124686
-0.013229654517389595   -0.032647641554565246   -0.0005648953751849
-0.007353056106130596   -0.0327832894277307   -0.00045499444856549206
-0.012413186123172023   -0.04343171758058356   -0.0009285717922568849
-0.006942006580911922   -0.04342062625114338   -0.0007411379890124686
-0.007428599216478773   -0.032687219868427694   -0.00041634741429183875
-0.012468360184288584   -0.04336065837489556   -0.0008719172705610843
-0.00700736530699546   -0.04334504326762603   -0.0007046334626418454
-0.007428599216478773   -0.032687219868427694   -0.00041634741429183875
-0.013229654517389595   -0.032647641554565246   -0.0005648953751849
-0.012468360184288584   -0.04336065837489556   -0.0008719172705610843
-0.013298504642733269   -0.03257599451161513   -0.0005098003660403248
-0.00700736530699546   -0.04334504326762603   -0.0007046334626418454
-0.012524056982182643   -0.04330393715991113   -0.0008087859519798512
-0.013298504642733269   -0.03257599451161513   -0.0005098003660403248
-0.012468360184288584   -0.04336065837489556   -0.0008719172705610843
-0.00700736530699546   -0.04334504326762603   -0.0007046334626418454
-0.013298504642733269   -0.03257599451161513   -0.0005098003660403248
-0.007508941670229279   -0.032597893978882804   -0.00037192144069907293
-0.007428599216478773   -0.032687219868427694   -0.00041634741429183875
-0.00700736530699546   -0.04334504326762603   -0.0007046334626418454
-0.013298504642733269   -0.03257599451161513   -0.0005098003660403248
-0.007428599216478773   -0.032687219868427694   -0.00041634741429183875
-0.012468360184288584   -0.04336065837489556   -0.0008719172705610843
-0.012352370340308123   -0.043516994215557527   -0.000978492430242593
-0.013087701731695819   -0.03280804993418191   -0.0006590716468961636
-0.017991585092212794   -0.043369280260844155   -0.001129155860476331
-0.012413186123172023   -0.04343171758058356   -0.0009285717922568849
-0.013087701731695819   -0.03280804993418191   -0.0006590716468961636
-0.019001127477393815   -0.03270456149848722   -0.0007984182675540212
-0.017991585092212794   -0.043369280260844155   -0.001129155860476331
-0.019071370081536976   -0.03264087837781976   -0.0007428288283510493
-0.012413186123172023   -0.04343171758058356   -0.0009285717922568849
-0.01804805906891817   -0.04330397228084887   -0.001052147882799578
-0.019071370081536976   -0.03264087837781976   -0.0007428288283510493
-0.017991585092212794   -0.043369280260844155   -0.001129155860476331
-0.012413186123172023   -0.04343171758058356   -0.0009285717922568849
-0.019071370081536976   -0.03264087837781976   -0.0007428288283510493
-0.01316104970930071   -0.03272506512380778   -0.0006147437337048532
-0.013087701731695819   -0.03280804993418191   -0.0006590716468961636
-0.012413186123172023   -0.04343171758058356   -0.0009285717922568849
-0.019071370081536976   -0.03264087837781976   -0.0007428288283510493
-0.013087701731695819   -0.03280804993418191   -0.0006590716468961636
-0.017991585092212794   -0.043369280260844155   -0.001129155860476331
-0.012413186123172023   -0.04343171758058356   -0.0009285717922568849
-0.01316104970930071   -0.03272506512380778   -0.0006147437337048532
-0.01804805906891817   -0.04330397228084887   -0.001052147882799578
-0.012468360184288584   -0.04336065837489556   -0.0008719172705610843
-0.01316104970930071   -0.03272506512380778   -0.0006147437337048532
-0.019071370081536976   -0.03264087837781976   -0.0007428288283510493
-0.01804805906891817   -0.04330397228084887   -0.001052147882799578
-0.019124640212992497   -0.032580623309284074   -0.0006826316892168673
-0.012468360184288584   -0.04336065837489556   -0.0008719172705610843
-0.018082293282943477   -0.043251064114565835   -0.000969315414702991
-0.019124640212992497   -0.032580623309284074   -0.0006826316892168673
-0.01804805906891817   -0.04330397228084887   -0.001052147882799578
-0.012468360184288584   -0.04336065837489556   -0.0008719172705610843
-0.019124640212992497   -0.032580623309284074   -0.0006826316892168673
-0.013229654517389595   -0.032647641554565246   -0.0005648953751849
-0.01316104970930071   -0.03272506512380778   -0.0006147437337048532
-0.012468360184288584   -0.04336065837489556   -0.0008719172705610843
-0.019124640212992497   -0.032580623309284074   -0.0006826316892168673
-0.01316104970930071   -0.03272506512380778   -0.0006147437337048532
-0.01804805906891817   -0.04330397228084887   -0.001052147882799578
-0.012468360184288584   -0.04336065837489556   -0.0008719172705610843
-0.013229654517389595   -0.032647641554565246   -0.0005648953751849
-0.018082293282943477   -0.043251064114565835   -0.000969315414702991
-0.012524056982182643   -0.04330393715991113   -0.0008087859519798512
-0.013229654517389595   -0.032647641554565246   -0.0005648953751849
-0.019124640212992497   -0.032580623309284074   -0.0006826316892168673
-0.018082293282943477   -0.043251064114565835   -0.000969315414702991
-0.019177490999616378   -0.032526462766984   -0.0006166232112521832
-0.012524056982182643   -0.04330393715991113   -0.0008087859519798512
-0.018119881575069708   -0.04321373617928529   -0.0008794538180462749
-0.019177490999616378   -0.032526462766984   -0.0006166232112521832
-0.018082293282943477   -0.043251064114565835   -0.000969315414702991
-0.012524056982182643   -0.04330393715991113   -0.0008087859519798512
-0.019177490999616378   -0.032526462766984   -0.0006166232112521832
-0.013298504642733269   -0.03257599451161513   -0.0005098003660403248
-0.013229654517389595   -0.032647641554565246   -0.0005648953751849
-0.012524056982182643   -0.04330393715991113   -0.0008087859519798512
-0.019177490999616378   -0.032526462766984   -0.0006166232112521832
-0.013229654517389595   -0.032647641554565246   -0.0005648953751849
-0.018082293282943477   -0.043251064114565835   -0.000969315414702991
-0.017991585092212794   -0.043369280260844155   -0.001129155860476331
-0.019001127477393815   -0.03270456149848722   -0.0007984182675540212
-0.024043773742159057   -0.04318761003310488   -0.0012489659744813223
-0.01804805906891817   -0.04330397228084887   -0.001052147882799578
-0.019001127477393815   -0.03270456149848722   -0.0007984182675540212
-0.02526835596439814   -0.032582339119597556   -0.0009018531602093772
-0.024043773742159057   -0.04318761003310488   -0.0012489659744813223
-0.02527920143695834   -0.03253150058896394   -0.0008404727356320023
-0.01804805906891817   -0.04330397228084887   -0.001052147882799578
-0.024002343911557072   -0.043132545163301325   -0.0011464052524583275
-0.02527920143695834   -0.03253150058896394   -0.0008404727356320023
-0.024043773742159057   -0.04318761003310488   -0.0012489659744813223
-0.01804805906891817   -0.04330397228084887   -0.001052147882799578
-0.02527920143695834   -0.03253150058896394   -0.0008404727356320023
-0.019071370081536976   -0.03264087837781976   -0.0007428288283510493
-0.019001127477393815   -0.03270456149848722   -0.0007984182675540212
-0.01804805906891817   -0.04330397228084887   -0.001052147882799578
-0.02527920143695834   -0.03253150058896394   -0.0008404727356320023
-0.019001127477393815   -0.03270456149848722   -0.0007984182675540212
-0.024043773742159057   -0.04318761003310488   -0.0012489659744813223
-0.01804805906891817   -0.04330397228084887   -0.001052147882799578
-0.019071370081536976   -0.03264087837781976   -0.0007428288283510493
-0.024002343911557072   -0.043132545163301325   -0.0011464052524583275
-0.018082293282943477   -0.043251064114565835   -0.000969315414702991
-0.019071370081536976   -0.03264087837781976   -0.0007428288283510493
-0.02527920143695834   -0.03253150058896394   -0.0008404727356320023
-0.024002343911557072   -0.043132545163301325   -0.0011464052524583275
-0.025290329069556177   -0.03248006315067543   -0.0007698130368374892
-0.018082293282943477   -0.043251064114565835   -0.000969315414702991
-0.0239685846618459   -0.04308818717997072   -0.0010331570351609885
-0.025290329069556177   -0.03248006315067543   -0.0007698130368374892
-0.024002343911557072   -0.043132545163301325   -0.0011464052524583275
-0.018082293282943477   -0.043251064114565835   -0.000969315414702991
-0.025290329069556177   -0.03248006315067543   -0.0007698130368374892
-0.019124640212992497   -0.032580623309284074   -0.0006826316892168673
-0.019071370081536976   -0.03264087837781976   -0.0007428288283510493
-0.018082293282943477   -0.043251064114565835   -0.000969315414702991
-0.025290329069556177   -0.03248006315067543   -0.0007698130368374892
-0.019071370081536976   -0.03264087837781976   -0.0007428288283510493
-0.024002343911557072   -0.043132545163301325   -0.0011464052524583275
-0.018082293282943477   -0.043251064114565835   -0.000969315414702991
-0.019124640212992497   -0.032580623309284074   -0.0006826316892168673
-0.0239685846618459   -0.04308818717997072   -0.0010331570351609885
-0.018119881575069708   -0.04321373617928529   -0.0008794538180462749
-0.019124640212992497   -0.032580623309284074   -0.0006826316892168673
-0.025290329069556177   -0.03248006315067543   -0.0007698130368374892
-0.0239685846618459   -0.04308818717997072   -0.0010331570351609885
-0.025266244525789468   -0.032446132312639285   -0.0006909760638452058
-0.018119881575069708   -0.04321373617928529   -0.0008794538180462749
-0.02388733012158258   -0.043074101575628014   -0.0009104405582416782
-0.025266244525789468   -0.032446132312639285   -0.0006909760638452058
-0.0239685846618459   -0.04308818717997072   -0.0010331570351609885
-0.018119881575069708   -0.04321373617928529   -0.0008794538180462749
-0.025266244525789468   -0.032446132312639285   -0.0006909760638452058
-0.019177490999616378   -0.032526462766984   -0.0006166232112521832
-0.019124640212992497   -0.032580623309284074   -0.0006826316892168673
-0.018119881575069708   -0.04321373617928529   -0.0008794538180462749
-0.025266244525789468   -0.032446132312639285   -0.0006909760638452058
-0.019124640212992497   -0.032580623309284074   -0.0006826316892168673
-0.0239685846618459   -0.04308818717997072   -0.0010331570351609885
0.004856742380208036   -0.033003393145491756   -4.843838948235412e-05
0.004352889180447514   -0.022019548751327434   0.00013271378538321705
-0.0013746170971239314   -0.032948504937639254   -0.000286441946339661
0.004779786646213422   -0.032864552028744755   -4.4025225936399756e-05
0.004352889180447514   -0.022019548751327434   0.00013271378538321705
-0.001924519032723563   -0.021915997971923243   -5.646990241334436e-05
-0.0013746170971239314   -0.032948504937639254   -0.000286441946339661
-0.002011061496105955   -0.02180633390102944   -1.1554313379072492e-05
0.004779786646213422   -0.032864552028744755   -4.4025225936399756e-05
-0.0014470727391186968   -0.032827383145069104   -0.0002649123146665689
-0.002011061496105955   -0.02180633390102944   -1.1554313379072492e-05
-0.0013746170971239314   -0.032948504937639254   -0.000286441946339661
0.004779786646213422   -0.032864552028744755   -4.4025225936399756e-05
-0.002011061496105955   -0.02180633390102944   -1.1554313379072492e-05
0.004216540854771449   -0.021887258841100588   0.0001886512731523977
0.004352889180447514   -0.022019548751327434   0.00013271378538321705
0.004779786646213422   -0.032864552028744755   -4.4025225936399756e-05
-0.002011061496105955   -0.02180633390102944   -1.1554313379072492e-05
0.004352889180447514   -0.022019548751327434   0.00013271378538321705
-0.0013746170971239314   -0.032948504937639254   -0.000286441946339661
0.004779786646213422   -0.032864552028744755   -4.4025225936399756e-05
0.004216540854771449   -0.021887258841100588   0.0001886512731523977
-0.0014470727391186968   -0.032827383145069104   -0.0002649123146665689
0.0046853763687515594   -0.03274044668838526   -2.735150224936014e-05
0.004216540854771449   -0.021887258841100588   0.0001886512731523977
-0.002011061496105955   -0.02180633390102944   -1.1554313379072492e-05
-0.0014470727391186968   -0.032827383145069104   -0.0002649123146665689
-0.002112293338138363   -0.021690584177689664   4.1346286596294575e-05
0.0046853763687515594   -0.03274044668838526   -2.735150224936014e-05
-0.0015300191471365652   -0.03271303806872453   -0.00023738306112511287
-0.002112293338138363   -0.021690584177689664   4.1346286596294575e-05
-0.0014470727391186968   -0.032827383145069104   -0.0002649123146665689
0.0046853763687515594   -0.03274044668838526   -2.735150224936014e-05
-0.002112293338138363   -0.021690584177689664   4.1346286596294575e-05
0.0040643786239687235   -0.021755858460525638   0.00026896578265713216
0.004216540854771449   -0.021887258841100588   0.0001886512731523977
0.0046853763687515594   -0.03274044668838526   -2.735150224936014e-05
-0.002112293338138363   -0.021690584177689664   4.1346286596294575e-05
0.004216540854771449   -0.021887258841100588   0.0001886512731523977
-0.0014470727391186968   -0.032827383145069104   -0.0002649123146665689
0.0046853763687515594   -0.03274044668838526   -2.735150224936014e-05
0.0040643786239687235   -0.021755858460525638   0.00026896578265713216
-0.0015300191471365652   -0.03271303806872453   -0.00023738306112511287
0.0045609391729934876   -0.032610607488770274   1.0274544966299297e-06
0.0040643786239687235   -0.021755858460525638   0.00026896578265713216
-0.002112293338138363   -0.021690584177689664   4.1346286596294575e-05
-0.0015300191471365652   -0.03271303806872453   -0.00023738306112511287
-0.0022169965161992944   -0.021567674684466444   0.0001021240788424293
0.0045609391729934876   -0.032610607488770274   1.0274544966299297e-06
-0.0016231044775857175   -0.03260390619900369   -0.00020234990354274707
-0.0022169965161992944   -0.021567674684466444   0.0001021240788424293
-0.0015300191471365652   -0.03271303806872453   -0.00023738306112511287
0.0045609391729934876   -0.032610607488770274   1.0274544966299297e-06
-0.0022169965161992944   -0.021567674684466444   0.0001021240788424293
0.00387845961057689   -0.021594449513500303   0.00035733602695008814
0.0040643786239687235   -0.021755858460525638   0.00026896578265713216
0.0045609391729934876   -0.032610607488770274   1.0274544966299297e-06
-0.0022169965161992944   -0.021567674684466444   0.0001021240788424293
0.0040643786239687235   -0.021755858460525638   0.00026896578265713216
-0.0015300191471365652   -0.03271303806872453   -0.00023738306112511287
-0.0013746170971239314   -0.032948504937639254   -0.000286441946339661
-0.001924519032723563   -0.021915997971923243   -5.646990241334436e-05
-0.00727916479965067   -0.0328846198112382   -0.00048792552736882217
-0.0014470727391186968   -0.032827383145069104   -0.0002649123146665689
-0.001924519032723563   -0.021915997971923243   -5.646990241334436e-05
-0.007835888832256716   -0.021889201032642143   -0.00023883927908753257
-0.00727916479965067   -0.0328846198112382   -0.00048792552736882217
-0.007914104682124766   -0.02179347307997451   -0.00019706508247009275
-0.0014470727391186968   -0.032827383145069104   -0.0002649123146665689
-0.007353056106130596   -0.0327832894277307   -0.00045499444856549206
-0.007914104682124766   -0.02179347307997451   -0.00019706508247009275
-0.00727916479965067   -0.0328846198112382   -0.00048792552736882217
-0.0014470727391186968   -0.032827383145069104   -0.0002649123146665689
-0.007914104682124766   -0.02179347307997451   -0.00019706508247009275
-0.002011061496105955   -0.02180633390102944   -1.1554313379072492e-05
-0.001924519032723563   -0.021915997971923243   -5.646990241334436e-05
-0.0014470727391186968   -0.032827383145069104   -0.0002649123146665689
-0.007914104682124766   -0.02179347307997451   -0.00019706508247009275
-0.001924519032723563   -0.021915997971923243   -5.646990241334436e-05
-0.00727916479965067   -0.0328846198112382   -0.00048792552736882217
-0.0014470727391186968   -0.032827383145069104   -0.0002649123146665689
-0.002011061496105955   -0.02180633390102944   -1.1554313379072492e-05
-0.007353056106130596   -0.0327832894277307   -0.00045499444856549206
-0.0015300191471365652   -0.03271303806872453   -0.00023738306112511287
-0.002011061496105955   -0.02180633390102944   -1.1554313379072492e-05
-0.007914104682124766   -0.02179347307997451   -0.00019706508247009275
-0.007353056106130596   -0.0327832894277307   -0.00045499444856549206
-0.007995011918867324   -0.021693894556965406   -0.0001511497573711911
-0.0015300191471365652   -0.03271303806872453   -0.00023738306112511287
-0.007428599216478773   -0.032687219868427694   -0.00041634741429183875
-0.007995011918867324   -0.021693894556965406   -0.0001511497573711911
-0.007353056106130596   -0.0327832894277307   -0.00045499444856549206
-0.0015300191471365652   -0.03271303806872453   -0.00023738306112511287
-0.007995011918867324   -0.021693894556965406   -0.0001511497573711911
-0.002112293338138363   -0.021690584177689664   4.1346286596294575e-05
-0.002011061496105955   -0.02180633390102944   -1.1554313379072492e-05
-0.0015300191471365652   -0.03271303806872453   -0.00023738306112511287
-0.007995011918867324   -0.021693894556965406   -0.0001511497573711911
-0.002011061496105955   -0.02180633390102944   -1.1554313379072492e-05
-0.007353056106130596   -0.0327832894277307   -0.00045499444856549206
-0.0015300191471365652   -0.03271303806872453   -0.00023738306112511287
-0.002112293338138363   -0.021690584177689664   4.1346286596294575e-05
-0.007428599216478773   -0.032687219868427694   -0.00041634741429183875
-0.0016231044775857175   -0.03260390619900369   -0.00020234990354274707
-0.002112293338138363   -0.021690584177689664   4.1346286596294575e-05
-0.007995011918867324   -0.021693894556965406   -0.0001511497573711911
-0.007428599216478773   -0.032687219868427694   -0.00041634741429183875
-0.008079239645554237   -0.02159224231936753   -0.00010026492664399152
-0.0016231044775857175   -0.03260390619900369   -0.00020234990354274707
-0.007508941670229279   -0.032597893978882804   -0.00037192144069907293
-0.008079239645554237   -0.02159224231936753   -0.00010026492664399152
-0.007428599216478773   -0.032687219868427694   -0.00041634741429183875
-0.0016231044775857175   -0.03260390619900369   -0.00020234990354274707
-0.008079239645554237   -0.02159224231936753   -0.00010026492664399152
-0.0022169965161992944   -0.021567674684466444   0.0001021240788424293
-0.002112293338138363   -0.021690584177689664   4.1346286596294575e-05
-0.0016231044775857175   -0.03260390619900369   -0.00020234990354274707
-0.008079239645554237   -0.02159224231936753   -0.00010026492664399152
-0.002112293338138363   -0.021690584177689664   4.1346286596294575e-05
-0.007428599216478773   -0.032687219868427694   -0.00041634741429183875
-0.00727916479965067   -0.0328846198112382   -0.00048792552736882217
-0.007835888832256716   -0.021889201032642143   -0.00023883927908753257
-0.013087701731695819   -0.03280804993418191   -0.0006590716468961636
-0.007353056106130596   -0.0327832894277307   -0.00045499444856549206
-0.007835888832256716   -0.021889201032642143   -0.00023883927908753257
-0.013686701135656024   -0.021881754228397828   -0.00040369337418097006
-0.013087701731695819   -0.03280804993418191   -0.0006590716468961636
-0.013761469426564334   -0.021797805181240446   -0.0003638557036458081
-0.007353056106130596   -0.0327832894277307   -0.00045499444856549206
-0.01316104970930071   -0.03272506512380778   -0.0006147437337048532
-0.013761469426564334   -0.021797805181240446   -0.0003638557036458081
-0.013087701731695819   -0.03280804993418191   -0.0006590716468961636
-0.007353056106130596   -0.0327832894277307   -0.00045499444856549206
-0.013761469426564334   -0.021797805181240446   -0.0003638557036458081
-0.007914104682124766   -0.02179347307997451   -0.00019706508247009275
-0.007835888832256716   -0.021889201032642143   -0.00023883927908753257
-0.007353056106130596   -0.0327832894277307   -0.00045499444856549206
-0.013761469426564334   -0.021797805181240446   -0.0003638557036458081
-0.007835888832256716   -0.021889201032642143   -0.00023883927908753257
-0.013087701731695819   -0.03280804993418191   -0.0006590716468961636
-0.007353056106130596   -0.0327832894277307   -0.00045499444856549206
-0.007914104682124766   -0.02179347307997451   -0.00019706508247009275
-0.01316104970930071   -0.03272506512380778   -0.0006147437337048532
-0.007428599216478773   -0.032687219868427694   -0.00041634741429183875
-0.007914104682124766   -0.02179347307997451   -0.00019706508247009275
-0.013761469426564334   -0.021797805181240446   -0.0003638557036458081
-0.01316104970930071   -0.03272506512380778   -0.0006147437337048532
-0.013832693799409981   -0.02171233205751263   -0.00032039752027034627
-0.007428599216478773   -0.032687219868427694   -0.00041634741429183875
-0.013229654517389595   -0.032647641554565246   -0.0005648953751849
-0.013832693799409981   -0.02171233205751263   -0.00032039752027034627
-0.01316104970930071   -0.03272506512380778   -0.0006147437337048532
-0.007428599216478773   -0.032687219868427694   -0.00041634741429183875
-0.013832693799409981   -0.02171233205751263   -0.00032039752027034627
-0.007995011918867324   -0.021693894556965406   -0.0001511497573711911
-0.007914104682124766   -0.02179347307997451   -0.00019706508247009275
-0.007428599216478773   -0.032687219868427694   -0.00041634741429183875
-0.013832693799409981   -0.02171233205751263   -0.00032039752027034627
-0.007914104682124766   -0.02179347307997451   -0.00019706508247009275
-0.01316104970930071   -0.03272506512380778   -0.0006147437337048532
-0.007428599216478773   -0.032687219868427694   -0.00041634741429183875
-0.007995011918867324   -0.021693894556965406   -0.0001511497573711911
-0.013229654517389595   -0.032647641554565246   -0.0005648953751849
-0.007508941670229279   -0.032597893978882804   -0.00037192144069907293
-0.007995011918867324   -0.021693894556965406   -0.0001511497573711911
-0.013832693799409981   -0.02171233205751263   -0.00032039752027034627
-0.013229654517389595   -0.032647641554565246   -0.0005648953751849
-0.01390320131846708   -0.02162484821233096   -0.0002735246357249283
-0.007508941670229279   -0.032597893978882804   -0.00037192144069907293
-0.013298504642733269   -0.03257599451161513   -0.0005098003660403248
-0.01390320131846708   -0.02162484821233096   -0.0002735246357249283
-0.013229654517389595   -0.032647641554565246   -0.0005648953751849
-0.007508941670229279   -0.032597893978882804   -0.00037192144069907293
-0.01390320131846708   -0.02162484821233096   -0.0002735246357249283
-0.008079239645554237   -0.02159224231936753   -0.00010026492664399152
-0.007995011918867324   -0.021693894556965406   -0.0001511497573711911
-0.007508941670229279   -0.032597893978882804   -0.00037192144069907293
-0.01390320131846708   -0.02162484821233096   -0.0002735246357249283
-0.007995011918867324   -0.021693894556965406   -0.0001511497573711911
-0.013229654517389595   -0.032647641554565246   -0.0005648953751849
-0.013087701731695819   -0.03280804993418191   -0.0006590716468961636
-0.013686701135656024   -0.021881754228397828   -0.00040369337418097006
-0.019001127477393815   -0.03270456149848722   -0.0007984182675540212
-0.01316104970930071   -0.03272506512380778   -0.0006147437337048532
-0.013686701135656024   -0.021881754228397828   -0.00040369337418097006
-0.019661447984397545   -0.02184778279134571   -0.0005421876622099621
-0.019001127477393815   -0.03270456149848722   -0.0007984182675540212
-0.019732726435108042   -0.02177934977420054   -0.0005044857753247511
-0.01316104970930071   -0.03272506512380778   -0.0006147437337048532
-0.019071370081536976   -0.03264087837781976   -0.0007428288283510493
-0.019732726435108042   -0.02177934977420054   -0.0005044857753247511
-0.019001127477393815   -0.03270456149848722   -0.0007984182675540212
-0.01316104970930071   -0.03272506512380778   -0.0006147437337048532
-0.019732726435108042   -0.02177934977420054   -0.0005044857753247511
-0.013761469426564334   -0.021797805181240446   -0.0003638557036458081
-0.013686701135656024   -0.021881754228397828   -0.00040369337418097006
-0.01316104970930071   -0.03272506512380778   -0.0006147437337048532
-0.019732726435108042   -0.02177934977420054   -0.0005044857753247511
-0.013686701135656024   -0.021881754228397828   -0.00040369337418097006
-0.019001127477393815   -0.03270456149848722   -0.0007984182675540212
-0.01316104970930071   -0.03272506512380778   -0.0006147437337048532
-0.013761469426564334   -0.021797805181240446   -0.0003638557036458081
-0.019071370081536976   -0.03264087837781976   -0.0007428288283510493
-0.013229654517389595   -0.032647641554565246   -0.0005648953751849
-0.013761469426564334   -0.021797805181240446   -0.0003638557036458081
-0.019732726435108042   -0.02177934977420054   -0.0005044857753247511
-0.019071370081536976   -0.03264087837781976   -0.0007428288283510493
-0.019793128480042433   -0.021707161201711327   -0.0004642147181047972
-0.013229654517389595   -0.032647641554565246   -0.0005648953751849
-0.019124640212992497   -0.032580623309284074   -0.0006826316892168673
-0.019793128480042433   -0.021707161201711327   -0.0004642147181047972
-0.019071370081536976   -0.03264087837781976   -0.0007428288283510493
-0.013229654517389595   -0.032647641554565246   -0.0005648953751849
-0.019793128480042433   -0.021707161201711327   -0.0004642147181047972
-0.013832693799409981   -0.02171233205751263   -0.00032039752027034627
-0.013761469426564334   -0.021797805181240446   -0.0003638557036458081
-0.013229654517389595   -0.032647641554565246   -0.0005648953751849
-0.019793128480042433   -0.021707161201711327   -0.0004642147181047972
-0.013761469426564334   -0.021797805181240446   -0.0003638557036458081
-0.019071370081536976   -0.03264087837781976   -0.0007428288283510493
-0.013229654517389595   -0.032647641554565246   -0.0005648953751849
-0.013832693799409981   -0.02171233205751263   -0.00032039752027034627
-0.019124640212992497   -0.032580623309284074   -0.0006826316892168673
-0.013298504642733269   -0.03257599451161513   -0.0005098003660403248
-0.013832693799409981   -0.02171233205751263   -0.00032039752027034627
-0.019793128480042433   -0.021707161201711327   -0.0004642147181047972
-0.019124640212992497   -0.032580623309284074   -0.0006826316892168673
-0.019850217726332893   -0.021633068033088256   -0.00042025372560909027
-0.013298504642733269   -0.03257599451161513   -0.0005098003660403248
-0.019177490999616378   -0.032526462766984   -0.0006166232112521832
-0.019850217726332893   -0.021633068033088256   -0.00042025372560909027
-0.019124640212992497   -0.032580623309284074   -0.0006826316892168673
-0.013298504642733269   -0.03257599451161513   -0.0005098003660403248
-0.019850217726332893   -0.021633068033088256   -0.00042025372560909027
-0.01390320131846708   -0.02162484821233096   -0.0002735246357249283
-0.013832693799409981   -0.02171233205751263   -0.00032039752027034627
-0.013298504642733269   -0.03257599451161513   -0.0005098003660403248
-0.019850217726332893   -0.021633068033088256   -0.00042025372560909027
-0.013832693799409981   -0.02171233205751263   -0.00032039752027034627
-0.019124640212992497   -0.032580623309284074   -0.0006826316892168673
-0.019001127477393815   -0.03270456149848722   -0.0007984182675540212
-0.019661447984397545   -0.02184778279134571   -0.0005421876622099621
-0.02526835596439814   -0.032582339119597556   -0.0009018531602093772
-0.019071370081536976   -0.03264087837781976   -0.0007428288283510493
-0.019661447984397545   -0.02184778279134571   -0.0005421876622099621
-0.025919833256653375   -0.02179183859937468   -0.0006446869248942404
-0.02526835596439814   -0.032582339119597556   -0.0009018531602093772
-0.025964175743545065   -0.021734380308580062   -0.0006164334995079913
-0.019071370081536976   -0.03264087837781976   -0.0007428288283510493
-0.02527920143695834   -0.03253150058896394   -0.0008404727356320023
-0.025964175743545065   -0.021734380308580062   -0.0006164334995079913
-0.02526835596439814   -0.032582339119597556   -0.0009018531602093772
-0.019071370081536976   -0.03264087837781976   -0.0007428288283510493
-0.025964175743545065   -0.021734380308580062   -0.0006164334995079913
-0.019732726435108042   -0.02177934977420054   -0.0005044857753247511
-0.019661447984397545   -0.02184778279134571   -0.0005421876622099621
-0.019071370081536976   -0.03264087837781976   -0.0007428288283510493
-0.025964175743545065   -0.021734380308580062   -0.0006164334995079913
-0.019661447984397545   -0.02184778279134571   -0.0005421876622099621
-0.02526835596439814   -0.032582339119597556   -0.0009018531602093772
-0.019071370081536976   -0.03264087837781976   -0.0007428288283510493
-0.019732726435108042   -0.02177934977420054   -0.0005044857753247511
-0.02527920143695834   -0.03253150058896394   -0.0008404727356320023
-0.019124640212992497   -0.032580623309284074   -0.0006826316892168673
-0.019732726435108042   -0.02177934977420054   -0.0005044857753247511
-0.025964175743545065   -0.021734380308580062   -0.0006164334995079913
-0.02527920143695834   -0.03253150058896394   -0.0008404727356320023
-0.026004721810968242   -0.021669369339906302   -0.000581873669524048
-0.019124640212992497   -0.032580623309284074   -0.0006826316892168673
-0.025290329069556177   -0.03248006315067543   -0.0007698130368374892
-0.026004721810968242   -0.021669369339906302   -0.000581873669524048
-0.02527920143695834   -0.03253150058896394   -0.0008404727356320023
-0.019124640212992497   -0.032580623309284074   -0.0006826316892168673
-0.026004721810968242   -0.021669369339906302   -0.000581873669524048
-0.019793128480042433   -0.021707161201711327   -0.0004642147181047972
-0.019732726435108042   -0.02177934977420054   -0.0005044857753247511
-0.019124640212992497   -0.032580623309284074   -0.0006826316892168673
-0.026004721810968242   -0.021669369339906302   -0.000581873669524048
-0.019732726435108042   -0.02177934977420054   -0.0005044857753247511
-0.02527920143695834   -0.03253150058896394   -0.0008404727356320023
-0.019124640212992497   -0.032580623309284074   -0.0006826316892168673
-0.019793128480042433   -0.021707161201711327   -0.0004642147181047972
-0.025290329069556177   -0.03248006315067543   -0.0007698130368374892
-0.019177490999616378   -0.032526462766984   -0.0006166232112521832
-0.019793128480042433   -0.021707161201711327   -0.0004642147181047972
-0.026004721810968242   -0.021669369339906302   -0.000581873669524048
-0.025290329069556177   -0.03248006315067543   -0.0007698130368374892
-0.02602441991276264   -0.021609695024466274   -0.0005425860515056597
-0.019177490999616378   -0.032526462766984   -0.0006166232112521832
-0.025266244525789468   -0.032446132312639285   -0.0006909760638452058
-0.02602441991276264   -0.021609695024466274   -0.0005425860515056597
-0.025290329069556177   -0.03248006315067543   -0.0007698130368374892
-0.019177490999616378   -0.032526462766984   -0.0006166232112521832
-0.02602441991276264   -0.021609695024466274   -0.0005425860515056597
-0.019850217726332893   -0.021633068033088256   -0.00042025372560909027
-0.019793128480042433   -0.021707161201711327   -0.0004642147181047972
-0.019177490999616378   -0.032526462766984   -0.0006166232112521832
-0.02602441991276264   -0.021609695024466274   -0.0005425860515056597
-0.019793128480042433   -0.021707161201711327   -0.0004642147181047972
-0.025290329069556177   -0.03248006315067543   -0.0007698130368374892
0.004352889180447514   -0.022019548751327434   0.00013271378538321705
0.003049429755700445   -0.011057221975770715   0.0001425438812144111
-0.001924519032723563   -0.021915997971923243   -5.646990241334436e-05
0.004216540854771449   -0.021887258841100588   0.0001886512731523977
0.003049429755700445   -0.011057221975770715   0.0001425438812144111
-0.002803828685055667   -0.010913787075868002   7.2389311590162e-05
-0.001924519032723563   -0.021915997971923243   -5.646990241334436e-05
-0.0028899022123357277   -0.010858386630691682   0.00013477437880236756
0.004216540854771449   -0.021887258841100588   0.0001886512731523977
-0.002011061496105955   -0.02180633390102944   -1.1554313379072492e-05
-0.0028899022123357277   -0.010858386630691682   0.00013477437880236756
-0.001924519032723563   -0.021915997971923243   -5.646990241334436e-05
0.004216540854771449   -0.021887258841100588   0.0001886512731523977
-0.0028899022123357277   -0.010858386630691682   0.00013477437880236756
0.002781164128681451   -0.010916711945861952   0.0002969947504902751
0.003049429755700445   -0.011057221975770715   0.0001425438812144111
0.004216540854771449   -0.021887258841100588   0.0001886512731523977
-0.0028899022123357277   -0.010858386630691682   0.00013477437880236756
0.003049429755700445   -0.011057221975770715   0.0001425438812144111
-0.001924519032723563   -0.021915997971923243   -5.646990241334436e-05
0.004216540854771449   -0.021887258841100588   0.0001886512731523977
0.002781164128681451   -0.010916711945861952   0.0002969947504902751
-0.002011061496105955   -0.02180633390102944   -1.1554313379072492e-05
0.0040643786239687235   -0.021755858460525638   0.00026896578265713216
0.002781164128681451   -0.010916711945861952   0.0002969947504902751
-0.0028899022123357277   -0.010858386630691682   0.00013477437880236756
-0.002011061496105955   -0.02180633390102944   -1.1554313379072492e-05
-0.0030029990230488837   -0.010759808871367139   0.00021052031167772926
0.0040643786239687235   -0.021755858460525638   0.00026896578265713216
-0.002112293338138363   -0.021690584177689664   4.1346286596294575e-05
-0.0030029990230488837   -0.010759808871367139   0.00021052031167772926
-0.002011061496105955   -0.02180633390102944   -1.1554313379072492e-05
0.0040643786239687235   -0.021755858460525638   0.00026896578265713216
-0.0030029990230488837   -0.010759808871367139   0.00021052031167772926
0.0026240621704180065   -0.010801739627337069   0.00041227010160807786
0.002781164128681451   -0.010916711945861952   0.0002969947504902751
0.0040643786239687235   -0.021755858460525638   0.00026896578265713216
-0.0030029990230488837   -0.010759808871367139   0.00021052031167772926
0.002781164128681451   -0.010916711945861952   0.0002969947504902751
-0.002011061496105955   -0.02180633390102944   -1.1554313379072492e-05
0.0040643786239687235   -0.021755858460525638   0.00026896578265713216
0.0026240621704180065   -0.010801739627337069   0.00041227010160807786
-0.002112293338138363   -0.021690584177689664   4.1346286596294575e-05
0.00387845961057689   -0.021594449513500303   0.00035733602695008814
0.0026240621704180065   -0.010801739627337069   0.00041227010160807786
-0.0030029990230488837   -0.010759808871367139   0.00021052031167772926
-0.002112293338138363   -0.021690584177689664   4.1346286596294575e-05
-0.003098072406835035   -0.010653800338845729   0.00027720011558144314
0.00387845961057689   -0.021594449513500303   0.00035733602695008814
-0.0022169965161992944   -0.021567674684466444   0.0001021240788424293
-0.003098072406835035   -0.010653800338845729   0.00027720011558144314
-0.002112293338138363   -0.021690584177689664   4.1346286596294575e-05
0.00387845961057689   -0.021594449513500303   0.00035733602695008814
-0.003098072406835035   -0.010653800338845729   0.00027720011558144314
0.0024227483279404354   -0.01062605711047396   0.0005442581436503437
0.0026240621704180065   -0.010801739627337069   0.00041227010160807786
0.00387845961057689   -0.021594449513500303   0.00035733602695008814
-0.003098072406835035   -0.010653800338845729   0.00027720011558144314
0.0026240621704180065   -0.010801739627337069   0.00041227010160807786
-0.002112293338138363   -0.021690584177689664   4.1346286596294575e-05
-0.001924519032723563   -0.021915997971923243   -5.646990241334436e-05
-0.002803828685055667   -0.010913787075868002   7.2389311590162e-05
-0.007835888832256716   -0.021889201032642143   -0.00023883927908753257
-0.002011061496105955   -0.02180633390102944   -1.1554313379072492e-05
-0.002803828685055667   -0.010913787075868002   7.2389311590162e-05
-0.008375099988859441   -0.011075052385837105   -7.276247794609719e-05
-0.007835888832256716   -0.021889201032642143   -0.00023883927908753257
-0.008454332332652838   -0.010990394575498521   -2.858168620085866e-05
-0.002011061496105955   -0.02180633390102944   -1.1554313379072492e-05
-0.007914104682124766   -0.02179347307997451   -0.00019706508247009275
-0.008454332332652838   -0.010990394575498521   -2.858168620085866e-05
-0.007835888832256716   -0.021889201032642143   -0.00023883927908753257
-0.002011061496105955   -0.02180633390102944   -1.1554313379072492e-05
-0.008454332332652838   -0.010990394575498521   -2.858168620085866e-05
-0.0028899022123357277   -0.010858386630691682   0.00013477437880236756
-0.002803828685055667   -0.010913787075868002   7.2389311590162e-05
-0.002011061496105955   -0.02180633390102944   -1.1554313379072492e-05
-0.008454332332652838   -0.010990394575498521   -2.858168620085866e-05
-0.002803828685055667   -0.010913787075868002   7.2389311590162e-05
-0.007835888832256716   -0.021889201032642143   -0.00023883927908753257
-0.002011061496105955   -0.02180633390102944   -1.1554313379072492e-05
-0.0028899022123357277   -0.010858386630691682   0.00013477437880236756
-0.007914104682124766   -0.02179347307997451   -0.00019706508247009275
-0.002112293338138363   -0.021690584177689664   4.1346286596294575e-05
-0.0028899022123357277   -0.010858386630691682   0.00013477437880236756
-0.008454332332652838   -0.010990394575498521   -2.858168620085866e-05
-0.007914104682124766   -0.02179347307997451   -0.00019706508247009275
-0.00853725456779763   -0.010894823895836082   1.816930150087289e-05
-0.002112293338138363   -0.021690584177689664   4.1346286596294575e-05
-0.007995011918867324   -0.021693894556965406   -0.0001511497573711911
-0.00853725456779763   -0.010894823895836082   1.816930150087289e-05
-0.007914104682124766   -0.02179347307997451   -0.00019706508247009275
-0.002112293338138363   -0.021690584177689664   4.1346286596294575e-05
-0.00853725456779763   -0.010894823895836082   1.816930150087289e-05
-0.0030029990230488837   -0.010759808871367139   0.00021052031167772926
-0.0028899022123357277   -0.010858386630691682   0.00013477437880236756
-0.002112293338138363   -0.021690584177689664   4.1346286596294575e-05
-0.00853725456779763   -0.010894823895836082   1.816930150087289e-05
-0.0028899022123357277   -0.010858386630691682   0.00013477437880236756
-0.007914104682124766   -0.02179347307997451   -0.00019706508247009275
-0.002112293338138363   -0.021690584177689664   4.1346286596294575e-05
-0.0030029990230488837   -0.010759808871367139   0.00021052031167772926
-0.007995011918867324   -0.021693894556965406   -0.0001511497573711911
-0.0022169965161992944   -0.021567674684466444   0.0001021240788424293
-0.0030029990230488837   -0.010759808871367139   0.00021052031167772926
-0.00853725456779763   -0.010894823895836082   1.816930150087289e-05
-0.007995011918867324   -0.021693894556965406   -0.0001511497573711911
-0.008616060969144123   -0.010790078669780725   6.972462104492024e-05
-0.0022169965161992944   -0.021567674684466444   0.0001021240788424293
-0.008079239645554237   -0.02159224231936753   -0.00010026492664399152
-0.008616060969144123   -0.010790078669780725   6.972462104492024e-05
-0.007995011918867324   -0.021693894556965406   -0.0001511497573711911
-0.0022169965161992944   -0.021567674684466444   0.0001021240788424293
-0.008616060969144123   -0.010790078669780725   6.972462104492024e-05
-0.003098072406835035   -0.010653800338845729   0.00027720011558144314
-0.0030029990230488837   -0.010759808871367139   0.00021052031167772926
-0.0022169965161992944   -0.021567674684466444   0.0001021240788424293
-0.008616060969144123   -0.010790078669780725   6.972462104492024e-05
-0.0030029990230488837   -0.010759808871367139   0.00021052031167772926
-0.007995011918867324   -0.021693894556965406   -0.0001511497573711911
-0.007835888832256716   -0.021889201032642143   -0.00023883927908753257
-0.008375099988859441   -0.011075052385837105   -7.276247794609719e-05
-0.013686701135656024   -0.021881754228397828   -0.00040369337418097006
-0.007914104682124766   -0.02179347307997451   -0.00019706508247009275
-0.008375099988859441   -0.011075052385837105   -7.276247794609719e-05
-0.014083152012770505   -0.011201027692105209   -0.00023359687628490578
-0.013686701135656024   -0.021881754228397828   -0.00040369337418097006
-0.014154303975518544   -0.011114116842616541   -0.00019937052525979902
-0.007914104682124766   -0.02179347307997451   -0.00019706508247009275
-0.013761469426564334   -0.021797805181240446   -0.0003638557036458081
-0.014154303975518544   -0.011114116842616541   -0.00019937052525979902
-0.013686701135656024   -0.021881754228397828   -0.00040369337418097006
-0.007914104682124766   -0.02179347307997451   -0.00019706508247009275
-0.014154303975518544   -0.011114116842616541   -0.00019937052525979902
-0.008454332332652838   -0.010990394575498521   -2.858168620085866e-05
-0.008375099988859441   -0.011075052385837105   -7.276247794609719e-05
-0.007914104682124766   -0.02179347307997451   -0.00019706508247009275
-0.014154303975518544   -0.011114116842616541   -0.00019937052525979902
-0.008375099988859441   -0.011075052385837105   -7.276247794609719e-05
-0.013686701135656024   -0.021881754228397828   -0.00040369337418097006
-0.007914104682124766   -0.02179347307997451   -0.00019706508247009275
-0.008454332332652838   -0.010990394575498521   -2.858168620085866e-05
-0.013761469426564334   -0.021797805181240446   -0.0003638557036458081
-0.007995011918867324   -0.021693894556965406   -0.0001511497573711911
-0.008454332332652838   -0.010990394575498521   -2.858168620085866e-05
-0.014154303975518544   -0.011114116842616541   -0.00019937052525979902
-0.013761469426564334   -0.021797805181240446   -0.0003638557036458081
-0.014222401355586032   -0.011022331592263368   -0.00016526052388580073
-0.007995011918867324   -0.021693894556965406   -0.0001511497573711911
-0.013832693799409981   -0.02171233205751263   -0.00032039752027034627
-0.014222401355586032   -0.011022331592263368   -0.00016526052388580073
-0.013761469426564334   -0.021797805181240446   -0.0003638557036458081
-0.007995011918867324   -0.021693894556965406   -0.0001511497573711911
-0.014222401355586032   -0.011022331592263368   -0.00016526052388580073
-0.00853725456779763   -0.010894823895836082   1.816930150087289e-05
-0.008454332332652838   -0.010990394575498521   -2.858168620085866e-05
-0.007995011918867324   -0.021693894556965406   -0.0001511497573711911
-0.014222401355586032   -0.011022331592263368   -0.00016526052388580073
-0.008454332332652838   -0.010990394575498521   -2.858168620085866e-05
-0.013761469426564334   -0.021797805181240446   -0.0003638557036458081
-0.007995011918867324   -0.021693894556965406   -0.0001511497573711911
-0.00853725456779763   -0.010894823895836082   1.816930150087289e-05
-0.013832693799409981   -0.02171233205751263   -0.00032039752027034627
-0.008079239645554237   -0.02159224231936753   -0.00010026492664399152
-0.00853725456779763   -0.010894823895836082   1.816930150087289e-05
-0.014222401355586032   -0.011022331592263368   -0.00016526052388580073
-0.013832693799409981   -0.02171233205751263   -0.00032039752027034627
-0.01428516358091931   -0.01092296149558438   -0.0001281304191942765
-0.008079239645554237   -0.02159224231936753   -0.00010026492664399152
-0.01390320131846708   -0.02162484821233096   -0.0002735246357249283
-0.01428516358091931   -0.01092296149558438   -0.0001281304191942765
-0.013832693799409981   -0.02171233205751263   -0.00032039752027034627
-0.008079239645554237   -0.02159224231936753   -0.00010026492664399152
-0.01428516358091931   -0.01092296149558438   -0.0001281304191942765
-0.008616060969144123   -0.010790078669780725   6.972462104492024e-05
-0.00853725456779763   -0.010894823895836082   1.816930150087289e-05
-0.008079239645554237   -0.02159224231936753   -0.00010026492664399152
-0.01428516358091931   -0.01092296149558438   -0.0001281304191942765
-0.00853725456779763   -0.010894823895836082   1.816930150087289e-05
-0.013832693799409981   -0.02171233205751263   -0.00032039752027034627
-0.013686701135656024   -0.021881754228397828   -0.00040369337418097006
-0.014083152012770505   -0.011201027692105209   -0.00023359687628490578
-0.019661447984397545   -0.02184778279134571   -0.0005421876622099621
-0.013761469426564334   -0.021797805181240446   -0.0003638557036458081
-0.014083152012770505   -0.011201027692105209   -0.00023359687628490578
-0.019991699559838073   -0.011252704832049015   -0.0003820875780543043
-0.019661447984397545   -0.02184778279134571   -0.0005421876622099621
-0.020055799236099854   -0.011174623704910869   -0.00035714701478605545
-0.013761469426564334   -0.021797805181240446   -0.0003638557036458081
-0.019732726435108042   -0.02177934977420054   -0.0005044857753247511
-0.020055799236099854   -0.011174623704910869   -0.00035714701478605545
-0.019661447984397545   -0.02184778279134571   -0.0005421876622099621
-0.013761469426564334   -0.021797805181240446   -0.0003638557036458081
-0.020055799236099854   -0.011174623704910869   -0.00035714701478605545
-0.014154303975518544   -0.011114116842616541   -0.00019937052525979902
-0.014083152012770505   -0.011201027692105209   -0.00023359687628490578
-0.013761469426564334   -0.021797805181240446   -0.0003638557036458081
-0.020055799236099854   -0.011174623704910869   -0.00035714701478605545
-0.014083152012770505   -0.011201027692105209   -0.00023359687628490578
-0.019661447984397545   -0.02184778279134571   -0.0005421876622099621
-0.013761469426564334   -0.021797805181240446   -0.0003638557036458081
-0.014154303975518544   -0.011114116842616541   -0.00019937052525979902
-0.019732726435108042   -0.02177934977420054   -0.0005044857753247511
-0.013832693799409981   -0.02171233205751263   -0.00032039752027034627
-0.014154303975518544   -0.011114116842616541   -0.00019937052525979902
-0.020055799236099854   -0.011174623704910869   -0.00035714701478605545
-0.019732726435108042   -0.02177934977420054   -0.0005044857753247511
-0.0201129184726407   -0.011089592825460487   -0.0003329226617428794
-0.013832693799409981   -0.02171233205751263   -0.00032039752027034627
-0.019793128480042433   -0.021707161201711327   -0.0004642147181047972
-0.0201129184726407   -0.011089592825460487   -0.0003329226617428794
-0.019732726435108042   -0.02177934977420054   -0.0005044857753247511
-0.013832693799409981   -0.02171233205751263   -0.00032039752027034627
-0.0201129184726407   -0.011089592825460487   -0.0003329226617428794
-0.014222401355586032   -0.011022331592263368   -0.00016526052388580073
-0.014154303975518544   -0.011114116842616541   -0.00019937052525979902
-0.013832693799409981   -0.02171233205751263   -0.00032039752027034627
-0.0201129184726407   -0.011089592825460487   -0.0003329226617428794
-0.014154303975518544   -0.011114116842616541   -0.00019937052525979902
-0.019732726435108042   -0.02177934977420054   -0.0005044857753247511
-0.013832693799409981   -0.02171233205751263   -0.00032039752027034627
-0.014222401355586032   -0.011022331592263368   -0.00016526052388580073
-0.019793128480042433   -0.021707161201711327   -0.0004642147181047972
-0.01390320131846708   -0.02162484821233096   -0.0002735246357249283
-0.014222401355586032   -0.011022331592263368   -0.00016526052388580073
-0.0201129184726407   -0.011089592825460487   -0.0003329226617428794
-0.019793128480042433   -0.021707161201711327   -0.0004642147181047972
-0.02016463927199382   -0.010999084656784978   -0.0003079850998291933
-0.01390320131846708   -0.02162484821233096   -0.0002735246357249283
-0.019850217726332893   -0.021633068033088256   -0.00042025372560909027
-0.02016463927199382   -0.010999084656784978   -0.0003079850998291933
-0.019793128480042433   -0.021707161201711327   -0.0004642147181047972
-0.01390320131846708   -0.02162484821233096   -0.0002735246357249283
-0.02016463927199382   -0.010999084656784978   -0.0003079850998291933
-0.01428516358091931   -0.01092296149558438   -0.0001281304191942765
-0.014222401355586032   -0.011022331592263368   -0.00016526052388580073
-0.01390320131846708   -0.02162484821233096   -0.0002735246357249283
-0.02016463927199382   -0.010999084656784978   -0.0003079850998291933
-0.014222401355586032   -0.011022331592263368   -0.00016526052388580073
-0.019793128480042433   -0.021707161201711327   -0.0004642147181047972
-0.019661447984397545   -0.02184778279134571   -0.0005421876622099621
-0.019991699559838073   -0.011252704832049015   -0.0003820875780543043
-0.025919833256653375   -0.02179183859937468   -0.0006446869248942404
-0.019732726435108042   -0.02177934977420054   -0.0005044857753247511
-0.019991699559838073   -0.011252704832049015   -0.0003820875780543043
-0.026110385645370462   -0.011258512522503141   -0.0005054043513360526
-0.025919833256653375   -0.02179183859937468   -0.0006446869248942404
-0.026165484352814104   -0.0111827106289501   -0.0004947165384082365
-0.019732726435108042   -0.02177934977420054   -0.0005044857753247511
-0.025964175743545065   -0.021734380308580062   -0.0006164334995079913
-0.026165484352814104   -0.0111827106289501   -0.0004947165384082365
-0.025919833256653375   -0.02179183859937468   -0.0006446869248942404
-0.019732726435108042   -0.02177934977420054   -0.0005044857753247511
-0.026165484352814104   -0.0111827106289501   -0.0004947165384082365
-0.020055799236099854   -0.011174623704910869   -0.00035714701478605545
-0.019991699559838073   -0.011252704832049015   -0.0003820875780543043
-0.019732726435108042   -0.02177934977420054   -0.0005044857753247511
-0.026165484352814104   -0.0111827106289501   -0.0004947165384082365
-0.019991699559838073   -0.011252704832049015   -0.0003820875780543043
-0.025919833256653375   -0.02179183859937468   -0.0006446869248942404
-0.019732726435108042   -0.02177934977420054   -0.0005044857753247511
-0.020055799236099854   -0.011174623704910869   -0.00035714701478605545
-0.025964175743545065   -0.021734380308580062   -0.0006164334995079913
-0.019793128480042433   -0.021707161201711327   -0.0004642147181047972
-0.020055799236099854   -0.011174623704910869   -0.00035714701478605545
-0.026165484352814104   -0.0111827106289501   -0.0004947165384082365
-0.025964175743545065   -0.021734380308580062   -0.0006164334995079913
-0.026214847938657963   -0.011100768699974159   -0.00048222021399167854
-0.019793128480042433   -0.021707161201711327   -0.0004642147181047972
-0.026004721810968242   -0.021669369339906302   -0.000581873669524048
-0.026214847938657963   -0.011100768699974159   -0.00048222021399167854
-0.025964175743545065   -0.021734380308580062   -0.0006164334995079913
-0.019793128480042433   -0.021707161201711327   -0.0004642147181047972
-0.026214847938657963   -0.011100768699974159   -0.00048222021399167854
-0.0201129184726407   -0.011089592825460487   -0.0003329226617428794
-0.020055799236099854   -0.011174623704910869   -0.00035714701478605545
-0.019793128480042433   -0.021707161201711327   -0.0004642147181047972
-0.026214847938657963   -0.011100768699974159   -0.00048222021399167854
-0.020055799236099854   -0.011174623704910869   -0.00035714701478605545
-0.025964175743545065   -0.021734380308580062   -0.0006164334995079913
-0.019793128480042433   -0.021707161201711327   -0.0004642147181047972
-0.0201129184726407   -0.011089592825460487   -0.0003329226617428794
-0.026004721810968242   -0.021669369339906302   -0.000581873669524048
-0.019850217726332893   -0.021633068033088256   -0.00042025372560909027
-0.0201129184726407   -0.011089592825460487   -0.0003329226617428794
-0.026214847938657963   -0.011100768699974159   -0.00048222021399167854
-0.026004721810968242   -0.021669369339906302   -0.000581873669524048
-0.02625639006732362   -0.011013997169079144   -0.00047061065880019023
-0.019850217726332893   -0.021633068033088256   -0.00042025372560909027
-0.02602441991276264   -0.021609695024466274   -0.0005425860515056597
-0.02625639006732362   -0.011013997169079144   -0.00047061065880019023
-0.026004721810968242   -0.021669369339906302   -0.000581873669524048
-0.019850217726332893   -0.021633068033088256   -0.00042025372560909027
-0.02625639006732362   -0.011013997169079144   -0.00047061065880019023
-0.02016463927199382   -0.010999084656784978   -0.0003079850998291933
-0.0201129184726407   -0.011089592825460487   -0.0003329226617428794
-0.019850217726332893   -0.021633068033088256   -0.00042025372560909027
-0.02625639006732362   -0.011013997169079144   -0.00047061065880019023
-0.0201129184726407   -0.011089592825460487   -0.0003329226617428794
-0.026004721810968242   -0.021669369339906302   -0.000581873669524048
0.003049429755700445   -0.011057221975770715   0.0001425438812144111
0.0   0.0   0.0
-0.002803828685055667   -0.010913787075868002   7.2389311590162e-05
0.002781164128681451   -0.010916711945861952   0.0002969947504902751
0.0   0.0   0.0
-0.0035212899757676957   -0.0008904057877315263   -3.0240114052564063e-05
-0.002803828685055667   -0.010913787075868002   7.2389311590162e-05
-0.0037316265742848836   -0.0006915141741443494   9.081377667568282e-05
0.002781164128681451   -0.010916711945861952   0.0002969947504902751
-0.0028899022123357277   -0.010858386630691682   0.00013477437880236756
-0.0037316265742848836   -0.0006915141741443494   9.081377667568282e-05
-0.002803828685055667   -0.010913787075868002   7.2389311590162e-05
0.002781164128681451   -0.010916711945861952   0.0002969947504902751
-0.0037316265742848836   -0.0006915141741443494   9.081377667568282e-05
0.0   0.0   0.0
0.0   0.0   0.0
0.002781164128681451   -0.010916711945861952   0.0002969947504902751
-0.0037316265742848836   -0.0006915141741443494   9.081377667568282e-05
0.0   0.0   0.0
-0.002803828685055667   -0.010913787075868002   7.2389311590162e-05
0.002781164128681451   -0.010916711945861952   0.0002969947504902751
0.0   0.0   0.0
-0.0028899022123357277   -0.010858386630691682   0.00013477437880236756
0.0026240621704180065   -0.010801739627337069   0.00041227010160807786
0.0   0.0   0.0
-0.0037316265742848836   -0.0006915141741443494   9.081377667568282e-05
-0.0028899022123357277   -0.010858386630691682   0.00013477437880236756
-0.0038635605018942235   -0.0005956034036261947   0.0001606127037932068
0.0026240621704180065   -0.010801739627337069   0.00041227010160807786
-0.0030029990230488837   -0.010759808871367139   0.00021052031167772926
-0.0038635605018942235   -0.0005956034036261947   0.0001606127037932068
-0.0028899022123357277   -0.010858386630691682   0.00013477437880236756
0.0026240621704180065   -0.010801739627337069   0.00041227010160807786
-0.0038635605018942235   -0.0005956034036261947   0.0001606127037932068
0.0   0.0   0.0
0.0   0.0   0.0
0.0026240621704180065   -0.010801739627337069   0.00041227010160807786
-0.0038635605018942235   -0.0005956034036261947   0.0001606127037932068
0.0   0.0   0.0
-0.0028899022123357277   -0.010858386630691682   0.00013477437880236756
0.0026240621704180065   -0.010801739627337069   0.00041227010160807786
0.0   0.0   0.0
-0.0030029990230488837   -0.010759808871367139   0.00021052031167772926
0.0024227483279404354   -0.01062605711047396   0.0005442581436503437
0.0   0.0   0.0
-0.0038635605018942235   -0.0005956034036261947   0.0001606127037932068
-0.0030029990230488837   -0.010759808871367139   0.00021052031167772926
-0.004040321959172305   -0.0004682818529258588   0.0002407149328390325
0.0024227483279404354   -0.01062605711047396   0.0005442581436503437
-0.003098072406835035   -0.010653800338845729   0.00027720011558144314
-0.004040321959172305   -0.0004682818529258588   0.0002407149328390325
-0.0030029990230488837   -0.010759808871367139   0.00021052031167772926
0.0024227483279404354   -0.01062605711047396   0.0005442581436503437
-0.004040321959172305   -0.0004682818529258588   0.0002407149328390325
0.0   0.0   0.0
0.0   0.0   0.0
0.0024227483279404354   -0.01062605711047396   0.0005442581436503437
-0.004040321959172305   -0.0004682818529258588   0.0002407149328390325
0.0   0.0   0.0
-0.0030029990230488837   -0.010759808871367139   0.00021052031167772926
-0.002803828685055667   -0.010913787075868002   7.2389311590162e-05
-0.0035212899757676957   -0.0008904057877315263   -3.0240114052564063e-05
-0.008375099988859441   -0.011075052385837105   -7.276247794609719e-05
-0.0028899022123357277   -0.010858386630691682   0.00013477437880236756
-0.0035212899757676957   -0.0008904057877315263   -3.0240114052564063e-05
-0.008625189003698071   -0.0011654182350429691   -2.9377921242161732e-05
-0.008375099988859441   -0.011075052385837105   -7.276247794609719e-05
-0.008733476978891068   -0.0010565561337146476   1.5275525627973816e-06
-0.0028899022123357277   -0.010858386630691682   0.00013477437880236756
-0.008454332332652838   -0.010990394575498521   -2.858168620085866e-05
-0.008733476978891068   -0.0010565561337146476   1.5275525627973816e-06
-0.008375099988859441   -0.011075052385837105   -7.276247794609719e-05
-0.0028899022123357277   -0.010858386630691682   0.00013477437880236756
-0.008733476978891068   -0.0010565561337146476   1.5275525627973816e-06
-0.0037316265742848836   -0.0006915141741443494   9.081377667568282e-05
-0.0035212899757676957   -0.0008904057877315263   -3.0240114052564063e-05
-0.0028899022123357277   -0.010858386630691682   0.00013477437880236756
-0.008733476978891068   -0.0010565561337146476   1.5275525627973816e-06
-0.0035212899757676957   -0.0008904057877315263   -3.0240114052564063e-05
-0.008375099988859441   -0.011075052385837105   -7.276247794609719e-05
-0.0028899022123357277   -0.010858386630691682   0.00013477437880236756
-0.0037316265742848836   -0.0006915141741443494   9.081377667568282e-05
-0.008454332332652838   -0.010990394575498521   -2.858168620085866e-05
-0.0030029990230488837   -0.010759808871367139   0.00021052031167772926
-0.0037316265742848836   -0.0006915141741443494   9.081377667568282e-05
-0.008733476978891068   -0.0010565561337146476   1.5275525627973816e-06
-0.008454332332652838   -0.010990394575498521   -2.858168620085866e-05
-0.00884127495890188   -0.0009292264326082741   5.698280680450862e-05
-0.0030029990230488837   -0.010759808871367139   0.00021052031167772926
-0.00853725456779763   -0.010894823895836082   1.816930150087289e-05
-0.00884127495890188   -0.0009292264326082741   5.698280680450862e-05
-0.008454332332652838   -0.010990394575498521   -2.858168620085866e-05
-0.0030029990230488837   -0.010759808871367139   0.00021052031167772926
-0.00884127495890188   -0.0009292264326082741   5.698280680450862e-05
-0.0038635605018942235   -0.0005956034036261947   0.0001606127037932068
-0.0037316265742848836   -0.0006915141741443494   9.081377667568282e-05
-0.0030029990230488837   -0.010759808871367139   0.00021052031167772926
-0.00884127495890188   -0.0009292264326082741   5.698280680450862e-05
-0.0037316265742848836   -0.0006915141741443494   9.081377667568282e-05
-0.008454332332652838   -0.010990394575498521   -2.858168620085866e-05
-0.0030029990230488837   -0.010759808871367139   0.00021052031167772926
-0.0038635605018942235   -0.0005956034036261947   0.0001606127037932068
-0.00853725456779763   -0.010894823895836082   1.816930150087289e-05
-0.003098072406835035   -0.010653800338845729   0.00027720011558144314
-0.0038635605018942235   -0.0005956034036261947   0.0001606127037932068
-0.00884127495890188   -0.0009292264326082741   5.698280680450862e-05
-0.00853725456779763   -0.010894823895836082   1.816930150087289e-05
-0.008960507467428538   -0.0007821128046151565   0.00011002132934421344
-0.003098072406835035   -0.010653800338845729   0.00027720011558144314
-0.008616060969144123   -0.010790078669780725   6.972462104492024e-05
-0.008960507467428538   -0.0007821128046151565   0.00011002132934421344
-0.00853725456779763   -0.010894823895836082   1.816930150087289e-05
-0.003098072406835035   -0.010653800338845729   0.00027720011558144314
-0.008960507467428538   -0.0007821128046151565   0.00011002132934421344
-0.004040321959172305   -0.0004682818529258588   0.0002407149328390325
-0.0038635605018942235   -0.0005956034036261947   0.0001606127037932068
-0.003098072406835035   -0.010653800338845729   0.00027720011558144314
-0.008960507467428538   -0.0007821128046151565   0.00011002132934421344
-0.0038635605018942235   -0.0005956034036261947   0.0001606127037932068
-0.00853725456779763   -0.010894823895836082   1.816930150087289e-05
-0.008375099988859441   -0.011075052385837105   -7.276247794609719e-05
-0.008625189003698071   -0.0011654182350429691   -2.9377921242161732e-05
-0.014083152012770505   -0.011201027692105209   -0.00023359687628490578
-0.008454332332652838   -0.010990394575498521   -2.858168620085866e-05
-0.008625189003698071   -0.0011654182350429691   -2.9377921242161732e-05
-0.014222579256766347   -0.0012416796798590236   -0.00013152277481308817
-0.014083152012770505   -0.011201027692105209   -0.00023359687628490578
-0.014288203770048045   -0.001156567081133543   -0.0001230516507779764
-0.008454332332652838   -0.010990394575498521   -2.858168620085866e-05
-0.014154303975518544   -0.011114116842616541   -0.00019937052525979902
-0.014288203770048045   -0.001156567081133543   -0.0001230516507779764
-0.014083152012770505   -0.011201027692105209   -0.00023359687628490578
-0.008454332332652838   -0.010990394575498521   -2.858168620085866e-05
-0.014288203770048045   -0.001156567081133543   -0.0001230516507779764
-0.008733476978891068   -0.0010565561337146476   1.5275525627973816e-06
-0.008625189003698071   -0.0011654182350429691   -2.9377921242161732e-05
-0.008454332332652838   -0.010990394575498521   -2.858168620085866e-05
-0.014288203770048045   -0.001156567081133543   -0.0001230516507779764
-0.008625189003698071   -0.0011654182350429691   -2.9377921242161732e-05
-0.014083152012770505   -0.011201027692105209   -0.00023359687628490578
-0.008454332332652838   -0.010990394575498521   -2.858168620085866e-05
-0.008733476978891068   -0.0010565561337146476   1.5275525627973816e-06
-0.014154303975518544   -0.011114116842616541   -0.00019937052525979902
-0.00853725456779763   -0.010894823895836082   1.816930150087289e-05
-0.008733476978891068   -0.0010565561337146476   1.5275525627973816e-06
-0.014288203770048045   -0.001156567081133543   -0.0001230516507779764
-0.014154303975518544   -0.011114116842616541   -0.00019937052525979902
-0.014356426673292377   -0.0010578924575405362   -0.00010813374412966387
-0.00853725456779763   -0.010894823895836082   1.816930150087289e-05
-0.014222401355586032   -0.011022331592263368   -0.00016526052388580073
-0.014356426673292377   -0.0010578924575405362   -0.00010813374412966387
-0.014154303975518544   -0.011114116842616541   -0.00019937052525979902
-0.00853725456779763   -0.010894823895836082   1.816930150087289e-05
-0.014356426673292377   -0.0010578924575405362   -0.00010813374412966387
-0.00884127495890188   -0.0009292264326082741   5.698280680450862e-05
-0.008733476978891068   -0.0010565561337146476   1.5275525627973816e-06
-0.00853725456779763   -0.010894823895836082   1.816930150087289e-05
-0.014356426673292377   -0.0010578924575405362   -0.00010813374412966387
-0.008733476978891068   -0.0010565561337146476   1.5275525627973816e-06
-0.014154303975518544   -0.011114116842616541   -0.00019937052525979902
-0.00853725456779763   -0.010894823895836082   1.816930150087289e-05
-0.00884127495890188   -0.0009292264326082741   5.698280680450862e-05
-0.014222401355586032   -0.011022331592263368   -0.00016526052388580073
-0.008616060969144123   -0.010790078669780725   6.972462104492024e-05
-0.00884127495890188   -0.0009292264326082741   5.698280680450862e-05
-0.014356426673292377   -0.0010578924575405362   -0.00010813374412966387
-0.014222401355586032   -0.011022331592263368   -0.00016526052388580073
-0.014421045579171005   -0.0009380207840276832   -8.839597802233872e-05
-0.008616060969144123   -0.010790078669780725   6.972462104492024e-05
-0.01428516358091931   -0.01092296149558438   -0.0001281304191942765
-0.014421045579171005   -0.0009380207840276832   -8.839597802233872e-05
-0.014222401355586032   -0.011022331592263368   -0.00016526052388580073
-0.008616060969144123   -0.010790078669780725   6.972462104492024e-05
-0.014421045579171005   -0.0009380207840276832   -8.839597802233872e-05
-0.008960507467428538   -0.0007821128046151565   0.00011002132934421344
-0.00884127495890188   -0.0009292264326082741   5.698280680450862e-05
-0.008616060969144123   -0.010790078669780725   6.972462104492024e-05
-0.014421045579171005   -0.0009380207840276832   -8.839597802233872e-05
-0.00884127495890188   -0.0009292264326082741   5.698280680450862e-05
-0.014222401355586032   -0.011022331592263368   -0.00016526052388580073
-0.014083152012770505   -0.011201027692105209   -0.00023359687628490578
-0.014222579256766347   -0.0012416796798590236   -0.00013152277481308817
-0.019991699559838073   -0.011252704832049015   -0.0003820875780543043
-0.014154303975518544   -0.011114116842616541   -0.00019937052525979902
-0.014222579256766347   -0.0012416796798590236   -0.00013152277481308817
-0.020095043393082674   -0.0012279038017425053   -0.00027786291766641614
-0.019991699559838073   -0.011252704832049015   -0.0003820875780543043
-0.020139347032984832   -0.0011512540401713638   -0.00027424968133719327
-0.014154303975518544   -0.011114116842616541   -0.00019937052525979902
-0.020055799236099854   -0.011174623704910869   -0.00035714701478605545
-0.020139347032984832   -0.0011512540401713638   -0.00027424968133719327
-0.019991699559838073   -0.011252704832049015   -0.0003820875780543043
-0.014154303975518544   -0.011114116842616541   -0.00019937052525979902
-0.020139347032984832   -0.0011512540401713638   -0.00027424968133719327
-0.014288203770048045   -0.001156567081133543   -0.0001230516507779764
-0.014222579256766347   -0.0012416796798590236   -0.00013152277481308817
-0.014154303975518544   -0.011114116842616541   -0.00019937052525979902
-0.020139347032984832   -0.0011512540401713638   -0.00027424968133719327
-0.014222579256766347   -0.0012416796798590236   -0.00013152277481308817
-0.019991699559838073   -0.011252704832049015   -0.0003820875780543043
-0.014154303975518544   -0.011114116842616541   -0.00019937052525979902
-0.014288203770048045   -0.001156567081133543   -0.0001230516507779764
-0.020055799236099854   -0.011174623704910869   -0.00035714701478605545
-0.014222401355586032   -0.011022331592263368   -0.00016526052388580073
-0.014288203770048045   -0.001156567081133543   -0.0001230516507779764
-0.020139347032984832   -0.0011512540401713638   -0.00027424968133719327
-0.020055799236099854   -0.011174623704910869   -0.00035714701478605545
-0.020185573432819345   -0.0010660460816038111   -0.000271811812181369
-0.014222401355586032   -0.011022331592263368   -0.00016526052388580073
-0.0201129184726407   -0.011089592825460487   -0.0003329226617428794
-0.020185573432819345   -0.0010660460816038111   -0.000271811812181369
-0.020055799236099854   -0.011174623704910869   -0.00035714701478605545
-0.014222401355586032   -0.011022331592263368   -0.00016526052388580073
-0.020185573432819345   -0.0010660460816038111   -0.000271811812181369
-0.014356426673292377   -0.0010578924575405362   -0.00010813374412966387
-0.014288203770048045   -0.001156567081133543   -0.0001230516507779764
-0.014222401355586032   -0.011022331592263368   -0.00016526052388580073
-0.020185573432819345   -0.0010660460816038111   -0.000271811812181369
-0.014288203770048045   -0.001156567081133543   -0.0001230516507779764
-0.020055799236099854   -0.011174623704910869   -0.00035714701478605545
-0.014222401355586032   -0.011022331592263368   -0.00016526052388580073
-0.014356426673292377   -0.0010578924575405362   -0.00010813374412966387
-0.0201129184726407   -0.011089592825460487   -0.0003329226617428794
-0.01428516358091931   -0.01092296149558438   -0.0001281304191942765
-0.014356426673292377   -0.0010578924575405362   -0.00010813374412966387
-0.020185573432819345   -0.0010660460816038111   -0.000271811812181369
-0.0201129184726407   -0.011089592825460487   -0.0003329226617428794
-0.0202205815608317   -0.0009738969580241479   -0.000270753230251465
-0.01428516358091931   -0.01092296149558438   -0.0001281304191942765
-0.02016463927199382   -0.010999084656784978   -0.0003079850998291933
-0.0202205815608317   -0.0009738969580241479   -0.000270753230251465
-0.0201129184726407   -0.011089592825460487   -0.0003329226617428794
-0.01428516358091931   -0.01092296149558438   -0.0001281304191942765
-0.0202205815608317   -0.0009738969580241479   -0.000270753230251465
-0.014421045579171005   -0.0009380207840276832   -8.839597802233872e-05
-0.014356426673292377   -0.0010578924575405362   -0.00010813374412966387
-0.01428516358091931   -0.01092296149558438   -0.0001281304191942765
-0.0202205815608317   -0.0009738969580241479   -0.000270753230251465
-0.014356426673292377   -0.0010578924575405362   -0.00010813374412966387
-0.0201129184726407   -0.011089592825460487   -0.0003329226617428794
-0.019991699559838073   -0.011252704832049015   -0.0003820875780543043
-0.020095043393082674   -0.0012279038017425053   -0.00027786291766641614
-0.026110385645370462   -0.011258512522503141   -0.0005054043513360526
-0.020055799236099854   -0.011174623704910869   -0.00035714701478605545
-0.020095043393082674   -0.0012279038017425053   -0.00027786291766641614
-0.026129402908434244   -0.0012189756076323175   -0.00042187468762963225
-0.026110385645370462   -0.011258512522503141   -0.0005054043513360526
-0.026165054807693135   -0.0011357883408993801   -0.00042184337578189365
-0.020055799236099854   -0.011174623704910869   -0.00035714701478605545
-0.026165484352814104   -0.0111827106289501   -0.0004947165384082365
-0.026165054807693135   -0.0011357883408993801   -0.00042184337578189365
-0.026110385645370462   -0.011258512522503141   -0.0005054043513360526
-0.020055799236099854   -0.011174623704910869   -0.00035714701478605545
-0.026165054807693135   -0.0011357883408993801   -0.00042184337578189365
-0.020139347032984832   -0.0011512540401713638   -0.00027424968133719327
-0.020095043393082674   -0.0012279038017425053   -0.00027786291766641614
-0.020055799236099854   -0.011174623704910869   -0.00035714701478605545
-0.026165054807693135   -0.0011357883408993801   -0.00042184337578189365
-0.020095043393082674   -0.0012279038017425053   -0.00027786291766641614
-0.026110385645370462   -0.011258512522503141   -0.0005054043513360526
-0.020055799236099854   -0.011174623704910869   -0.00035714701478605545
-0.020139347032984832   -0.0011512540401713638   -0.00027424968133719327
-0.026165484352814104   -0.0111827106289501   -0.0004947165384082365
-0.0201129184726407   -0.011089592825460487   -0.0003329226617428794
-0.020139347032984832   -0.0011512540401713638   -0.00027424968133719327
-0.026165054807693135   -0.0011357883408993801   -0.00042184337578189365
-0.026165484352814104   -0.0111827106289501   -0.0004947165384082365
-0.026204200350122664   -0.0010527555326530528   -0.00042829929944140455
-0.0201129184726407   -0.011089592825460487   -0.0003329226617428794
-0.026214847938657963   -0.011100768699974159   -0.00048222021399167854
-0.026204200350122664   -0.0010527555326530528   -0.00042829929944140455
-0.026165484352814104   -0.0111827106289501   -0.0004947165384082365
-0.0201129184726407   -0.011089592825460487   -0.0003329226617428794
-0.026204200350122664   -0.0010527555326530528   -0.00042829929944140455
-0.020185573432819345   -0.0010660460816038111   -0.000271811812181369
-0.020139347032984832   -0.0011512540401713638   -0.00027424968133719327
-0.0201129184726407   -0.011089592825460487   -0.0003329226617428794
-0.026204200350122664   -0.0010527555326530528   -0.00042829929944140455
-0.020139347032984832   -0.0011512540401713638   -0.00027424968133719327
-0.026165484352814104   -0.0111827106289501   -0.0004947165384082365
-0.0201129184726407   -0.011089592825460487   -0.0003329226617428794
-0.020185573432819345   -0.0010660460816038111   -0.000271811812181369
-0.026214847938657963   -0.011100768699974159   -0.00048222021399167854
-0.02016463927199382   -0.010999084656784978   -0.0003079850998291933
-0.020185573432819345   -0.0010660460816038111   -0.000271811812181369
-0.026204200350122664   -0.0010527555326530528   -0.00042829929944140455
-0.026214847938657963   -0.011100768699974159   -0.00048222021399167854
-0.026233006706623048   -0.0009624068314662397   -0.0004351805405078137
-0.02016463927199382   -0.010999084656784978   -0.0003079850998291933
-0.02625639006732362   -0.011013997169079144   -0.00047061065880019023
-0.026233006706623048   -0.0009624068314662397   -0.0004351805405078137
-0.026214847938657963   -0.011100768699974159   -0.00048222021399167854
-0.02016463927199382   -0.010999084656784978   -0.0003079850998291933
-0.026233006706623048   -0.0009624068314662397   -0.0004351805405078137
-0.0202205815608317   -0.0009738969580241479   -0.000270753230251465
-0.020185573432819345   -0.0010660460816038111   -0.000271811812181369
-0.02016463927199382   -0.010999084656784978   -0.0003079850998291933
-0.026233006706623048   -0.0009624068314662397   -0.0004351805405078137
-0.020185573432819345   -0.0010660460816038111   -0.000271811812181369
-0.026214847938657963   -0.011100768699974159   -0.00048222021399167854
              </DataArray>   
          </PointData>  
       </Piece>  
   </UnstructuredGrid> 
</VTKFile> 
