<?xml version="1.0"?> 
<VTKFile type="UnstructuredGrid"> 
   <UnstructuredGrid> 
      <Piece NumberOfPoints="6000"  NumberOfCells="1500">  
          <Points>  
             <DataArray type="Float64" NumberOfComponents="3" format="ascii">   
-500.0   0.0   0.0
-450.0   0.0   0.0
-500.0   30.0   0.0
-500.0   0.0   16.666666666666668
-450.0   0.0   0.0
-450.0   30.0   0.0
-500.0   30.0   0.0
-450.0   30.0   16.666666666666668
-500.0   0.0   16.666666666666668
-500.0   30.0   16.666666666666668
-450.0   30.0   16.666666666666668
-500.0   30.0   0.0
-500.0   0.0   16.666666666666668
-450.0   30.0   16.666666666666668
-450.0   0.0   16.666666666666668
-450.0   0.0   0.0
-500.0   0.0   16.666666666666668
-450.0   30.0   16.666666666666668
-450.0   0.0   0.0
-500.0   30.0   0.0
-500.0   0.0   16.666666666666668
-450.0   0.0   16.666666666666668
-500.0   30.0   16.666666666666668
-500.0   0.0   33.333333333333336
-450.0   0.0   16.666666666666668
-450.0   30.0   16.666666666666668
-500.0   30.0   16.666666666666668
-450.0   30.0   33.333333333333336
-500.0   0.0   33.333333333333336
-500.0   30.0   33.333333333333336
-450.0   30.0   33.333333333333336
-500.0   30.0   16.666666666666668
-500.0   0.0   33.333333333333336
-450.0   30.0   33.333333333333336
-450.0   0.0   33.333333333333336
-450.0   0.0   16.666666666666668
-500.0   0.0   33.333333333333336
-450.0   30.0   33.333333333333336
-450.0   0.0   16.666666666666668
-500.0   30.0   16.666666666666668
-500.0   0.0   33.333333333333336
-450.0   0.0   33.333333333333336
-500.0   30.0   33.333333333333336
-500.0   0.0   50.0
-450.0   0.0   33.333333333333336
-450.0   30.0   33.333333333333336
-500.0   30.0   33.333333333333336
-450.0   30.0   50.0
-500.0   0.0   50.0
-500.0   30.0   50.0
-450.0   30.0   50.0
-500.0   30.0   33.333333333333336
-500.0   0.0   50.0
-450.0   30.0   50.0
-450.0   0.0   50.0
-450.0   0.0   33.333333333333336
-500.0   0.0   50.0
-450.0   30.0   50.0
-450.0   0.0   33.333333333333336
-500.0   30.0   33.333333333333336
-500.0   30.0   0.0
-450.0   30.0   0.0
-500.0   60.0   0.0
-500.0   30.0   16.666666666666668
-450.0   30.0   0.0
-450.0   60.0   0.0
-500.0   60.0   0.0
-450.0   60.0   16.666666666666668
-500.0   30.0   16.666666666666668
-500.0   60.0   16.666666666666668
-450.0   60.0   16.666666666666668
-500.0   60.0   0.0
-500.0   30.0   16.666666666666668
-450.0   60.0   16.666666666666668
-450.0   30.0   16.666666666666668
-450.0   30.0   0.0
-500.0   30.0   16.666666666666668
-450.0   60.0   16.666666666666668
-450.0   30.0   0.0
-500.0   60.0   0.0
-500.0   30.0   16.666666666666668
-450.0   30.0   16.666666666666668
-500.0   60.0   16.666666666666668
-500.0   30.0   33.333333333333336
-450.0   30.0   16.666666666666668
-450.0   60.0   16.666666666666668
-500.0   60.0   16.666666666666668
-450.0   60.0   33.333333333333336
-500.0   30.0   33.333333333333336
-500.0   60.0   33.333333333333336
-450.0   60.0   33.333333333333336
-500.0   60.0   16.666666666666668
-500.0   30.0   33.333333333333336
-450.0   60.0   33.333333333333336
-450.0   30.0   33.333333333333336
-450.0   30.0   16.666666666666668
-500.0   30.0   33.333333333333336
-450.0   60.0   33.333333333333336
-450.0   30.0   16.666666666666668
-500.0   60.0   16.666666666666668
-500.0   30.0   33.333333333333336
-450.0   30.0   33.333333333333336
-500.0   60.0   33.333333333333336
-500.0   30.0   50.0
-450.0   30.0   33.333333333333336
-450.0   60.0   33.333333333333336
-500.0   60.0   33.333333333333336
-450.0   60.0   50.0
-500.0   30.0   50.0
-500.0   60.0   50.0
-450.0   60.0   50.0
-500.0   60.0   33.333333333333336
-500.0   30.0   50.0
-450.0   60.0   50.0
-450.0   30.0   50.0
-450.0   30.0   33.333333333333336
-500.0   30.0   50.0
-450.0   60.0   50.0
-450.0   30.0   33.333333333333336
-500.0   60.0   33.333333333333336
-500.0   60.0   0.0
-450.0   60.0   0.0
-500.0   90.0   0.0
-500.0   60.0   16.666666666666668
-450.0   60.0   0.0
-450.0   90.0   0.0
-500.0   90.0   0.0
-450.0   90.0   16.666666666666668
-500.0   60.0   16.666666666666668
-500.0   90.0   16.666666666666668
-450.0   90.0   16.666666666666668
-500.0   90.0   0.0
-500.0   60.0   16.666666666666668
-450.0   90.0   16.666666666666668
-450.0   60.0   16.666666666666668
-450.0   60.0   0.0
-500.0   60.0   16.666666666666668
-450.0   90.0   16.666666666666668
-450.0   60.0   0.0
-500.0   90.0   0.0
-500.0   60.0   16.666666666666668
-450.0   60.0   16.666666666666668
-500.0   90.0   16.666666666666668
-500.0   60.0   33.333333333333336
-450.0   60.0   16.666666666666668
-450.0   90.0   16.666666666666668
-500.0   90.0   16.666666666666668
-450.0   90.0   33.333333333333336
-500.0   60.0   33.333333333333336
-500.0   90.0   33.333333333333336
-450.0   90.0   33.333333333333336
-500.0   90.0   16.666666666666668
-500.0   60.0   33.333333333333336
-450.0   90.0   33.333333333333336
-450.0   60.0   33.333333333333336
-450.0   60.0   16.666666666666668
-500.0   60.0   33.333333333333336
-450.0   90.0   33.333333333333336
-450.0   60.0   16.666666666666668
-500.0   90.0   16.666666666666668
-500.0   60.0   33.333333333333336
-450.0   60.0   33.333333333333336
-500.0   90.0   33.333333333333336
-500.0   60.0   50.0
-450.0   60.0   33.333333333333336
-450.0   90.0   33.333333333333336
-500.0   90.0   33.333333333333336
-450.0   90.0   50.0
-500.0   60.0   50.0
-500.0   90.0   50.0
-450.0   90.0   50.0
-500.0   90.0   33.333333333333336
-500.0   60.0   50.0
-450.0   90.0   50.0
-450.0   60.0   50.0
-450.0   60.0   33.333333333333336
-500.0   60.0   50.0
-450.0   90.0   50.0
-450.0   60.0   33.333333333333336
-500.0   90.0   33.333333333333336
-500.0   90.0   0.0
-450.0   90.0   0.0
-500.0   120.0   0.0
-500.0   90.0   16.666666666666668
-450.0   90.0   0.0
-450.0   120.0   0.0
-500.0   120.0   0.0
-450.0   120.0   16.666666666666668
-500.0   90.0   16.666666666666668
-500.0   120.0   16.666666666666668
-450.0   120.0   16.666666666666668
-500.0   120.0   0.0
-500.0   90.0   16.666666666666668
-450.0   120.0   16.666666666666668
-450.0   90.0   16.666666666666668
-450.0   90.0   0.0
-500.0   90.0   16.666666666666668
-450.0   120.0   16.666666666666668
-450.0   90.0   0.0
-500.0   120.0   0.0
-500.0   90.0   16.666666666666668
-450.0   90.0   16.666666666666668
-500.0   120.0   16.666666666666668
-500.0   90.0   33.333333333333336
-450.0   90.0   16.666666666666668
-450.0   120.0   16.666666666666668
-500.0   120.0   16.666666666666668
-450.0   120.0   33.333333333333336
-500.0   90.0   33.333333333333336
-500.0   120.0   33.333333333333336
-450.0   120.0   33.333333333333336
-500.0   120.0   16.666666666666668
-500.0   90.0   33.333333333333336
-450.0   120.0   33.333333333333336
-450.0   90.0   33.333333333333336
-450.0   90.0   16.666666666666668
-500.0   90.0   33.333333333333336
-450.0   120.0   33.333333333333336
-450.0   90.0   16.666666666666668
-500.0   120.0   16.666666666666668
-500.0   90.0   33.333333333333336
-450.0   90.0   33.333333333333336
-500.0   120.0   33.333333333333336
-500.0   90.0   50.0
-450.0   90.0   33.333333333333336
-450.0   120.0   33.333333333333336
-500.0   120.0   33.333333333333336
-450.0   120.0   50.0
-500.0   90.0   50.0
-500.0   120.0   50.0
-450.0   120.0   50.0
-500.0   120.0   33.333333333333336
-500.0   90.0   50.0
-450.0   120.0   50.0
-450.0   90.0   50.0
-450.0   90.0   33.333333333333336
-500.0   90.0   50.0
-450.0   120.0   50.0
-450.0   90.0   33.333333333333336
-500.0   120.0   33.333333333333336
-500.0   120.0   0.0
-450.0   120.0   0.0
-500.0   150.0   0.0
-500.0   120.0   16.666666666666668
-450.0   120.0   0.0
-450.0   150.0   0.0
-500.0   150.0   0.0
-450.0   150.0   16.666666666666668
-500.0   120.0   16.666666666666668
-500.0   150.0   16.666666666666668
-450.0   150.0   16.666666666666668
-500.0   150.0   0.0
-500.0   120.0   16.666666666666668
-450.0   150.0   16.666666666666668
-450.0   120.0   16.666666666666668
-450.0   120.0   0.0
-500.0   120.0   16.666666666666668
-450.0   150.0   16.666666666666668
-450.0   120.0   0.0
-500.0   150.0   0.0
-500.0   120.0   16.666666666666668
-450.0   120.0   16.666666666666668
-500.0   150.0   16.666666666666668
-500.0   120.0   33.333333333333336
-450.0   120.0   16.666666666666668
-450.0   150.0   16.666666666666668
-500.0   150.0   16.666666666666668
-450.0   150.0   33.333333333333336
-500.0   120.0   33.333333333333336
-500.0   150.0   33.333333333333336
-450.0   150.0   33.333333333333336
-500.0   150.0   16.666666666666668
-500.0   120.0   33.333333333333336
-450.0   150.0   33.333333333333336
-450.0   120.0   33.333333333333336
-450.0   120.0   16.666666666666668
-500.0   120.0   33.333333333333336
-450.0   150.0   33.333333333333336
-450.0   120.0   16.666666666666668
-500.0   150.0   16.666666666666668
-500.0   120.0   33.333333333333336
-450.0   120.0   33.333333333333336
-500.0   150.0   33.333333333333336
-500.0   120.0   50.0
-450.0   120.0   33.333333333333336
-450.0   150.0   33.333333333333336
-500.0   150.0   33.333333333333336
-450.0   150.0   50.0
-500.0   120.0   50.0
-500.0   150.0   50.0
-450.0   150.0   50.0
-500.0   150.0   33.333333333333336
-500.0   120.0   50.0
-450.0   150.0   50.0
-450.0   120.0   50.0
-450.0   120.0   33.333333333333336
-500.0   120.0   50.0
-450.0   150.0   50.0
-450.0   120.0   33.333333333333336
-500.0   150.0   33.333333333333336
-450.0   0.0   0.0
-400.0   0.0   0.0
-450.0   30.0   0.0
-450.0   0.0   16.666666666666668
-400.0   0.0   0.0
-400.0   30.0   0.0
-450.0   30.0   0.0
-400.0   30.0   16.666666666666668
-450.0   0.0   16.666666666666668
-450.0   30.0   16.666666666666668
-400.0   30.0   16.666666666666668
-450.0   30.0   0.0
-450.0   0.0   16.666666666666668
-400.0   30.0   16.666666666666668
-400.0   0.0   16.666666666666668
-400.0   0.0   0.0
-450.0   0.0   16.666666666666668
-400.0   30.0   16.666666666666668
-400.0   0.0   0.0
-450.0   30.0   0.0
-450.0   0.0   16.666666666666668
-400.0   0.0   16.666666666666668
-450.0   30.0   16.666666666666668
-450.0   0.0   33.333333333333336
-400.0   0.0   16.666666666666668
-400.0   30.0   16.666666666666668
-450.0   30.0   16.666666666666668
-400.0   30.0   33.333333333333336
-450.0   0.0   33.333333333333336
-450.0   30.0   33.333333333333336
-400.0   30.0   33.333333333333336
-450.0   30.0   16.666666666666668
-450.0   0.0   33.333333333333336
-400.0   30.0   33.333333333333336
-400.0   0.0   33.333333333333336
-400.0   0.0   16.666666666666668
-450.0   0.0   33.333333333333336
-400.0   30.0   33.333333333333336
-400.0   0.0   16.666666666666668
-450.0   30.0   16.666666666666668
-450.0   0.0   33.333333333333336
-400.0   0.0   33.333333333333336
-450.0   30.0   33.333333333333336
-450.0   0.0   50.0
-400.0   0.0   33.333333333333336
-400.0   30.0   33.333333333333336
-450.0   30.0   33.333333333333336
-400.0   30.0   50.0
-450.0   0.0   50.0
-450.0   30.0   50.0
-400.0   30.0   50.0
-450.0   30.0   33.333333333333336
-450.0   0.0   50.0
-400.0   30.0   50.0
-400.0   0.0   50.0
-400.0   0.0   33.333333333333336
-450.0   0.0   50.0
-400.0   30.0   50.0
-400.0   0.0   33.333333333333336
-450.0   30.0   33.333333333333336
-450.0   30.0   0.0
-400.0   30.0   0.0
-450.0   60.0   0.0
-450.0   30.0   16.666666666666668
-400.0   30.0   0.0
-400.0   60.0   0.0
-450.0   60.0   0.0
-400.0   60.0   16.666666666666668
-450.0   30.0   16.666666666666668
-450.0   60.0   16.666666666666668
-400.0   60.0   16.666666666666668
-450.0   60.0   0.0
-450.0   30.0   16.666666666666668
-400.0   60.0   16.666666666666668
-400.0   30.0   16.666666666666668
-400.0   30.0   0.0
-450.0   30.0   16.666666666666668
-400.0   60.0   16.666666666666668
-400.0   30.0   0.0
-450.0   60.0   0.0
-450.0   30.0   16.666666666666668
-400.0   30.0   16.666666666666668
-450.0   60.0   16.666666666666668
-450.0   30.0   33.333333333333336
-400.0   30.0   16.666666666666668
-400.0   60.0   16.666666666666668
-450.0   60.0   16.666666666666668
-400.0   60.0   33.333333333333336
-450.0   30.0   33.333333333333336
-450.0   60.0   33.333333333333336
-400.0   60.0   33.333333333333336
-450.0   60.0   16.666666666666668
-450.0   30.0   33.333333333333336
-400.0   60.0   33.333333333333336
-400.0   30.0   33.333333333333336
-400.0   30.0   16.666666666666668
-450.0   30.0   33.333333333333336
-400.0   60.0   33.333333333333336
-400.0   30.0   16.666666666666668
-450.0   60.0   16.666666666666668
-450.0   30.0   33.333333333333336
-400.0   30.0   33.333333333333336
-450.0   60.0   33.333333333333336
-450.0   30.0   50.0
-400.0   30.0   33.333333333333336
-400.0   60.0   33.333333333333336
-450.0   60.0   33.333333333333336
-400.0   60.0   50.0
-450.0   30.0   50.0
-450.0   60.0   50.0
-400.0   60.0   50.0
-450.0   60.0   33.333333333333336
-450.0   30.0   50.0
-400.0   60.0   50.0
-400.0   30.0   50.0
-400.0   30.0   33.333333333333336
-450.0   30.0   50.0
-400.0   60.0   50.0
-400.0   30.0   33.333333333333336
-450.0   60.0   33.333333333333336
-450.0   60.0   0.0
-400.0   60.0   0.0
-450.0   90.0   0.0
-450.0   60.0   16.666666666666668
-400.0   60.0   0.0
-400.0   90.0   0.0
-450.0   90.0   0.0
-400.0   90.0   16.666666666666668
-450.0   60.0   16.666666666666668
-450.0   90.0   16.666666666666668
-400.0   90.0   16.666666666666668
-450.0   90.0   0.0
-450.0   60.0   16.666666666666668
-400.0   90.0   16.666666666666668
-400.0   60.0   16.666666666666668
-400.0   60.0   0.0
-450.0   60.0   16.666666666666668
-400.0   90.0   16.666666666666668
-400.0   60.0   0.0
-450.0   90.0   0.0
-450.0   60.0   16.666666666666668
-400.0   60.0   16.666666666666668
-450.0   90.0   16.666666666666668
-450.0   60.0   33.333333333333336
-400.0   60.0   16.666666666666668
-400.0   90.0   16.666666666666668
-450.0   90.0   16.666666666666668
-400.0   90.0   33.333333333333336
-450.0   60.0   33.333333333333336
-450.0   90.0   33.333333333333336
-400.0   90.0   33.333333333333336
-450.0   90.0   16.666666666666668
-450.0   60.0   33.333333333333336
-400.0   90.0   33.333333333333336
-400.0   60.0   33.333333333333336
-400.0   60.0   16.666666666666668
-450.0   60.0   33.333333333333336
-400.0   90.0   33.333333333333336
-400.0   60.0   16.666666666666668
-450.0   90.0   16.666666666666668
-450.0   60.0   33.333333333333336
-400.0   60.0   33.333333333333336
-450.0   90.0   33.333333333333336
-450.0   60.0   50.0
-400.0   60.0   33.333333333333336
-400.0   90.0   33.333333333333336
-450.0   90.0   33.333333333333336
-400.0   90.0   50.0
-450.0   60.0   50.0
-450.0   90.0   50.0
-400.0   90.0   50.0
-450.0   90.0   33.333333333333336
-450.0   60.0   50.0
-400.0   90.0   50.0
-400.0   60.0   50.0
-400.0   60.0   33.333333333333336
-450.0   60.0   50.0
-400.0   90.0   50.0
-400.0   60.0   33.333333333333336
-450.0   90.0   33.333333333333336
-450.0   90.0   0.0
-400.0   90.0   0.0
-450.0   120.0   0.0
-450.0   90.0   16.666666666666668
-400.0   90.0   0.0
-400.0   120.0   0.0
-450.0   120.0   0.0
-400.0   120.0   16.666666666666668
-450.0   90.0   16.666666666666668
-450.0   120.0   16.666666666666668
-400.0   120.0   16.666666666666668
-450.0   120.0   0.0
-450.0   90.0   16.666666666666668
-400.0   120.0   16.666666666666668
-400.0   90.0   16.666666666666668
-400.0   90.0   0.0
-450.0   90.0   16.666666666666668
-400.0   120.0   16.666666666666668
-400.0   90.0   0.0
-450.0   120.0   0.0
-450.0   90.0   16.666666666666668
-400.0   90.0   16.666666666666668
-450.0   120.0   16.666666666666668
-450.0   90.0   33.333333333333336
-400.0   90.0   16.666666666666668
-400.0   120.0   16.666666666666668
-450.0   120.0   16.666666666666668
-400.0   120.0   33.333333333333336
-450.0   90.0   33.333333333333336
-450.0   120.0   33.333333333333336
-400.0   120.0   33.333333333333336
-450.0   120.0   16.666666666666668
-450.0   90.0   33.333333333333336
-400.0   120.0   33.333333333333336
-400.0   90.0   33.333333333333336
-400.0   90.0   16.666666666666668
-450.0   90.0   33.333333333333336
-400.0   120.0   33.333333333333336
-400.0   90.0   16.666666666666668
-450.0   120.0   16.666666666666668
-450.0   90.0   33.333333333333336
-400.0   90.0   33.333333333333336
-450.0   120.0   33.333333333333336
-450.0   90.0   50.0
-400.0   90.0   33.333333333333336
-400.0   120.0   33.333333333333336
-450.0   120.0   33.333333333333336
-400.0   120.0   50.0
-450.0   90.0   50.0
-450.0   120.0   50.0
-400.0   120.0   50.0
-450.0   120.0   33.333333333333336
-450.0   90.0   50.0
-400.0   120.0   50.0
-400.0   90.0   50.0
-400.0   90.0   33.333333333333336
-450.0   90.0   50.0
-400.0   120.0   50.0
-400.0   90.0   33.333333333333336
-450.0   120.0   33.333333333333336
-450.0   120.0   0.0
-400.0   120.0   0.0
-450.0   150.0   0.0
-450.0   120.0   16.666666666666668
-400.0   120.0   0.0
-400.0   150.0   0.0
-450.0   150.0   0.0
-400.0   150.0   16.666666666666668
-450.0   120.0   16.666666666666668
-450.0   150.0   16.666666666666668
-400.0   150.0   16.666666666666668
-450.0   150.0   0.0
-450.0   120.0   16.666666666666668
-400.0   150.0   16.666666666666668
-400.0   120.0   16.666666666666668
-400.0   120.0   0.0
-450.0   120.0   16.666666666666668
-400.0   150.0   16.666666666666668
-400.0   120.0   0.0
-450.0   150.0   0.0
-450.0   120.0   16.666666666666668
-400.0   120.0   16.666666666666668
-450.0   150.0   16.666666666666668
-450.0   120.0   33.333333333333336
-400.0   120.0   16.666666666666668
-400.0   150.0   16.666666666666668
-450.0   150.0   16.666666666666668
-400.0   150.0   33.333333333333336
-450.0   120.0   33.333333333333336
-450.0   150.0   33.333333333333336
-400.0   150.0   33.333333333333336
-450.0   150.0   16.666666666666668
-450.0   120.0   33.333333333333336
-400.0   150.0   33.333333333333336
-400.0   120.0   33.333333333333336
-400.0   120.0   16.666666666666668
-450.0   120.0   33.333333333333336
-400.0   150.0   33.333333333333336
-400.0   120.0   16.666666666666668
-450.0   150.0   16.666666666666668
-450.0   120.0   33.333333333333336
-400.0   120.0   33.333333333333336
-450.0   150.0   33.333333333333336
-450.0   120.0   50.0
-400.0   120.0   33.333333333333336
-400.0   150.0   33.333333333333336
-450.0   150.0   33.333333333333336
-400.0   150.0   50.0
-450.0   120.0   50.0
-450.0   150.0   50.0
-400.0   150.0   50.0
-450.0   150.0   33.333333333333336
-450.0   120.0   50.0
-400.0   150.0   50.0
-400.0   120.0   50.0
-400.0   120.0   33.333333333333336
-450.0   120.0   50.0
-400.0   150.0   50.0
-400.0   120.0   33.333333333333336
-450.0   150.0   33.333333333333336
-400.0   0.0   0.0
-350.0   0.0   0.0
-400.0   30.0   0.0
-400.0   0.0   16.666666666666668
-350.0   0.0   0.0
-350.0   30.0   0.0
-400.0   30.0   0.0
-350.0   30.0   16.666666666666668
-400.0   0.0   16.666666666666668
-400.0   30.0   16.666666666666668
-350.0   30.0   16.666666666666668
-400.0   30.0   0.0
-400.0   0.0   16.666666666666668
-350.0   30.0   16.666666666666668
-350.0   0.0   16.666666666666668
-350.0   0.0   0.0
-400.0   0.0   16.666666666666668
-350.0   30.0   16.666666666666668
-350.0   0.0   0.0
-400.0   30.0   0.0
-400.0   0.0   16.666666666666668
-350.0   0.0   16.666666666666668
-400.0   30.0   16.666666666666668
-400.0   0.0   33.333333333333336
-350.0   0.0   16.666666666666668
-350.0   30.0   16.666666666666668
-400.0   30.0   16.666666666666668
-350.0   30.0   33.333333333333336
-400.0   0.0   33.333333333333336
-400.0   30.0   33.333333333333336
-350.0   30.0   33.333333333333336
-400.0   30.0   16.666666666666668
-400.0   0.0   33.333333333333336
-350.0   30.0   33.333333333333336
-350.0   0.0   33.333333333333336
-350.0   0.0   16.666666666666668
-400.0   0.0   33.333333333333336
-350.0   30.0   33.333333333333336
-350.0   0.0   16.666666666666668
-400.0   30.0   16.666666666666668
-400.0   0.0   33.333333333333336
-350.0   0.0   33.333333333333336
-400.0   30.0   33.333333333333336
-400.0   0.0   50.0
-350.0   0.0   33.333333333333336
-350.0   30.0   33.333333333333336
-400.0   30.0   33.333333333333336
-350.0   30.0   50.0
-400.0   0.0   50.0
-400.0   30.0   50.0
-350.0   30.0   50.0
-400.0   30.0   33.333333333333336
-400.0   0.0   50.0
-350.0   30.0   50.0
-350.0   0.0   50.0
-350.0   0.0   33.333333333333336
-400.0   0.0   50.0
-350.0   30.0   50.0
-350.0   0.0   33.333333333333336
-400.0   30.0   33.333333333333336
-400.0   30.0   0.0
-350.0   30.0   0.0
-400.0   60.0   0.0
-400.0   30.0   16.666666666666668
-350.0   30.0   0.0
-350.0   60.0   0.0
-400.0   60.0   0.0
-350.0   60.0   16.666666666666668
-400.0   30.0   16.666666666666668
-400.0   60.0   16.666666666666668
-350.0   60.0   16.666666666666668
-400.0   60.0   0.0
-400.0   30.0   16.666666666666668
-350.0   60.0   16.666666666666668
-350.0   30.0   16.666666666666668
-350.0   30.0   0.0
-400.0   30.0   16.666666666666668
-350.0   60.0   16.666666666666668
-350.0   30.0   0.0
-400.0   60.0   0.0
-400.0   30.0   16.666666666666668
-350.0   30.0   16.666666666666668
-400.0   60.0   16.666666666666668
-400.0   30.0   33.333333333333336
-350.0   30.0   16.666666666666668
-350.0   60.0   16.666666666666668
-400.0   60.0   16.666666666666668
-350.0   60.0   33.333333333333336
-400.0   30.0   33.333333333333336
-400.0   60.0   33.333333333333336
-350.0   60.0   33.333333333333336
-400.0   60.0   16.666666666666668
-400.0   30.0   33.333333333333336
-350.0   60.0   33.333333333333336
-350.0   30.0   33.333333333333336
-350.0   30.0   16.666666666666668
-400.0   30.0   33.333333333333336
-350.0   60.0   33.333333333333336
-350.0   30.0   16.666666666666668
-400.0   60.0   16.666666666666668
-400.0   30.0   33.333333333333336
-350.0   30.0   33.333333333333336
-400.0   60.0   33.333333333333336
-400.0   30.0   50.0
-350.0   30.0   33.333333333333336
-350.0   60.0   33.333333333333336
-400.0   60.0   33.333333333333336
-350.0   60.0   50.0
-400.0   30.0   50.0
-400.0   60.0   50.0
-350.0   60.0   50.0
-400.0   60.0   33.333333333333336
-400.0   30.0   50.0
-350.0   60.0   50.0
-350.0   30.0   50.0
-350.0   30.0   33.333333333333336
-400.0   30.0   50.0
-350.0   60.0   50.0
-350.0   30.0   33.333333333333336
-400.0   60.0   33.333333333333336
-400.0   60.0   0.0
-350.0   60.0   0.0
-400.0   90.0   0.0
-400.0   60.0   16.666666666666668
-350.0   60.0   0.0
-350.0   90.0   0.0
-400.0   90.0   0.0
-350.0   90.0   16.666666666666668
-400.0   60.0   16.666666666666668
-400.0   90.0   16.666666666666668
-350.0   90.0   16.666666666666668
-400.0   90.0   0.0
-400.0   60.0   16.666666666666668
-350.0   90.0   16.666666666666668
-350.0   60.0   16.666666666666668
-350.0   60.0   0.0
-400.0   60.0   16.666666666666668
-350.0   90.0   16.666666666666668
-350.0   60.0   0.0
-400.0   90.0   0.0
-400.0   60.0   16.666666666666668
-350.0   60.0   16.666666666666668
-400.0   90.0   16.666666666666668
-400.0   60.0   33.333333333333336
-350.0   60.0   16.666666666666668
-350.0   90.0   16.666666666666668
-400.0   90.0   16.666666666666668
-350.0   90.0   33.333333333333336
-400.0   60.0   33.333333333333336
-400.0   90.0   33.333333333333336
-350.0   90.0   33.333333333333336
-400.0   90.0   16.666666666666668
-400.0   60.0   33.333333333333336
-350.0   90.0   33.333333333333336
-350.0   60.0   33.333333333333336
-350.0   60.0   16.666666666666668
-400.0   60.0   33.333333333333336
-350.0   90.0   33.333333333333336
-350.0   60.0   16.666666666666668
-400.0   90.0   16.666666666666668
-400.0   60.0   33.333333333333336
-350.0   60.0   33.333333333333336
-400.0   90.0   33.333333333333336
-400.0   60.0   50.0
-350.0   60.0   33.333333333333336
-350.0   90.0   33.333333333333336
-400.0   90.0   33.333333333333336
-350.0   90.0   50.0
-400.0   60.0   50.0
-400.0   90.0   50.0
-350.0   90.0   50.0
-400.0   90.0   33.333333333333336
-400.0   60.0   50.0
-350.0   90.0   50.0
-350.0   60.0   50.0
-350.0   60.0   33.333333333333336
-400.0   60.0   50.0
-350.0   90.0   50.0
-350.0   60.0   33.333333333333336
-400.0   90.0   33.333333333333336
-400.0   90.0   0.0
-350.0   90.0   0.0
-400.0   120.0   0.0
-400.0   90.0   16.666666666666668
-350.0   90.0   0.0
-350.0   120.0   0.0
-400.0   120.0   0.0
-350.0   120.0   16.666666666666668
-400.0   90.0   16.666666666666668
-400.0   120.0   16.666666666666668
-350.0   120.0   16.666666666666668
-400.0   120.0   0.0
-400.0   90.0   16.666666666666668
-350.0   120.0   16.666666666666668
-350.0   90.0   16.666666666666668
-350.0   90.0   0.0
-400.0   90.0   16.666666666666668
-350.0   120.0   16.666666666666668
-350.0   90.0   0.0
-400.0   120.0   0.0
-400.0   90.0   16.666666666666668
-350.0   90.0   16.666666666666668
-400.0   120.0   16.666666666666668
-400.0   90.0   33.333333333333336
-350.0   90.0   16.666666666666668
-350.0   120.0   16.666666666666668
-400.0   120.0   16.666666666666668
-350.0   120.0   33.333333333333336
-400.0   90.0   33.333333333333336
-400.0   120.0   33.333333333333336
-350.0   120.0   33.333333333333336
-400.0   120.0   16.666666666666668
-400.0   90.0   33.333333333333336
-350.0   120.0   33.333333333333336
-350.0   90.0   33.333333333333336
-350.0   90.0   16.666666666666668
-400.0   90.0   33.333333333333336
-350.0   120.0   33.333333333333336
-350.0   90.0   16.666666666666668
-400.0   120.0   16.666666666666668
-400.0   90.0   33.333333333333336
-350.0   90.0   33.333333333333336
-400.0   120.0   33.333333333333336
-400.0   90.0   50.0
-350.0   90.0   33.333333333333336
-350.0   120.0   33.333333333333336
-400.0   120.0   33.333333333333336
-350.0   120.0   50.0
-400.0   90.0   50.0
-400.0   120.0   50.0
-350.0   120.0   50.0
-400.0   120.0   33.333333333333336
-400.0   90.0   50.0
-350.0   120.0   50.0
-350.0   90.0   50.0
-350.0   90.0   33.333333333333336
-400.0   90.0   50.0
-350.0   120.0   50.0
-350.0   90.0   33.333333333333336
-400.0   120.0   33.333333333333336
-400.0   120.0   0.0
-350.0   120.0   0.0
-400.0   150.0   0.0
-400.0   120.0   16.666666666666668
-350.0   120.0   0.0
-350.0   150.0   0.0
-400.0   150.0   0.0
-350.0   150.0   16.666666666666668
-400.0   120.0   16.666666666666668
-400.0   150.0   16.666666666666668
-350.0   150.0   16.666666666666668
-400.0   150.0   0.0
-400.0   120.0   16.666666666666668
-350.0   150.0   16.666666666666668
-350.0   120.0   16.666666666666668
-350.0   120.0   0.0
-400.0   120.0   16.666666666666668
-350.0   150.0   16.666666666666668
-350.0   120.0   0.0
-400.0   150.0   0.0
-400.0   120.0   16.666666666666668
-350.0   120.0   16.666666666666668
-400.0   150.0   16.666666666666668
-400.0   120.0   33.333333333333336
-350.0   120.0   16.666666666666668
-350.0   150.0   16.666666666666668
-400.0   150.0   16.666666666666668
-350.0   150.0   33.333333333333336
-400.0   120.0   33.333333333333336
-400.0   150.0   33.333333333333336
-350.0   150.0   33.333333333333336
-400.0   150.0   16.666666666666668
-400.0   120.0   33.333333333333336
-350.0   150.0   33.333333333333336
-350.0   120.0   33.333333333333336
-350.0   120.0   16.666666666666668
-400.0   120.0   33.333333333333336
-350.0   150.0   33.333333333333336
-350.0   120.0   16.666666666666668
-400.0   150.0   16.666666666666668
-400.0   120.0   33.333333333333336
-350.0   120.0   33.333333333333336
-400.0   150.0   33.333333333333336
-400.0   120.0   50.0
-350.0   120.0   33.333333333333336
-350.0   150.0   33.333333333333336
-400.0   150.0   33.333333333333336
-350.0   150.0   50.0
-400.0   120.0   50.0
-400.0   150.0   50.0
-350.0   150.0   50.0
-400.0   150.0   33.333333333333336
-400.0   120.0   50.0
-350.0   150.0   50.0
-350.0   120.0   50.0
-350.0   120.0   33.333333333333336
-400.0   120.0   50.0
-350.0   150.0   50.0
-350.0   120.0   33.333333333333336
-400.0   150.0   33.333333333333336
-350.0   0.0   0.0
-300.0   0.0   0.0
-350.0   30.0   0.0
-350.0   0.0   16.666666666666668
-300.0   0.0   0.0
-300.0   30.0   0.0
-350.0   30.0   0.0
-300.0   30.0   16.666666666666668
-350.0   0.0   16.666666666666668
-350.0   30.0   16.666666666666668
-300.0   30.0   16.666666666666668
-350.0   30.0   0.0
-350.0   0.0   16.666666666666668
-300.0   30.0   16.666666666666668
-300.0   0.0   16.666666666666668
-300.0   0.0   0.0
-350.0   0.0   16.666666666666668
-300.0   30.0   16.666666666666668
-300.0   0.0   0.0
-350.0   30.0   0.0
-350.0   0.0   16.666666666666668
-300.0   0.0   16.666666666666668
-350.0   30.0   16.666666666666668
-350.0   0.0   33.333333333333336
-300.0   0.0   16.666666666666668
-300.0   30.0   16.666666666666668
-350.0   30.0   16.666666666666668
-300.0   30.0   33.333333333333336
-350.0   0.0   33.333333333333336
-350.0   30.0   33.333333333333336
-300.0   30.0   33.333333333333336
-350.0   30.0   16.666666666666668
-350.0   0.0   33.333333333333336
-300.0   30.0   33.333333333333336
-300.0   0.0   33.333333333333336
-300.0   0.0   16.666666666666668
-350.0   0.0   33.333333333333336
-300.0   30.0   33.333333333333336
-300.0   0.0   16.666666666666668
-350.0   30.0   16.666666666666668
-350.0   0.0   33.333333333333336
-300.0   0.0   33.333333333333336
-350.0   30.0   33.333333333333336
-350.0   0.0   50.0
-300.0   0.0   33.333333333333336
-300.0   30.0   33.333333333333336
-350.0   30.0   33.333333333333336
-300.0   30.0   50.0
-350.0   0.0   50.0
-350.0   30.0   50.0
-300.0   30.0   50.0
-350.0   30.0   33.333333333333336
-350.0   0.0   50.0
-300.0   30.0   50.0
-300.0   0.0   50.0
-300.0   0.0   33.333333333333336
-350.0   0.0   50.0
-300.0   30.0   50.0
-300.0   0.0   33.333333333333336
-350.0   30.0   33.333333333333336
-350.0   30.0   0.0
-300.0   30.0   0.0
-350.0   60.0   0.0
-350.0   30.0   16.666666666666668
-300.0   30.0   0.0
-300.0   60.0   0.0
-350.0   60.0   0.0
-300.0   60.0   16.666666666666668
-350.0   30.0   16.666666666666668
-350.0   60.0   16.666666666666668
-300.0   60.0   16.666666666666668
-350.0   60.0   0.0
-350.0   30.0   16.666666666666668
-300.0   60.0   16.666666666666668
-300.0   30.0   16.666666666666668
-300.0   30.0   0.0
-350.0   30.0   16.666666666666668
-300.0   60.0   16.666666666666668
-300.0   30.0   0.0
-350.0   60.0   0.0
-350.0   30.0   16.666666666666668
-300.0   30.0   16.666666666666668
-350.0   60.0   16.666666666666668
-350.0   30.0   33.333333333333336
-300.0   30.0   16.666666666666668
-300.0   60.0   16.666666666666668
-350.0   60.0   16.666666666666668
-300.0   60.0   33.333333333333336
-350.0   30.0   33.333333333333336
-350.0   60.0   33.333333333333336
-300.0   60.0   33.333333333333336
-350.0   60.0   16.666666666666668
-350.0   30.0   33.333333333333336
-300.0   60.0   33.333333333333336
-300.0   30.0   33.333333333333336
-300.0   30.0   16.666666666666668
-350.0   30.0   33.333333333333336
-300.0   60.0   33.333333333333336
-300.0   30.0   16.666666666666668
-350.0   60.0   16.666666666666668
-350.0   30.0   33.333333333333336
-300.0   30.0   33.333333333333336
-350.0   60.0   33.333333333333336
-350.0   30.0   50.0
-300.0   30.0   33.333333333333336
-300.0   60.0   33.333333333333336
-350.0   60.0   33.333333333333336
-300.0   60.0   50.0
-350.0   30.0   50.0
-350.0   60.0   50.0
-300.0   60.0   50.0
-350.0   60.0   33.333333333333336
-350.0   30.0   50.0
-300.0   60.0   50.0
-300.0   30.0   50.0
-300.0   30.0   33.333333333333336
-350.0   30.0   50.0
-300.0   60.0   50.0
-300.0   30.0   33.333333333333336
-350.0   60.0   33.333333333333336
-350.0   60.0   0.0
-300.0   60.0   0.0
-350.0   90.0   0.0
-350.0   60.0   16.666666666666668
-300.0   60.0   0.0
-300.0   90.0   0.0
-350.0   90.0   0.0
-300.0   90.0   16.666666666666668
-350.0   60.0   16.666666666666668
-350.0   90.0   16.666666666666668
-300.0   90.0   16.666666666666668
-350.0   90.0   0.0
-350.0   60.0   16.666666666666668
-300.0   90.0   16.666666666666668
-300.0   60.0   16.666666666666668
-300.0   60.0   0.0
-350.0   60.0   16.666666666666668
-300.0   90.0   16.666666666666668
-300.0   60.0   0.0
-350.0   90.0   0.0
-350.0   60.0   16.666666666666668
-300.0   60.0   16.666666666666668
-350.0   90.0   16.666666666666668
-350.0   60.0   33.333333333333336
-300.0   60.0   16.666666666666668
-300.0   90.0   16.666666666666668
-350.0   90.0   16.666666666666668
-300.0   90.0   33.333333333333336
-350.0   60.0   33.333333333333336
-350.0   90.0   33.333333333333336
-300.0   90.0   33.333333333333336
-350.0   90.0   16.666666666666668
-350.0   60.0   33.333333333333336
-300.0   90.0   33.333333333333336
-300.0   60.0   33.333333333333336
-300.0   60.0   16.666666666666668
-350.0   60.0   33.333333333333336
-300.0   90.0   33.333333333333336
-300.0   60.0   16.666666666666668
-350.0   90.0   16.666666666666668
-350.0   60.0   33.333333333333336
-300.0   60.0   33.333333333333336
-350.0   90.0   33.333333333333336
-350.0   60.0   50.0
-300.0   60.0   33.333333333333336
-300.0   90.0   33.333333333333336
-350.0   90.0   33.333333333333336
-300.0   90.0   50.0
-350.0   60.0   50.0
-350.0   90.0   50.0
-300.0   90.0   50.0
-350.0   90.0   33.333333333333336
-350.0   60.0   50.0
-300.0   90.0   50.0
-300.0   60.0   50.0
-300.0   60.0   33.333333333333336
-350.0   60.0   50.0
-300.0   90.0   50.0
-300.0   60.0   33.333333333333336
-350.0   90.0   33.333333333333336
-350.0   90.0   0.0
-300.0   90.0   0.0
-350.0   120.0   0.0
-350.0   90.0   16.666666666666668
-300.0   90.0   0.0
-300.0   120.0   0.0
-350.0   120.0   0.0
-300.0   120.0   16.666666666666668
-350.0   90.0   16.666666666666668
-350.0   120.0   16.666666666666668
-300.0   120.0   16.666666666666668
-350.0   120.0   0.0
-350.0   90.0   16.666666666666668
-300.0   120.0   16.666666666666668
-300.0   90.0   16.666666666666668
-300.0   90.0   0.0
-350.0   90.0   16.666666666666668
-300.0   120.0   16.666666666666668
-300.0   90.0   0.0
-350.0   120.0   0.0
-350.0   90.0   16.666666666666668
-300.0   90.0   16.666666666666668
-350.0   120.0   16.666666666666668
-350.0   90.0   33.333333333333336
-300.0   90.0   16.666666666666668
-300.0   120.0   16.666666666666668
-350.0   120.0   16.666666666666668
-300.0   120.0   33.333333333333336
-350.0   90.0   33.333333333333336
-350.0   120.0   33.333333333333336
-300.0   120.0   33.333333333333336
-350.0   120.0   16.666666666666668
-350.0   90.0   33.333333333333336
-300.0   120.0   33.333333333333336
-300.0   90.0   33.333333333333336
-300.0   90.0   16.666666666666668
-350.0   90.0   33.333333333333336
-300.0   120.0   33.333333333333336
-300.0   90.0   16.666666666666668
-350.0   120.0   16.666666666666668
-350.0   90.0   33.333333333333336
-300.0   90.0   33.333333333333336
-350.0   120.0   33.333333333333336
-350.0   90.0   50.0
-300.0   90.0   33.333333333333336
-300.0   120.0   33.333333333333336
-350.0   120.0   33.333333333333336
-300.0   120.0   50.0
-350.0   90.0   50.0
-350.0   120.0   50.0
-300.0   120.0   50.0
-350.0   120.0   33.333333333333336
-350.0   90.0   50.0
-300.0   120.0   50.0
-300.0   90.0   50.0
-300.0   90.0   33.333333333333336
-350.0   90.0   50.0
-300.0   120.0   50.0
-300.0   90.0   33.333333333333336
-350.0   120.0   33.333333333333336
-350.0   120.0   0.0
-300.0   120.0   0.0
-350.0   150.0   0.0
-350.0   120.0   16.666666666666668
-300.0   120.0   0.0
-300.0   150.0   0.0
-350.0   150.0   0.0
-300.0   150.0   16.666666666666668
-350.0   120.0   16.666666666666668
-350.0   150.0   16.666666666666668
-300.0   150.0   16.666666666666668
-350.0   150.0   0.0
-350.0   120.0   16.666666666666668
-300.0   150.0   16.666666666666668
-300.0   120.0   16.666666666666668
-300.0   120.0   0.0
-350.0   120.0   16.666666666666668
-300.0   150.0   16.666666666666668
-300.0   120.0   0.0
-350.0   150.0   0.0
-350.0   120.0   16.666666666666668
-300.0   120.0   16.666666666666668
-350.0   150.0   16.666666666666668
-350.0   120.0   33.333333333333336
-300.0   120.0   16.666666666666668
-300.0   150.0   16.666666666666668
-350.0   150.0   16.666666666666668
-300.0   150.0   33.333333333333336
-350.0   120.0   33.333333333333336
-350.0   150.0   33.333333333333336
-300.0   150.0   33.333333333333336
-350.0   150.0   16.666666666666668
-350.0   120.0   33.333333333333336
-300.0   150.0   33.333333333333336
-300.0   120.0   33.333333333333336
-300.0   120.0   16.666666666666668
-350.0   120.0   33.333333333333336
-300.0   150.0   33.333333333333336
-300.0   120.0   16.666666666666668
-350.0   150.0   16.666666666666668
-350.0   120.0   33.333333333333336
-300.0   120.0   33.333333333333336
-350.0   150.0   33.333333333333336
-350.0   120.0   50.0
-300.0   120.0   33.333333333333336
-300.0   150.0   33.333333333333336
-350.0   150.0   33.333333333333336
-300.0   150.0   50.0
-350.0   120.0   50.0
-350.0   150.0   50.0
-300.0   150.0   50.0
-350.0   150.0   33.333333333333336
-350.0   120.0   50.0
-300.0   150.0   50.0
-300.0   120.0   50.0
-300.0   120.0   33.333333333333336
-350.0   120.0   50.0
-300.0   150.0   50.0
-300.0   120.0   33.333333333333336
-350.0   150.0   33.333333333333336
-300.0   0.0   0.0
-250.0   0.0   0.0
-300.0   30.0   0.0
-300.0   0.0   16.666666666666668
-250.0   0.0   0.0
-250.0   30.0   0.0
-300.0   30.0   0.0
-250.0   30.0   16.666666666666668
-300.0   0.0   16.666666666666668
-300.0   30.0   16.666666666666668
-250.0   30.0   16.666666666666668
-300.0   30.0   0.0
-300.0   0.0   16.666666666666668
-250.0   30.0   16.666666666666668
-250.0   0.0   16.666666666666668
-250.0   0.0   0.0
-300.0   0.0   16.666666666666668
-250.0   30.0   16.666666666666668
-250.0   0.0   0.0
-300.0   30.0   0.0
-300.0   0.0   16.666666666666668
-250.0   0.0   16.666666666666668
-300.0   30.0   16.666666666666668
-300.0   0.0   33.333333333333336
-250.0   0.0   16.666666666666668
-250.0   30.0   16.666666666666668
-300.0   30.0   16.666666666666668
-250.0   30.0   33.333333333333336
-300.0   0.0   33.333333333333336
-300.0   30.0   33.333333333333336
-250.0   30.0   33.333333333333336
-300.0   30.0   16.666666666666668
-300.0   0.0   33.333333333333336
-250.0   30.0   33.333333333333336
-250.0   0.0   33.333333333333336
-250.0   0.0   16.666666666666668
-300.0   0.0   33.333333333333336
-250.0   30.0   33.333333333333336
-250.0   0.0   16.666666666666668
-300.0   30.0   16.666666666666668
-300.0   0.0   33.333333333333336
-250.0   0.0   33.333333333333336
-300.0   30.0   33.333333333333336
-300.0   0.0   50.0
-250.0   0.0   33.333333333333336
-250.0   30.0   33.333333333333336
-300.0   30.0   33.333333333333336
-250.0   30.0   50.0
-300.0   0.0   50.0
-300.0   30.0   50.0
-250.0   30.0   50.0
-300.0   30.0   33.333333333333336
-300.0   0.0   50.0
-250.0   30.0   50.0
-250.0   0.0   50.0
-250.0   0.0   33.333333333333336
-300.0   0.0   50.0
-250.0   30.0   50.0
-250.0   0.0   33.333333333333336
-300.0   30.0   33.333333333333336
-300.0   30.0   0.0
-250.0   30.0   0.0
-300.0   60.0   0.0
-300.0   30.0   16.666666666666668
-250.0   30.0   0.0
-250.0   60.0   0.0
-300.0   60.0   0.0
-250.0   60.0   16.666666666666668
-300.0   30.0   16.666666666666668
-300.0   60.0   16.666666666666668
-250.0   60.0   16.666666666666668
-300.0   60.0   0.0
-300.0   30.0   16.666666666666668
-250.0   60.0   16.666666666666668
-250.0   30.0   16.666666666666668
-250.0   30.0   0.0
-300.0   30.0   16.666666666666668
-250.0   60.0   16.666666666666668
-250.0   30.0   0.0
-300.0   60.0   0.0
-300.0   30.0   16.666666666666668
-250.0   30.0   16.666666666666668
-300.0   60.0   16.666666666666668
-300.0   30.0   33.333333333333336
-250.0   30.0   16.666666666666668
-250.0   60.0   16.666666666666668
-300.0   60.0   16.666666666666668
-250.0   60.0   33.333333333333336
-300.0   30.0   33.333333333333336
-300.0   60.0   33.333333333333336
-250.0   60.0   33.333333333333336
-300.0   60.0   16.666666666666668
-300.0   30.0   33.333333333333336
-250.0   60.0   33.333333333333336
-250.0   30.0   33.333333333333336
-250.0   30.0   16.666666666666668
-300.0   30.0   33.333333333333336
-250.0   60.0   33.333333333333336
-250.0   30.0   16.666666666666668
-300.0   60.0   16.666666666666668
-300.0   30.0   33.333333333333336
-250.0   30.0   33.333333333333336
-300.0   60.0   33.333333333333336
-300.0   30.0   50.0
-250.0   30.0   33.333333333333336
-250.0   60.0   33.333333333333336
-300.0   60.0   33.333333333333336
-250.0   60.0   50.0
-300.0   30.0   50.0
-300.0   60.0   50.0
-250.0   60.0   50.0
-300.0   60.0   33.333333333333336
-300.0   30.0   50.0
-250.0   60.0   50.0
-250.0   30.0   50.0
-250.0   30.0   33.333333333333336
-300.0   30.0   50.0
-250.0   60.0   50.0
-250.0   30.0   33.333333333333336
-300.0   60.0   33.333333333333336
-300.0   60.0   0.0
-250.0   60.0   0.0
-300.0   90.0   0.0
-300.0   60.0   16.666666666666668
-250.0   60.0   0.0
-250.0   90.0   0.0
-300.0   90.0   0.0
-250.0   90.0   16.666666666666668
-300.0   60.0   16.666666666666668
-300.0   90.0   16.666666666666668
-250.0   90.0   16.666666666666668
-300.0   90.0   0.0
-300.0   60.0   16.666666666666668
-250.0   90.0   16.666666666666668
-250.0   60.0   16.666666666666668
-250.0   60.0   0.0
-300.0   60.0   16.666666666666668
-250.0   90.0   16.666666666666668
-250.0   60.0   0.0
-300.0   90.0   0.0
-300.0   60.0   16.666666666666668
-250.0   60.0   16.666666666666668
-300.0   90.0   16.666666666666668
-300.0   60.0   33.333333333333336
-250.0   60.0   16.666666666666668
-250.0   90.0   16.666666666666668
-300.0   90.0   16.666666666666668
-250.0   90.0   33.333333333333336
-300.0   60.0   33.333333333333336
-300.0   90.0   33.333333333333336
-250.0   90.0   33.333333333333336
-300.0   90.0   16.666666666666668
-300.0   60.0   33.333333333333336
-250.0   90.0   33.333333333333336
-250.0   60.0   33.333333333333336
-250.0   60.0   16.666666666666668
-300.0   60.0   33.333333333333336
-250.0   90.0   33.333333333333336
-250.0   60.0   16.666666666666668
-300.0   90.0   16.666666666666668
-300.0   60.0   33.333333333333336
-250.0   60.0   33.333333333333336
-300.0   90.0   33.333333333333336
-300.0   60.0   50.0
-250.0   60.0   33.333333333333336
-250.0   90.0   33.333333333333336
-300.0   90.0   33.333333333333336
-250.0   90.0   50.0
-300.0   60.0   50.0
-300.0   90.0   50.0
-250.0   90.0   50.0
-300.0   90.0   33.333333333333336
-300.0   60.0   50.0
-250.0   90.0   50.0
-250.0   60.0   50.0
-250.0   60.0   33.333333333333336
-300.0   60.0   50.0
-250.0   90.0   50.0
-250.0   60.0   33.333333333333336
-300.0   90.0   33.333333333333336
-300.0   90.0   0.0
-250.0   90.0   0.0
-300.0   120.0   0.0
-300.0   90.0   16.666666666666668
-250.0   90.0   0.0
-250.0   120.0   0.0
-300.0   120.0   0.0
-250.0   120.0   16.666666666666668
-300.0   90.0   16.666666666666668
-300.0   120.0   16.666666666666668
-250.0   120.0   16.666666666666668
-300.0   120.0   0.0
-300.0   90.0   16.666666666666668
-250.0   120.0   16.666666666666668
-250.0   90.0   16.666666666666668
-250.0   90.0   0.0
-300.0   90.0   16.666666666666668
-250.0   120.0   16.666666666666668
-250.0   90.0   0.0
-300.0   120.0   0.0
-300.0   90.0   16.666666666666668
-250.0   90.0   16.666666666666668
-300.0   120.0   16.666666666666668
-300.0   90.0   33.333333333333336
-250.0   90.0   16.666666666666668
-250.0   120.0   16.666666666666668
-300.0   120.0   16.666666666666668
-250.0   120.0   33.333333333333336
-300.0   90.0   33.333333333333336
-300.0   120.0   33.333333333333336
-250.0   120.0   33.333333333333336
-300.0   120.0   16.666666666666668
-300.0   90.0   33.333333333333336
-250.0   120.0   33.333333333333336
-250.0   90.0   33.333333333333336
-250.0   90.0   16.666666666666668
-300.0   90.0   33.333333333333336
-250.0   120.0   33.333333333333336
-250.0   90.0   16.666666666666668
-300.0   120.0   16.666666666666668
-300.0   90.0   33.333333333333336
-250.0   90.0   33.333333333333336
-300.0   120.0   33.333333333333336
-300.0   90.0   50.0
-250.0   90.0   33.333333333333336
-250.0   120.0   33.333333333333336
-300.0   120.0   33.333333333333336
-250.0   120.0   50.0
-300.0   90.0   50.0
-300.0   120.0   50.0
-250.0   120.0   50.0
-300.0   120.0   33.333333333333336
-300.0   90.0   50.0
-250.0   120.0   50.0
-250.0   90.0   50.0
-250.0   90.0   33.333333333333336
-300.0   90.0   50.0
-250.0   120.0   50.0
-250.0   90.0   33.333333333333336
-300.0   120.0   33.333333333333336
-300.0   120.0   0.0
-250.0   120.0   0.0
-300.0   150.0   0.0
-300.0   120.0   16.666666666666668
-250.0   120.0   0.0
-250.0   150.0   0.0
-300.0   150.0   0.0
-250.0   150.0   16.666666666666668
-300.0   120.0   16.666666666666668
-300.0   150.0   16.666666666666668
-250.0   150.0   16.666666666666668
-300.0   150.0   0.0
-300.0   120.0   16.666666666666668
-250.0   150.0   16.666666666666668
-250.0   120.0   16.666666666666668
-250.0   120.0   0.0
-300.0   120.0   16.666666666666668
-250.0   150.0   16.666666666666668
-250.0   120.0   0.0
-300.0   150.0   0.0
-300.0   120.0   16.666666666666668
-250.0   120.0   16.666666666666668
-300.0   150.0   16.666666666666668
-300.0   120.0   33.333333333333336
-250.0   120.0   16.666666666666668
-250.0   150.0   16.666666666666668
-300.0   150.0   16.666666666666668
-250.0   150.0   33.333333333333336
-300.0   120.0   33.333333333333336
-300.0   150.0   33.333333333333336
-250.0   150.0   33.333333333333336
-300.0   150.0   16.666666666666668
-300.0   120.0   33.333333333333336
-250.0   150.0   33.333333333333336
-250.0   120.0   33.333333333333336
-250.0   120.0   16.666666666666668
-300.0   120.0   33.333333333333336
-250.0   150.0   33.333333333333336
-250.0   120.0   16.666666666666668
-300.0   150.0   16.666666666666668
-300.0   120.0   33.333333333333336
-250.0   120.0   33.333333333333336
-300.0   150.0   33.333333333333336
-300.0   120.0   50.0
-250.0   120.0   33.333333333333336
-250.0   150.0   33.333333333333336
-300.0   150.0   33.333333333333336
-250.0   150.0   50.0
-300.0   120.0   50.0
-300.0   150.0   50.0
-250.0   150.0   50.0
-300.0   150.0   33.333333333333336
-300.0   120.0   50.0
-250.0   150.0   50.0
-250.0   120.0   50.0
-250.0   120.0   33.333333333333336
-300.0   120.0   50.0
-250.0   150.0   50.0
-250.0   120.0   33.333333333333336
-300.0   150.0   33.333333333333336
-250.0   0.0   0.0
-200.0   0.0   0.0
-250.0   30.0   0.0
-250.0   0.0   16.666666666666668
-200.0   0.0   0.0
-200.0   30.0   0.0
-250.0   30.0   0.0
-200.0   30.0   16.666666666666668
-250.0   0.0   16.666666666666668
-250.0   30.0   16.666666666666668
-200.0   30.0   16.666666666666668
-250.0   30.0   0.0
-250.0   0.0   16.666666666666668
-200.0   30.0   16.666666666666668
-200.0   0.0   16.666666666666668
-200.0   0.0   0.0
-250.0   0.0   16.666666666666668
-200.0   30.0   16.666666666666668
-200.0   0.0   0.0
-250.0   30.0   0.0
-250.0   0.0   16.666666666666668
-200.0   0.0   16.666666666666668
-250.0   30.0   16.666666666666668
-250.0   0.0   33.333333333333336
-200.0   0.0   16.666666666666668
-200.0   30.0   16.666666666666668
-250.0   30.0   16.666666666666668
-200.0   30.0   33.333333333333336
-250.0   0.0   33.333333333333336
-250.0   30.0   33.333333333333336
-200.0   30.0   33.333333333333336
-250.0   30.0   16.666666666666668
-250.0   0.0   33.333333333333336
-200.0   30.0   33.333333333333336
-200.0   0.0   33.333333333333336
-200.0   0.0   16.666666666666668
-250.0   0.0   33.333333333333336
-200.0   30.0   33.333333333333336
-200.0   0.0   16.666666666666668
-250.0   30.0   16.666666666666668
-250.0   0.0   33.333333333333336
-200.0   0.0   33.333333333333336
-250.0   30.0   33.333333333333336
-250.0   0.0   50.0
-200.0   0.0   33.333333333333336
-200.0   30.0   33.333333333333336
-250.0   30.0   33.333333333333336
-200.0   30.0   50.0
-250.0   0.0   50.0
-250.0   30.0   50.0
-200.0   30.0   50.0
-250.0   30.0   33.333333333333336
-250.0   0.0   50.0
-200.0   30.0   50.0
-200.0   0.0   50.0
-200.0   0.0   33.333333333333336
-250.0   0.0   50.0
-200.0   30.0   50.0
-200.0   0.0   33.333333333333336
-250.0   30.0   33.333333333333336
-250.0   30.0   0.0
-200.0   30.0   0.0
-250.0   60.0   0.0
-250.0   30.0   16.666666666666668
-200.0   30.0   0.0
-200.0   60.0   0.0
-250.0   60.0   0.0
-200.0   60.0   16.666666666666668
-250.0   30.0   16.666666666666668
-250.0   60.0   16.666666666666668
-200.0   60.0   16.666666666666668
-250.0   60.0   0.0
-250.0   30.0   16.666666666666668
-200.0   60.0   16.666666666666668
-200.0   30.0   16.666666666666668
-200.0   30.0   0.0
-250.0   30.0   16.666666666666668
-200.0   60.0   16.666666666666668
-200.0   30.0   0.0
-250.0   60.0   0.0
-250.0   30.0   16.666666666666668
-200.0   30.0   16.666666666666668
-250.0   60.0   16.666666666666668
-250.0   30.0   33.333333333333336
-200.0   30.0   16.666666666666668
-200.0   60.0   16.666666666666668
-250.0   60.0   16.666666666666668
-200.0   60.0   33.333333333333336
-250.0   30.0   33.333333333333336
-250.0   60.0   33.333333333333336
-200.0   60.0   33.333333333333336
-250.0   60.0   16.666666666666668
-250.0   30.0   33.333333333333336
-200.0   60.0   33.333333333333336
-200.0   30.0   33.333333333333336
-200.0   30.0   16.666666666666668
-250.0   30.0   33.333333333333336
-200.0   60.0   33.333333333333336
-200.0   30.0   16.666666666666668
-250.0   60.0   16.666666666666668
-250.0   30.0   33.333333333333336
-200.0   30.0   33.333333333333336
-250.0   60.0   33.333333333333336
-250.0   30.0   50.0
-200.0   30.0   33.333333333333336
-200.0   60.0   33.333333333333336
-250.0   60.0   33.333333333333336
-200.0   60.0   50.0
-250.0   30.0   50.0
-250.0   60.0   50.0
-200.0   60.0   50.0
-250.0   60.0   33.333333333333336
-250.0   30.0   50.0
-200.0   60.0   50.0
-200.0   30.0   50.0
-200.0   30.0   33.333333333333336
-250.0   30.0   50.0
-200.0   60.0   50.0
-200.0   30.0   33.333333333333336
-250.0   60.0   33.333333333333336
-250.0   60.0   0.0
-200.0   60.0   0.0
-250.0   90.0   0.0
-250.0   60.0   16.666666666666668
-200.0   60.0   0.0
-200.0   90.0   0.0
-250.0   90.0   0.0
-200.0   90.0   16.666666666666668
-250.0   60.0   16.666666666666668
-250.0   90.0   16.666666666666668
-200.0   90.0   16.666666666666668
-250.0   90.0   0.0
-250.0   60.0   16.666666666666668
-200.0   90.0   16.666666666666668
-200.0   60.0   16.666666666666668
-200.0   60.0   0.0
-250.0   60.0   16.666666666666668
-200.0   90.0   16.666666666666668
-200.0   60.0   0.0
-250.0   90.0   0.0
-250.0   60.0   16.666666666666668
-200.0   60.0   16.666666666666668
-250.0   90.0   16.666666666666668
-250.0   60.0   33.333333333333336
-200.0   60.0   16.666666666666668
-200.0   90.0   16.666666666666668
-250.0   90.0   16.666666666666668
-200.0   90.0   33.333333333333336
-250.0   60.0   33.333333333333336
-250.0   90.0   33.333333333333336
-200.0   90.0   33.333333333333336
-250.0   90.0   16.666666666666668
-250.0   60.0   33.333333333333336
-200.0   90.0   33.333333333333336
-200.0   60.0   33.333333333333336
-200.0   60.0   16.666666666666668
-250.0   60.0   33.333333333333336
-200.0   90.0   33.333333333333336
-200.0   60.0   16.666666666666668
-250.0   90.0   16.666666666666668
-250.0   60.0   33.333333333333336
-200.0   60.0   33.333333333333336
-250.0   90.0   33.333333333333336
-250.0   60.0   50.0
-200.0   60.0   33.333333333333336
-200.0   90.0   33.333333333333336
-250.0   90.0   33.333333333333336
-200.0   90.0   50.0
-250.0   60.0   50.0
-250.0   90.0   50.0
-200.0   90.0   50.0
-250.0   90.0   33.333333333333336
-250.0   60.0   50.0
-200.0   90.0   50.0
-200.0   60.0   50.0
-200.0   60.0   33.333333333333336
-250.0   60.0   50.0
-200.0   90.0   50.0
-200.0   60.0   33.333333333333336
-250.0   90.0   33.333333333333336
-250.0   90.0   0.0
-200.0   90.0   0.0
-250.0   120.0   0.0
-250.0   90.0   16.666666666666668
-200.0   90.0   0.0
-200.0   120.0   0.0
-250.0   120.0   0.0
-200.0   120.0   16.666666666666668
-250.0   90.0   16.666666666666668
-250.0   120.0   16.666666666666668
-200.0   120.0   16.666666666666668
-250.0   120.0   0.0
-250.0   90.0   16.666666666666668
-200.0   120.0   16.666666666666668
-200.0   90.0   16.666666666666668
-200.0   90.0   0.0
-250.0   90.0   16.666666666666668
-200.0   120.0   16.666666666666668
-200.0   90.0   0.0
-250.0   120.0   0.0
-250.0   90.0   16.666666666666668
-200.0   90.0   16.666666666666668
-250.0   120.0   16.666666666666668
-250.0   90.0   33.333333333333336
-200.0   90.0   16.666666666666668
-200.0   120.0   16.666666666666668
-250.0   120.0   16.666666666666668
-200.0   120.0   33.333333333333336
-250.0   90.0   33.333333333333336
-250.0   120.0   33.333333333333336
-200.0   120.0   33.333333333333336
-250.0   120.0   16.666666666666668
-250.0   90.0   33.333333333333336
-200.0   120.0   33.333333333333336
-200.0   90.0   33.333333333333336
-200.0   90.0   16.666666666666668
-250.0   90.0   33.333333333333336
-200.0   120.0   33.333333333333336
-200.0   90.0   16.666666666666668
-250.0   120.0   16.666666666666668
-250.0   90.0   33.333333333333336
-200.0   90.0   33.333333333333336
-250.0   120.0   33.333333333333336
-250.0   90.0   50.0
-200.0   90.0   33.333333333333336
-200.0   120.0   33.333333333333336
-250.0   120.0   33.333333333333336
-200.0   120.0   50.0
-250.0   90.0   50.0
-250.0   120.0   50.0
-200.0   120.0   50.0
-250.0   120.0   33.333333333333336
-250.0   90.0   50.0
-200.0   120.0   50.0
-200.0   90.0   50.0
-200.0   90.0   33.333333333333336
-250.0   90.0   50.0
-200.0   120.0   50.0
-200.0   90.0   33.333333333333336
-250.0   120.0   33.333333333333336
-250.0   120.0   0.0
-200.0   120.0   0.0
-250.0   150.0   0.0
-250.0   120.0   16.666666666666668
-200.0   120.0   0.0
-200.0   150.0   0.0
-250.0   150.0   0.0
-200.0   150.0   16.666666666666668
-250.0   120.0   16.666666666666668
-250.0   150.0   16.666666666666668
-200.0   150.0   16.666666666666668
-250.0   150.0   0.0
-250.0   120.0   16.666666666666668
-200.0   150.0   16.666666666666668
-200.0   120.0   16.666666666666668
-200.0   120.0   0.0
-250.0   120.0   16.666666666666668
-200.0   150.0   16.666666666666668
-200.0   120.0   0.0
-250.0   150.0   0.0
-250.0   120.0   16.666666666666668
-200.0   120.0   16.666666666666668
-250.0   150.0   16.666666666666668
-250.0   120.0   33.333333333333336
-200.0   120.0   16.666666666666668
-200.0   150.0   16.666666666666668
-250.0   150.0   16.666666666666668
-200.0   150.0   33.333333333333336
-250.0   120.0   33.333333333333336
-250.0   150.0   33.333333333333336
-200.0   150.0   33.333333333333336
-250.0   150.0   16.666666666666668
-250.0   120.0   33.333333333333336
-200.0   150.0   33.333333333333336
-200.0   120.0   33.333333333333336
-200.0   120.0   16.666666666666668
-250.0   120.0   33.333333333333336
-200.0   150.0   33.333333333333336
-200.0   120.0   16.666666666666668
-250.0   150.0   16.666666666666668
-250.0   120.0   33.333333333333336
-200.0   120.0   33.333333333333336
-250.0   150.0   33.333333333333336
-250.0   120.0   50.0
-200.0   120.0   33.333333333333336
-200.0   150.0   33.333333333333336
-250.0   150.0   33.333333333333336
-200.0   150.0   50.0
-250.0   120.0   50.0
-250.0   150.0   50.0
-200.0   150.0   50.0
-250.0   150.0   33.333333333333336
-250.0   120.0   50.0
-200.0   150.0   50.0
-200.0   120.0   50.0
-200.0   120.0   33.333333333333336
-250.0   120.0   50.0
-200.0   150.0   50.0
-200.0   120.0   33.333333333333336
-250.0   150.0   33.333333333333336
-200.0   0.0   0.0
-150.0   0.0   0.0
-200.0   30.0   0.0
-200.0   0.0   16.666666666666668
-150.0   0.0   0.0
-150.0   30.0   0.0
-200.0   30.0   0.0
-150.0   30.0   16.666666666666668
-200.0   0.0   16.666666666666668
-200.0   30.0   16.666666666666668
-150.0   30.0   16.666666666666668
-200.0   30.0   0.0
-200.0   0.0   16.666666666666668
-150.0   30.0   16.666666666666668
-150.0   0.0   16.666666666666668
-150.0   0.0   0.0
-200.0   0.0   16.666666666666668
-150.0   30.0   16.666666666666668
-150.0   0.0   0.0
-200.0   30.0   0.0
-200.0   0.0   16.666666666666668
-150.0   0.0   16.666666666666668
-200.0   30.0   16.666666666666668
-200.0   0.0   33.333333333333336
-150.0   0.0   16.666666666666668
-150.0   30.0   16.666666666666668
-200.0   30.0   16.666666666666668
-150.0   30.0   33.333333333333336
-200.0   0.0   33.333333333333336
-200.0   30.0   33.333333333333336
-150.0   30.0   33.333333333333336
-200.0   30.0   16.666666666666668
-200.0   0.0   33.333333333333336
-150.0   30.0   33.333333333333336
-150.0   0.0   33.333333333333336
-150.0   0.0   16.666666666666668
-200.0   0.0   33.333333333333336
-150.0   30.0   33.333333333333336
-150.0   0.0   16.666666666666668
-200.0   30.0   16.666666666666668
-200.0   0.0   33.333333333333336
-150.0   0.0   33.333333333333336
-200.0   30.0   33.333333333333336
-200.0   0.0   50.0
-150.0   0.0   33.333333333333336
-150.0   30.0   33.333333333333336
-200.0   30.0   33.333333333333336
-150.0   30.0   50.0
-200.0   0.0   50.0
-200.0   30.0   50.0
-150.0   30.0   50.0
-200.0   30.0   33.333333333333336
-200.0   0.0   50.0
-150.0   30.0   50.0
-150.0   0.0   50.0
-150.0   0.0   33.333333333333336
-200.0   0.0   50.0
-150.0   30.0   50.0
-150.0   0.0   33.333333333333336
-200.0   30.0   33.333333333333336
-200.0   30.0   0.0
-150.0   30.0   0.0
-200.0   60.0   0.0
-200.0   30.0   16.666666666666668
-150.0   30.0   0.0
-150.0   60.0   0.0
-200.0   60.0   0.0
-150.0   60.0   16.666666666666668
-200.0   30.0   16.666666666666668
-200.0   60.0   16.666666666666668
-150.0   60.0   16.666666666666668
-200.0   60.0   0.0
-200.0   30.0   16.666666666666668
-150.0   60.0   16.666666666666668
-150.0   30.0   16.666666666666668
-150.0   30.0   0.0
-200.0   30.0   16.666666666666668
-150.0   60.0   16.666666666666668
-150.0   30.0   0.0
-200.0   60.0   0.0
-200.0   30.0   16.666666666666668
-150.0   30.0   16.666666666666668
-200.0   60.0   16.666666666666668
-200.0   30.0   33.333333333333336
-150.0   30.0   16.666666666666668
-150.0   60.0   16.666666666666668
-200.0   60.0   16.666666666666668
-150.0   60.0   33.333333333333336
-200.0   30.0   33.333333333333336
-200.0   60.0   33.333333333333336
-150.0   60.0   33.333333333333336
-200.0   60.0   16.666666666666668
-200.0   30.0   33.333333333333336
-150.0   60.0   33.333333333333336
-150.0   30.0   33.333333333333336
-150.0   30.0   16.666666666666668
-200.0   30.0   33.333333333333336
-150.0   60.0   33.333333333333336
-150.0   30.0   16.666666666666668
-200.0   60.0   16.666666666666668
-200.0   30.0   33.333333333333336
-150.0   30.0   33.333333333333336
-200.0   60.0   33.333333333333336
-200.0   30.0   50.0
-150.0   30.0   33.333333333333336
-150.0   60.0   33.333333333333336
-200.0   60.0   33.333333333333336
-150.0   60.0   50.0
-200.0   30.0   50.0
-200.0   60.0   50.0
-150.0   60.0   50.0
-200.0   60.0   33.333333333333336
-200.0   30.0   50.0
-150.0   60.0   50.0
-150.0   30.0   50.0
-150.0   30.0   33.333333333333336
-200.0   30.0   50.0
-150.0   60.0   50.0
-150.0   30.0   33.333333333333336
-200.0   60.0   33.333333333333336
-200.0   60.0   0.0
-150.0   60.0   0.0
-200.0   90.0   0.0
-200.0   60.0   16.666666666666668
-150.0   60.0   0.0
-150.0   90.0   0.0
-200.0   90.0   0.0
-150.0   90.0   16.666666666666668
-200.0   60.0   16.666666666666668
-200.0   90.0   16.666666666666668
-150.0   90.0   16.666666666666668
-200.0   90.0   0.0
-200.0   60.0   16.666666666666668
-150.0   90.0   16.666666666666668
-150.0   60.0   16.666666666666668
-150.0   60.0   0.0
-200.0   60.0   16.666666666666668
-150.0   90.0   16.666666666666668
-150.0   60.0   0.0
-200.0   90.0   0.0
-200.0   60.0   16.666666666666668
-150.0   60.0   16.666666666666668
-200.0   90.0   16.666666666666668
-200.0   60.0   33.333333333333336
-150.0   60.0   16.666666666666668
-150.0   90.0   16.666666666666668
-200.0   90.0   16.666666666666668
-150.0   90.0   33.333333333333336
-200.0   60.0   33.333333333333336
-200.0   90.0   33.333333333333336
-150.0   90.0   33.333333333333336
-200.0   90.0   16.666666666666668
-200.0   60.0   33.333333333333336
-150.0   90.0   33.333333333333336
-150.0   60.0   33.333333333333336
-150.0   60.0   16.666666666666668
-200.0   60.0   33.333333333333336
-150.0   90.0   33.333333333333336
-150.0   60.0   16.666666666666668
-200.0   90.0   16.666666666666668
-200.0   60.0   33.333333333333336
-150.0   60.0   33.333333333333336
-200.0   90.0   33.333333333333336
-200.0   60.0   50.0
-150.0   60.0   33.333333333333336
-150.0   90.0   33.333333333333336
-200.0   90.0   33.333333333333336
-150.0   90.0   50.0
-200.0   60.0   50.0
-200.0   90.0   50.0
-150.0   90.0   50.0
-200.0   90.0   33.333333333333336
-200.0   60.0   50.0
-150.0   90.0   50.0
-150.0   60.0   50.0
-150.0   60.0   33.333333333333336
-200.0   60.0   50.0
-150.0   90.0   50.0
-150.0   60.0   33.333333333333336
-200.0   90.0   33.333333333333336
-200.0   90.0   0.0
-150.0   90.0   0.0
-200.0   120.0   0.0
-200.0   90.0   16.666666666666668
-150.0   90.0   0.0
-150.0   120.0   0.0
-200.0   120.0   0.0
-150.0   120.0   16.666666666666668
-200.0   90.0   16.666666666666668
-200.0   120.0   16.666666666666668
-150.0   120.0   16.666666666666668
-200.0   120.0   0.0
-200.0   90.0   16.666666666666668
-150.0   120.0   16.666666666666668
-150.0   90.0   16.666666666666668
-150.0   90.0   0.0
-200.0   90.0   16.666666666666668
-150.0   120.0   16.666666666666668
-150.0   90.0   0.0
-200.0   120.0   0.0
-200.0   90.0   16.666666666666668
-150.0   90.0   16.666666666666668
-200.0   120.0   16.666666666666668
-200.0   90.0   33.333333333333336
-150.0   90.0   16.666666666666668
-150.0   120.0   16.666666666666668
-200.0   120.0   16.666666666666668
-150.0   120.0   33.333333333333336
-200.0   90.0   33.333333333333336
-200.0   120.0   33.333333333333336
-150.0   120.0   33.333333333333336
-200.0   120.0   16.666666666666668
-200.0   90.0   33.333333333333336
-150.0   120.0   33.333333333333336
-150.0   90.0   33.333333333333336
-150.0   90.0   16.666666666666668
-200.0   90.0   33.333333333333336
-150.0   120.0   33.333333333333336
-150.0   90.0   16.666666666666668
-200.0   120.0   16.666666666666668
-200.0   90.0   33.333333333333336
-150.0   90.0   33.333333333333336
-200.0   120.0   33.333333333333336
-200.0   90.0   50.0
-150.0   90.0   33.333333333333336
-150.0   120.0   33.333333333333336
-200.0   120.0   33.333333333333336
-150.0   120.0   50.0
-200.0   90.0   50.0
-200.0   120.0   50.0
-150.0   120.0   50.0
-200.0   120.0   33.333333333333336
-200.0   90.0   50.0
-150.0   120.0   50.0
-150.0   90.0   50.0
-150.0   90.0   33.333333333333336
-200.0   90.0   50.0
-150.0   120.0   50.0
-150.0   90.0   33.333333333333336
-200.0   120.0   33.333333333333336
-200.0   120.0   0.0
-150.0   120.0   0.0
-200.0   150.0   0.0
-200.0   120.0   16.666666666666668
-150.0   120.0   0.0
-150.0   150.0   0.0
-200.0   150.0   0.0
-150.0   150.0   16.666666666666668
-200.0   120.0   16.666666666666668
-200.0   150.0   16.666666666666668
-150.0   150.0   16.666666666666668
-200.0   150.0   0.0
-200.0   120.0   16.666666666666668
-150.0   150.0   16.666666666666668
-150.0   120.0   16.666666666666668
-150.0   120.0   0.0
-200.0   120.0   16.666666666666668
-150.0   150.0   16.666666666666668
-150.0   120.0   0.0
-200.0   150.0   0.0
-200.0   120.0   16.666666666666668
-150.0   120.0   16.666666666666668
-200.0   150.0   16.666666666666668
-200.0   120.0   33.333333333333336
-150.0   120.0   16.666666666666668
-150.0   150.0   16.666666666666668
-200.0   150.0   16.666666666666668
-150.0   150.0   33.333333333333336
-200.0   120.0   33.333333333333336
-200.0   150.0   33.333333333333336
-150.0   150.0   33.333333333333336
-200.0   150.0   16.666666666666668
-200.0   120.0   33.333333333333336
-150.0   150.0   33.333333333333336
-150.0   120.0   33.333333333333336
-150.0   120.0   16.666666666666668
-200.0   120.0   33.333333333333336
-150.0   150.0   33.333333333333336
-150.0   120.0   16.666666666666668
-200.0   150.0   16.666666666666668
-200.0   120.0   33.333333333333336
-150.0   120.0   33.333333333333336
-200.0   150.0   33.333333333333336
-200.0   120.0   50.0
-150.0   120.0   33.333333333333336
-150.0   150.0   33.333333333333336
-200.0   150.0   33.333333333333336
-150.0   150.0   50.0
-200.0   120.0   50.0
-200.0   150.0   50.0
-150.0   150.0   50.0
-200.0   150.0   33.333333333333336
-200.0   120.0   50.0
-150.0   150.0   50.0
-150.0   120.0   50.0
-150.0   120.0   33.333333333333336
-200.0   120.0   50.0
-150.0   150.0   50.0
-150.0   120.0   33.333333333333336
-200.0   150.0   33.333333333333336
-150.0   0.0   0.0
-100.0   0.0   0.0
-150.0   30.0   0.0
-150.0   0.0   16.666666666666668
-100.0   0.0   0.0
-100.0   30.0   0.0
-150.0   30.0   0.0
-100.0   30.0   16.666666666666668
-150.0   0.0   16.666666666666668
-150.0   30.0   16.666666666666668
-100.0   30.0   16.666666666666668
-150.0   30.0   0.0
-150.0   0.0   16.666666666666668
-100.0   30.0   16.666666666666668
-100.0   0.0   16.666666666666668
-100.0   0.0   0.0
-150.0   0.0   16.666666666666668
-100.0   30.0   16.666666666666668
-100.0   0.0   0.0
-150.0   30.0   0.0
-150.0   0.0   16.666666666666668
-100.0   0.0   16.666666666666668
-150.0   30.0   16.666666666666668
-150.0   0.0   33.333333333333336
-100.0   0.0   16.666666666666668
-100.0   30.0   16.666666666666668
-150.0   30.0   16.666666666666668
-100.0   30.0   33.333333333333336
-150.0   0.0   33.333333333333336
-150.0   30.0   33.333333333333336
-100.0   30.0   33.333333333333336
-150.0   30.0   16.666666666666668
-150.0   0.0   33.333333333333336
-100.0   30.0   33.333333333333336
-100.0   0.0   33.333333333333336
-100.0   0.0   16.666666666666668
-150.0   0.0   33.333333333333336
-100.0   30.0   33.333333333333336
-100.0   0.0   16.666666666666668
-150.0   30.0   16.666666666666668
-150.0   0.0   33.333333333333336
-100.0   0.0   33.333333333333336
-150.0   30.0   33.333333333333336
-150.0   0.0   50.0
-100.0   0.0   33.333333333333336
-100.0   30.0   33.333333333333336
-150.0   30.0   33.333333333333336
-100.0   30.0   50.0
-150.0   0.0   50.0
-150.0   30.0   50.0
-100.0   30.0   50.0
-150.0   30.0   33.333333333333336
-150.0   0.0   50.0
-100.0   30.0   50.0
-100.0   0.0   50.0
-100.0   0.0   33.333333333333336
-150.0   0.0   50.0
-100.0   30.0   50.0
-100.0   0.0   33.333333333333336
-150.0   30.0   33.333333333333336
-150.0   30.0   0.0
-100.0   30.0   0.0
-150.0   60.0   0.0
-150.0   30.0   16.666666666666668
-100.0   30.0   0.0
-100.0   60.0   0.0
-150.0   60.0   0.0
-100.0   60.0   16.666666666666668
-150.0   30.0   16.666666666666668
-150.0   60.0   16.666666666666668
-100.0   60.0   16.666666666666668
-150.0   60.0   0.0
-150.0   30.0   16.666666666666668
-100.0   60.0   16.666666666666668
-100.0   30.0   16.666666666666668
-100.0   30.0   0.0
-150.0   30.0   16.666666666666668
-100.0   60.0   16.666666666666668
-100.0   30.0   0.0
-150.0   60.0   0.0
-150.0   30.0   16.666666666666668
-100.0   30.0   16.666666666666668
-150.0   60.0   16.666666666666668
-150.0   30.0   33.333333333333336
-100.0   30.0   16.666666666666668
-100.0   60.0   16.666666666666668
-150.0   60.0   16.666666666666668
-100.0   60.0   33.333333333333336
-150.0   30.0   33.333333333333336
-150.0   60.0   33.333333333333336
-100.0   60.0   33.333333333333336
-150.0   60.0   16.666666666666668
-150.0   30.0   33.333333333333336
-100.0   60.0   33.333333333333336
-100.0   30.0   33.333333333333336
-100.0   30.0   16.666666666666668
-150.0   30.0   33.333333333333336
-100.0   60.0   33.333333333333336
-100.0   30.0   16.666666666666668
-150.0   60.0   16.666666666666668
-150.0   30.0   33.333333333333336
-100.0   30.0   33.333333333333336
-150.0   60.0   33.333333333333336
-150.0   30.0   50.0
-100.0   30.0   33.333333333333336
-100.0   60.0   33.333333333333336
-150.0   60.0   33.333333333333336
-100.0   60.0   50.0
-150.0   30.0   50.0
-150.0   60.0   50.0
-100.0   60.0   50.0
-150.0   60.0   33.333333333333336
-150.0   30.0   50.0
-100.0   60.0   50.0
-100.0   30.0   50.0
-100.0   30.0   33.333333333333336
-150.0   30.0   50.0
-100.0   60.0   50.0
-100.0   30.0   33.333333333333336
-150.0   60.0   33.333333333333336
-150.0   60.0   0.0
-100.0   60.0   0.0
-150.0   90.0   0.0
-150.0   60.0   16.666666666666668
-100.0   60.0   0.0
-100.0   90.0   0.0
-150.0   90.0   0.0
-100.0   90.0   16.666666666666668
-150.0   60.0   16.666666666666668
-150.0   90.0   16.666666666666668
-100.0   90.0   16.666666666666668
-150.0   90.0   0.0
-150.0   60.0   16.666666666666668
-100.0   90.0   16.666666666666668
-100.0   60.0   16.666666666666668
-100.0   60.0   0.0
-150.0   60.0   16.666666666666668
-100.0   90.0   16.666666666666668
-100.0   60.0   0.0
-150.0   90.0   0.0
-150.0   60.0   16.666666666666668
-100.0   60.0   16.666666666666668
-150.0   90.0   16.666666666666668
-150.0   60.0   33.333333333333336
-100.0   60.0   16.666666666666668
-100.0   90.0   16.666666666666668
-150.0   90.0   16.666666666666668
-100.0   90.0   33.333333333333336
-150.0   60.0   33.333333333333336
-150.0   90.0   33.333333333333336
-100.0   90.0   33.333333333333336
-150.0   90.0   16.666666666666668
-150.0   60.0   33.333333333333336
-100.0   90.0   33.333333333333336
-100.0   60.0   33.333333333333336
-100.0   60.0   16.666666666666668
-150.0   60.0   33.333333333333336
-100.0   90.0   33.333333333333336
-100.0   60.0   16.666666666666668
-150.0   90.0   16.666666666666668
-150.0   60.0   33.333333333333336
-100.0   60.0   33.333333333333336
-150.0   90.0   33.333333333333336
-150.0   60.0   50.0
-100.0   60.0   33.333333333333336
-100.0   90.0   33.333333333333336
-150.0   90.0   33.333333333333336
-100.0   90.0   50.0
-150.0   60.0   50.0
-150.0   90.0   50.0
-100.0   90.0   50.0
-150.0   90.0   33.333333333333336
-150.0   60.0   50.0
-100.0   90.0   50.0
-100.0   60.0   50.0
-100.0   60.0   33.333333333333336
-150.0   60.0   50.0
-100.0   90.0   50.0
-100.0   60.0   33.333333333333336
-150.0   90.0   33.333333333333336
-150.0   90.0   0.0
-100.0   90.0   0.0
-150.0   120.0   0.0
-150.0   90.0   16.666666666666668
-100.0   90.0   0.0
-100.0   120.0   0.0
-150.0   120.0   0.0
-100.0   120.0   16.666666666666668
-150.0   90.0   16.666666666666668
-150.0   120.0   16.666666666666668
-100.0   120.0   16.666666666666668
-150.0   120.0   0.0
-150.0   90.0   16.666666666666668
-100.0   120.0   16.666666666666668
-100.0   90.0   16.666666666666668
-100.0   90.0   0.0
-150.0   90.0   16.666666666666668
-100.0   120.0   16.666666666666668
-100.0   90.0   0.0
-150.0   120.0   0.0
-150.0   90.0   16.666666666666668
-100.0   90.0   16.666666666666668
-150.0   120.0   16.666666666666668
-150.0   90.0   33.333333333333336
-100.0   90.0   16.666666666666668
-100.0   120.0   16.666666666666668
-150.0   120.0   16.666666666666668
-100.0   120.0   33.333333333333336
-150.0   90.0   33.333333333333336
-150.0   120.0   33.333333333333336
-100.0   120.0   33.333333333333336
-150.0   120.0   16.666666666666668
-150.0   90.0   33.333333333333336
-100.0   120.0   33.333333333333336
-100.0   90.0   33.333333333333336
-100.0   90.0   16.666666666666668
-150.0   90.0   33.333333333333336
-100.0   120.0   33.333333333333336
-100.0   90.0   16.666666666666668
-150.0   120.0   16.666666666666668
-150.0   90.0   33.333333333333336
-100.0   90.0   33.333333333333336
-150.0   120.0   33.333333333333336
-150.0   90.0   50.0
-100.0   90.0   33.333333333333336
-100.0   120.0   33.333333333333336
-150.0   120.0   33.333333333333336
-100.0   120.0   50.0
-150.0   90.0   50.0
-150.0   120.0   50.0
-100.0   120.0   50.0
-150.0   120.0   33.333333333333336
-150.0   90.0   50.0
-100.0   120.0   50.0
-100.0   90.0   50.0
-100.0   90.0   33.333333333333336
-150.0   90.0   50.0
-100.0   120.0   50.0
-100.0   90.0   33.333333333333336
-150.0   120.0   33.333333333333336
-150.0   120.0   0.0
-100.0   120.0   0.0
-150.0   150.0   0.0
-150.0   120.0   16.666666666666668
-100.0   120.0   0.0
-100.0   150.0   0.0
-150.0   150.0   0.0
-100.0   150.0   16.666666666666668
-150.0   120.0   16.666666666666668
-150.0   150.0   16.666666666666668
-100.0   150.0   16.666666666666668
-150.0   150.0   0.0
-150.0   120.0   16.666666666666668
-100.0   150.0   16.666666666666668
-100.0   120.0   16.666666666666668
-100.0   120.0   0.0
-150.0   120.0   16.666666666666668
-100.0   150.0   16.666666666666668
-100.0   120.0   0.0
-150.0   150.0   0.0
-150.0   120.0   16.666666666666668
-100.0   120.0   16.666666666666668
-150.0   150.0   16.666666666666668
-150.0   120.0   33.333333333333336
-100.0   120.0   16.666666666666668
-100.0   150.0   16.666666666666668
-150.0   150.0   16.666666666666668
-100.0   150.0   33.333333333333336
-150.0   120.0   33.333333333333336
-150.0   150.0   33.333333333333336
-100.0   150.0   33.333333333333336
-150.0   150.0   16.666666666666668
-150.0   120.0   33.333333333333336
-100.0   150.0   33.333333333333336
-100.0   120.0   33.333333333333336
-100.0   120.0   16.666666666666668
-150.0   120.0   33.333333333333336
-100.0   150.0   33.333333333333336
-100.0   120.0   16.666666666666668
-150.0   150.0   16.666666666666668
-150.0   120.0   33.333333333333336
-100.0   120.0   33.333333333333336
-150.0   150.0   33.333333333333336
-150.0   120.0   50.0
-100.0   120.0   33.333333333333336
-100.0   150.0   33.333333333333336
-150.0   150.0   33.333333333333336
-100.0   150.0   50.0
-150.0   120.0   50.0
-150.0   150.0   50.0
-100.0   150.0   50.0
-150.0   150.0   33.333333333333336
-150.0   120.0   50.0
-100.0   150.0   50.0
-100.0   120.0   50.0
-100.0   120.0   33.333333333333336
-150.0   120.0   50.0
-100.0   150.0   50.0
-100.0   120.0   33.333333333333336
-150.0   150.0   33.333333333333336
-100.0   0.0   0.0
-50.0   0.0   0.0
-100.0   30.0   0.0
-100.0   0.0   16.666666666666668
-50.0   0.0   0.0
-50.0   30.0   0.0
-100.0   30.0   0.0
-50.0   30.0   16.666666666666668
-100.0   0.0   16.666666666666668
-100.0   30.0   16.666666666666668
-50.0   30.0   16.666666666666668
-100.0   30.0   0.0
-100.0   0.0   16.666666666666668
-50.0   30.0   16.666666666666668
-50.0   0.0   16.666666666666668
-50.0   0.0   0.0
-100.0   0.0   16.666666666666668
-50.0   30.0   16.666666666666668
-50.0   0.0   0.0
-100.0   30.0   0.0
-100.0   0.0   16.666666666666668
-50.0   0.0   16.666666666666668
-100.0   30.0   16.666666666666668
-100.0   0.0   33.333333333333336
-50.0   0.0   16.666666666666668
-50.0   30.0   16.666666666666668
-100.0   30.0   16.666666666666668
-50.0   30.0   33.333333333333336
-100.0   0.0   33.333333333333336
-100.0   30.0   33.333333333333336
-50.0   30.0   33.333333333333336
-100.0   30.0   16.666666666666668
-100.0   0.0   33.333333333333336
-50.0   30.0   33.333333333333336
-50.0   0.0   33.333333333333336
-50.0   0.0   16.666666666666668
-100.0   0.0   33.333333333333336
-50.0   30.0   33.333333333333336
-50.0   0.0   16.666666666666668
-100.0   30.0   16.666666666666668
-100.0   0.0   33.333333333333336
-50.0   0.0   33.333333333333336
-100.0   30.0   33.333333333333336
-100.0   0.0   50.0
-50.0   0.0   33.333333333333336
-50.0   30.0   33.333333333333336
-100.0   30.0   33.333333333333336
-50.0   30.0   50.0
-100.0   0.0   50.0
-100.0   30.0   50.0
-50.0   30.0   50.0
-100.0   30.0   33.333333333333336
-100.0   0.0   50.0
-50.0   30.0   50.0
-50.0   0.0   50.0
-50.0   0.0   33.333333333333336
-100.0   0.0   50.0
-50.0   30.0   50.0
-50.0   0.0   33.333333333333336
-100.0   30.0   33.333333333333336
-100.0   30.0   0.0
-50.0   30.0   0.0
-100.0   60.0   0.0
-100.0   30.0   16.666666666666668
-50.0   30.0   0.0
-50.0   60.0   0.0
-100.0   60.0   0.0
-50.0   60.0   16.666666666666668
-100.0   30.0   16.666666666666668
-100.0   60.0   16.666666666666668
-50.0   60.0   16.666666666666668
-100.0   60.0   0.0
-100.0   30.0   16.666666666666668
-50.0   60.0   16.666666666666668
-50.0   30.0   16.666666666666668
-50.0   30.0   0.0
-100.0   30.0   16.666666666666668
-50.0   60.0   16.666666666666668
-50.0   30.0   0.0
-100.0   60.0   0.0
-100.0   30.0   16.666666666666668
-50.0   30.0   16.666666666666668
-100.0   60.0   16.666666666666668
-100.0   30.0   33.333333333333336
-50.0   30.0   16.666666666666668
-50.0   60.0   16.666666666666668
-100.0   60.0   16.666666666666668
-50.0   60.0   33.333333333333336
-100.0   30.0   33.333333333333336
-100.0   60.0   33.333333333333336
-50.0   60.0   33.333333333333336
-100.0   60.0   16.666666666666668
-100.0   30.0   33.333333333333336
-50.0   60.0   33.333333333333336
-50.0   30.0   33.333333333333336
-50.0   30.0   16.666666666666668
-100.0   30.0   33.333333333333336
-50.0   60.0   33.333333333333336
-50.0   30.0   16.666666666666668
-100.0   60.0   16.666666666666668
-100.0   30.0   33.333333333333336
-50.0   30.0   33.333333333333336
-100.0   60.0   33.333333333333336
-100.0   30.0   50.0
-50.0   30.0   33.333333333333336
-50.0   60.0   33.333333333333336
-100.0   60.0   33.333333333333336
-50.0   60.0   50.0
-100.0   30.0   50.0
-100.0   60.0   50.0
-50.0   60.0   50.0
-100.0   60.0   33.333333333333336
-100.0   30.0   50.0
-50.0   60.0   50.0
-50.0   30.0   50.0
-50.0   30.0   33.333333333333336
-100.0   30.0   50.0
-50.0   60.0   50.0
-50.0   30.0   33.333333333333336
-100.0   60.0   33.333333333333336
-100.0   60.0   0.0
-50.0   60.0   0.0
-100.0   90.0   0.0
-100.0   60.0   16.666666666666668
-50.0   60.0   0.0
-50.0   90.0   0.0
-100.0   90.0   0.0
-50.0   90.0   16.666666666666668
-100.0   60.0   16.666666666666668
-100.0   90.0   16.666666666666668
-50.0   90.0   16.666666666666668
-100.0   90.0   0.0
-100.0   60.0   16.666666666666668
-50.0   90.0   16.666666666666668
-50.0   60.0   16.666666666666668
-50.0   60.0   0.0
-100.0   60.0   16.666666666666668
-50.0   90.0   16.666666666666668
-50.0   60.0   0.0
-100.0   90.0   0.0
-100.0   60.0   16.666666666666668
-50.0   60.0   16.666666666666668
-100.0   90.0   16.666666666666668
-100.0   60.0   33.333333333333336
-50.0   60.0   16.666666666666668
-50.0   90.0   16.666666666666668
-100.0   90.0   16.666666666666668
-50.0   90.0   33.333333333333336
-100.0   60.0   33.333333333333336
-100.0   90.0   33.333333333333336
-50.0   90.0   33.333333333333336
-100.0   90.0   16.666666666666668
-100.0   60.0   33.333333333333336
-50.0   90.0   33.333333333333336
-50.0   60.0   33.333333333333336
-50.0   60.0   16.666666666666668
-100.0   60.0   33.333333333333336
-50.0   90.0   33.333333333333336
-50.0   60.0   16.666666666666668
-100.0   90.0   16.666666666666668
-100.0   60.0   33.333333333333336
-50.0   60.0   33.333333333333336
-100.0   90.0   33.333333333333336
-100.0   60.0   50.0
-50.0   60.0   33.333333333333336
-50.0   90.0   33.333333333333336
-100.0   90.0   33.333333333333336
-50.0   90.0   50.0
-100.0   60.0   50.0
-100.0   90.0   50.0
-50.0   90.0   50.0
-100.0   90.0   33.333333333333336
-100.0   60.0   50.0
-50.0   90.0   50.0
-50.0   60.0   50.0
-50.0   60.0   33.333333333333336
-100.0   60.0   50.0
-50.0   90.0   50.0
-50.0   60.0   33.333333333333336
-100.0   90.0   33.333333333333336
-100.0   90.0   0.0
-50.0   90.0   0.0
-100.0   120.0   0.0
-100.0   90.0   16.666666666666668
-50.0   90.0   0.0
-50.0   120.0   0.0
-100.0   120.0   0.0
-50.0   120.0   16.666666666666668
-100.0   90.0   16.666666666666668
-100.0   120.0   16.666666666666668
-50.0   120.0   16.666666666666668
-100.0   120.0   0.0
-100.0   90.0   16.666666666666668
-50.0   120.0   16.666666666666668
-50.0   90.0   16.666666666666668
-50.0   90.0   0.0
-100.0   90.0   16.666666666666668
-50.0   120.0   16.666666666666668
-50.0   90.0   0.0
-100.0   120.0   0.0
-100.0   90.0   16.666666666666668
-50.0   90.0   16.666666666666668
-100.0   120.0   16.666666666666668
-100.0   90.0   33.333333333333336
-50.0   90.0   16.666666666666668
-50.0   120.0   16.666666666666668
-100.0   120.0   16.666666666666668
-50.0   120.0   33.333333333333336
-100.0   90.0   33.333333333333336
-100.0   120.0   33.333333333333336
-50.0   120.0   33.333333333333336
-100.0   120.0   16.666666666666668
-100.0   90.0   33.333333333333336
-50.0   120.0   33.333333333333336
-50.0   90.0   33.333333333333336
-50.0   90.0   16.666666666666668
-100.0   90.0   33.333333333333336
-50.0   120.0   33.333333333333336
-50.0   90.0   16.666666666666668
-100.0   120.0   16.666666666666668
-100.0   90.0   33.333333333333336
-50.0   90.0   33.333333333333336
-100.0   120.0   33.333333333333336
-100.0   90.0   50.0
-50.0   90.0   33.333333333333336
-50.0   120.0   33.333333333333336
-100.0   120.0   33.333333333333336
-50.0   120.0   50.0
-100.0   90.0   50.0
-100.0   120.0   50.0
-50.0   120.0   50.0
-100.0   120.0   33.333333333333336
-100.0   90.0   50.0
-50.0   120.0   50.0
-50.0   90.0   50.0
-50.0   90.0   33.333333333333336
-100.0   90.0   50.0
-50.0   120.0   50.0
-50.0   90.0   33.333333333333336
-100.0   120.0   33.333333333333336
-100.0   120.0   0.0
-50.0   120.0   0.0
-100.0   150.0   0.0
-100.0   120.0   16.666666666666668
-50.0   120.0   0.0
-50.0   150.0   0.0
-100.0   150.0   0.0
-50.0   150.0   16.666666666666668
-100.0   120.0   16.666666666666668
-100.0   150.0   16.666666666666668
-50.0   150.0   16.666666666666668
-100.0   150.0   0.0
-100.0   120.0   16.666666666666668
-50.0   150.0   16.666666666666668
-50.0   120.0   16.666666666666668
-50.0   120.0   0.0
-100.0   120.0   16.666666666666668
-50.0   150.0   16.666666666666668
-50.0   120.0   0.0
-100.0   150.0   0.0
-100.0   120.0   16.666666666666668
-50.0   120.0   16.666666666666668
-100.0   150.0   16.666666666666668
-100.0   120.0   33.333333333333336
-50.0   120.0   16.666666666666668
-50.0   150.0   16.666666666666668
-100.0   150.0   16.666666666666668
-50.0   150.0   33.333333333333336
-100.0   120.0   33.333333333333336
-100.0   150.0   33.333333333333336
-50.0   150.0   33.333333333333336
-100.0   150.0   16.666666666666668
-100.0   120.0   33.333333333333336
-50.0   150.0   33.333333333333336
-50.0   120.0   33.333333333333336
-50.0   120.0   16.666666666666668
-100.0   120.0   33.333333333333336
-50.0   150.0   33.333333333333336
-50.0   120.0   16.666666666666668
-100.0   150.0   16.666666666666668
-100.0   120.0   33.333333333333336
-50.0   120.0   33.333333333333336
-100.0   150.0   33.333333333333336
-100.0   120.0   50.0
-50.0   120.0   33.333333333333336
-50.0   150.0   33.333333333333336
-100.0   150.0   33.333333333333336
-50.0   150.0   50.0
-100.0   120.0   50.0
-100.0   150.0   50.0
-50.0   150.0   50.0
-100.0   150.0   33.333333333333336
-100.0   120.0   50.0
-50.0   150.0   50.0
-50.0   120.0   50.0
-50.0   120.0   33.333333333333336
-100.0   120.0   50.0
-50.0   150.0   50.0
-50.0   120.0   33.333333333333336
-100.0   150.0   33.333333333333336
-50.0   0.0   0.0
0.0   0.0   0.0
-50.0   30.0   0.0
-50.0   0.0   16.666666666666668
0.0   0.0   0.0
0.0   30.0   0.0
-50.0   30.0   0.0
0.0   30.0   16.666666666666668
-50.0   0.0   16.666666666666668
-50.0   30.0   16.666666666666668
0.0   30.0   16.666666666666668
-50.0   30.0   0.0
-50.0   0.0   16.666666666666668
0.0   30.0   16.666666666666668
0.0   0.0   16.666666666666668
0.0   0.0   0.0
-50.0   0.0   16.666666666666668
0.0   30.0   16.666666666666668
0.0   0.0   0.0
-50.0   30.0   0.0
-50.0   0.0   16.666666666666668
0.0   0.0   16.666666666666668
-50.0   30.0   16.666666666666668
-50.0   0.0   33.333333333333336
0.0   0.0   16.666666666666668
0.0   30.0   16.666666666666668
-50.0   30.0   16.666666666666668
0.0   30.0   33.333333333333336
-50.0   0.0   33.333333333333336
-50.0   30.0   33.333333333333336
0.0   30.0   33.333333333333336
-50.0   30.0   16.666666666666668
-50.0   0.0   33.333333333333336
0.0   30.0   33.333333333333336
0.0   0.0   33.333333333333336
0.0   0.0   16.666666666666668
-50.0   0.0   33.333333333333336
0.0   30.0   33.333333333333336
0.0   0.0   16.666666666666668
-50.0   30.0   16.666666666666668
-50.0   0.0   33.333333333333336
0.0   0.0   33.333333333333336
-50.0   30.0   33.333333333333336
-50.0   0.0   50.0
0.0   0.0   33.333333333333336
0.0   30.0   33.333333333333336
-50.0   30.0   33.333333333333336
0.0   30.0   50.0
-50.0   0.0   50.0
-50.0   30.0   50.0
0.0   30.0   50.0
-50.0   30.0   33.333333333333336
-50.0   0.0   50.0
0.0   30.0   50.0
0.0   0.0   50.0
0.0   0.0   33.333333333333336
-50.0   0.0   50.0
0.0   30.0   50.0
0.0   0.0   33.333333333333336
-50.0   30.0   33.333333333333336
-50.0   30.0   0.0
0.0   30.0   0.0
-50.0   60.0   0.0
-50.0   30.0   16.666666666666668
0.0   30.0   0.0
0.0   60.0   0.0
-50.0   60.0   0.0
0.0   60.0   16.666666666666668
-50.0   30.0   16.666666666666668
-50.0   60.0   16.666666666666668
0.0   60.0   16.666666666666668
-50.0   60.0   0.0
-50.0   30.0   16.666666666666668
0.0   60.0   16.666666666666668
0.0   30.0   16.666666666666668
0.0   30.0   0.0
-50.0   30.0   16.666666666666668
0.0   60.0   16.666666666666668
0.0   30.0   0.0
-50.0   60.0   0.0
-50.0   30.0   16.666666666666668
0.0   30.0   16.666666666666668
-50.0   60.0   16.666666666666668
-50.0   30.0   33.333333333333336
0.0   30.0   16.666666666666668
0.0   60.0   16.666666666666668
-50.0   60.0   16.666666666666668
0.0   60.0   33.333333333333336
-50.0   30.0   33.333333333333336
-50.0   60.0   33.333333333333336
0.0   60.0   33.333333333333336
-50.0   60.0   16.666666666666668
-50.0   30.0   33.333333333333336
0.0   60.0   33.333333333333336
0.0   30.0   33.333333333333336
0.0   30.0   16.666666666666668
-50.0   30.0   33.333333333333336
0.0   60.0   33.333333333333336
0.0   30.0   16.666666666666668
-50.0   60.0   16.666666666666668
-50.0   30.0   33.333333333333336
0.0   30.0   33.333333333333336
-50.0   60.0   33.333333333333336
-50.0   30.0   50.0
0.0   30.0   33.333333333333336
0.0   60.0   33.333333333333336
-50.0   60.0   33.333333333333336
0.0   60.0   50.0
-50.0   30.0   50.0
-50.0   60.0   50.0
0.0   60.0   50.0
-50.0   60.0   33.333333333333336
-50.0   30.0   50.0
0.0   60.0   50.0
0.0   30.0   50.0
0.0   30.0   33.333333333333336
-50.0   30.0   50.0
0.0   60.0   50.0
0.0   30.0   33.333333333333336
-50.0   60.0   33.333333333333336
-50.0   60.0   0.0
0.0   60.0   0.0
-50.0   90.0   0.0
-50.0   60.0   16.666666666666668
0.0   60.0   0.0
0.0   90.0   0.0
-50.0   90.0   0.0
0.0   90.0   16.666666666666668
-50.0   60.0   16.666666666666668
-50.0   90.0   16.666666666666668
0.0   90.0   16.666666666666668
-50.0   90.0   0.0
-50.0   60.0   16.666666666666668
0.0   90.0   16.666666666666668
0.0   60.0   16.666666666666668
0.0   60.0   0.0
-50.0   60.0   16.666666666666668
0.0   90.0   16.666666666666668
0.0   60.0   0.0
-50.0   90.0   0.0
-50.0   60.0   16.666666666666668
0.0   60.0   16.666666666666668
-50.0   90.0   16.666666666666668
-50.0   60.0   33.333333333333336
0.0   60.0   16.666666666666668
0.0   90.0   16.666666666666668
-50.0   90.0   16.666666666666668
0.0   90.0   33.333333333333336
-50.0   60.0   33.333333333333336
-50.0   90.0   33.333333333333336
0.0   90.0   33.333333333333336
-50.0   90.0   16.666666666666668
-50.0   60.0   33.333333333333336
0.0   90.0   33.333333333333336
0.0   60.0   33.333333333333336
0.0   60.0   16.666666666666668
-50.0   60.0   33.333333333333336
0.0   90.0   33.333333333333336
0.0   60.0   16.666666666666668
-50.0   90.0   16.666666666666668
-50.0   60.0   33.333333333333336
0.0   60.0   33.333333333333336
-50.0   90.0   33.333333333333336
-50.0   60.0   50.0
0.0   60.0   33.333333333333336
0.0   90.0   33.333333333333336
-50.0   90.0   33.333333333333336
0.0   90.0   50.0
-50.0   60.0   50.0
-50.0   90.0   50.0
0.0   90.0   50.0
-50.0   90.0   33.333333333333336
-50.0   60.0   50.0
0.0   90.0   50.0
0.0   60.0   50.0
0.0   60.0   33.333333333333336
-50.0   60.0   50.0
0.0   90.0   50.0
0.0   60.0   33.333333333333336
-50.0   90.0   33.333333333333336
-50.0   90.0   0.0
0.0   90.0   0.0
-50.0   120.0   0.0
-50.0   90.0   16.666666666666668
0.0   90.0   0.0
0.0   120.0   0.0
-50.0   120.0   0.0
0.0   120.0   16.666666666666668
-50.0   90.0   16.666666666666668
-50.0   120.0   16.666666666666668
0.0   120.0   16.666666666666668
-50.0   120.0   0.0
-50.0   90.0   16.666666666666668
0.0   120.0   16.666666666666668
0.0   90.0   16.666666666666668
0.0   90.0   0.0
-50.0   90.0   16.666666666666668
0.0   120.0   16.666666666666668
0.0   90.0   0.0
-50.0   120.0   0.0
-50.0   90.0   16.666666666666668
0.0   90.0   16.666666666666668
-50.0   120.0   16.666666666666668
-50.0   90.0   33.333333333333336
0.0   90.0   16.666666666666668
0.0   120.0   16.666666666666668
-50.0   120.0   16.666666666666668
0.0   120.0   33.333333333333336
-50.0   90.0   33.333333333333336
-50.0   120.0   33.333333333333336
0.0   120.0   33.333333333333336
-50.0   120.0   16.666666666666668
-50.0   90.0   33.333333333333336
0.0   120.0   33.333333333333336
0.0   90.0   33.333333333333336
0.0   90.0   16.666666666666668
-50.0   90.0   33.333333333333336
0.0   120.0   33.333333333333336
0.0   90.0   16.666666666666668
-50.0   120.0   16.666666666666668
-50.0   90.0   33.333333333333336
0.0   90.0   33.333333333333336
-50.0   120.0   33.333333333333336
-50.0   90.0   50.0
0.0   90.0   33.333333333333336
0.0   120.0   33.333333333333336
-50.0   120.0   33.333333333333336
0.0   120.0   50.0
-50.0   90.0   50.0
-50.0   120.0   50.0
0.0   120.0   50.0
-50.0   120.0   33.333333333333336
-50.0   90.0   50.0
0.0   120.0   50.0
0.0   90.0   50.0
0.0   90.0   33.333333333333336
-50.0   90.0   50.0
0.0   120.0   50.0
0.0   90.0   33.333333333333336
-50.0   120.0   33.333333333333336
-50.0   120.0   0.0
0.0   120.0   0.0
-50.0   150.0   0.0
-50.0   120.0   16.666666666666668
0.0   120.0   0.0
0.0   150.0   0.0
-50.0   150.0   0.0
0.0   150.0   16.666666666666668
-50.0   120.0   16.666666666666668
-50.0   150.0   16.666666666666668
0.0   150.0   16.666666666666668
-50.0   150.0   0.0
-50.0   120.0   16.666666666666668
0.0   150.0   16.666666666666668
0.0   120.0   16.666666666666668
0.0   120.0   0.0
-50.0   120.0   16.666666666666668
0.0   150.0   16.666666666666668
0.0   120.0   0.0
-50.0   150.0   0.0
-50.0   120.0   16.666666666666668
0.0   120.0   16.666666666666668
-50.0   150.0   16.666666666666668
-50.0   120.0   33.333333333333336
0.0   120.0   16.666666666666668
0.0   150.0   16.666666666666668
-50.0   150.0   16.666666666666668
0.0   150.0   33.333333333333336
-50.0   120.0   33.333333333333336
-50.0   150.0   33.333333333333336
0.0   150.0   33.333333333333336
-50.0   150.0   16.666666666666668
-50.0   120.0   33.333333333333336
0.0   150.0   33.333333333333336
0.0   120.0   33.333333333333336
0.0   120.0   16.666666666666668
-50.0   120.0   33.333333333333336
0.0   150.0   33.333333333333336
0.0   120.0   16.666666666666668
-50.0   150.0   16.666666666666668
-50.0   120.0   33.333333333333336
0.0   120.0   33.333333333333336
-50.0   150.0   33.333333333333336
-50.0   120.0   50.0
0.0   120.0   33.333333333333336
0.0   150.0   33.333333333333336
-50.0   150.0   33.333333333333336
0.0   150.0   50.0
-50.0   120.0   50.0
-50.0   150.0   50.0
0.0   150.0   50.0
-50.0   150.0   33.333333333333336
-50.0   120.0   50.0
0.0   150.0   50.0
0.0   120.0   50.0
0.0   120.0   33.333333333333336
-50.0   120.0   50.0
0.0   150.0   50.0
0.0   120.0   33.333333333333336
-50.0   150.0   33.333333333333336
0.0   0.0   0.0
50.0   0.0   0.0
0.0   30.0   0.0
0.0   0.0   16.666666666666668
50.0   0.0   0.0
50.0   30.0   0.0
0.0   30.0   0.0
50.0   30.0   16.666666666666668
0.0   0.0   16.666666666666668
0.0   30.0   16.666666666666668
50.0   30.0   16.666666666666668
0.0   30.0   0.0
0.0   0.0   16.666666666666668
50.0   30.0   16.666666666666668
50.0   0.0   16.666666666666668
50.0   0.0   0.0
0.0   0.0   16.666666666666668
50.0   30.0   16.666666666666668
50.0   0.0   0.0
0.0   30.0   0.0
0.0   0.0   16.666666666666668
50.0   0.0   16.666666666666668
0.0   30.0   16.666666666666668
0.0   0.0   33.333333333333336
50.0   0.0   16.666666666666668
50.0   30.0   16.666666666666668
0.0   30.0   16.666666666666668
50.0   30.0   33.333333333333336
0.0   0.0   33.333333333333336
0.0   30.0   33.333333333333336
50.0   30.0   33.333333333333336
0.0   30.0   16.666666666666668
0.0   0.0   33.333333333333336
50.0   30.0   33.333333333333336
50.0   0.0   33.333333333333336
50.0   0.0   16.666666666666668
0.0   0.0   33.333333333333336
50.0   30.0   33.333333333333336
50.0   0.0   16.666666666666668
0.0   30.0   16.666666666666668
0.0   0.0   33.333333333333336
50.0   0.0   33.333333333333336
0.0   30.0   33.333333333333336
0.0   0.0   50.0
50.0   0.0   33.333333333333336
50.0   30.0   33.333333333333336
0.0   30.0   33.333333333333336
50.0   30.0   50.0
0.0   0.0   50.0
0.0   30.0   50.0
50.0   30.0   50.0
0.0   30.0   33.333333333333336
0.0   0.0   50.0
50.0   30.0   50.0
50.0   0.0   50.0
50.0   0.0   33.333333333333336
0.0   0.0   50.0
50.0   30.0   50.0
50.0   0.0   33.333333333333336
0.0   30.0   33.333333333333336
0.0   30.0   0.0
50.0   30.0   0.0
0.0   60.0   0.0
0.0   30.0   16.666666666666668
50.0   30.0   0.0
50.0   60.0   0.0
0.0   60.0   0.0
50.0   60.0   16.666666666666668
0.0   30.0   16.666666666666668
0.0   60.0   16.666666666666668
50.0   60.0   16.666666666666668
0.0   60.0   0.0
0.0   30.0   16.666666666666668
50.0   60.0   16.666666666666668
50.0   30.0   16.666666666666668
50.0   30.0   0.0
0.0   30.0   16.666666666666668
50.0   60.0   16.666666666666668
50.0   30.0   0.0
0.0   60.0   0.0
0.0   30.0   16.666666666666668
50.0   30.0   16.666666666666668
0.0   60.0   16.666666666666668
0.0   30.0   33.333333333333336
50.0   30.0   16.666666666666668
50.0   60.0   16.666666666666668
0.0   60.0   16.666666666666668
50.0   60.0   33.333333333333336
0.0   30.0   33.333333333333336
0.0   60.0   33.333333333333336
50.0   60.0   33.333333333333336
0.0   60.0   16.666666666666668
0.0   30.0   33.333333333333336
50.0   60.0   33.333333333333336
50.0   30.0   33.333333333333336
50.0   30.0   16.666666666666668
0.0   30.0   33.333333333333336
50.0   60.0   33.333333333333336
50.0   30.0   16.666666666666668
0.0   60.0   16.666666666666668
0.0   30.0   33.333333333333336
50.0   30.0   33.333333333333336
0.0   60.0   33.333333333333336
0.0   30.0   50.0
50.0   30.0   33.333333333333336
50.0   60.0   33.333333333333336
0.0   60.0   33.333333333333336
50.0   60.0   50.0
0.0   30.0   50.0
0.0   60.0   50.0
50.0   60.0   50.0
0.0   60.0   33.333333333333336
0.0   30.0   50.0
50.0   60.0   50.0
50.0   30.0   50.0
50.0   30.0   33.333333333333336
0.0   30.0   50.0
50.0   60.0   50.0
50.0   30.0   33.333333333333336
0.0   60.0   33.333333333333336
0.0   60.0   0.0
50.0   60.0   0.0
0.0   90.0   0.0
0.0   60.0   16.666666666666668
50.0   60.0   0.0
50.0   90.0   0.0
0.0   90.0   0.0
50.0   90.0   16.666666666666668
0.0   60.0   16.666666666666668
0.0   90.0   16.666666666666668
50.0   90.0   16.666666666666668
0.0   90.0   0.0
0.0   60.0   16.666666666666668
50.0   90.0   16.666666666666668
50.0   60.0   16.666666666666668
50.0   60.0   0.0
0.0   60.0   16.666666666666668
50.0   90.0   16.666666666666668
50.0   60.0   0.0
0.0   90.0   0.0
0.0   60.0   16.666666666666668
50.0   60.0   16.666666666666668
0.0   90.0   16.666666666666668
0.0   60.0   33.333333333333336
50.0   60.0   16.666666666666668
50.0   90.0   16.666666666666668
0.0   90.0   16.666666666666668
50.0   90.0   33.333333333333336
0.0   60.0   33.333333333333336
0.0   90.0   33.333333333333336
50.0   90.0   33.333333333333336
0.0   90.0   16.666666666666668
0.0   60.0   33.333333333333336
50.0   90.0   33.333333333333336
50.0   60.0   33.333333333333336
50.0   60.0   16.666666666666668
0.0   60.0   33.333333333333336
50.0   90.0   33.333333333333336
50.0   60.0   16.666666666666668
0.0   90.0   16.666666666666668
0.0   60.0   33.333333333333336
50.0   60.0   33.333333333333336
0.0   90.0   33.333333333333336
0.0   60.0   50.0
50.0   60.0   33.333333333333336
50.0   90.0   33.333333333333336
0.0   90.0   33.333333333333336
50.0   90.0   50.0
0.0   60.0   50.0
0.0   90.0   50.0
50.0   90.0   50.0
0.0   90.0   33.333333333333336
0.0   60.0   50.0
50.0   90.0   50.0
50.0   60.0   50.0
50.0   60.0   33.333333333333336
0.0   60.0   50.0
50.0   90.0   50.0
50.0   60.0   33.333333333333336
0.0   90.0   33.333333333333336
0.0   90.0   0.0
50.0   90.0   0.0
0.0   120.0   0.0
0.0   90.0   16.666666666666668
50.0   90.0   0.0
50.0   120.0   0.0
0.0   120.0   0.0
50.0   120.0   16.666666666666668
0.0   90.0   16.666666666666668
0.0   120.0   16.666666666666668
50.0   120.0   16.666666666666668
0.0   120.0   0.0
0.0   90.0   16.666666666666668
50.0   120.0   16.666666666666668
50.0   90.0   16.666666666666668
50.0   90.0   0.0
0.0   90.0   16.666666666666668
50.0   120.0   16.666666666666668
50.0   90.0   0.0
0.0   120.0   0.0
0.0   90.0   16.666666666666668
50.0   90.0   16.666666666666668
0.0   120.0   16.666666666666668
0.0   90.0   33.333333333333336
50.0   90.0   16.666666666666668
50.0   120.0   16.666666666666668
0.0   120.0   16.666666666666668
50.0   120.0   33.333333333333336
0.0   90.0   33.333333333333336
0.0   120.0   33.333333333333336
50.0   120.0   33.333333333333336
0.0   120.0   16.666666666666668
0.0   90.0   33.333333333333336
50.0   120.0   33.333333333333336
50.0   90.0   33.333333333333336
50.0   90.0   16.666666666666668
0.0   90.0   33.333333333333336
50.0   120.0   33.333333333333336
50.0   90.0   16.666666666666668
0.0   120.0   16.666666666666668
0.0   90.0   33.333333333333336
50.0   90.0   33.333333333333336
0.0   120.0   33.333333333333336
0.0   90.0   50.0
50.0   90.0   33.333333333333336
50.0   120.0   33.333333333333336
0.0   120.0   33.333333333333336
50.0   120.0   50.0
0.0   90.0   50.0
0.0   120.0   50.0
50.0   120.0   50.0
0.0   120.0   33.333333333333336
0.0   90.0   50.0
50.0   120.0   50.0
50.0   90.0   50.0
50.0   90.0   33.333333333333336
0.0   90.0   50.0
50.0   120.0   50.0
50.0   90.0   33.333333333333336
0.0   120.0   33.333333333333336
0.0   120.0   0.0
50.0   120.0   0.0
0.0   150.0   0.0
0.0   120.0   16.666666666666668
50.0   120.0   0.0
50.0   150.0   0.0
0.0   150.0   0.0
50.0   150.0   16.666666666666668
0.0   120.0   16.666666666666668
0.0   150.0   16.666666666666668
50.0   150.0   16.666666666666668
0.0   150.0   0.0
0.0   120.0   16.666666666666668
50.0   150.0   16.666666666666668
50.0   120.0   16.666666666666668
50.0   120.0   0.0
0.0   120.0   16.666666666666668
50.0   150.0   16.666666666666668
50.0   120.0   0.0
0.0   150.0   0.0
0.0   120.0   16.666666666666668
50.0   120.0   16.666666666666668
0.0   150.0   16.666666666666668
0.0   120.0   33.333333333333336
50.0   120.0   16.666666666666668
50.0   150.0   16.666666666666668
0.0   150.0   16.666666666666668
50.0   150.0   33.333333333333336
0.0   120.0   33.333333333333336
0.0   150.0   33.333333333333336
50.0   150.0   33.333333333333336
0.0   150.0   16.666666666666668
0.0   120.0   33.333333333333336
50.0   150.0   33.333333333333336
50.0   120.0   33.333333333333336
50.0   120.0   16.666666666666668
0.0   120.0   33.333333333333336
50.0   150.0   33.333333333333336
50.0   120.0   16.666666666666668
0.0   150.0   16.666666666666668
0.0   120.0   33.333333333333336
50.0   120.0   33.333333333333336
0.0   150.0   33.333333333333336
0.0   120.0   50.0
50.0   120.0   33.333333333333336
50.0   150.0   33.333333333333336
0.0   150.0   33.333333333333336
50.0   150.0   50.0
0.0   120.0   50.0
0.0   150.0   50.0
50.0   150.0   50.0
0.0   150.0   33.333333333333336
0.0   120.0   50.0
50.0   150.0   50.0
50.0   120.0   50.0
50.0   120.0   33.333333333333336
0.0   120.0   50.0
50.0   150.0   50.0
50.0   120.0   33.333333333333336
0.0   150.0   33.333333333333336
50.0   0.0   0.0
100.0   0.0   0.0
50.0   30.0   0.0
50.0   0.0   16.666666666666668
100.0   0.0   0.0
100.0   30.0   0.0
50.0   30.0   0.0
100.0   30.0   16.666666666666668
50.0   0.0   16.666666666666668
50.0   30.0   16.666666666666668
100.0   30.0   16.666666666666668
50.0   30.0   0.0
50.0   0.0   16.666666666666668
100.0   30.0   16.666666666666668
100.0   0.0   16.666666666666668
100.0   0.0   0.0
50.0   0.0   16.666666666666668
100.0   30.0   16.666666666666668
100.0   0.0   0.0
50.0   30.0   0.0
50.0   0.0   16.666666666666668
100.0   0.0   16.666666666666668
50.0   30.0   16.666666666666668
50.0   0.0   33.333333333333336
100.0   0.0   16.666666666666668
100.0   30.0   16.666666666666668
50.0   30.0   16.666666666666668
100.0   30.0   33.333333333333336
50.0   0.0   33.333333333333336
50.0   30.0   33.333333333333336
100.0   30.0   33.333333333333336
50.0   30.0   16.666666666666668
50.0   0.0   33.333333333333336
100.0   30.0   33.333333333333336
100.0   0.0   33.333333333333336
100.0   0.0   16.666666666666668
50.0   0.0   33.333333333333336
100.0   30.0   33.333333333333336
100.0   0.0   16.666666666666668
50.0   30.0   16.666666666666668
50.0   0.0   33.333333333333336
100.0   0.0   33.333333333333336
50.0   30.0   33.333333333333336
50.0   0.0   50.0
100.0   0.0   33.333333333333336
100.0   30.0   33.333333333333336
50.0   30.0   33.333333333333336
100.0   30.0   50.0
50.0   0.0   50.0
50.0   30.0   50.0
100.0   30.0   50.0
50.0   30.0   33.333333333333336
50.0   0.0   50.0
100.0   30.0   50.0
100.0   0.0   50.0
100.0   0.0   33.333333333333336
50.0   0.0   50.0
100.0   30.0   50.0
100.0   0.0   33.333333333333336
50.0   30.0   33.333333333333336
50.0   30.0   0.0
100.0   30.0   0.0
50.0   60.0   0.0
50.0   30.0   16.666666666666668
100.0   30.0   0.0
100.0   60.0   0.0
50.0   60.0   0.0
100.0   60.0   16.666666666666668
50.0   30.0   16.666666666666668
50.0   60.0   16.666666666666668
100.0   60.0   16.666666666666668
50.0   60.0   0.0
50.0   30.0   16.666666666666668
100.0   60.0   16.666666666666668
100.0   30.0   16.666666666666668
100.0   30.0   0.0
50.0   30.0   16.666666666666668
100.0   60.0   16.666666666666668
100.0   30.0   0.0
50.0   60.0   0.0
50.0   30.0   16.666666666666668
100.0   30.0   16.666666666666668
50.0   60.0   16.666666666666668
50.0   30.0   33.333333333333336
100.0   30.0   16.666666666666668
100.0   60.0   16.666666666666668
50.0   60.0   16.666666666666668
100.0   60.0   33.333333333333336
50.0   30.0   33.333333333333336
50.0   60.0   33.333333333333336
100.0   60.0   33.333333333333336
50.0   60.0   16.666666666666668
50.0   30.0   33.333333333333336
100.0   60.0   33.333333333333336
100.0   30.0   33.333333333333336
100.0   30.0   16.666666666666668
50.0   30.0   33.333333333333336
100.0   60.0   33.333333333333336
100.0   30.0   16.666666666666668
50.0   60.0   16.666666666666668
50.0   30.0   33.333333333333336
100.0   30.0   33.333333333333336
50.0   60.0   33.333333333333336
50.0   30.0   50.0
100.0   30.0   33.333333333333336
100.0   60.0   33.333333333333336
50.0   60.0   33.333333333333336
100.0   60.0   50.0
50.0   30.0   50.0
50.0   60.0   50.0
100.0   60.0   50.0
50.0   60.0   33.333333333333336
50.0   30.0   50.0
100.0   60.0   50.0
100.0   30.0   50.0
100.0   30.0   33.333333333333336
50.0   30.0   50.0
100.0   60.0   50.0
100.0   30.0   33.333333333333336
50.0   60.0   33.333333333333336
50.0   60.0   0.0
100.0   60.0   0.0
50.0   90.0   0.0
50.0   60.0   16.666666666666668
100.0   60.0   0.0
100.0   90.0   0.0
50.0   90.0   0.0
100.0   90.0   16.666666666666668
50.0   60.0   16.666666666666668
50.0   90.0   16.666666666666668
100.0   90.0   16.666666666666668
50.0   90.0   0.0
50.0   60.0   16.666666666666668
100.0   90.0   16.666666666666668
100.0   60.0   16.666666666666668
100.0   60.0   0.0
50.0   60.0   16.666666666666668
100.0   90.0   16.666666666666668
100.0   60.0   0.0
50.0   90.0   0.0
50.0   60.0   16.666666666666668
100.0   60.0   16.666666666666668
50.0   90.0   16.666666666666668
50.0   60.0   33.333333333333336
100.0   60.0   16.666666666666668
100.0   90.0   16.666666666666668
50.0   90.0   16.666666666666668
100.0   90.0   33.333333333333336
50.0   60.0   33.333333333333336
50.0   90.0   33.333333333333336
100.0   90.0   33.333333333333336
50.0   90.0   16.666666666666668
50.0   60.0   33.333333333333336
100.0   90.0   33.333333333333336
100.0   60.0   33.333333333333336
100.0   60.0   16.666666666666668
50.0   60.0   33.333333333333336
100.0   90.0   33.333333333333336
100.0   60.0   16.666666666666668
50.0   90.0   16.666666666666668
50.0   60.0   33.333333333333336
100.0   60.0   33.333333333333336
50.0   90.0   33.333333333333336
50.0   60.0   50.0
100.0   60.0   33.333333333333336
100.0   90.0   33.333333333333336
50.0   90.0   33.333333333333336
100.0   90.0   50.0
50.0   60.0   50.0
50.0   90.0   50.0
100.0   90.0   50.0
50.0   90.0   33.333333333333336
50.0   60.0   50.0
100.0   90.0   50.0
100.0   60.0   50.0
100.0   60.0   33.333333333333336
50.0   60.0   50.0
100.0   90.0   50.0
100.0   60.0   33.333333333333336
50.0   90.0   33.333333333333336
50.0   90.0   0.0
100.0   90.0   0.0
50.0   120.0   0.0
50.0   90.0   16.666666666666668
100.0   90.0   0.0
100.0   120.0   0.0
50.0   120.0   0.0
100.0   120.0   16.666666666666668
50.0   90.0   16.666666666666668
50.0   120.0   16.666666666666668
100.0   120.0   16.666666666666668
50.0   120.0   0.0
50.0   90.0   16.666666666666668
100.0   120.0   16.666666666666668
100.0   90.0   16.666666666666668
100.0   90.0   0.0
50.0   90.0   16.666666666666668
100.0   120.0   16.666666666666668
100.0   90.0   0.0
50.0   120.0   0.0
50.0   90.0   16.666666666666668
100.0   90.0   16.666666666666668
50.0   120.0   16.666666666666668
50.0   90.0   33.333333333333336
100.0   90.0   16.666666666666668
100.0   120.0   16.666666666666668
50.0   120.0   16.666666666666668
100.0   120.0   33.333333333333336
50.0   90.0   33.333333333333336
50.0   120.0   33.333333333333336
100.0   120.0   33.333333333333336
50.0   120.0   16.666666666666668
50.0   90.0   33.333333333333336
100.0   120.0   33.333333333333336
100.0   90.0   33.333333333333336
100.0   90.0   16.666666666666668
50.0   90.0   33.333333333333336
100.0   120.0   33.333333333333336
100.0   90.0   16.666666666666668
50.0   120.0   16.666666666666668
50.0   90.0   33.333333333333336
100.0   90.0   33.333333333333336
50.0   120.0   33.333333333333336
50.0   90.0   50.0
100.0   90.0   33.333333333333336
100.0   120.0   33.333333333333336
50.0   120.0   33.333333333333336
100.0   120.0   50.0
50.0   90.0   50.0
50.0   120.0   50.0
100.0   120.0   50.0
50.0   120.0   33.333333333333336
50.0   90.0   50.0
100.0   120.0   50.0
100.0   90.0   50.0
100.0   90.0   33.333333333333336
50.0   90.0   50.0
100.0   120.0   50.0
100.0   90.0   33.333333333333336
50.0   120.0   33.333333333333336
50.0   120.0   0.0
100.0   120.0   0.0
50.0   150.0   0.0
50.0   120.0   16.666666666666668
100.0   120.0   0.0
100.0   150.0   0.0
50.0   150.0   0.0
100.0   150.0   16.666666666666668
50.0   120.0   16.666666666666668
50.0   150.0   16.666666666666668
100.0   150.0   16.666666666666668
50.0   150.0   0.0
50.0   120.0   16.666666666666668
100.0   150.0   16.666666666666668
100.0   120.0   16.666666666666668
100.0   120.0   0.0
50.0   120.0   16.666666666666668
100.0   150.0   16.666666666666668
100.0   120.0   0.0
50.0   150.0   0.0
50.0   120.0   16.666666666666668
100.0   120.0   16.666666666666668
50.0   150.0   16.666666666666668
50.0   120.0   33.333333333333336
100.0   120.0   16.666666666666668
100.0   150.0   16.666666666666668
50.0   150.0   16.666666666666668
100.0   150.0   33.333333333333336
50.0   120.0   33.333333333333336
50.0   150.0   33.333333333333336
100.0   150.0   33.333333333333336
50.0   150.0   16.666666666666668
50.0   120.0   33.333333333333336
100.0   150.0   33.333333333333336
100.0   120.0   33.333333333333336
100.0   120.0   16.666666666666668
50.0   120.0   33.333333333333336
100.0   150.0   33.333333333333336
100.0   120.0   16.666666666666668
50.0   150.0   16.666666666666668
50.0   120.0   33.333333333333336
100.0   120.0   33.333333333333336
50.0   150.0   33.333333333333336
50.0   120.0   50.0
100.0   120.0   33.333333333333336
100.0   150.0   33.333333333333336
50.0   150.0   33.333333333333336
100.0   150.0   50.0
50.0   120.0   50.0
50.0   150.0   50.0
100.0   150.0   50.0
50.0   150.0   33.333333333333336
50.0   120.0   50.0
100.0   150.0   50.0
100.0   120.0   50.0
100.0   120.0   33.333333333333336
50.0   120.0   50.0
100.0   150.0   50.0
100.0   120.0   33.333333333333336
50.0   150.0   33.333333333333336
100.0   0.0   0.0
150.0   0.0   0.0
100.0   30.0   0.0
100.0   0.0   16.666666666666668
150.0   0.0   0.0
150.0   30.0   0.0
100.0   30.0   0.0
150.0   30.0   16.666666666666668
100.0   0.0   16.666666666666668
100.0   30.0   16.666666666666668
150.0   30.0   16.666666666666668
100.0   30.0   0.0
100.0   0.0   16.666666666666668
150.0   30.0   16.666666666666668
150.0   0.0   16.666666666666668
150.0   0.0   0.0
100.0   0.0   16.666666666666668
150.0   30.0   16.666666666666668
150.0   0.0   0.0
100.0   30.0   0.0
100.0   0.0   16.666666666666668
150.0   0.0   16.666666666666668
100.0   30.0   16.666666666666668
100.0   0.0   33.333333333333336
150.0   0.0   16.666666666666668
150.0   30.0   16.666666666666668
100.0   30.0   16.666666666666668
150.0   30.0   33.333333333333336
100.0   0.0   33.333333333333336
100.0   30.0   33.333333333333336
150.0   30.0   33.333333333333336
100.0   30.0   16.666666666666668
100.0   0.0   33.333333333333336
150.0   30.0   33.333333333333336
150.0   0.0   33.333333333333336
150.0   0.0   16.666666666666668
100.0   0.0   33.333333333333336
150.0   30.0   33.333333333333336
150.0   0.0   16.666666666666668
100.0   30.0   16.666666666666668
100.0   0.0   33.333333333333336
150.0   0.0   33.333333333333336
100.0   30.0   33.333333333333336
100.0   0.0   50.0
150.0   0.0   33.333333333333336
150.0   30.0   33.333333333333336
100.0   30.0   33.333333333333336
150.0   30.0   50.0
100.0   0.0   50.0
100.0   30.0   50.0
150.0   30.0   50.0
100.0   30.0   33.333333333333336
100.0   0.0   50.0
150.0   30.0   50.0
150.0   0.0   50.0
150.0   0.0   33.333333333333336
100.0   0.0   50.0
150.0   30.0   50.0
150.0   0.0   33.333333333333336
100.0   30.0   33.333333333333336
100.0   30.0   0.0
150.0   30.0   0.0
100.0   60.0   0.0
100.0   30.0   16.666666666666668
150.0   30.0   0.0
150.0   60.0   0.0
100.0   60.0   0.0
150.0   60.0   16.666666666666668
100.0   30.0   16.666666666666668
100.0   60.0   16.666666666666668
150.0   60.0   16.666666666666668
100.0   60.0   0.0
100.0   30.0   16.666666666666668
150.0   60.0   16.666666666666668
150.0   30.0   16.666666666666668
150.0   30.0   0.0
100.0   30.0   16.666666666666668
150.0   60.0   16.666666666666668
150.0   30.0   0.0
100.0   60.0   0.0
100.0   30.0   16.666666666666668
150.0   30.0   16.666666666666668
100.0   60.0   16.666666666666668
100.0   30.0   33.333333333333336
150.0   30.0   16.666666666666668
150.0   60.0   16.666666666666668
100.0   60.0   16.666666666666668
150.0   60.0   33.333333333333336
100.0   30.0   33.333333333333336
100.0   60.0   33.333333333333336
150.0   60.0   33.333333333333336
100.0   60.0   16.666666666666668
100.0   30.0   33.333333333333336
150.0   60.0   33.333333333333336
150.0   30.0   33.333333333333336
150.0   30.0   16.666666666666668
100.0   30.0   33.333333333333336
150.0   60.0   33.333333333333336
150.0   30.0   16.666666666666668
100.0   60.0   16.666666666666668
100.0   30.0   33.333333333333336
150.0   30.0   33.333333333333336
100.0   60.0   33.333333333333336
100.0   30.0   50.0
150.0   30.0   33.333333333333336
150.0   60.0   33.333333333333336
100.0   60.0   33.333333333333336
150.0   60.0   50.0
100.0   30.0   50.0
100.0   60.0   50.0
150.0   60.0   50.0
100.0   60.0   33.333333333333336
100.0   30.0   50.0
150.0   60.0   50.0
150.0   30.0   50.0
150.0   30.0   33.333333333333336
100.0   30.0   50.0
150.0   60.0   50.0
150.0   30.0   33.333333333333336
100.0   60.0   33.333333333333336
100.0   60.0   0.0
150.0   60.0   0.0
100.0   90.0   0.0
100.0   60.0   16.666666666666668
150.0   60.0   0.0
150.0   90.0   0.0
100.0   90.0   0.0
150.0   90.0   16.666666666666668
100.0   60.0   16.666666666666668
100.0   90.0   16.666666666666668
150.0   90.0   16.666666666666668
100.0   90.0   0.0
100.0   60.0   16.666666666666668
150.0   90.0   16.666666666666668
150.0   60.0   16.666666666666668
150.0   60.0   0.0
100.0   60.0   16.666666666666668
150.0   90.0   16.666666666666668
150.0   60.0   0.0
100.0   90.0   0.0
100.0   60.0   16.666666666666668
150.0   60.0   16.666666666666668
100.0   90.0   16.666666666666668
100.0   60.0   33.333333333333336
150.0   60.0   16.666666666666668
150.0   90.0   16.666666666666668
100.0   90.0   16.666666666666668
150.0   90.0   33.333333333333336
100.0   60.0   33.333333333333336
100.0   90.0   33.333333333333336
150.0   90.0   33.333333333333336
100.0   90.0   16.666666666666668
100.0   60.0   33.333333333333336
150.0   90.0   33.333333333333336
150.0   60.0   33.333333333333336
150.0   60.0   16.666666666666668
100.0   60.0   33.333333333333336
150.0   90.0   33.333333333333336
150.0   60.0   16.666666666666668
100.0   90.0   16.666666666666668
100.0   60.0   33.333333333333336
150.0   60.0   33.333333333333336
100.0   90.0   33.333333333333336
100.0   60.0   50.0
150.0   60.0   33.333333333333336
150.0   90.0   33.333333333333336
100.0   90.0   33.333333333333336
150.0   90.0   50.0
100.0   60.0   50.0
100.0   90.0   50.0
150.0   90.0   50.0
100.0   90.0   33.333333333333336
100.0   60.0   50.0
150.0   90.0   50.0
150.0   60.0   50.0
150.0   60.0   33.333333333333336
100.0   60.0   50.0
150.0   90.0   50.0
150.0   60.0   33.333333333333336
100.0   90.0   33.333333333333336
100.0   90.0   0.0
150.0   90.0   0.0
100.0   120.0   0.0
100.0   90.0   16.666666666666668
150.0   90.0   0.0
150.0   120.0   0.0
100.0   120.0   0.0
150.0   120.0   16.666666666666668
100.0   90.0   16.666666666666668
100.0   120.0   16.666666666666668
150.0   120.0   16.666666666666668
100.0   120.0   0.0
100.0   90.0   16.666666666666668
150.0   120.0   16.666666666666668
150.0   90.0   16.666666666666668
150.0   90.0   0.0
100.0   90.0   16.666666666666668
150.0   120.0   16.666666666666668
150.0   90.0   0.0
100.0   120.0   0.0
100.0   90.0   16.666666666666668
150.0   90.0   16.666666666666668
100.0   120.0   16.666666666666668
100.0   90.0   33.333333333333336
150.0   90.0   16.666666666666668
150.0   120.0   16.666666666666668
100.0   120.0   16.666666666666668
150.0   120.0   33.333333333333336
100.0   90.0   33.333333333333336
100.0   120.0   33.333333333333336
150.0   120.0   33.333333333333336
100.0   120.0   16.666666666666668
100.0   90.0   33.333333333333336
150.0   120.0   33.333333333333336
150.0   90.0   33.333333333333336
150.0   90.0   16.666666666666668
100.0   90.0   33.333333333333336
150.0   120.0   33.333333333333336
150.0   90.0   16.666666666666668
100.0   120.0   16.666666666666668
100.0   90.0   33.333333333333336
150.0   90.0   33.333333333333336
100.0   120.0   33.333333333333336
100.0   90.0   50.0
150.0   90.0   33.333333333333336
150.0   120.0   33.333333333333336
100.0   120.0   33.333333333333336
150.0   120.0   50.0
100.0   90.0   50.0
100.0   120.0   50.0
150.0   120.0   50.0
100.0   120.0   33.333333333333336
100.0   90.0   50.0
150.0   120.0   50.0
150.0   90.0   50.0
150.0   90.0   33.333333333333336
100.0   90.0   50.0
150.0   120.0   50.0
150.0   90.0   33.333333333333336
100.0   120.0   33.333333333333336
100.0   120.0   0.0
150.0   120.0   0.0
100.0   150.0   0.0
100.0   120.0   16.666666666666668
150.0   120.0   0.0
150.0   150.0   0.0
100.0   150.0   0.0
150.0   150.0   16.666666666666668
100.0   120.0   16.666666666666668
100.0   150.0   16.666666666666668
150.0   150.0   16.666666666666668
100.0   150.0   0.0
100.0   120.0   16.666666666666668
150.0   150.0   16.666666666666668
150.0   120.0   16.666666666666668
150.0   120.0   0.0
100.0   120.0   16.666666666666668
150.0   150.0   16.666666666666668
150.0   120.0   0.0
100.0   150.0   0.0
100.0   120.0   16.666666666666668
150.0   120.0   16.666666666666668
100.0   150.0   16.666666666666668
100.0   120.0   33.333333333333336
150.0   120.0   16.666666666666668
150.0   150.0   16.666666666666668
100.0   150.0   16.666666666666668
150.0   150.0   33.333333333333336
100.0   120.0   33.333333333333336
100.0   150.0   33.333333333333336
150.0   150.0   33.333333333333336
100.0   150.0   16.666666666666668
100.0   120.0   33.333333333333336
150.0   150.0   33.333333333333336
150.0   120.0   33.333333333333336
150.0   120.0   16.666666666666668
100.0   120.0   33.333333333333336
150.0   150.0   33.333333333333336
150.0   120.0   16.666666666666668
100.0   150.0   16.666666666666668
100.0   120.0   33.333333333333336
150.0   120.0   33.333333333333336
100.0   150.0   33.333333333333336
100.0   120.0   50.0
150.0   120.0   33.333333333333336
150.0   150.0   33.333333333333336
100.0   150.0   33.333333333333336
150.0   150.0   50.0
100.0   120.0   50.0
100.0   150.0   50.0
150.0   150.0   50.0
100.0   150.0   33.333333333333336
100.0   120.0   50.0
150.0   150.0   50.0
150.0   120.0   50.0
150.0   120.0   33.333333333333336
100.0   120.0   50.0
150.0   150.0   50.0
150.0   120.0   33.333333333333336
100.0   150.0   33.333333333333336
150.0   0.0   0.0
200.0   0.0   0.0
150.0   30.0   0.0
150.0   0.0   16.666666666666668
200.0   0.0   0.0
200.0   30.0   0.0
150.0   30.0   0.0
200.0   30.0   16.666666666666668
150.0   0.0   16.666666666666668
150.0   30.0   16.666666666666668
200.0   30.0   16.666666666666668
150.0   30.0   0.0
150.0   0.0   16.666666666666668
200.0   30.0   16.666666666666668
200.0   0.0   16.666666666666668
200.0   0.0   0.0
150.0   0.0   16.666666666666668
200.0   30.0   16.666666666666668
200.0   0.0   0.0
150.0   30.0   0.0
150.0   0.0   16.666666666666668
200.0   0.0   16.666666666666668
150.0   30.0   16.666666666666668
150.0   0.0   33.333333333333336
200.0   0.0   16.666666666666668
200.0   30.0   16.666666666666668
150.0   30.0   16.666666666666668
200.0   30.0   33.333333333333336
150.0   0.0   33.333333333333336
150.0   30.0   33.333333333333336
200.0   30.0   33.333333333333336
150.0   30.0   16.666666666666668
150.0   0.0   33.333333333333336
200.0   30.0   33.333333333333336
200.0   0.0   33.333333333333336
200.0   0.0   16.666666666666668
150.0   0.0   33.333333333333336
200.0   30.0   33.333333333333336
200.0   0.0   16.666666666666668
150.0   30.0   16.666666666666668
150.0   0.0   33.333333333333336
200.0   0.0   33.333333333333336
150.0   30.0   33.333333333333336
150.0   0.0   50.0
200.0   0.0   33.333333333333336
200.0   30.0   33.333333333333336
150.0   30.0   33.333333333333336
200.0   30.0   50.0
150.0   0.0   50.0
150.0   30.0   50.0
200.0   30.0   50.0
150.0   30.0   33.333333333333336
150.0   0.0   50.0
200.0   30.0   50.0
200.0   0.0   50.0
200.0   0.0   33.333333333333336
150.0   0.0   50.0
200.0   30.0   50.0
200.0   0.0   33.333333333333336
150.0   30.0   33.333333333333336
150.0   30.0   0.0
200.0   30.0   0.0
150.0   60.0   0.0
150.0   30.0   16.666666666666668
200.0   30.0   0.0
200.0   60.0   0.0
150.0   60.0   0.0
200.0   60.0   16.666666666666668
150.0   30.0   16.666666666666668
150.0   60.0   16.666666666666668
200.0   60.0   16.666666666666668
150.0   60.0   0.0
150.0   30.0   16.666666666666668
200.0   60.0   16.666666666666668
200.0   30.0   16.666666666666668
200.0   30.0   0.0
150.0   30.0   16.666666666666668
200.0   60.0   16.666666666666668
200.0   30.0   0.0
150.0   60.0   0.0
150.0   30.0   16.666666666666668
200.0   30.0   16.666666666666668
150.0   60.0   16.666666666666668
150.0   30.0   33.333333333333336
200.0   30.0   16.666666666666668
200.0   60.0   16.666666666666668
150.0   60.0   16.666666666666668
200.0   60.0   33.333333333333336
150.0   30.0   33.333333333333336
150.0   60.0   33.333333333333336
200.0   60.0   33.333333333333336
150.0   60.0   16.666666666666668
150.0   30.0   33.333333333333336
200.0   60.0   33.333333333333336
200.0   30.0   33.333333333333336
200.0   30.0   16.666666666666668
150.0   30.0   33.333333333333336
200.0   60.0   33.333333333333336
200.0   30.0   16.666666666666668
150.0   60.0   16.666666666666668
150.0   30.0   33.333333333333336
200.0   30.0   33.333333333333336
150.0   60.0   33.333333333333336
150.0   30.0   50.0
200.0   30.0   33.333333333333336
200.0   60.0   33.333333333333336
150.0   60.0   33.333333333333336
200.0   60.0   50.0
150.0   30.0   50.0
150.0   60.0   50.0
200.0   60.0   50.0
150.0   60.0   33.333333333333336
150.0   30.0   50.0
200.0   60.0   50.0
200.0   30.0   50.0
200.0   30.0   33.333333333333336
150.0   30.0   50.0
200.0   60.0   50.0
200.0   30.0   33.333333333333336
150.0   60.0   33.333333333333336
150.0   60.0   0.0
200.0   60.0   0.0
150.0   90.0   0.0
150.0   60.0   16.666666666666668
200.0   60.0   0.0
200.0   90.0   0.0
150.0   90.0   0.0
200.0   90.0   16.666666666666668
150.0   60.0   16.666666666666668
150.0   90.0   16.666666666666668
200.0   90.0   16.666666666666668
150.0   90.0   0.0
150.0   60.0   16.666666666666668
200.0   90.0   16.666666666666668
200.0   60.0   16.666666666666668
200.0   60.0   0.0
150.0   60.0   16.666666666666668
200.0   90.0   16.666666666666668
200.0   60.0   0.0
150.0   90.0   0.0
150.0   60.0   16.666666666666668
200.0   60.0   16.666666666666668
150.0   90.0   16.666666666666668
150.0   60.0   33.333333333333336
200.0   60.0   16.666666666666668
200.0   90.0   16.666666666666668
150.0   90.0   16.666666666666668
200.0   90.0   33.333333333333336
150.0   60.0   33.333333333333336
150.0   90.0   33.333333333333336
200.0   90.0   33.333333333333336
150.0   90.0   16.666666666666668
150.0   60.0   33.333333333333336
200.0   90.0   33.333333333333336
200.0   60.0   33.333333333333336
200.0   60.0   16.666666666666668
150.0   60.0   33.333333333333336
200.0   90.0   33.333333333333336
200.0   60.0   16.666666666666668
150.0   90.0   16.666666666666668
150.0   60.0   33.333333333333336
200.0   60.0   33.333333333333336
150.0   90.0   33.333333333333336
150.0   60.0   50.0
200.0   60.0   33.333333333333336
200.0   90.0   33.333333333333336
150.0   90.0   33.333333333333336
200.0   90.0   50.0
150.0   60.0   50.0
150.0   90.0   50.0
200.0   90.0   50.0
150.0   90.0   33.333333333333336
150.0   60.0   50.0
200.0   90.0   50.0
200.0   60.0   50.0
200.0   60.0   33.333333333333336
150.0   60.0   50.0
200.0   90.0   50.0
200.0   60.0   33.333333333333336
150.0   90.0   33.333333333333336
150.0   90.0   0.0
200.0   90.0   0.0
150.0   120.0   0.0
150.0   90.0   16.666666666666668
200.0   90.0   0.0
200.0   120.0   0.0
150.0   120.0   0.0
200.0   120.0   16.666666666666668
150.0   90.0   16.666666666666668
150.0   120.0   16.666666666666668
200.0   120.0   16.666666666666668
150.0   120.0   0.0
150.0   90.0   16.666666666666668
200.0   120.0   16.666666666666668
200.0   90.0   16.666666666666668
200.0   90.0   0.0
150.0   90.0   16.666666666666668
200.0   120.0   16.666666666666668
200.0   90.0   0.0
150.0   120.0   0.0
150.0   90.0   16.666666666666668
200.0   90.0   16.666666666666668
150.0   120.0   16.666666666666668
150.0   90.0   33.333333333333336
200.0   90.0   16.666666666666668
200.0   120.0   16.666666666666668
150.0   120.0   16.666666666666668
200.0   120.0   33.333333333333336
150.0   90.0   33.333333333333336
150.0   120.0   33.333333333333336
200.0   120.0   33.333333333333336
150.0   120.0   16.666666666666668
150.0   90.0   33.333333333333336
200.0   120.0   33.333333333333336
200.0   90.0   33.333333333333336
200.0   90.0   16.666666666666668
150.0   90.0   33.333333333333336
200.0   120.0   33.333333333333336
200.0   90.0   16.666666666666668
150.0   120.0   16.666666666666668
150.0   90.0   33.333333333333336
200.0   90.0   33.333333333333336
150.0   120.0   33.333333333333336
150.0   90.0   50.0
200.0   90.0   33.333333333333336
200.0   120.0   33.333333333333336
150.0   120.0   33.333333333333336
200.0   120.0   50.0
150.0   90.0   50.0
150.0   120.0   50.0
200.0   120.0   50.0
150.0   120.0   33.333333333333336
150.0   90.0   50.0
200.0   120.0   50.0
200.0   90.0   50.0
200.0   90.0   33.333333333333336
150.0   90.0   50.0
200.0   120.0   50.0
200.0   90.0   33.333333333333336
150.0   120.0   33.333333333333336
150.0   120.0   0.0
200.0   120.0   0.0
150.0   150.0   0.0
150.0   120.0   16.666666666666668
200.0   120.0   0.0
200.0   150.0   0.0
150.0   150.0   0.0
200.0   150.0   16.666666666666668
150.0   120.0   16.666666666666668
150.0   150.0   16.666666666666668
200.0   150.0   16.666666666666668
150.0   150.0   0.0
150.0   120.0   16.666666666666668
200.0   150.0   16.666666666666668
200.0   120.0   16.666666666666668
200.0   120.0   0.0
150.0   120.0   16.666666666666668
200.0   150.0   16.666666666666668
200.0   120.0   0.0
150.0   150.0   0.0
150.0   120.0   16.666666666666668
200.0   120.0   16.666666666666668
150.0   150.0   16.666666666666668
150.0   120.0   33.333333333333336
200.0   120.0   16.666666666666668
200.0   150.0   16.666666666666668
150.0   150.0   16.666666666666668
200.0   150.0   33.333333333333336
150.0   120.0   33.333333333333336
150.0   150.0   33.333333333333336
200.0   150.0   33.333333333333336
150.0   150.0   16.666666666666668
150.0   120.0   33.333333333333336
200.0   150.0   33.333333333333336
200.0   120.0   33.333333333333336
200.0   120.0   16.666666666666668
150.0   120.0   33.333333333333336
200.0   150.0   33.333333333333336
200.0   120.0   16.666666666666668
150.0   150.0   16.666666666666668
150.0   120.0   33.333333333333336
200.0   120.0   33.333333333333336
150.0   150.0   33.333333333333336
150.0   120.0   50.0
200.0   120.0   33.333333333333336
200.0   150.0   33.333333333333336
150.0   150.0   33.333333333333336
200.0   150.0   50.0
150.0   120.0   50.0
150.0   150.0   50.0
200.0   150.0   50.0
150.0   150.0   33.333333333333336
150.0   120.0   50.0
200.0   150.0   50.0
200.0   120.0   50.0
200.0   120.0   33.333333333333336
150.0   120.0   50.0
200.0   150.0   50.0
200.0   120.0   33.333333333333336
150.0   150.0   33.333333333333336
200.0   0.0   0.0
250.0   0.0   0.0
200.0   30.0   0.0
200.0   0.0   16.666666666666668
250.0   0.0   0.0
250.0   30.0   0.0
200.0   30.0   0.0
250.0   30.0   16.666666666666668
200.0   0.0   16.666666666666668
200.0   30.0   16.666666666666668
250.0   30.0   16.666666666666668
200.0   30.0   0.0
200.0   0.0   16.666666666666668
250.0   30.0   16.666666666666668
250.0   0.0   16.666666666666668
250.0   0.0   0.0
200.0   0.0   16.666666666666668
250.0   30.0   16.666666666666668
250.0   0.0   0.0
200.0   30.0   0.0
200.0   0.0   16.666666666666668
250.0   0.0   16.666666666666668
200.0   30.0   16.666666666666668
200.0   0.0   33.333333333333336
250.0   0.0   16.666666666666668
250.0   30.0   16.666666666666668
200.0   30.0   16.666666666666668
250.0   30.0   33.333333333333336
200.0   0.0   33.333333333333336
200.0   30.0   33.333333333333336
250.0   30.0   33.333333333333336
200.0   30.0   16.666666666666668
200.0   0.0   33.333333333333336
250.0   30.0   33.333333333333336
250.0   0.0   33.333333333333336
250.0   0.0   16.666666666666668
200.0   0.0   33.333333333333336
250.0   30.0   33.333333333333336
250.0   0.0   16.666666666666668
200.0   30.0   16.666666666666668
200.0   0.0   33.333333333333336
250.0   0.0   33.333333333333336
200.0   30.0   33.333333333333336
200.0   0.0   50.0
250.0   0.0   33.333333333333336
250.0   30.0   33.333333333333336
200.0   30.0   33.333333333333336
250.0   30.0   50.0
200.0   0.0   50.0
200.0   30.0   50.0
250.0   30.0   50.0
200.0   30.0   33.333333333333336
200.0   0.0   50.0
250.0   30.0   50.0
250.0   0.0   50.0
250.0   0.0   33.333333333333336
200.0   0.0   50.0
250.0   30.0   50.0
250.0   0.0   33.333333333333336
200.0   30.0   33.333333333333336
200.0   30.0   0.0
250.0   30.0   0.0
200.0   60.0   0.0
200.0   30.0   16.666666666666668
250.0   30.0   0.0
250.0   60.0   0.0
200.0   60.0   0.0
250.0   60.0   16.666666666666668
200.0   30.0   16.666666666666668
200.0   60.0   16.666666666666668
250.0   60.0   16.666666666666668
200.0   60.0   0.0
200.0   30.0   16.666666666666668
250.0   60.0   16.666666666666668
250.0   30.0   16.666666666666668
250.0   30.0   0.0
200.0   30.0   16.666666666666668
250.0   60.0   16.666666666666668
250.0   30.0   0.0
200.0   60.0   0.0
200.0   30.0   16.666666666666668
250.0   30.0   16.666666666666668
200.0   60.0   16.666666666666668
200.0   30.0   33.333333333333336
250.0   30.0   16.666666666666668
250.0   60.0   16.666666666666668
200.0   60.0   16.666666666666668
250.0   60.0   33.333333333333336
200.0   30.0   33.333333333333336
200.0   60.0   33.333333333333336
250.0   60.0   33.333333333333336
200.0   60.0   16.666666666666668
200.0   30.0   33.333333333333336
250.0   60.0   33.333333333333336
250.0   30.0   33.333333333333336
250.0   30.0   16.666666666666668
200.0   30.0   33.333333333333336
250.0   60.0   33.333333333333336
250.0   30.0   16.666666666666668
200.0   60.0   16.666666666666668
200.0   30.0   33.333333333333336
250.0   30.0   33.333333333333336
200.0   60.0   33.333333333333336
200.0   30.0   50.0
250.0   30.0   33.333333333333336
250.0   60.0   33.333333333333336
200.0   60.0   33.333333333333336
250.0   60.0   50.0
200.0   30.0   50.0
200.0   60.0   50.0
250.0   60.0   50.0
200.0   60.0   33.333333333333336
200.0   30.0   50.0
250.0   60.0   50.0
250.0   30.0   50.0
250.0   30.0   33.333333333333336
200.0   30.0   50.0
250.0   60.0   50.0
250.0   30.0   33.333333333333336
200.0   60.0   33.333333333333336
200.0   60.0   0.0
250.0   60.0   0.0
200.0   90.0   0.0
200.0   60.0   16.666666666666668
250.0   60.0   0.0
250.0   90.0   0.0
200.0   90.0   0.0
250.0   90.0   16.666666666666668
200.0   60.0   16.666666666666668
200.0   90.0   16.666666666666668
250.0   90.0   16.666666666666668
200.0   90.0   0.0
200.0   60.0   16.666666666666668
250.0   90.0   16.666666666666668
250.0   60.0   16.666666666666668
250.0   60.0   0.0
200.0   60.0   16.666666666666668
250.0   90.0   16.666666666666668
250.0   60.0   0.0
200.0   90.0   0.0
200.0   60.0   16.666666666666668
250.0   60.0   16.666666666666668
200.0   90.0   16.666666666666668
200.0   60.0   33.333333333333336
250.0   60.0   16.666666666666668
250.0   90.0   16.666666666666668
200.0   90.0   16.666666666666668
250.0   90.0   33.333333333333336
200.0   60.0   33.333333333333336
200.0   90.0   33.333333333333336
250.0   90.0   33.333333333333336
200.0   90.0   16.666666666666668
200.0   60.0   33.333333333333336
250.0   90.0   33.333333333333336
250.0   60.0   33.333333333333336
250.0   60.0   16.666666666666668
200.0   60.0   33.333333333333336
250.0   90.0   33.333333333333336
250.0   60.0   16.666666666666668
200.0   90.0   16.666666666666668
200.0   60.0   33.333333333333336
250.0   60.0   33.333333333333336
200.0   90.0   33.333333333333336
200.0   60.0   50.0
250.0   60.0   33.333333333333336
250.0   90.0   33.333333333333336
200.0   90.0   33.333333333333336
250.0   90.0   50.0
200.0   60.0   50.0
200.0   90.0   50.0
250.0   90.0   50.0
200.0   90.0   33.333333333333336
200.0   60.0   50.0
250.0   90.0   50.0
250.0   60.0   50.0
250.0   60.0   33.333333333333336
200.0   60.0   50.0
250.0   90.0   50.0
250.0   60.0   33.333333333333336
200.0   90.0   33.333333333333336
200.0   90.0   0.0
250.0   90.0   0.0
200.0   120.0   0.0
200.0   90.0   16.666666666666668
250.0   90.0   0.0
250.0   120.0   0.0
200.0   120.0   0.0
250.0   120.0   16.666666666666668
200.0   90.0   16.666666666666668
200.0   120.0   16.666666666666668
250.0   120.0   16.666666666666668
200.0   120.0   0.0
200.0   90.0   16.666666666666668
250.0   120.0   16.666666666666668
250.0   90.0   16.666666666666668
250.0   90.0   0.0
200.0   90.0   16.666666666666668
250.0   120.0   16.666666666666668
250.0   90.0   0.0
200.0   120.0   0.0
200.0   90.0   16.666666666666668
250.0   90.0   16.666666666666668
200.0   120.0   16.666666666666668
200.0   90.0   33.333333333333336
250.0   90.0   16.666666666666668
250.0   120.0   16.666666666666668
200.0   120.0   16.666666666666668
250.0   120.0   33.333333333333336
200.0   90.0   33.333333333333336
200.0   120.0   33.333333333333336
250.0   120.0   33.333333333333336
200.0   120.0   16.666666666666668
200.0   90.0   33.333333333333336
250.0   120.0   33.333333333333336
250.0   90.0   33.333333333333336
250.0   90.0   16.666666666666668
200.0   90.0   33.333333333333336
250.0   120.0   33.333333333333336
250.0   90.0   16.666666666666668
200.0   120.0   16.666666666666668
200.0   90.0   33.333333333333336
250.0   90.0   33.333333333333336
200.0   120.0   33.333333333333336
200.0   90.0   50.0
250.0   90.0   33.333333333333336
250.0   120.0   33.333333333333336
200.0   120.0   33.333333333333336
250.0   120.0   50.0
200.0   90.0   50.0
200.0   120.0   50.0
250.0   120.0   50.0
200.0   120.0   33.333333333333336
200.0   90.0   50.0
250.0   120.0   50.0
250.0   90.0   50.0
250.0   90.0   33.333333333333336
200.0   90.0   50.0
250.0   120.0   50.0
250.0   90.0   33.333333333333336
200.0   120.0   33.333333333333336
200.0   120.0   0.0
250.0   120.0   0.0
200.0   150.0   0.0
200.0   120.0   16.666666666666668
250.0   120.0   0.0
250.0   150.0   0.0
200.0   150.0   0.0
250.0   150.0   16.666666666666668
200.0   120.0   16.666666666666668
200.0   150.0   16.666666666666668
250.0   150.0   16.666666666666668
200.0   150.0   0.0
200.0   120.0   16.666666666666668
250.0   150.0   16.666666666666668
250.0   120.0   16.666666666666668
250.0   120.0   0.0
200.0   120.0   16.666666666666668
250.0   150.0   16.666666666666668
250.0   120.0   0.0
200.0   150.0   0.0
200.0   120.0   16.666666666666668
250.0   120.0   16.666666666666668
200.0   150.0   16.666666666666668
200.0   120.0   33.333333333333336
250.0   120.0   16.666666666666668
250.0   150.0   16.666666666666668
200.0   150.0   16.666666666666668
250.0   150.0   33.333333333333336
200.0   120.0   33.333333333333336
200.0   150.0   33.333333333333336
250.0   150.0   33.333333333333336
200.0   150.0   16.666666666666668
200.0   120.0   33.333333333333336
250.0   150.0   33.333333333333336
250.0   120.0   33.333333333333336
250.0   120.0   16.666666666666668
200.0   120.0   33.333333333333336
250.0   150.0   33.333333333333336
250.0   120.0   16.666666666666668
200.0   150.0   16.666666666666668
200.0   120.0   33.333333333333336
250.0   120.0   33.333333333333336
200.0   150.0   33.333333333333336
200.0   120.0   50.0
250.0   120.0   33.333333333333336
250.0   150.0   33.333333333333336
200.0   150.0   33.333333333333336
250.0   150.0   50.0
200.0   120.0   50.0
200.0   150.0   50.0
250.0   150.0   50.0
200.0   150.0   33.333333333333336
200.0   120.0   50.0
250.0   150.0   50.0
250.0   120.0   50.0
250.0   120.0   33.333333333333336
200.0   120.0   50.0
250.0   150.0   50.0
250.0   120.0   33.333333333333336
200.0   150.0   33.333333333333336
250.0   0.0   0.0
300.0   0.0   0.0
250.0   30.0   0.0
250.0   0.0   16.666666666666668
300.0   0.0   0.0
300.0   30.0   0.0
250.0   30.0   0.0
300.0   30.0   16.666666666666668
250.0   0.0   16.666666666666668
250.0   30.0   16.666666666666668
300.0   30.0   16.666666666666668
250.0   30.0   0.0
250.0   0.0   16.666666666666668
300.0   30.0   16.666666666666668
300.0   0.0   16.666666666666668
300.0   0.0   0.0
250.0   0.0   16.666666666666668
300.0   30.0   16.666666666666668
300.0   0.0   0.0
250.0   30.0   0.0
250.0   0.0   16.666666666666668
300.0   0.0   16.666666666666668
250.0   30.0   16.666666666666668
250.0   0.0   33.333333333333336
300.0   0.0   16.666666666666668
300.0   30.0   16.666666666666668
250.0   30.0   16.666666666666668
300.0   30.0   33.333333333333336
250.0   0.0   33.333333333333336
250.0   30.0   33.333333333333336
300.0   30.0   33.333333333333336
250.0   30.0   16.666666666666668
250.0   0.0   33.333333333333336
300.0   30.0   33.333333333333336
300.0   0.0   33.333333333333336
300.0   0.0   16.666666666666668
250.0   0.0   33.333333333333336
300.0   30.0   33.333333333333336
300.0   0.0   16.666666666666668
250.0   30.0   16.666666666666668
250.0   0.0   33.333333333333336
300.0   0.0   33.333333333333336
250.0   30.0   33.333333333333336
250.0   0.0   50.0
300.0   0.0   33.333333333333336
300.0   30.0   33.333333333333336
250.0   30.0   33.333333333333336
300.0   30.0   50.0
250.0   0.0   50.0
250.0   30.0   50.0
300.0   30.0   50.0
250.0   30.0   33.333333333333336
250.0   0.0   50.0
300.0   30.0   50.0
300.0   0.0   50.0
300.0   0.0   33.333333333333336
250.0   0.0   50.0
300.0   30.0   50.0
300.0   0.0   33.333333333333336
250.0   30.0   33.333333333333336
250.0   30.0   0.0
300.0   30.0   0.0
250.0   60.0   0.0
250.0   30.0   16.666666666666668
300.0   30.0   0.0
300.0   60.0   0.0
250.0   60.0   0.0
300.0   60.0   16.666666666666668
250.0   30.0   16.666666666666668
250.0   60.0   16.666666666666668
300.0   60.0   16.666666666666668
250.0   60.0   0.0
250.0   30.0   16.666666666666668
300.0   60.0   16.666666666666668
300.0   30.0   16.666666666666668
300.0   30.0   0.0
250.0   30.0   16.666666666666668
300.0   60.0   16.666666666666668
300.0   30.0   0.0
250.0   60.0   0.0
250.0   30.0   16.666666666666668
300.0   30.0   16.666666666666668
250.0   60.0   16.666666666666668
250.0   30.0   33.333333333333336
300.0   30.0   16.666666666666668
300.0   60.0   16.666666666666668
250.0   60.0   16.666666666666668
300.0   60.0   33.333333333333336
250.0   30.0   33.333333333333336
250.0   60.0   33.333333333333336
300.0   60.0   33.333333333333336
250.0   60.0   16.666666666666668
250.0   30.0   33.333333333333336
300.0   60.0   33.333333333333336
300.0   30.0   33.333333333333336
300.0   30.0   16.666666666666668
250.0   30.0   33.333333333333336
300.0   60.0   33.333333333333336
300.0   30.0   16.666666666666668
250.0   60.0   16.666666666666668
250.0   30.0   33.333333333333336
300.0   30.0   33.333333333333336
250.0   60.0   33.333333333333336
250.0   30.0   50.0
300.0   30.0   33.333333333333336
300.0   60.0   33.333333333333336
250.0   60.0   33.333333333333336
300.0   60.0   50.0
250.0   30.0   50.0
250.0   60.0   50.0
300.0   60.0   50.0
250.0   60.0   33.333333333333336
250.0   30.0   50.0
300.0   60.0   50.0
300.0   30.0   50.0
300.0   30.0   33.333333333333336
250.0   30.0   50.0
300.0   60.0   50.0
300.0   30.0   33.333333333333336
250.0   60.0   33.333333333333336
250.0   60.0   0.0
300.0   60.0   0.0
250.0   90.0   0.0
250.0   60.0   16.666666666666668
300.0   60.0   0.0
300.0   90.0   0.0
250.0   90.0   0.0
300.0   90.0   16.666666666666668
250.0   60.0   16.666666666666668
250.0   90.0   16.666666666666668
300.0   90.0   16.666666666666668
250.0   90.0   0.0
250.0   60.0   16.666666666666668
300.0   90.0   16.666666666666668
300.0   60.0   16.666666666666668
300.0   60.0   0.0
250.0   60.0   16.666666666666668
300.0   90.0   16.666666666666668
300.0   60.0   0.0
250.0   90.0   0.0
250.0   60.0   16.666666666666668
300.0   60.0   16.666666666666668
250.0   90.0   16.666666666666668
250.0   60.0   33.333333333333336
300.0   60.0   16.666666666666668
300.0   90.0   16.666666666666668
250.0   90.0   16.666666666666668
300.0   90.0   33.333333333333336
250.0   60.0   33.333333333333336
250.0   90.0   33.333333333333336
300.0   90.0   33.333333333333336
250.0   90.0   16.666666666666668
250.0   60.0   33.333333333333336
300.0   90.0   33.333333333333336
300.0   60.0   33.333333333333336
300.0   60.0   16.666666666666668
250.0   60.0   33.333333333333336
300.0   90.0   33.333333333333336
300.0   60.0   16.666666666666668
250.0   90.0   16.666666666666668
250.0   60.0   33.333333333333336
300.0   60.0   33.333333333333336
250.0   90.0   33.333333333333336
250.0   60.0   50.0
300.0   60.0   33.333333333333336
300.0   90.0   33.333333333333336
250.0   90.0   33.333333333333336
300.0   90.0   50.0
250.0   60.0   50.0
250.0   90.0   50.0
300.0   90.0   50.0
250.0   90.0   33.333333333333336
250.0   60.0   50.0
300.0   90.0   50.0
300.0   60.0   50.0
300.0   60.0   33.333333333333336
250.0   60.0   50.0
300.0   90.0   50.0
300.0   60.0   33.333333333333336
250.0   90.0   33.333333333333336
250.0   90.0   0.0
300.0   90.0   0.0
250.0   120.0   0.0
250.0   90.0   16.666666666666668
300.0   90.0   0.0
300.0   120.0   0.0
250.0   120.0   0.0
300.0   120.0   16.666666666666668
250.0   90.0   16.666666666666668
250.0   120.0   16.666666666666668
300.0   120.0   16.666666666666668
250.0   120.0   0.0
250.0   90.0   16.666666666666668
300.0   120.0   16.666666666666668
300.0   90.0   16.666666666666668
300.0   90.0   0.0
250.0   90.0   16.666666666666668
300.0   120.0   16.666666666666668
300.0   90.0   0.0
250.0   120.0   0.0
250.0   90.0   16.666666666666668
300.0   90.0   16.666666666666668
250.0   120.0   16.666666666666668
250.0   90.0   33.333333333333336
300.0   90.0   16.666666666666668
300.0   120.0   16.666666666666668
250.0   120.0   16.666666666666668
300.0   120.0   33.333333333333336
250.0   90.0   33.333333333333336
250.0   120.0   33.333333333333336
300.0   120.0   33.333333333333336
250.0   120.0   16.666666666666668
250.0   90.0   33.333333333333336
300.0   120.0   33.333333333333336
300.0   90.0   33.333333333333336
300.0   90.0   16.666666666666668
250.0   90.0   33.333333333333336
300.0   120.0   33.333333333333336
300.0   90.0   16.666666666666668
250.0   120.0   16.666666666666668
250.0   90.0   33.333333333333336
300.0   90.0   33.333333333333336
250.0   120.0   33.333333333333336
250.0   90.0   50.0
300.0   90.0   33.333333333333336
300.0   120.0   33.333333333333336
250.0   120.0   33.333333333333336
300.0   120.0   50.0
250.0   90.0   50.0
250.0   120.0   50.0
300.0   120.0   50.0
250.0   120.0   33.333333333333336
250.0   90.0   50.0
300.0   120.0   50.0
300.0   90.0   50.0
300.0   90.0   33.333333333333336
250.0   90.0   50.0
300.0   120.0   50.0
300.0   90.0   33.333333333333336
250.0   120.0   33.333333333333336
250.0   120.0   0.0
300.0   120.0   0.0
250.0   150.0   0.0
250.0   120.0   16.666666666666668
300.0   120.0   0.0
300.0   150.0   0.0
250.0   150.0   0.0
300.0   150.0   16.666666666666668
250.0   120.0   16.666666666666668
250.0   150.0   16.666666666666668
300.0   150.0   16.666666666666668
250.0   150.0   0.0
250.0   120.0   16.666666666666668
300.0   150.0   16.666666666666668
300.0   120.0   16.666666666666668
300.0   120.0   0.0
250.0   120.0   16.666666666666668
300.0   150.0   16.666666666666668
300.0   120.0   0.0
250.0   150.0   0.0
250.0   120.0   16.666666666666668
300.0   120.0   16.666666666666668
250.0   150.0   16.666666666666668
250.0   120.0   33.333333333333336
300.0   120.0   16.666666666666668
300.0   150.0   16.666666666666668
250.0   150.0   16.666666666666668
300.0   150.0   33.333333333333336
250.0   120.0   33.333333333333336
250.0   150.0   33.333333333333336
300.0   150.0   33.333333333333336
250.0   150.0   16.666666666666668
250.0   120.0   33.333333333333336
300.0   150.0   33.333333333333336
300.0   120.0   33.333333333333336
300.0   120.0   16.666666666666668
250.0   120.0   33.333333333333336
300.0   150.0   33.333333333333336
300.0   120.0   16.666666666666668
250.0   150.0   16.666666666666668
250.0   120.0   33.333333333333336
300.0   120.0   33.333333333333336
250.0   150.0   33.333333333333336
250.0   120.0   50.0
300.0   120.0   33.333333333333336
300.0   150.0   33.333333333333336
250.0   150.0   33.333333333333336
300.0   150.0   50.0
250.0   120.0   50.0
250.0   150.0   50.0
300.0   150.0   50.0
250.0   150.0   33.333333333333336
250.0   120.0   50.0
300.0   150.0   50.0
300.0   120.0   50.0
300.0   120.0   33.333333333333336
250.0   120.0   50.0
300.0   150.0   50.0
300.0   120.0   33.333333333333336
250.0   150.0   33.333333333333336
300.0   0.0   0.0
350.0   0.0   0.0
300.0   30.0   0.0
300.0   0.0   16.666666666666668
350.0   0.0   0.0
350.0   30.0   0.0
300.0   30.0   0.0
350.0   30.0   16.666666666666668
300.0   0.0   16.666666666666668
300.0   30.0   16.666666666666668
350.0   30.0   16.666666666666668
300.0   30.0   0.0
300.0   0.0   16.666666666666668
350.0   30.0   16.666666666666668
350.0   0.0   16.666666666666668
350.0   0.0   0.0
300.0   0.0   16.666666666666668
350.0   30.0   16.666666666666668
350.0   0.0   0.0
300.0   30.0   0.0
300.0   0.0   16.666666666666668
350.0   0.0   16.666666666666668
300.0   30.0   16.666666666666668
300.0   0.0   33.333333333333336
350.0   0.0   16.666666666666668
350.0   30.0   16.666666666666668
300.0   30.0   16.666666666666668
350.0   30.0   33.333333333333336
300.0   0.0   33.333333333333336
300.0   30.0   33.333333333333336
350.0   30.0   33.333333333333336
300.0   30.0   16.666666666666668
300.0   0.0   33.333333333333336
350.0   30.0   33.333333333333336
350.0   0.0   33.333333333333336
350.0   0.0   16.666666666666668
300.0   0.0   33.333333333333336
350.0   30.0   33.333333333333336
350.0   0.0   16.666666666666668
300.0   30.0   16.666666666666668
300.0   0.0   33.333333333333336
350.0   0.0   33.333333333333336
300.0   30.0   33.333333333333336
300.0   0.0   50.0
350.0   0.0   33.333333333333336
350.0   30.0   33.333333333333336
300.0   30.0   33.333333333333336
350.0   30.0   50.0
300.0   0.0   50.0
300.0   30.0   50.0
350.0   30.0   50.0
300.0   30.0   33.333333333333336
300.0   0.0   50.0
350.0   30.0   50.0
350.0   0.0   50.0
350.0   0.0   33.333333333333336
300.0   0.0   50.0
350.0   30.0   50.0
350.0   0.0   33.333333333333336
300.0   30.0   33.333333333333336
300.0   30.0   0.0
350.0   30.0   0.0
300.0   60.0   0.0
300.0   30.0   16.666666666666668
350.0   30.0   0.0
350.0   60.0   0.0
300.0   60.0   0.0
350.0   60.0   16.666666666666668
300.0   30.0   16.666666666666668
300.0   60.0   16.666666666666668
350.0   60.0   16.666666666666668
300.0   60.0   0.0
300.0   30.0   16.666666666666668
350.0   60.0   16.666666666666668
350.0   30.0   16.666666666666668
350.0   30.0   0.0
300.0   30.0   16.666666666666668
350.0   60.0   16.666666666666668
350.0   30.0   0.0
300.0   60.0   0.0
300.0   30.0   16.666666666666668
350.0   30.0   16.666666666666668
300.0   60.0   16.666666666666668
300.0   30.0   33.333333333333336
350.0   30.0   16.666666666666668
350.0   60.0   16.666666666666668
300.0   60.0   16.666666666666668
350.0   60.0   33.333333333333336
300.0   30.0   33.333333333333336
300.0   60.0   33.333333333333336
350.0   60.0   33.333333333333336
300.0   60.0   16.666666666666668
300.0   30.0   33.333333333333336
350.0   60.0   33.333333333333336
350.0   30.0   33.333333333333336
350.0   30.0   16.666666666666668
300.0   30.0   33.333333333333336
350.0   60.0   33.333333333333336
350.0   30.0   16.666666666666668
300.0   60.0   16.666666666666668
300.0   30.0   33.333333333333336
350.0   30.0   33.333333333333336
300.0   60.0   33.333333333333336
300.0   30.0   50.0
350.0   30.0   33.333333333333336
350.0   60.0   33.333333333333336
300.0   60.0   33.333333333333336
350.0   60.0   50.0
300.0   30.0   50.0
300.0   60.0   50.0
350.0   60.0   50.0
300.0   60.0   33.333333333333336
300.0   30.0   50.0
350.0   60.0   50.0
350.0   30.0   50.0
350.0   30.0   33.333333333333336
300.0   30.0   50.0
350.0   60.0   50.0
350.0   30.0   33.333333333333336
300.0   60.0   33.333333333333336
300.0   60.0   0.0
350.0   60.0   0.0
300.0   90.0   0.0
300.0   60.0   16.666666666666668
350.0   60.0   0.0
350.0   90.0   0.0
300.0   90.0   0.0
350.0   90.0   16.666666666666668
300.0   60.0   16.666666666666668
300.0   90.0   16.666666666666668
350.0   90.0   16.666666666666668
300.0   90.0   0.0
300.0   60.0   16.666666666666668
350.0   90.0   16.666666666666668
350.0   60.0   16.666666666666668
350.0   60.0   0.0
300.0   60.0   16.666666666666668
350.0   90.0   16.666666666666668
350.0   60.0   0.0
300.0   90.0   0.0
300.0   60.0   16.666666666666668
350.0   60.0   16.666666666666668
300.0   90.0   16.666666666666668
300.0   60.0   33.333333333333336
350.0   60.0   16.666666666666668
350.0   90.0   16.666666666666668
300.0   90.0   16.666666666666668
350.0   90.0   33.333333333333336
300.0   60.0   33.333333333333336
300.0   90.0   33.333333333333336
350.0   90.0   33.333333333333336
300.0   90.0   16.666666666666668
300.0   60.0   33.333333333333336
350.0   90.0   33.333333333333336
350.0   60.0   33.333333333333336
350.0   60.0   16.666666666666668
300.0   60.0   33.333333333333336
350.0   90.0   33.333333333333336
350.0   60.0   16.666666666666668
300.0   90.0   16.666666666666668
300.0   60.0   33.333333333333336
350.0   60.0   33.333333333333336
300.0   90.0   33.333333333333336
300.0   60.0   50.0
350.0   60.0   33.333333333333336
350.0   90.0   33.333333333333336
300.0   90.0   33.333333333333336
350.0   90.0   50.0
300.0   60.0   50.0
300.0   90.0   50.0
350.0   90.0   50.0
300.0   90.0   33.333333333333336
300.0   60.0   50.0
350.0   90.0   50.0
350.0   60.0   50.0
350.0   60.0   33.333333333333336
300.0   60.0   50.0
350.0   90.0   50.0
350.0   60.0   33.333333333333336
300.0   90.0   33.333333333333336
300.0   90.0   0.0
350.0   90.0   0.0
300.0   120.0   0.0
300.0   90.0   16.666666666666668
350.0   90.0   0.0
350.0   120.0   0.0
300.0   120.0   0.0
350.0   120.0   16.666666666666668
300.0   90.0   16.666666666666668
300.0   120.0   16.666666666666668
350.0   120.0   16.666666666666668
300.0   120.0   0.0
300.0   90.0   16.666666666666668
350.0   120.0   16.666666666666668
350.0   90.0   16.666666666666668
350.0   90.0   0.0
300.0   90.0   16.666666666666668
350.0   120.0   16.666666666666668
350.0   90.0   0.0
300.0   120.0   0.0
300.0   90.0   16.666666666666668
350.0   90.0   16.666666666666668
300.0   120.0   16.666666666666668
300.0   90.0   33.333333333333336
350.0   90.0   16.666666666666668
350.0   120.0   16.666666666666668
300.0   120.0   16.666666666666668
350.0   120.0   33.333333333333336
300.0   90.0   33.333333333333336
300.0   120.0   33.333333333333336
350.0   120.0   33.333333333333336
300.0   120.0   16.666666666666668
300.0   90.0   33.333333333333336
350.0   120.0   33.333333333333336
350.0   90.0   33.333333333333336
350.0   90.0   16.666666666666668
300.0   90.0   33.333333333333336
350.0   120.0   33.333333333333336
350.0   90.0   16.666666666666668
300.0   120.0   16.666666666666668
300.0   90.0   33.333333333333336
350.0   90.0   33.333333333333336
300.0   120.0   33.333333333333336
300.0   90.0   50.0
350.0   90.0   33.333333333333336
350.0   120.0   33.333333333333336
300.0   120.0   33.333333333333336
350.0   120.0   50.0
300.0   90.0   50.0
300.0   120.0   50.0
350.0   120.0   50.0
300.0   120.0   33.333333333333336
300.0   90.0   50.0
350.0   120.0   50.0
350.0   90.0   50.0
350.0   90.0   33.333333333333336
300.0   90.0   50.0
350.0   120.0   50.0
350.0   90.0   33.333333333333336
300.0   120.0   33.333333333333336
300.0   120.0   0.0
350.0   120.0   0.0
300.0   150.0   0.0
300.0   120.0   16.666666666666668
350.0   120.0   0.0
350.0   150.0   0.0
300.0   150.0   0.0
350.0   150.0   16.666666666666668
300.0   120.0   16.666666666666668
300.0   150.0   16.666666666666668
350.0   150.0   16.666666666666668
300.0   150.0   0.0
300.0   120.0   16.666666666666668
350.0   150.0   16.666666666666668
350.0   120.0   16.666666666666668
350.0   120.0   0.0
300.0   120.0   16.666666666666668
350.0   150.0   16.666666666666668
350.0   120.0   0.0
300.0   150.0   0.0
300.0   120.0   16.666666666666668
350.0   120.0   16.666666666666668
300.0   150.0   16.666666666666668
300.0   120.0   33.333333333333336
350.0   120.0   16.666666666666668
350.0   150.0   16.666666666666668
300.0   150.0   16.666666666666668
350.0   150.0   33.333333333333336
300.0   120.0   33.333333333333336
300.0   150.0   33.333333333333336
350.0   150.0   33.333333333333336
300.0   150.0   16.666666666666668
300.0   120.0   33.333333333333336
350.0   150.0   33.333333333333336
350.0   120.0   33.333333333333336
350.0   120.0   16.666666666666668
300.0   120.0   33.333333333333336
350.0   150.0   33.333333333333336
350.0   120.0   16.666666666666668
300.0   150.0   16.666666666666668
300.0   120.0   33.333333333333336
350.0   120.0   33.333333333333336
300.0   150.0   33.333333333333336
300.0   120.0   50.0
350.0   120.0   33.333333333333336
350.0   150.0   33.333333333333336
300.0   150.0   33.333333333333336
350.0   150.0   50.0
300.0   120.0   50.0
300.0   150.0   50.0
350.0   150.0   50.0
300.0   150.0   33.333333333333336
300.0   120.0   50.0
350.0   150.0   50.0
350.0   120.0   50.0
350.0   120.0   33.333333333333336
300.0   120.0   50.0
350.0   150.0   50.0
350.0   120.0   33.333333333333336
300.0   150.0   33.333333333333336
350.0   0.0   0.0
400.0   0.0   0.0
350.0   30.0   0.0
350.0   0.0   16.666666666666668
400.0   0.0   0.0
400.0   30.0   0.0
350.0   30.0   0.0
400.0   30.0   16.666666666666668
350.0   0.0   16.666666666666668
350.0   30.0   16.666666666666668
400.0   30.0   16.666666666666668
350.0   30.0   0.0
350.0   0.0   16.666666666666668
400.0   30.0   16.666666666666668
400.0   0.0   16.666666666666668
400.0   0.0   0.0
350.0   0.0   16.666666666666668
400.0   30.0   16.666666666666668
400.0   0.0   0.0
350.0   30.0   0.0
350.0   0.0   16.666666666666668
400.0   0.0   16.666666666666668
350.0   30.0   16.666666666666668
350.0   0.0   33.333333333333336
400.0   0.0   16.666666666666668
400.0   30.0   16.666666666666668
350.0   30.0   16.666666666666668
400.0   30.0   33.333333333333336
350.0   0.0   33.333333333333336
350.0   30.0   33.333333333333336
400.0   30.0   33.333333333333336
350.0   30.0   16.666666666666668
350.0   0.0   33.333333333333336
400.0   30.0   33.333333333333336
400.0   0.0   33.333333333333336
400.0   0.0   16.666666666666668
350.0   0.0   33.333333333333336
400.0   30.0   33.333333333333336
400.0   0.0   16.666666666666668
350.0   30.0   16.666666666666668
350.0   0.0   33.333333333333336
400.0   0.0   33.333333333333336
350.0   30.0   33.333333333333336
350.0   0.0   50.0
400.0   0.0   33.333333333333336
400.0   30.0   33.333333333333336
350.0   30.0   33.333333333333336
400.0   30.0   50.0
350.0   0.0   50.0
350.0   30.0   50.0
400.0   30.0   50.0
350.0   30.0   33.333333333333336
350.0   0.0   50.0
400.0   30.0   50.0
400.0   0.0   50.0
400.0   0.0   33.333333333333336
350.0   0.0   50.0
400.0   30.0   50.0
400.0   0.0   33.333333333333336
350.0   30.0   33.333333333333336
350.0   30.0   0.0
400.0   30.0   0.0
350.0   60.0   0.0
350.0   30.0   16.666666666666668
400.0   30.0   0.0
400.0   60.0   0.0
350.0   60.0   0.0
400.0   60.0   16.666666666666668
350.0   30.0   16.666666666666668
350.0   60.0   16.666666666666668
400.0   60.0   16.666666666666668
350.0   60.0   0.0
350.0   30.0   16.666666666666668
400.0   60.0   16.666666666666668
400.0   30.0   16.666666666666668
400.0   30.0   0.0
350.0   30.0   16.666666666666668
400.0   60.0   16.666666666666668
400.0   30.0   0.0
350.0   60.0   0.0
350.0   30.0   16.666666666666668
400.0   30.0   16.666666666666668
350.0   60.0   16.666666666666668
350.0   30.0   33.333333333333336
400.0   30.0   16.666666666666668
400.0   60.0   16.666666666666668
350.0   60.0   16.666666666666668
400.0   60.0   33.333333333333336
350.0   30.0   33.333333333333336
350.0   60.0   33.333333333333336
400.0   60.0   33.333333333333336
350.0   60.0   16.666666666666668
350.0   30.0   33.333333333333336
400.0   60.0   33.333333333333336
400.0   30.0   33.333333333333336
400.0   30.0   16.666666666666668
350.0   30.0   33.333333333333336
400.0   60.0   33.333333333333336
400.0   30.0   16.666666666666668
350.0   60.0   16.666666666666668
350.0   30.0   33.333333333333336
400.0   30.0   33.333333333333336
350.0   60.0   33.333333333333336
350.0   30.0   50.0
400.0   30.0   33.333333333333336
400.0   60.0   33.333333333333336
350.0   60.0   33.333333333333336
400.0   60.0   50.0
350.0   30.0   50.0
350.0   60.0   50.0
400.0   60.0   50.0
350.0   60.0   33.333333333333336
350.0   30.0   50.0
400.0   60.0   50.0
400.0   30.0   50.0
400.0   30.0   33.333333333333336
350.0   30.0   50.0
400.0   60.0   50.0
400.0   30.0   33.333333333333336
350.0   60.0   33.333333333333336
350.0   60.0   0.0
400.0   60.0   0.0
350.0   90.0   0.0
350.0   60.0   16.666666666666668
400.0   60.0   0.0
400.0   90.0   0.0
350.0   90.0   0.0
400.0   90.0   16.666666666666668
350.0   60.0   16.666666666666668
350.0   90.0   16.666666666666668
400.0   90.0   16.666666666666668
350.0   90.0   0.0
350.0   60.0   16.666666666666668
400.0   90.0   16.666666666666668
400.0   60.0   16.666666666666668
400.0   60.0   0.0
350.0   60.0   16.666666666666668
400.0   90.0   16.666666666666668
400.0   60.0   0.0
350.0   90.0   0.0
350.0   60.0   16.666666666666668
400.0   60.0   16.666666666666668
350.0   90.0   16.666666666666668
350.0   60.0   33.333333333333336
400.0   60.0   16.666666666666668
400.0   90.0   16.666666666666668
350.0   90.0   16.666666666666668
400.0   90.0   33.333333333333336
350.0   60.0   33.333333333333336
350.0   90.0   33.333333333333336
400.0   90.0   33.333333333333336
350.0   90.0   16.666666666666668
350.0   60.0   33.333333333333336
400.0   90.0   33.333333333333336
400.0   60.0   33.333333333333336
400.0   60.0   16.666666666666668
350.0   60.0   33.333333333333336
400.0   90.0   33.333333333333336
400.0   60.0   16.666666666666668
350.0   90.0   16.666666666666668
350.0   60.0   33.333333333333336
400.0   60.0   33.333333333333336
350.0   90.0   33.333333333333336
350.0   60.0   50.0
400.0   60.0   33.333333333333336
400.0   90.0   33.333333333333336
350.0   90.0   33.333333333333336
400.0   90.0   50.0
350.0   60.0   50.0
350.0   90.0   50.0
400.0   90.0   50.0
350.0   90.0   33.333333333333336
350.0   60.0   50.0
400.0   90.0   50.0
400.0   60.0   50.0
400.0   60.0   33.333333333333336
350.0   60.0   50.0
400.0   90.0   50.0
400.0   60.0   33.333333333333336
350.0   90.0   33.333333333333336
350.0   90.0   0.0
400.0   90.0   0.0
350.0   120.0   0.0
350.0   90.0   16.666666666666668
400.0   90.0   0.0
400.0   120.0   0.0
350.0   120.0   0.0
400.0   120.0   16.666666666666668
350.0   90.0   16.666666666666668
350.0   120.0   16.666666666666668
400.0   120.0   16.666666666666668
350.0   120.0   0.0
350.0   90.0   16.666666666666668
400.0   120.0   16.666666666666668
400.0   90.0   16.666666666666668
400.0   90.0   0.0
350.0   90.0   16.666666666666668
400.0   120.0   16.666666666666668
400.0   90.0   0.0
350.0   120.0   0.0
350.0   90.0   16.666666666666668
400.0   90.0   16.666666666666668
350.0   120.0   16.666666666666668
350.0   90.0   33.333333333333336
400.0   90.0   16.666666666666668
400.0   120.0   16.666666666666668
350.0   120.0   16.666666666666668
400.0   120.0   33.333333333333336
350.0   90.0   33.333333333333336
350.0   120.0   33.333333333333336
400.0   120.0   33.333333333333336
350.0   120.0   16.666666666666668
350.0   90.0   33.333333333333336
400.0   120.0   33.333333333333336
400.0   90.0   33.333333333333336
400.0   90.0   16.666666666666668
350.0   90.0   33.333333333333336
400.0   120.0   33.333333333333336
400.0   90.0   16.666666666666668
350.0   120.0   16.666666666666668
350.0   90.0   33.333333333333336
400.0   90.0   33.333333333333336
350.0   120.0   33.333333333333336
350.0   90.0   50.0
400.0   90.0   33.333333333333336
400.0   120.0   33.333333333333336
350.0   120.0   33.333333333333336
400.0   120.0   50.0
350.0   90.0   50.0
350.0   120.0   50.0
400.0   120.0   50.0
350.0   120.0   33.333333333333336
350.0   90.0   50.0
400.0   120.0   50.0
400.0   90.0   50.0
400.0   90.0   33.333333333333336
350.0   90.0   50.0
400.0   120.0   50.0
400.0   90.0   33.333333333333336
350.0   120.0   33.333333333333336
350.0   120.0   0.0
400.0   120.0   0.0
350.0   150.0   0.0
350.0   120.0   16.666666666666668
400.0   120.0   0.0
400.0   150.0   0.0
350.0   150.0   0.0
400.0   150.0   16.666666666666668
350.0   120.0   16.666666666666668
350.0   150.0   16.666666666666668
400.0   150.0   16.666666666666668
350.0   150.0   0.0
350.0   120.0   16.666666666666668
400.0   150.0   16.666666666666668
400.0   120.0   16.666666666666668
400.0   120.0   0.0
350.0   120.0   16.666666666666668
400.0   150.0   16.666666666666668
400.0   120.0   0.0
350.0   150.0   0.0
350.0   120.0   16.666666666666668
400.0   120.0   16.666666666666668
350.0   150.0   16.666666666666668
350.0   120.0   33.333333333333336
400.0   120.0   16.666666666666668
400.0   150.0   16.666666666666668
350.0   150.0   16.666666666666668
400.0   150.0   33.333333333333336
350.0   120.0   33.333333333333336
350.0   150.0   33.333333333333336
400.0   150.0   33.333333333333336
350.0   150.0   16.666666666666668
350.0   120.0   33.333333333333336
400.0   150.0   33.333333333333336
400.0   120.0   33.333333333333336
400.0   120.0   16.666666666666668
350.0   120.0   33.333333333333336
400.0   150.0   33.333333333333336
400.0   120.0   16.666666666666668
350.0   150.0   16.666666666666668
350.0   120.0   33.333333333333336
400.0   120.0   33.333333333333336
350.0   150.0   33.333333333333336
350.0   120.0   50.0
400.0   120.0   33.333333333333336
400.0   150.0   33.333333333333336
350.0   150.0   33.333333333333336
400.0   150.0   50.0
350.0   120.0   50.0
350.0   150.0   50.0
400.0   150.0   50.0
350.0   150.0   33.333333333333336
350.0   120.0   50.0
400.0   150.0   50.0
400.0   120.0   50.0
400.0   120.0   33.333333333333336
350.0   120.0   50.0
400.0   150.0   50.0
400.0   120.0   33.333333333333336
350.0   150.0   33.333333333333336
400.0   0.0   0.0
450.0   0.0   0.0
400.0   30.0   0.0
400.0   0.0   16.666666666666668
450.0   0.0   0.0
450.0   30.0   0.0
400.0   30.0   0.0
450.0   30.0   16.666666666666668
400.0   0.0   16.666666666666668
400.0   30.0   16.666666666666668
450.0   30.0   16.666666666666668
400.0   30.0   0.0
400.0   0.0   16.666666666666668
450.0   30.0   16.666666666666668
450.0   0.0   16.666666666666668
450.0   0.0   0.0
400.0   0.0   16.666666666666668
450.0   30.0   16.666666666666668
450.0   0.0   0.0
400.0   30.0   0.0
400.0   0.0   16.666666666666668
450.0   0.0   16.666666666666668
400.0   30.0   16.666666666666668
400.0   0.0   33.333333333333336
450.0   0.0   16.666666666666668
450.0   30.0   16.666666666666668
400.0   30.0   16.666666666666668
450.0   30.0   33.333333333333336
400.0   0.0   33.333333333333336
400.0   30.0   33.333333333333336
450.0   30.0   33.333333333333336
400.0   30.0   16.666666666666668
400.0   0.0   33.333333333333336
450.0   30.0   33.333333333333336
450.0   0.0   33.333333333333336
450.0   0.0   16.666666666666668
400.0   0.0   33.333333333333336
450.0   30.0   33.333333333333336
450.0   0.0   16.666666666666668
400.0   30.0   16.666666666666668
400.0   0.0   33.333333333333336
450.0   0.0   33.333333333333336
400.0   30.0   33.333333333333336
400.0   0.0   50.0
450.0   0.0   33.333333333333336
450.0   30.0   33.333333333333336
400.0   30.0   33.333333333333336
450.0   30.0   50.0
400.0   0.0   50.0
400.0   30.0   50.0
450.0   30.0   50.0
400.0   30.0   33.333333333333336
400.0   0.0   50.0
450.0   30.0   50.0
450.0   0.0   50.0
450.0   0.0   33.333333333333336
400.0   0.0   50.0
450.0   30.0   50.0
450.0   0.0   33.333333333333336
400.0   30.0   33.333333333333336
400.0   30.0   0.0
450.0   30.0   0.0
400.0   60.0   0.0
400.0   30.0   16.666666666666668
450.0   30.0   0.0
450.0   60.0   0.0
400.0   60.0   0.0
450.0   60.0   16.666666666666668
400.0   30.0   16.666666666666668
400.0   60.0   16.666666666666668
450.0   60.0   16.666666666666668
400.0   60.0   0.0
400.0   30.0   16.666666666666668
450.0   60.0   16.666666666666668
450.0   30.0   16.666666666666668
450.0   30.0   0.0
400.0   30.0   16.666666666666668
450.0   60.0   16.666666666666668
450.0   30.0   0.0
400.0   60.0   0.0
400.0   30.0   16.666666666666668
450.0   30.0   16.666666666666668
400.0   60.0   16.666666666666668
400.0   30.0   33.333333333333336
450.0   30.0   16.666666666666668
450.0   60.0   16.666666666666668
400.0   60.0   16.666666666666668
450.0   60.0   33.333333333333336
400.0   30.0   33.333333333333336
400.0   60.0   33.333333333333336
450.0   60.0   33.333333333333336
400.0   60.0   16.666666666666668
400.0   30.0   33.333333333333336
450.0   60.0   33.333333333333336
450.0   30.0   33.333333333333336
450.0   30.0   16.666666666666668
400.0   30.0   33.333333333333336
450.0   60.0   33.333333333333336
450.0   30.0   16.666666666666668
400.0   60.0   16.666666666666668
400.0   30.0   33.333333333333336
450.0   30.0   33.333333333333336
400.0   60.0   33.333333333333336
400.0   30.0   50.0
450.0   30.0   33.333333333333336
450.0   60.0   33.333333333333336
400.0   60.0   33.333333333333336
450.0   60.0   50.0
400.0   30.0   50.0
400.0   60.0   50.0
450.0   60.0   50.0
400.0   60.0   33.333333333333336
400.0   30.0   50.0
450.0   60.0   50.0
450.0   30.0   50.0
450.0   30.0   33.333333333333336
400.0   30.0   50.0
450.0   60.0   50.0
450.0   30.0   33.333333333333336
400.0   60.0   33.333333333333336
400.0   60.0   0.0
450.0   60.0   0.0
400.0   90.0   0.0
400.0   60.0   16.666666666666668
450.0   60.0   0.0
450.0   90.0   0.0
400.0   90.0   0.0
450.0   90.0   16.666666666666668
400.0   60.0   16.666666666666668
400.0   90.0   16.666666666666668
450.0   90.0   16.666666666666668
400.0   90.0   0.0
400.0   60.0   16.666666666666668
450.0   90.0   16.666666666666668
450.0   60.0   16.666666666666668
450.0   60.0   0.0
400.0   60.0   16.666666666666668
450.0   90.0   16.666666666666668
450.0   60.0   0.0
400.0   90.0   0.0
400.0   60.0   16.666666666666668
450.0   60.0   16.666666666666668
400.0   90.0   16.666666666666668
400.0   60.0   33.333333333333336
450.0   60.0   16.666666666666668
450.0   90.0   16.666666666666668
400.0   90.0   16.666666666666668
450.0   90.0   33.333333333333336
400.0   60.0   33.333333333333336
400.0   90.0   33.333333333333336
450.0   90.0   33.333333333333336
400.0   90.0   16.666666666666668
400.0   60.0   33.333333333333336
450.0   90.0   33.333333333333336
450.0   60.0   33.333333333333336
450.0   60.0   16.666666666666668
400.0   60.0   33.333333333333336
450.0   90.0   33.333333333333336
450.0   60.0   16.666666666666668
400.0   90.0   16.666666666666668
400.0   60.0   33.333333333333336
450.0   60.0   33.333333333333336
400.0   90.0   33.333333333333336
400.0   60.0   50.0
450.0   60.0   33.333333333333336
450.0   90.0   33.333333333333336
400.0   90.0   33.333333333333336
450.0   90.0   50.0
400.0   60.0   50.0
400.0   90.0   50.0
450.0   90.0   50.0
400.0   90.0   33.333333333333336
400.0   60.0   50.0
450.0   90.0   50.0
450.0   60.0   50.0
450.0   60.0   33.333333333333336
400.0   60.0   50.0
450.0   90.0   50.0
450.0   60.0   33.333333333333336
400.0   90.0   33.333333333333336
400.0   90.0   0.0
450.0   90.0   0.0
400.0   120.0   0.0
400.0   90.0   16.666666666666668
450.0   90.0   0.0
450.0   120.0   0.0
400.0   120.0   0.0
450.0   120.0   16.666666666666668
400.0   90.0   16.666666666666668
400.0   120.0   16.666666666666668
450.0   120.0   16.666666666666668
400.0   120.0   0.0
400.0   90.0   16.666666666666668
450.0   120.0   16.666666666666668
450.0   90.0   16.666666666666668
450.0   90.0   0.0
400.0   90.0   16.666666666666668
450.0   120.0   16.666666666666668
450.0   90.0   0.0
400.0   120.0   0.0
400.0   90.0   16.666666666666668
450.0   90.0   16.666666666666668
400.0   120.0   16.666666666666668
400.0   90.0   33.333333333333336
450.0   90.0   16.666666666666668
450.0   120.0   16.666666666666668
400.0   120.0   16.666666666666668
450.0   120.0   33.333333333333336
400.0   90.0   33.333333333333336
400.0   120.0   33.333333333333336
450.0   120.0   33.333333333333336
400.0   120.0   16.666666666666668
400.0   90.0   33.333333333333336
450.0   120.0   33.333333333333336
450.0   90.0   33.333333333333336
450.0   90.0   16.666666666666668
400.0   90.0   33.333333333333336
450.0   120.0   33.333333333333336
450.0   90.0   16.666666666666668
400.0   120.0   16.666666666666668
400.0   90.0   33.333333333333336
450.0   90.0   33.333333333333336
400.0   120.0   33.333333333333336
400.0   90.0   50.0
450.0   90.0   33.333333333333336
450.0   120.0   33.333333333333336
400.0   120.0   33.333333333333336
450.0   120.0   50.0
400.0   90.0   50.0
400.0   120.0   50.0
450.0   120.0   50.0
400.0   120.0   33.333333333333336
400.0   90.0   50.0
450.0   120.0   50.0
450.0   90.0   50.0
450.0   90.0   33.333333333333336
400.0   90.0   50.0
450.0   120.0   50.0
450.0   90.0   33.333333333333336
400.0   120.0   33.333333333333336
400.0   120.0   0.0
450.0   120.0   0.0
400.0   150.0   0.0
400.0   120.0   16.666666666666668
450.0   120.0   0.0
450.0   150.0   0.0
400.0   150.0   0.0
450.0   150.0   16.666666666666668
400.0   120.0   16.666666666666668
400.0   150.0   16.666666666666668
450.0   150.0   16.666666666666668
400.0   150.0   0.0
400.0   120.0   16.666666666666668
450.0   150.0   16.666666666666668
450.0   120.0   16.666666666666668
450.0   120.0   0.0
400.0   120.0   16.666666666666668
450.0   150.0   16.666666666666668
450.0   120.0   0.0
400.0   150.0   0.0
400.0   120.0   16.666666666666668
450.0   120.0   16.666666666666668
400.0   150.0   16.666666666666668
400.0   120.0   33.333333333333336
450.0   120.0   16.666666666666668
450.0   150.0   16.666666666666668
400.0   150.0   16.666666666666668
450.0   150.0   33.333333333333336
400.0   120.0   33.333333333333336
400.0   150.0   33.333333333333336
450.0   150.0   33.333333333333336
400.0   150.0   16.666666666666668
400.0   120.0   33.333333333333336
450.0   150.0   33.333333333333336
450.0   120.0   33.333333333333336
450.0   120.0   16.666666666666668
400.0   120.0   33.333333333333336
450.0   150.0   33.333333333333336
450.0   120.0   16.666666666666668
400.0   150.0   16.666666666666668
400.0   120.0   33.333333333333336
450.0   120.0   33.333333333333336
400.0   150.0   33.333333333333336
400.0   120.0   50.0
450.0   120.0   33.333333333333336
450.0   150.0   33.333333333333336
400.0   150.0   33.333333333333336
450.0   150.0   50.0
400.0   120.0   50.0
400.0   150.0   50.0
450.0   150.0   50.0
400.0   150.0   33.333333333333336
400.0   120.0   50.0
450.0   150.0   50.0
450.0   120.0   50.0
450.0   120.0   33.333333333333336
400.0   120.0   50.0
450.0   150.0   50.0
450.0   120.0   33.333333333333336
400.0   150.0   33.333333333333336
450.0   0.0   0.0
500.0   0.0   0.0
450.0   30.0   0.0
450.0   0.0   16.666666666666668
500.0   0.0   0.0
500.0   30.0   0.0
450.0   30.0   0.0
500.0   30.0   16.666666666666668
450.0   0.0   16.666666666666668
450.0   30.0   16.666666666666668
500.0   30.0   16.666666666666668
450.0   30.0   0.0
450.0   0.0   16.666666666666668
500.0   30.0   16.666666666666668
500.0   0.0   16.666666666666668
500.0   0.0   0.0
450.0   0.0   16.666666666666668
500.0   30.0   16.666666666666668
500.0   0.0   0.0
450.0   30.0   0.0
450.0   0.0   16.666666666666668
500.0   0.0   16.666666666666668
450.0   30.0   16.666666666666668
450.0   0.0   33.333333333333336
500.0   0.0   16.666666666666668
500.0   30.0   16.666666666666668
450.0   30.0   16.666666666666668
500.0   30.0   33.333333333333336
450.0   0.0   33.333333333333336
450.0   30.0   33.333333333333336
500.0   30.0   33.333333333333336
450.0   30.0   16.666666666666668
450.0   0.0   33.333333333333336
500.0   30.0   33.333333333333336
500.0   0.0   33.333333333333336
500.0   0.0   16.666666666666668
450.0   0.0   33.333333333333336
500.0   30.0   33.333333333333336
500.0   0.0   16.666666666666668
450.0   30.0   16.666666666666668
450.0   0.0   33.333333333333336
500.0   0.0   33.333333333333336
450.0   30.0   33.333333333333336
450.0   0.0   50.0
500.0   0.0   33.333333333333336
500.0   30.0   33.333333333333336
450.0   30.0   33.333333333333336
500.0   30.0   50.0
450.0   0.0   50.0
450.0   30.0   50.0
500.0   30.0   50.0
450.0   30.0   33.333333333333336
450.0   0.0   50.0
500.0   30.0   50.0
500.0   0.0   50.0
500.0   0.0   33.333333333333336
450.0   0.0   50.0
500.0   30.0   50.0
500.0   0.0   33.333333333333336
450.0   30.0   33.333333333333336
450.0   30.0   0.0
500.0   30.0   0.0
450.0   60.0   0.0
450.0   30.0   16.666666666666668
500.0   30.0   0.0
500.0   60.0   0.0
450.0   60.0   0.0
500.0   60.0   16.666666666666668
450.0   30.0   16.666666666666668
450.0   60.0   16.666666666666668
500.0   60.0   16.666666666666668
450.0   60.0   0.0
450.0   30.0   16.666666666666668
500.0   60.0   16.666666666666668
500.0   30.0   16.666666666666668
500.0   30.0   0.0
450.0   30.0   16.666666666666668
500.0   60.0   16.666666666666668
500.0   30.0   0.0
450.0   60.0   0.0
450.0   30.0   16.666666666666668
500.0   30.0   16.666666666666668
450.0   60.0   16.666666666666668
450.0   30.0   33.333333333333336
500.0   30.0   16.666666666666668
500.0   60.0   16.666666666666668
450.0   60.0   16.666666666666668
500.0   60.0   33.333333333333336
450.0   30.0   33.333333333333336
450.0   60.0   33.333333333333336
500.0   60.0   33.333333333333336
450.0   60.0   16.666666666666668
450.0   30.0   33.333333333333336
500.0   60.0   33.333333333333336
500.0   30.0   33.333333333333336
500.0   30.0   16.666666666666668
450.0   30.0   33.333333333333336
500.0   60.0   33.333333333333336
500.0   30.0   16.666666666666668
450.0   60.0   16.666666666666668
450.0   30.0   33.333333333333336
500.0   30.0   33.333333333333336
450.0   60.0   33.333333333333336
450.0   30.0   50.0
500.0   30.0   33.333333333333336
500.0   60.0   33.333333333333336
450.0   60.0   33.333333333333336
500.0   60.0   50.0
450.0   30.0   50.0
450.0   60.0   50.0
500.0   60.0   50.0
450.0   60.0   33.333333333333336
450.0   30.0   50.0
500.0   60.0   50.0
500.0   30.0   50.0
500.0   30.0   33.333333333333336
450.0   30.0   50.0
500.0   60.0   50.0
500.0   30.0   33.333333333333336
450.0   60.0   33.333333333333336
450.0   60.0   0.0
500.0   60.0   0.0
450.0   90.0   0.0
450.0   60.0   16.666666666666668
500.0   60.0   0.0
500.0   90.0   0.0
450.0   90.0   0.0
500.0   90.0   16.666666666666668
450.0   60.0   16.666666666666668
450.0   90.0   16.666666666666668
500.0   90.0   16.666666666666668
450.0   90.0   0.0
450.0   60.0   16.666666666666668
500.0   90.0   16.666666666666668
500.0   60.0   16.666666666666668
500.0   60.0   0.0
450.0   60.0   16.666666666666668
500.0   90.0   16.666666666666668
500.0   60.0   0.0
450.0   90.0   0.0
450.0   60.0   16.666666666666668
500.0   60.0   16.666666666666668
450.0   90.0   16.666666666666668
450.0   60.0   33.333333333333336
500.0   60.0   16.666666666666668
500.0   90.0   16.666666666666668
450.0   90.0   16.666666666666668
500.0   90.0   33.333333333333336
450.0   60.0   33.333333333333336
450.0   90.0   33.333333333333336
500.0   90.0   33.333333333333336
450.0   90.0   16.666666666666668
450.0   60.0   33.333333333333336
500.0   90.0   33.333333333333336
500.0   60.0   33.333333333333336
500.0   60.0   16.666666666666668
450.0   60.0   33.333333333333336
500.0   90.0   33.333333333333336
500.0   60.0   16.666666666666668
450.0   90.0   16.666666666666668
450.0   60.0   33.333333333333336
500.0   60.0   33.333333333333336
450.0   90.0   33.333333333333336
450.0   60.0   50.0
500.0   60.0   33.333333333333336
500.0   90.0   33.333333333333336
450.0   90.0   33.333333333333336
500.0   90.0   50.0
450.0   60.0   50.0
450.0   90.0   50.0
500.0   90.0   50.0
450.0   90.0   33.333333333333336
450.0   60.0   50.0
500.0   90.0   50.0
500.0   60.0   50.0
500.0   60.0   33.333333333333336
450.0   60.0   50.0
500.0   90.0   50.0
500.0   60.0   33.333333333333336
450.0   90.0   33.333333333333336
450.0   90.0   0.0
500.0   90.0   0.0
450.0   120.0   0.0
450.0   90.0   16.666666666666668
500.0   90.0   0.0
500.0   120.0   0.0
450.0   120.0   0.0
500.0   120.0   16.666666666666668
450.0   90.0   16.666666666666668
450.0   120.0   16.666666666666668
500.0   120.0   16.666666666666668
450.0   120.0   0.0
450.0   90.0   16.666666666666668
500.0   120.0   16.666666666666668
500.0   90.0   16.666666666666668
500.0   90.0   0.0
450.0   90.0   16.666666666666668
500.0   120.0   16.666666666666668
500.0   90.0   0.0
450.0   120.0   0.0
450.0   90.0   16.666666666666668
500.0   90.0   16.666666666666668
450.0   120.0   16.666666666666668
450.0   90.0   33.333333333333336
500.0   90.0   16.666666666666668
500.0   120.0   16.666666666666668
450.0   120.0   16.666666666666668
500.0   120.0   33.333333333333336
450.0   90.0   33.333333333333336
450.0   120.0   33.333333333333336
500.0   120.0   33.333333333333336
450.0   120.0   16.666666666666668
450.0   90.0   33.333333333333336
500.0   120.0   33.333333333333336
500.0   90.0   33.333333333333336
500.0   90.0   16.666666666666668
450.0   90.0   33.333333333333336
500.0   120.0   33.333333333333336
500.0   90.0   16.666666666666668
450.0   120.0   16.666666666666668
450.0   90.0   33.333333333333336
500.0   90.0   33.333333333333336
450.0   120.0   33.333333333333336
450.0   90.0   50.0
500.0   90.0   33.333333333333336
500.0   120.0   33.333333333333336
450.0   120.0   33.333333333333336
500.0   120.0   50.0
450.0   90.0   50.0
450.0   120.0   50.0
500.0   120.0   50.0
450.0   120.0   33.333333333333336
450.0   90.0   50.0
500.0   120.0   50.0
500.0   90.0   50.0
500.0   90.0   33.333333333333336
450.0   90.0   50.0
500.0   120.0   50.0
500.0   90.0   33.333333333333336
450.0   120.0   33.333333333333336
450.0   120.0   0.0
500.0   120.0   0.0
450.0   150.0   0.0
450.0   120.0   16.666666666666668
500.0   120.0   0.0
500.0   150.0   0.0
450.0   150.0   0.0
500.0   150.0   16.666666666666668
450.0   120.0   16.666666666666668
450.0   150.0   16.666666666666668
500.0   150.0   16.666666666666668
450.0   150.0   0.0
450.0   120.0   16.666666666666668
500.0   150.0   16.666666666666668
500.0   120.0   16.666666666666668
500.0   120.0   0.0
450.0   120.0   16.666666666666668
500.0   150.0   16.666666666666668
500.0   120.0   0.0
450.0   150.0   0.0
450.0   120.0   16.666666666666668
500.0   120.0   16.666666666666668
450.0   150.0   16.666666666666668
450.0   120.0   33.333333333333336
500.0   120.0   16.666666666666668
500.0   150.0   16.666666666666668
450.0   150.0   16.666666666666668
500.0   150.0   33.333333333333336
450.0   120.0   33.333333333333336
450.0   150.0   33.333333333333336
500.0   150.0   33.333333333333336
450.0   150.0   16.666666666666668
450.0   120.0   33.333333333333336
500.0   150.0   33.333333333333336
500.0   120.0   33.333333333333336
500.0   120.0   16.666666666666668
450.0   120.0   33.333333333333336
500.0   150.0   33.333333333333336
500.0   120.0   16.666666666666668
450.0   150.0   16.666666666666668
450.0   120.0   33.333333333333336
500.0   120.0   33.333333333333336
450.0   150.0   33.333333333333336
450.0   120.0   50.0
500.0   120.0   33.333333333333336
500.0   150.0   33.333333333333336
450.0   150.0   33.333333333333336
500.0   150.0   50.0
450.0   120.0   50.0
450.0   150.0   50.0
500.0   150.0   50.0
450.0   150.0   33.333333333333336
450.0   120.0   50.0
500.0   150.0   50.0
500.0   120.0   50.0
500.0   120.0   33.333333333333336
450.0   120.0   50.0
500.0   150.0   50.0
500.0   120.0   33.333333333333336
450.0   150.0   33.333333333333336
             </DataArray>   
          </Points>  
          <Cells>  
             <DataArray type="Int32" Name="connectivity" format="ascii">   
0   1   2   3
4   5   6   7
8   9   10   11
12   13   14   15
16   17   18   19
20   21   22   23
24   25   26   27
28   29   30   31
32   33   34   35
36   37   38   39
40   41   42   43
44   45   46   47
48   49   50   51
52   53   54   55
56   57   58   59
60   61   62   63
64   65   66   67
68   69   70   71
72   73   74   75
76   77   78   79
80   81   82   83
84   85   86   87
88   89   90   91
92   93   94   95
96   97   98   99
100   101   102   103
104   105   106   107
108   109   110   111
112   113   114   115
116   117   118   119
120   121   122   123
124   125   126   127
128   129   130   131
132   133   134   135
136   137   138   139
140   141   142   143
144   145   146   147
148   149   150   151
152   153   154   155
156   157   158   159
160   161   162   163
164   165   166   167
168   169   170   171
172   173   174   175
176   177   178   179
180   181   182   183
184   185   186   187
188   189   190   191
192   193   194   195
196   197   198   199
200   201   202   203
204   205   206   207
208   209   210   211
212   213   214   215
216   217   218   219
220   221   222   223
224   225   226   227
228   229   230   231
232   233   234   235
236   237   238   239
240   241   242   243
244   245   246   247
248   249   250   251
252   253   254   255
256   257   258   259
260   261   262   263
264   265   266   267
268   269   270   271
272   273   274   275
276   277   278   279
280   281   282   283
284   285   286   287
288   289   290   291
292   293   294   295
296   297   298   299
300   301   302   303
304   305   306   307
308   309   310   311
312   313   314   315
316   317   318   319
320   321   322   323
324   325   326   327
328   329   330   331
332   333   334   335
336   337   338   339
340   341   342   343
344   345   346   347
348   349   350   351
352   353   354   355
356   357   358   359
360   361   362   363
364   365   366   367
368   369   370   371
372   373   374   375
376   377   378   379
380   381   382   383
384   385   386   387
388   389   390   391
392   393   394   395
396   397   398   399
400   401   402   403
404   405   406   407
408   409   410   411
412   413   414   415
416   417   418   419
420   421   422   423
424   425   426   427
428   429   430   431
432   433   434   435
436   437   438   439
440   441   442   443
444   445   446   447
448   449   450   451
452   453   454   455
456   457   458   459
460   461   462   463
464   465   466   467
468   469   470   471
472   473   474   475
476   477   478   479
480   481   482   483
484   485   486   487
488   489   490   491
492   493   494   495
496   497   498   499
500   501   502   503
504   505   506   507
508   509   510   511
512   513   514   515
516   517   518   519
520   521   522   523
524   525   526   527
528   529   530   531
532   533   534   535
536   537   538   539
540   541   542   543
544   545   546   547
548   549   550   551
552   553   554   555
556   557   558   559
560   561   562   563
564   565   566   567
568   569   570   571
572   573   574   575
576   577   578   579
580   581   582   583
584   585   586   587
588   589   590   591
592   593   594   595
596   597   598   599
600   601   602   603
604   605   606   607
608   609   610   611
612   613   614   615
616   617   618   619
620   621   622   623
624   625   626   627
628   629   630   631
632   633   634   635
636   637   638   639
640   641   642   643
644   645   646   647
648   649   650   651
652   653   654   655
656   657   658   659
660   661   662   663
664   665   666   667
668   669   670   671
672   673   674   675
676   677   678   679
680   681   682   683
684   685   686   687
688   689   690   691
692   693   694   695
696   697   698   699
700   701   702   703
704   705   706   707
708   709   710   711
712   713   714   715
716   717   718   719
720   721   722   723
724   725   726   727
728   729   730   731
732   733   734   735
736   737   738   739
740   741   742   743
744   745   746   747
748   749   750   751
752   753   754   755
756   757   758   759
760   761   762   763
764   765   766   767
768   769   770   771
772   773   774   775
776   777   778   779
780   781   782   783
784   785   786   787
788   789   790   791
792   793   794   795
796   797   798   799
800   801   802   803
804   805   806   807
808   809   810   811
812   813   814   815
816   817   818   819
820   821   822   823
824   825   826   827
828   829   830   831
832   833   834   835
836   837   838   839
840   841   842   843
844   845   846   847
848   849   850   851
852   853   854   855
856   857   858   859
860   861   862   863
864   865   866   867
868   869   870   871
872   873   874   875
876   877   878   879
880   881   882   883
884   885   886   887
888   889   890   891
892   893   894   895
896   897   898   899
900   901   902   903
904   905   906   907
908   909   910   911
912   913   914   915
916   917   918   919
920   921   922   923
924   925   926   927
928   929   930   931
932   933   934   935
936   937   938   939
940   941   942   943
944   945   946   947
948   949   950   951
952   953   954   955
956   957   958   959
960   961   962   963
964   965   966   967
968   969   970   971
972   973   974   975
976   977   978   979
980   981   982   983
984   985   986   987
988   989   990   991
992   993   994   995
996   997   998   999
1000   1001   1002   1003
1004   1005   1006   1007
1008   1009   1010   1011
1012   1013   1014   1015
1016   1017   1018   1019
1020   1021   1022   1023
1024   1025   1026   1027
1028   1029   1030   1031
1032   1033   1034   1035
1036   1037   1038   1039
1040   1041   1042   1043
1044   1045   1046   1047
1048   1049   1050   1051
1052   1053   1054   1055
1056   1057   1058   1059
1060   1061   1062   1063
1064   1065   1066   1067
1068   1069   1070   1071
1072   1073   1074   1075
1076   1077   1078   1079
1080   1081   1082   1083
1084   1085   1086   1087
1088   1089   1090   1091
1092   1093   1094   1095
1096   1097   1098   1099
1100   1101   1102   1103
1104   1105   1106   1107
1108   1109   1110   1111
1112   1113   1114   1115
1116   1117   1118   1119
1120   1121   1122   1123
1124   1125   1126   1127
1128   1129   1130   1131
1132   1133   1134   1135
1136   1137   1138   1139
1140   1141   1142   1143
1144   1145   1146   1147
1148   1149   1150   1151
1152   1153   1154   1155
1156   1157   1158   1159
1160   1161   1162   1163
1164   1165   1166   1167
1168   1169   1170   1171
1172   1173   1174   1175
1176   1177   1178   1179
1180   1181   1182   1183
1184   1185   1186   1187
1188   1189   1190   1191
1192   1193   1194   1195
1196   1197   1198   1199
1200   1201   1202   1203
1204   1205   1206   1207
1208   1209   1210   1211
1212   1213   1214   1215
1216   1217   1218   1219
1220   1221   1222   1223
1224   1225   1226   1227
1228   1229   1230   1231
1232   1233   1234   1235
1236   1237   1238   1239
1240   1241   1242   1243
1244   1245   1246   1247
1248   1249   1250   1251
1252   1253   1254   1255
1256   1257   1258   1259
1260   1261   1262   1263
1264   1265   1266   1267
1268   1269   1270   1271
1272   1273   1274   1275
1276   1277   1278   1279
1280   1281   1282   1283
1284   1285   1286   1287
1288   1289   1290   1291
1292   1293   1294   1295
1296   1297   1298   1299
1300   1301   1302   1303
1304   1305   1306   1307
1308   1309   1310   1311
1312   1313   1314   1315
1316   1317   1318   1319
1320   1321   1322   1323
1324   1325   1326   1327
1328   1329   1330   1331
1332   1333   1334   1335
1336   1337   1338   1339
1340   1341   1342   1343
1344   1345   1346   1347
1348   1349   1350   1351
1352   1353   1354   1355
1356   1357   1358   1359
1360   1361   1362   1363
1364   1365   1366   1367
1368   1369   1370   1371
1372   1373   1374   1375
1376   1377   1378   1379
1380   1381   1382   1383
1384   1385   1386   1387
1388   1389   1390   1391
1392   1393   1394   1395
1396   1397   1398   1399
1400   1401   1402   1403
1404   1405   1406   1407
1408   1409   1410   1411
1412   1413   1414   1415
1416   1417   1418   1419
1420   1421   1422   1423
1424   1425   1426   1427
1428   1429   1430   1431
1432   1433   1434   1435
1436   1437   1438   1439
1440   1441   1442   1443
1444   1445   1446   1447
1448   1449   1450   1451
1452   1453   1454   1455
1456   1457   1458   1459
1460   1461   1462   1463
1464   1465   1466   1467
1468   1469   1470   1471
1472   1473   1474   1475
1476   1477   1478   1479
1480   1481   1482   1483
1484   1485   1486   1487
1488   1489   1490   1491
1492   1493   1494   1495
1496   1497   1498   1499
1500   1501   1502   1503
1504   1505   1506   1507
1508   1509   1510   1511
1512   1513   1514   1515
1516   1517   1518   1519
1520   1521   1522   1523
1524   1525   1526   1527
1528   1529   1530   1531
1532   1533   1534   1535
1536   1537   1538   1539
1540   1541   1542   1543
1544   1545   1546   1547
1548   1549   1550   1551
1552   1553   1554   1555
1556   1557   1558   1559
1560   1561   1562   1563
1564   1565   1566   1567
1568   1569   1570   1571
1572   1573   1574   1575
1576   1577   1578   1579
1580   1581   1582   1583
1584   1585   1586   1587
1588   1589   1590   1591
1592   1593   1594   1595
1596   1597   1598   1599
1600   1601   1602   1603
1604   1605   1606   1607
1608   1609   1610   1611
1612   1613   1614   1615
1616   1617   1618   1619
1620   1621   1622   1623
1624   1625   1626   1627
1628   1629   1630   1631
1632   1633   1634   1635
1636   1637   1638   1639
1640   1641   1642   1643
1644   1645   1646   1647
1648   1649   1650   1651
1652   1653   1654   1655
1656   1657   1658   1659
1660   1661   1662   1663
1664   1665   1666   1667
1668   1669   1670   1671
1672   1673   1674   1675
1676   1677   1678   1679
1680   1681   1682   1683
1684   1685   1686   1687
1688   1689   1690   1691
1692   1693   1694   1695
1696   1697   1698   1699
1700   1701   1702   1703
1704   1705   1706   1707
1708   1709   1710   1711
1712   1713   1714   1715
1716   1717   1718   1719
1720   1721   1722   1723
1724   1725   1726   1727
1728   1729   1730   1731
1732   1733   1734   1735
1736   1737   1738   1739
1740   1741   1742   1743
1744   1745   1746   1747
1748   1749   1750   1751
1752   1753   1754   1755
1756   1757   1758   1759
1760   1761   1762   1763
1764   1765   1766   1767
1768   1769   1770   1771
1772   1773   1774   1775
1776   1777   1778   1779
1780   1781   1782   1783
1784   1785   1786   1787
1788   1789   1790   1791
1792   1793   1794   1795
1796   1797   1798   1799
1800   1801   1802   1803
1804   1805   1806   1807
1808   1809   1810   1811
1812   1813   1814   1815
1816   1817   1818   1819
1820   1821   1822   1823
1824   1825   1826   1827
1828   1829   1830   1831
1832   1833   1834   1835
1836   1837   1838   1839
1840   1841   1842   1843
1844   1845   1846   1847
1848   1849   1850   1851
1852   1853   1854   1855
1856   1857   1858   1859
1860   1861   1862   1863
1864   1865   1866   1867
1868   1869   1870   1871
1872   1873   1874   1875
1876   1877   1878   1879
1880   1881   1882   1883
1884   1885   1886   1887
1888   1889   1890   1891
1892   1893   1894   1895
1896   1897   1898   1899
1900   1901   1902   1903
1904   1905   1906   1907
1908   1909   1910   1911
1912   1913   1914   1915
1916   1917   1918   1919
1920   1921   1922   1923
1924   1925   1926   1927
1928   1929   1930   1931
1932   1933   1934   1935
1936   1937   1938   1939
1940   1941   1942   1943
1944   1945   1946   1947
1948   1949   1950   1951
1952   1953   1954   1955
1956   1957   1958   1959
1960   1961   1962   1963
1964   1965   1966   1967
1968   1969   1970   1971
1972   1973   1974   1975
1976   1977   1978   1979
1980   1981   1982   1983
1984   1985   1986   1987
1988   1989   1990   1991
1992   1993   1994   1995
1996   1997   1998   1999
2000   2001   2002   2003
2004   2005   2006   2007
2008   2009   2010   2011
2012   2013   2014   2015
2016   2017   2018   2019
2020   2021   2022   2023
2024   2025   2026   2027
2028   2029   2030   2031
2032   2033   2034   2035
2036   2037   2038   2039
2040   2041   2042   2043
2044   2045   2046   2047
2048   2049   2050   2051
2052   2053   2054   2055
2056   2057   2058   2059
2060   2061   2062   2063
2064   2065   2066   2067
2068   2069   2070   2071
2072   2073   2074   2075
2076   2077   2078   2079
2080   2081   2082   2083
2084   2085   2086   2087
2088   2089   2090   2091
2092   2093   2094   2095
2096   2097   2098   2099
2100   2101   2102   2103
2104   2105   2106   2107
2108   2109   2110   2111
2112   2113   2114   2115
2116   2117   2118   2119
2120   2121   2122   2123
2124   2125   2126   2127
2128   2129   2130   2131
2132   2133   2134   2135
2136   2137   2138   2139
2140   2141   2142   2143
2144   2145   2146   2147
2148   2149   2150   2151
2152   2153   2154   2155
2156   2157   2158   2159
2160   2161   2162   2163
2164   2165   2166   2167
2168   2169   2170   2171
2172   2173   2174   2175
2176   2177   2178   2179
2180   2181   2182   2183
2184   2185   2186   2187
2188   2189   2190   2191
2192   2193   2194   2195
2196   2197   2198   2199
2200   2201   2202   2203
2204   2205   2206   2207
2208   2209   2210   2211
2212   2213   2214   2215
2216   2217   2218   2219
2220   2221   2222   2223
2224   2225   2226   2227
2228   2229   2230   2231
2232   2233   2234   2235
2236   2237   2238   2239
2240   2241   2242   2243
2244   2245   2246   2247
2248   2249   2250   2251
2252   2253   2254   2255
2256   2257   2258   2259
2260   2261   2262   2263
2264   2265   2266   2267
2268   2269   2270   2271
2272   2273   2274   2275
2276   2277   2278   2279
2280   2281   2282   2283
2284   2285   2286   2287
2288   2289   2290   2291
2292   2293   2294   2295
2296   2297   2298   2299
2300   2301   2302   2303
2304   2305   2306   2307
2308   2309   2310   2311
2312   2313   2314   2315
2316   2317   2318   2319
2320   2321   2322   2323
2324   2325   2326   2327
2328   2329   2330   2331
2332   2333   2334   2335
2336   2337   2338   2339
2340   2341   2342   2343
2344   2345   2346   2347
2348   2349   2350   2351
2352   2353   2354   2355
2356   2357   2358   2359
2360   2361   2362   2363
2364   2365   2366   2367
2368   2369   2370   2371
2372   2373   2374   2375
2376   2377   2378   2379
2380   2381   2382   2383
2384   2385   2386   2387
2388   2389   2390   2391
2392   2393   2394   2395
2396   2397   2398   2399
2400   2401   2402   2403
2404   2405   2406   2407
2408   2409   2410   2411
2412   2413   2414   2415
2416   2417   2418   2419
2420   2421   2422   2423
2424   2425   2426   2427
2428   2429   2430   2431
2432   2433   2434   2435
2436   2437   2438   2439
2440   2441   2442   2443
2444   2445   2446   2447
2448   2449   2450   2451
2452   2453   2454   2455
2456   2457   2458   2459
2460   2461   2462   2463
2464   2465   2466   2467
2468   2469   2470   2471
2472   2473   2474   2475
2476   2477   2478   2479
2480   2481   2482   2483
2484   2485   2486   2487
2488   2489   2490   2491
2492   2493   2494   2495
2496   2497   2498   2499
2500   2501   2502   2503
2504   2505   2506   2507
2508   2509   2510   2511
2512   2513   2514   2515
2516   2517   2518   2519
2520   2521   2522   2523
2524   2525   2526   2527
2528   2529   2530   2531
2532   2533   2534   2535
2536   2537   2538   2539
2540   2541   2542   2543
2544   2545   2546   2547
2548   2549   2550   2551
2552   2553   2554   2555
2556   2557   2558   2559
2560   2561   2562   2563
2564   2565   2566   2567
2568   2569   2570   2571
2572   2573   2574   2575
2576   2577   2578   2579
2580   2581   2582   2583
2584   2585   2586   2587
2588   2589   2590   2591
2592   2593   2594   2595
2596   2597   2598   2599
2600   2601   2602   2603
2604   2605   2606   2607
2608   2609   2610   2611
2612   2613   2614   2615
2616   2617   2618   2619
2620   2621   2622   2623
2624   2625   2626   2627
2628   2629   2630   2631
2632   2633   2634   2635
2636   2637   2638   2639
2640   2641   2642   2643
2644   2645   2646   2647
2648   2649   2650   2651
2652   2653   2654   2655
2656   2657   2658   2659
2660   2661   2662   2663
2664   2665   2666   2667
2668   2669   2670   2671
2672   2673   2674   2675
2676   2677   2678   2679
2680   2681   2682   2683
2684   2685   2686   2687
2688   2689   2690   2691
2692   2693   2694   2695
2696   2697   2698   2699
2700   2701   2702   2703
2704   2705   2706   2707
2708   2709   2710   2711
2712   2713   2714   2715
2716   2717   2718   2719
2720   2721   2722   2723
2724   2725   2726   2727
2728   2729   2730   2731
2732   2733   2734   2735
2736   2737   2738   2739
2740   2741   2742   2743
2744   2745   2746   2747
2748   2749   2750   2751
2752   2753   2754   2755
2756   2757   2758   2759
2760   2761   2762   2763
2764   2765   2766   2767
2768   2769   2770   2771
2772   2773   2774   2775
2776   2777   2778   2779
2780   2781   2782   2783
2784   2785   2786   2787
2788   2789   2790   2791
2792   2793   2794   2795
2796   2797   2798   2799
2800   2801   2802   2803
2804   2805   2806   2807
2808   2809   2810   2811
2812   2813   2814   2815
2816   2817   2818   2819
2820   2821   2822   2823
2824   2825   2826   2827
2828   2829   2830   2831
2832   2833   2834   2835
2836   2837   2838   2839
2840   2841   2842   2843
2844   2845   2846   2847
2848   2849   2850   2851
2852   2853   2854   2855
2856   2857   2858   2859
2860   2861   2862   2863
2864   2865   2866   2867
2868   2869   2870   2871
2872   2873   2874   2875
2876   2877   2878   2879
2880   2881   2882   2883
2884   2885   2886   2887
2888   2889   2890   2891
2892   2893   2894   2895
2896   2897   2898   2899
2900   2901   2902   2903
2904   2905   2906   2907
2908   2909   2910   2911
2912   2913   2914   2915
2916   2917   2918   2919
2920   2921   2922   2923
2924   2925   2926   2927
2928   2929   2930   2931
2932   2933   2934   2935
2936   2937   2938   2939
2940   2941   2942   2943
2944   2945   2946   2947
2948   2949   2950   2951
2952   2953   2954   2955
2956   2957   2958   2959
2960   2961   2962   2963
2964   2965   2966   2967
2968   2969   2970   2971
2972   2973   2974   2975
2976   2977   2978   2979
2980   2981   2982   2983
2984   2985   2986   2987
2988   2989   2990   2991
2992   2993   2994   2995
2996   2997   2998   2999
3000   3001   3002   3003
3004   3005   3006   3007
3008   3009   3010   3011
3012   3013   3014   3015
3016   3017   3018   3019
3020   3021   3022   3023
3024   3025   3026   3027
3028   3029   3030   3031
3032   3033   3034   3035
3036   3037   3038   3039
3040   3041   3042   3043
3044   3045   3046   3047
3048   3049   3050   3051
3052   3053   3054   3055
3056   3057   3058   3059
3060   3061   3062   3063
3064   3065   3066   3067
3068   3069   3070   3071
3072   3073   3074   3075
3076   3077   3078   3079
3080   3081   3082   3083
3084   3085   3086   3087
3088   3089   3090   3091
3092   3093   3094   3095
3096   3097   3098   3099
3100   3101   3102   3103
3104   3105   3106   3107
3108   3109   3110   3111
3112   3113   3114   3115
3116   3117   3118   3119
3120   3121   3122   3123
3124   3125   3126   3127
3128   3129   3130   3131
3132   3133   3134   3135
3136   3137   3138   3139
3140   3141   3142   3143
3144   3145   3146   3147
3148   3149   3150   3151
3152   3153   3154   3155
3156   3157   3158   3159
3160   3161   3162   3163
3164   3165   3166   3167
3168   3169   3170   3171
3172   3173   3174   3175
3176   3177   3178   3179
3180   3181   3182   3183
3184   3185   3186   3187
3188   3189   3190   3191
3192   3193   3194   3195
3196   3197   3198   3199
3200   3201   3202   3203
3204   3205   3206   3207
3208   3209   3210   3211
3212   3213   3214   3215
3216   3217   3218   3219
3220   3221   3222   3223
3224   3225   3226   3227
3228   3229   3230   3231
3232   3233   3234   3235
3236   3237   3238   3239
3240   3241   3242   3243
3244   3245   3246   3247
3248   3249   3250   3251
3252   3253   3254   3255
3256   3257   3258   3259
3260   3261   3262   3263
3264   3265   3266   3267
3268   3269   3270   3271
3272   3273   3274   3275
3276   3277   3278   3279
3280   3281   3282   3283
3284   3285   3286   3287
3288   3289   3290   3291
3292   3293   3294   3295
3296   3297   3298   3299
3300   3301   3302   3303
3304   3305   3306   3307
3308   3309   3310   3311
3312   3313   3314   3315
3316   3317   3318   3319
3320   3321   3322   3323
3324   3325   3326   3327
3328   3329   3330   3331
3332   3333   3334   3335
3336   3337   3338   3339
3340   3341   3342   3343
3344   3345   3346   3347
3348   3349   3350   3351
3352   3353   3354   3355
3356   3357   3358   3359
3360   3361   3362   3363
3364   3365   3366   3367
3368   3369   3370   3371
3372   3373   3374   3375
3376   3377   3378   3379
3380   3381   3382   3383
3384   3385   3386   3387
3388   3389   3390   3391
3392   3393   3394   3395
3396   3397   3398   3399
3400   3401   3402   3403
3404   3405   3406   3407
3408   3409   3410   3411
3412   3413   3414   3415
3416   3417   3418   3419
3420   3421   3422   3423
3424   3425   3426   3427
3428   3429   3430   3431
3432   3433   3434   3435
3436   3437   3438   3439
3440   3441   3442   3443
3444   3445   3446   3447
3448   3449   3450   3451
3452   3453   3454   3455
3456   3457   3458   3459
3460   3461   3462   3463
3464   3465   3466   3467
3468   3469   3470   3471
3472   3473   3474   3475
3476   3477   3478   3479
3480   3481   3482   3483
3484   3485   3486   3487
3488   3489   3490   3491
3492   3493   3494   3495
3496   3497   3498   3499
3500   3501   3502   3503
3504   3505   3506   3507
3508   3509   3510   3511
3512   3513   3514   3515
3516   3517   3518   3519
3520   3521   3522   3523
3524   3525   3526   3527
3528   3529   3530   3531
3532   3533   3534   3535
3536   3537   3538   3539
3540   3541   3542   3543
3544   3545   3546   3547
3548   3549   3550   3551
3552   3553   3554   3555
3556   3557   3558   3559
3560   3561   3562   3563
3564   3565   3566   3567
3568   3569   3570   3571
3572   3573   3574   3575
3576   3577   3578   3579
3580   3581   3582   3583
3584   3585   3586   3587
3588   3589   3590   3591
3592   3593   3594   3595
3596   3597   3598   3599
3600   3601   3602   3603
3604   3605   3606   3607
3608   3609   3610   3611
3612   3613   3614   3615
3616   3617   3618   3619
3620   3621   3622   3623
3624   3625   3626   3627
3628   3629   3630   3631
3632   3633   3634   3635
3636   3637   3638   3639
3640   3641   3642   3643
3644   3645   3646   3647
3648   3649   3650   3651
3652   3653   3654   3655
3656   3657   3658   3659
3660   3661   3662   3663
3664   3665   3666   3667
3668   3669   3670   3671
3672   3673   3674   3675
3676   3677   3678   3679
3680   3681   3682   3683
3684   3685   3686   3687
3688   3689   3690   3691
3692   3693   3694   3695
3696   3697   3698   3699
3700   3701   3702   3703
3704   3705   3706   3707
3708   3709   3710   3711
3712   3713   3714   3715
3716   3717   3718   3719
3720   3721   3722   3723
3724   3725   3726   3727
3728   3729   3730   3731
3732   3733   3734   3735
3736   3737   3738   3739
3740   3741   3742   3743
3744   3745   3746   3747
3748   3749   3750   3751
3752   3753   3754   3755
3756   3757   3758   3759
3760   3761   3762   3763
3764   3765   3766   3767
3768   3769   3770   3771
3772   3773   3774   3775
3776   3777   3778   3779
3780   3781   3782   3783
3784   3785   3786   3787
3788   3789   3790   3791
3792   3793   3794   3795
3796   3797   3798   3799
3800   3801   3802   3803
3804   3805   3806   3807
3808   3809   3810   3811
3812   3813   3814   3815
3816   3817   3818   3819
3820   3821   3822   3823
3824   3825   3826   3827
3828   3829   3830   3831
3832   3833   3834   3835
3836   3837   3838   3839
3840   3841   3842   3843
3844   3845   3846   3847
3848   3849   3850   3851
3852   3853   3854   3855
3856   3857   3858   3859
3860   3861   3862   3863
3864   3865   3866   3867
3868   3869   3870   3871
3872   3873   3874   3875
3876   3877   3878   3879
3880   3881   3882   3883
3884   3885   3886   3887
3888   3889   3890   3891
3892   3893   3894   3895
3896   3897   3898   3899
3900   3901   3902   3903
3904   3905   3906   3907
3908   3909   3910   3911
3912   3913   3914   3915
3916   3917   3918   3919
3920   3921   3922   3923
3924   3925   3926   3927
3928   3929   3930   3931
3932   3933   3934   3935
3936   3937   3938   3939
3940   3941   3942   3943
3944   3945   3946   3947
3948   3949   3950   3951
3952   3953   3954   3955
3956   3957   3958   3959
3960   3961   3962   3963
3964   3965   3966   3967
3968   3969   3970   3971
3972   3973   3974   3975
3976   3977   3978   3979
3980   3981   3982   3983
3984   3985   3986   3987
3988   3989   3990   3991
3992   3993   3994   3995
3996   3997   3998   3999
4000   4001   4002   4003
4004   4005   4006   4007
4008   4009   4010   4011
4012   4013   4014   4015
4016   4017   4018   4019
4020   4021   4022   4023
4024   4025   4026   4027
4028   4029   4030   4031
4032   4033   4034   4035
4036   4037   4038   4039
4040   4041   4042   4043
4044   4045   4046   4047
4048   4049   4050   4051
4052   4053   4054   4055
4056   4057   4058   4059
4060   4061   4062   4063
4064   4065   4066   4067
4068   4069   4070   4071
4072   4073   4074   4075
4076   4077   4078   4079
4080   4081   4082   4083
4084   4085   4086   4087
4088   4089   4090   4091
4092   4093   4094   4095
4096   4097   4098   4099
4100   4101   4102   4103
4104   4105   4106   4107
4108   4109   4110   4111
4112   4113   4114   4115
4116   4117   4118   4119
4120   4121   4122   4123
4124   4125   4126   4127
4128   4129   4130   4131
4132   4133   4134   4135
4136   4137   4138   4139
4140   4141   4142   4143
4144   4145   4146   4147
4148   4149   4150   4151
4152   4153   4154   4155
4156   4157   4158   4159
4160   4161   4162   4163
4164   4165   4166   4167
4168   4169   4170   4171
4172   4173   4174   4175
4176   4177   4178   4179
4180   4181   4182   4183
4184   4185   4186   4187
4188   4189   4190   4191
4192   4193   4194   4195
4196   4197   4198   4199
4200   4201   4202   4203
4204   4205   4206   4207
4208   4209   4210   4211
4212   4213   4214   4215
4216   4217   4218   4219
4220   4221   4222   4223
4224   4225   4226   4227
4228   4229   4230   4231
4232   4233   4234   4235
4236   4237   4238   4239
4240   4241   4242   4243
4244   4245   4246   4247
4248   4249   4250   4251
4252   4253   4254   4255
4256   4257   4258   4259
4260   4261   4262   4263
4264   4265   4266   4267
4268   4269   4270   4271
4272   4273   4274   4275
4276   4277   4278   4279
4280   4281   4282   4283
4284   4285   4286   4287
4288   4289   4290   4291
4292   4293   4294   4295
4296   4297   4298   4299
4300   4301   4302   4303
4304   4305   4306   4307
4308   4309   4310   4311
4312   4313   4314   4315
4316   4317   4318   4319
4320   4321   4322   4323
4324   4325   4326   4327
4328   4329   4330   4331
4332   4333   4334   4335
4336   4337   4338   4339
4340   4341   4342   4343
4344   4345   4346   4347
4348   4349   4350   4351
4352   4353   4354   4355
4356   4357   4358   4359
4360   4361   4362   4363
4364   4365   4366   4367
4368   4369   4370   4371
4372   4373   4374   4375
4376   4377   4378   4379
4380   4381   4382   4383
4384   4385   4386   4387
4388   4389   4390   4391
4392   4393   4394   4395
4396   4397   4398   4399
4400   4401   4402   4403
4404   4405   4406   4407
4408   4409   4410   4411
4412   4413   4414   4415
4416   4417   4418   4419
4420   4421   4422   4423
4424   4425   4426   4427
4428   4429   4430   4431
4432   4433   4434   4435
4436   4437   4438   4439
4440   4441   4442   4443
4444   4445   4446   4447
4448   4449   4450   4451
4452   4453   4454   4455
4456   4457   4458   4459
4460   4461   4462   4463
4464   4465   4466   4467
4468   4469   4470   4471
4472   4473   4474   4475
4476   4477   4478   4479
4480   4481   4482   4483
4484   4485   4486   4487
4488   4489   4490   4491
4492   4493   4494   4495
4496   4497   4498   4499
4500   4501   4502   4503
4504   4505   4506   4507
4508   4509   4510   4511
4512   4513   4514   4515
4516   4517   4518   4519
4520   4521   4522   4523
4524   4525   4526   4527
4528   4529   4530   4531
4532   4533   4534   4535
4536   4537   4538   4539
4540   4541   4542   4543
4544   4545   4546   4547
4548   4549   4550   4551
4552   4553   4554   4555
4556   4557   4558   4559
4560   4561   4562   4563
4564   4565   4566   4567
4568   4569   4570   4571
4572   4573   4574   4575
4576   4577   4578   4579
4580   4581   4582   4583
4584   4585   4586   4587
4588   4589   4590   4591
4592   4593   4594   4595
4596   4597   4598   4599
4600   4601   4602   4603
4604   4605   4606   4607
4608   4609   4610   4611
4612   4613   4614   4615
4616   4617   4618   4619
4620   4621   4622   4623
4624   4625   4626   4627
4628   4629   4630   4631
4632   4633   4634   4635
4636   4637   4638   4639
4640   4641   4642   4643
4644   4645   4646   4647
4648   4649   4650   4651
4652   4653   4654   4655
4656   4657   4658   4659
4660   4661   4662   4663
4664   4665   4666   4667
4668   4669   4670   4671
4672   4673   4674   4675
4676   4677   4678   4679
4680   4681   4682   4683
4684   4685   4686   4687
4688   4689   4690   4691
4692   4693   4694   4695
4696   4697   4698   4699
4700   4701   4702   4703
4704   4705   4706   4707
4708   4709   4710   4711
4712   4713   4714   4715
4716   4717   4718   4719
4720   4721   4722   4723
4724   4725   4726   4727
4728   4729   4730   4731
4732   4733   4734   4735
4736   4737   4738   4739
4740   4741   4742   4743
4744   4745   4746   4747
4748   4749   4750   4751
4752   4753   4754   4755
4756   4757   4758   4759
4760   4761   4762   4763
4764   4765   4766   4767
4768   4769   4770   4771
4772   4773   4774   4775
4776   4777   4778   4779
4780   4781   4782   4783
4784   4785   4786   4787
4788   4789   4790   4791
4792   4793   4794   4795
4796   4797   4798   4799
4800   4801   4802   4803
4804   4805   4806   4807
4808   4809   4810   4811
4812   4813   4814   4815
4816   4817   4818   4819
4820   4821   4822   4823
4824   4825   4826   4827
4828   4829   4830   4831
4832   4833   4834   4835
4836   4837   4838   4839
4840   4841   4842   4843
4844   4845   4846   4847
4848   4849   4850   4851
4852   4853   4854   4855
4856   4857   4858   4859
4860   4861   4862   4863
4864   4865   4866   4867
4868   4869   4870   4871
4872   4873   4874   4875
4876   4877   4878   4879
4880   4881   4882   4883
4884   4885   4886   4887
4888   4889   4890   4891
4892   4893   4894   4895
4896   4897   4898   4899
4900   4901   4902   4903
4904   4905   4906   4907
4908   4909   4910   4911
4912   4913   4914   4915
4916   4917   4918   4919
4920   4921   4922   4923
4924   4925   4926   4927
4928   4929   4930   4931
4932   4933   4934   4935
4936   4937   4938   4939
4940   4941   4942   4943
4944   4945   4946   4947
4948   4949   4950   4951
4952   4953   4954   4955
4956   4957   4958   4959
4960   4961   4962   4963
4964   4965   4966   4967
4968   4969   4970   4971
4972   4973   4974   4975
4976   4977   4978   4979
4980   4981   4982   4983
4984   4985   4986   4987
4988   4989   4990   4991
4992   4993   4994   4995
4996   4997   4998   4999
5000   5001   5002   5003
5004   5005   5006   5007
5008   5009   5010   5011
5012   5013   5014   5015
5016   5017   5018   5019
5020   5021   5022   5023
5024   5025   5026   5027
5028   5029   5030   5031
5032   5033   5034   5035
5036   5037   5038   5039
5040   5041   5042   5043
5044   5045   5046   5047
5048   5049   5050   5051
5052   5053   5054   5055
5056   5057   5058   5059
5060   5061   5062   5063
5064   5065   5066   5067
5068   5069   5070   5071
5072   5073   5074   5075
5076   5077   5078   5079
5080   5081   5082   5083
5084   5085   5086   5087
5088   5089   5090   5091
5092   5093   5094   5095
5096   5097   5098   5099
5100   5101   5102   5103
5104   5105   5106   5107
5108   5109   5110   5111
5112   5113   5114   5115
5116   5117   5118   5119
5120   5121   5122   5123
5124   5125   5126   5127
5128   5129   5130   5131
5132   5133   5134   5135
5136   5137   5138   5139
5140   5141   5142   5143
5144   5145   5146   5147
5148   5149   5150   5151
5152   5153   5154   5155
5156   5157   5158   5159
5160   5161   5162   5163
5164   5165   5166   5167
5168   5169   5170   5171
5172   5173   5174   5175
5176   5177   5178   5179
5180   5181   5182   5183
5184   5185   5186   5187
5188   5189   5190   5191
5192   5193   5194   5195
5196   5197   5198   5199
5200   5201   5202   5203
5204   5205   5206   5207
5208   5209   5210   5211
5212   5213   5214   5215
5216   5217   5218   5219
5220   5221   5222   5223
5224   5225   5226   5227
5228   5229   5230   5231
5232   5233   5234   5235
5236   5237   5238   5239
5240   5241   5242   5243
5244   5245   5246   5247
5248   5249   5250   5251
5252   5253   5254   5255
5256   5257   5258   5259
5260   5261   5262   5263
5264   5265   5266   5267
5268   5269   5270   5271
5272   5273   5274   5275
5276   5277   5278   5279
5280   5281   5282   5283
5284   5285   5286   5287
5288   5289   5290   5291
5292   5293   5294   5295
5296   5297   5298   5299
5300   5301   5302   5303
5304   5305   5306   5307
5308   5309   5310   5311
5312   5313   5314   5315
5316   5317   5318   5319
5320   5321   5322   5323
5324   5325   5326   5327
5328   5329   5330   5331
5332   5333   5334   5335
5336   5337   5338   5339
5340   5341   5342   5343
5344   5345   5346   5347
5348   5349   5350   5351
5352   5353   5354   5355
5356   5357   5358   5359
5360   5361   5362   5363
5364   5365   5366   5367
5368   5369   5370   5371
5372   5373   5374   5375
5376   5377   5378   5379
5380   5381   5382   5383
5384   5385   5386   5387
5388   5389   5390   5391
5392   5393   5394   5395
5396   5397   5398   5399
5400   5401   5402   5403
5404   5405   5406   5407
5408   5409   5410   5411
5412   5413   5414   5415
5416   5417   5418   5419
5420   5421   5422   5423
5424   5425   5426   5427
5428   5429   5430   5431
5432   5433   5434   5435
5436   5437   5438   5439
5440   5441   5442   5443
5444   5445   5446   5447
5448   5449   5450   5451
5452   5453   5454   5455
5456   5457   5458   5459
5460   5461   5462   5463
5464   5465   5466   5467
5468   5469   5470   5471
5472   5473   5474   5475
5476   5477   5478   5479
5480   5481   5482   5483
5484   5485   5486   5487
5488   5489   5490   5491
5492   5493   5494   5495
5496   5497   5498   5499
5500   5501   5502   5503
5504   5505   5506   5507
5508   5509   5510   5511
5512   5513   5514   5515
5516   5517   5518   5519
5520   5521   5522   5523
5524   5525   5526   5527
5528   5529   5530   5531
5532   5533   5534   5535
5536   5537   5538   5539
5540   5541   5542   5543
5544   5545   5546   5547
5548   5549   5550   5551
5552   5553   5554   5555
5556   5557   5558   5559
5560   5561   5562   5563
5564   5565   5566   5567
5568   5569   5570   5571
5572   5573   5574   5575
5576   5577   5578   5579
5580   5581   5582   5583
5584   5585   5586   5587
5588   5589   5590   5591
5592   5593   5594   5595
5596   5597   5598   5599
5600   5601   5602   5603
5604   5605   5606   5607
5608   5609   5610   5611
5612   5613   5614   5615
5616   5617   5618   5619
5620   5621   5622   5623
5624   5625   5626   5627
5628   5629   5630   5631
5632   5633   5634   5635
5636   5637   5638   5639
5640   5641   5642   5643
5644   5645   5646   5647
5648   5649   5650   5651
5652   5653   5654   5655
5656   5657   5658   5659
5660   5661   5662   5663
5664   5665   5666   5667
5668   5669   5670   5671
5672   5673   5674   5675
5676   5677   5678   5679
5680   5681   5682   5683
5684   5685   5686   5687
5688   5689   5690   5691
5692   5693   5694   5695
5696   5697   5698   5699
5700   5701   5702   5703
5704   5705   5706   5707
5708   5709   5710   5711
5712   5713   5714   5715
5716   5717   5718   5719
5720   5721   5722   5723
5724   5725   5726   5727
5728   5729   5730   5731
5732   5733   5734   5735
5736   5737   5738   5739
5740   5741   5742   5743
5744   5745   5746   5747
5748   5749   5750   5751
5752   5753   5754   5755
5756   5757   5758   5759
5760   5761   5762   5763
5764   5765   5766   5767
5768   5769   5770   5771
5772   5773   5774   5775
5776   5777   5778   5779
5780   5781   5782   5783
5784   5785   5786   5787
5788   5789   5790   5791
5792   5793   5794   5795
5796   5797   5798   5799
5800   5801   5802   5803
5804   5805   5806   5807
5808   5809   5810   5811
5812   5813   5814   5815
5816   5817   5818   5819
5820   5821   5822   5823
5824   5825   5826   5827
5828   5829   5830   5831
5832   5833   5834   5835
5836   5837   5838   5839
5840   5841   5842   5843
5844   5845   5846   5847
5848   5849   5850   5851
5852   5853   5854   5855
5856   5857   5858   5859
5860   5861   5862   5863
5864   5865   5866   5867
5868   5869   5870   5871
5872   5873   5874   5875
5876   5877   5878   5879
5880   5881   5882   5883
5884   5885   5886   5887
5888   5889   5890   5891
5892   5893   5894   5895
5896   5897   5898   5899
5900   5901   5902   5903
5904   5905   5906   5907
5908   5909   5910   5911
5912   5913   5914   5915
5916   5917   5918   5919
5920   5921   5922   5923
5924   5925   5926   5927
5928   5929   5930   5931
5932   5933   5934   5935
5936   5937   5938   5939
5940   5941   5942   5943
5944   5945   5946   5947
5948   5949   5950   5951
5952   5953   5954   5955
5956   5957   5958   5959
5960   5961   5962   5963
5964   5965   5966   5967
5968   5969   5970   5971
5972   5973   5974   5975
5976   5977   5978   5979
5980   5981   5982   5983
5984   5985   5986   5987
5988   5989   5990   5991
5992   5993   5994   5995
5996   5997   5998   5999
              </DataArray>   
              <DataArray type="Int32" Name="offsets" format="ascii">   
4
8
12
16
20
24
28
32
36
40
44
48
52
56
60
64
68
72
76
80
84
88
92
96
100
104
108
112
116
120
124
128
132
136
140
144
148
152
156
160
164
168
172
176
180
184
188
192
196
200
204
208
212
216
220
224
228
232
236
240
244
248
252
256
260
264
268
272
276
280
284
288
292
296
300
304
308
312
316
320
324
328
332
336
340
344
348
352
356
360
364
368
372
376
380
384
388
392
396
400
404
408
412
416
420
424
428
432
436
440
444
448
452
456
460
464
468
472
476
480
484
488
492
496
500
504
508
512
516
520
524
528
532
536
540
544
548
552
556
560
564
568
572
576
580
584
588
592
596
600
604
608
612
616
620
624
628
632
636
640
644
648
652
656
660
664
668
672
676
680
684
688
692
696
700
704
708
712
716
720
724
728
732
736
740
744
748
752
756
760
764
768
772
776
780
784
788
792
796
800
804
808
812
816
820
824
828
832
836
840
844
848
852
856
860
864
868
872
876
880
884
888
892
896
900
904
908
912
916
920
924
928
932
936
940
944
948
952
956
960
964
968
972
976
980
984
988
992
996
1000
1004
1008
1012
1016
1020
1024
1028
1032
1036
1040
1044
1048
1052
1056
1060
1064
1068
1072
1076
1080
1084
1088
1092
1096
1100
1104
1108
1112
1116
1120
1124
1128
1132
1136
1140
1144
1148
1152
1156
1160
1164
1168
1172
1176
1180
1184
1188
1192
1196
1200
1204
1208
1212
1216
1220
1224
1228
1232
1236
1240
1244
1248
1252
1256
1260
1264
1268
1272
1276
1280
1284
1288
1292
1296
1300
1304
1308
1312
1316
1320
1324
1328
1332
1336
1340
1344
1348
1352
1356
1360
1364
1368
1372
1376
1380
1384
1388
1392
1396
1400
1404
1408
1412
1416
1420
1424
1428
1432
1436
1440
1444
1448
1452
1456
1460
1464
1468
1472
1476
1480
1484
1488
1492
1496
1500
1504
1508
1512
1516
1520
1524
1528
1532
1536
1540
1544
1548
1552
1556
1560
1564
1568
1572
1576
1580
1584
1588
1592
1596
1600
1604
1608
1612
1616
1620
1624
1628
1632
1636
1640
1644
1648
1652
1656
1660
1664
1668
1672
1676
1680
1684
1688
1692
1696
1700
1704
1708
1712
1716
1720
1724
1728
1732
1736
1740
1744
1748
1752
1756
1760
1764
1768
1772
1776
1780
1784
1788
1792
1796
1800
1804
1808
1812
1816
1820
1824
1828
1832
1836
1840
1844
1848
1852
1856
1860
1864
1868
1872
1876
1880
1884
1888
1892
1896
1900
1904
1908
1912
1916
1920
1924
1928
1932
1936
1940
1944
1948
1952
1956
1960
1964
1968
1972
1976
1980
1984
1988
1992
1996
2000
2004
2008
2012
2016
2020
2024
2028
2032
2036
2040
2044
2048
2052
2056
2060
2064
2068
2072
2076
2080
2084
2088
2092
2096
2100
2104
2108
2112
2116
2120
2124
2128
2132
2136
2140
2144
2148
2152
2156
2160
2164
2168
2172
2176
2180
2184
2188
2192
2196
2200
2204
2208
2212
2216
2220
2224
2228
2232
2236
2240
2244
2248
2252
2256
2260
2264
2268
2272
2276
2280
2284
2288
2292
2296
2300
2304
2308
2312
2316
2320
2324
2328
2332
2336
2340
2344
2348
2352
2356
2360
2364
2368
2372
2376
2380
2384
2388
2392
2396
2400
2404
2408
2412
2416
2420
2424
2428
2432
2436
2440
2444
2448
2452
2456
2460
2464
2468
2472
2476
2480
2484
2488
2492
2496
2500
2504
2508
2512
2516
2520
2524
2528
2532
2536
2540
2544
2548
2552
2556
2560
2564
2568
2572
2576
2580
2584
2588
2592
2596
2600
2604
2608
2612
2616
2620
2624
2628
2632
2636
2640
2644
2648
2652
2656
2660
2664
2668
2672
2676
2680
2684
2688
2692
2696
2700
2704
2708
2712
2716
2720
2724
2728
2732
2736
2740
2744
2748
2752
2756
2760
2764
2768
2772
2776
2780
2784
2788
2792
2796
2800
2804
2808
2812
2816
2820
2824
2828
2832
2836
2840
2844
2848
2852
2856
2860
2864
2868
2872
2876
2880
2884
2888
2892
2896
2900
2904
2908
2912
2916
2920
2924
2928
2932
2936
2940
2944
2948
2952
2956
2960
2964
2968
2972
2976
2980
2984
2988
2992
2996
3000
3004
3008
3012
3016
3020
3024
3028
3032
3036
3040
3044
3048
3052
3056
3060
3064
3068
3072
3076
3080
3084
3088
3092
3096
3100
3104
3108
3112
3116
3120
3124
3128
3132
3136
3140
3144
3148
3152
3156
3160
3164
3168
3172
3176
3180
3184
3188
3192
3196
3200
3204
3208
3212
3216
3220
3224
3228
3232
3236
3240
3244
3248
3252
3256
3260
3264
3268
3272
3276
3280
3284
3288
3292
3296
3300
3304
3308
3312
3316
3320
3324
3328
3332
3336
3340
3344
3348
3352
3356
3360
3364
3368
3372
3376
3380
3384
3388
3392
3396
3400
3404
3408
3412
3416
3420
3424
3428
3432
3436
3440
3444
3448
3452
3456
3460
3464
3468
3472
3476
3480
3484
3488
3492
3496
3500
3504
3508
3512
3516
3520
3524
3528
3532
3536
3540
3544
3548
3552
3556
3560
3564
3568
3572
3576
3580
3584
3588
3592
3596
3600
3604
3608
3612
3616
3620
3624
3628
3632
3636
3640
3644
3648
3652
3656
3660
3664
3668
3672
3676
3680
3684
3688
3692
3696
3700
3704
3708
3712
3716
3720
3724
3728
3732
3736
3740
3744
3748
3752
3756
3760
3764
3768
3772
3776
3780
3784
3788
3792
3796
3800
3804
3808
3812
3816
3820
3824
3828
3832
3836
3840
3844
3848
3852
3856
3860
3864
3868
3872
3876
3880
3884
3888
3892
3896
3900
3904
3908
3912
3916
3920
3924
3928
3932
3936
3940
3944
3948
3952
3956
3960
3964
3968
3972
3976
3980
3984
3988
3992
3996
4000
4004
4008
4012
4016
4020
4024
4028
4032
4036
4040
4044
4048
4052
4056
4060
4064
4068
4072
4076
4080
4084
4088
4092
4096
4100
4104
4108
4112
4116
4120
4124
4128
4132
4136
4140
4144
4148
4152
4156
4160
4164
4168
4172
4176
4180
4184
4188
4192
4196
4200
4204
4208
4212
4216
4220
4224
4228
4232
4236
4240
4244
4248
4252
4256
4260
4264
4268
4272
4276
4280
4284
4288
4292
4296
4300
4304
4308
4312
4316
4320
4324
4328
4332
4336
4340
4344
4348
4352
4356
4360
4364
4368
4372
4376
4380
4384
4388
4392
4396
4400
4404
4408
4412
4416
4420
4424
4428
4432
4436
4440
4444
4448
4452
4456
4460
4464
4468
4472
4476
4480
4484
4488
4492
4496
4500
4504
4508
4512
4516
4520
4524
4528
4532
4536
4540
4544
4548
4552
4556
4560
4564
4568
4572
4576
4580
4584
4588
4592
4596
4600
4604
4608
4612
4616
4620
4624
4628
4632
4636
4640
4644
4648
4652
4656
4660
4664
4668
4672
4676
4680
4684
4688
4692
4696
4700
4704
4708
4712
4716
4720
4724
4728
4732
4736
4740
4744
4748
4752
4756
4760
4764
4768
4772
4776
4780
4784
4788
4792
4796
4800
4804
4808
4812
4816
4820
4824
4828
4832
4836
4840
4844
4848
4852
4856
4860
4864
4868
4872
4876
4880
4884
4888
4892
4896
4900
4904
4908
4912
4916
4920
4924
4928
4932
4936
4940
4944
4948
4952
4956
4960
4964
4968
4972
4976
4980
4984
4988
4992
4996
5000
5004
5008
5012
5016
5020
5024
5028
5032
5036
5040
5044
5048
5052
5056
5060
5064
5068
5072
5076
5080
5084
5088
5092
5096
5100
5104
5108
5112
5116
5120
5124
5128
5132
5136
5140
5144
5148
5152
5156
5160
5164
5168
5172
5176
5180
5184
5188
5192
5196
5200
5204
5208
5212
5216
5220
5224
5228
5232
5236
5240
5244
5248
5252
5256
5260
5264
5268
5272
5276
5280
5284
5288
5292
5296
5300
5304
5308
5312
5316
5320
5324
5328
5332
5336
5340
5344
5348
5352
5356
5360
5364
5368
5372
5376
5380
5384
5388
5392
5396
5400
5404
5408
5412
5416
5420
5424
5428
5432
5436
5440
5444
5448
5452
5456
5460
5464
5468
5472
5476
5480
5484
5488
5492
5496
5500
5504
5508
5512
5516
5520
5524
5528
5532
5536
5540
5544
5548
5552
5556
5560
5564
5568
5572
5576
5580
5584
5588
5592
5596
5600
5604
5608
5612
5616
5620
5624
5628
5632
5636
5640
5644
5648
5652
5656
5660
5664
5668
5672
5676
5680
5684
5688
5692
5696
5700
5704
5708
5712
5716
5720
5724
5728
5732
5736
5740
5744
5748
5752
5756
5760
5764
5768
5772
5776
5780
5784
5788
5792
5796
5800
5804
5808
5812
5816
5820
5824
5828
5832
5836
5840
5844
5848
5852
5856
5860
5864
5868
5872
5876
5880
5884
5888
5892
5896
5900
5904
5908
5912
5916
5920
5924
5928
5932
5936
5940
5944
5948
5952
5956
5960
5964
5968
5972
5976
5980
5984
5988
5992
5996
6000
              </DataArray>   
              <DataArray type="UInt8" Name="types" format="ascii">   
10
10
10
10
10
10
10
10
10
10
10
10
10
10
10
10
10
10
10
10
10
10
10
10
10
10
10
10
10
10
10
10
10
10
10
10
10
10
10
10
10
10
10
10
10
10
10
10
10
10
10
10
10
10
10
10
10
10
10
10
10
10
10
10
10
10
10
10
10
10
10
10
10
10
10
10
10
10
10
10
10
10
10
10
10
10
10
10
10
10
10
10
10
10
10
10
10
10
10
10
10
10
10
10
10
10
10
10
10
10
10
10
10
10
10
10
10
10
10
10
10
10
10
10
10
10
10
10
10
10
10
10
10
10
10
10
10
10
10
10
10
10
10
10
10
10
10
10
10
10
10
10
10
10
10
10
10
10
10
10
10
10
10
10
10
10
10
10
10
10
10
10
10
10
10
10
10
10
10
10
10
10
10
10
10
10
10
10
10
10
10
10
10
10
10
10
10
10
10
10
10
10
10
10
10
10
10
10
10
10
10
10
10
10
10
10
10
10
10
10
10
10
10
10
10
10
10
10
10
10
10
10
10
10
10
10
10
10
10
10
10
10
10
10
10
10
10
10
10
10
10
10
10
10
10
10
10
10
10
10
10
10
10
10
10
10
10
10
10
10
10
10
10
10
10
10
10
10
10
10
10
10
10
10
10
10
10
10
10
10
10
10
10
10
10
10
10
10
10
10
10
10
10
10
10
10
10
10
10
10
10
10
10
10
10
10
10
10
10
10
10
10
10
10
10
10
10
10
10
10
10
10
10
10
10
10
10
10
10
10
10
10
10
10
10
10
10
10
10
10
10
10
10
10
10
10
10
10
10
10
10
10
10
10
10
10
10
10
10
10
10
10
10
10
10
10
10
10
10
10
10
10
10
10
10
10
10
10
10
10
10
10
10
10
10
10
10
10
10
10
10
10
10
10
10
10
10
10
10
10
10
10
10
10
10
10
10
10
10
10
10
10
10
10
10
10
10
10
10
10
10
10
10
10
10
10
10
10
10
10
10
10
10
10
10
10
10
10
10
10
10
10
10
10
10
10
10
10
10
10
10
10
10
10
10
10
10
10
10
10
10
10
10
10
10
10
10
10
10
10
10
10
10
10
10
10
10
10
10
10
10
10
10
10
10
10
10
10
10
10
10
10
10
10
10
10
10
10
10
10
10
10
10
10
10
10
10
10
10
10
10
10
10
10
10
10
10
10
10
10
10
10
10
10
10
10
10
10
10
10
10
10
10
10
10
10
10
10
10
10
10
10
10
10
10
10
10
10
10
10
10
10
10
10
10
10
10
10
10
10
10
10
10
10
10
10
10
10
10
10
10
10
10
10
10
10
10
10
10
10
10
10
10
10
10
10
10
10
10
10
10
10
10
10
10
10
10
10
10
10
10
10
10
10
10
10
10
10
10
10
10
10
10
10
10
10
10
10
10
10
10
10
10
10
10
10
10
10
10
10
10
10
10
10
10
10
10
10
10
10
10
10
10
10
10
10
10
10
10
10
10
10
10
10
10
10
10
10
10
10
10
10
10
10
10
10
10
10
10
10
10
10
10
10
10
10
10
10
10
10
10
10
10
10
10
10
10
10
10
10
10
10
10
10
10
10
10
10
10
10
10
10
10
10
10
10
10
10
10
10
10
10
10
10
10
10
10
10
10
10
10
10
10
10
10
10
10
10
10
10
10
10
10
10
10
10
10
10
10
10
10
10
10
10
10
10
10
10
10
10
10
10
10
10
10
10
10
10
10
10
10
10
10
10
10
10
10
10
10
10
10
10
10
10
10
10
10
10
10
10
10
10
10
10
10
10
10
10
10
10
10
10
10
10
10
10
10
10
10
10
10
10
10
10
10
10
10
10
10
10
10
10
10
10
10
10
10
10
10
10
10
10
10
10
10
10
10
10
10
10
10
10
10
10
10
10
10
10
10
10
10
10
10
10
10
10
10
10
10
10
10
10
10
10
10
10
10
10
10
10
10
10
10
10
10
10
10
10
10
10
10
10
10
10
10
10
10
10
10
10
10
10
10
10
10
10
10
10
10
10
10
10
10
10
10
10
10
10
10
10
10
10
10
10
10
10
10
10
10
10
10
10
10
10
10
10
10
10
10
10
10
10
10
10
10
10
10
10
10
10
10
10
10
10
10
10
10
10
10
10
10
10
10
10
10
10
10
10
10
10
10
10
10
10
10
10
10
10
10
10
10
10
10
10
10
10
10
10
10
10
10
10
10
10
10
10
10
10
10
10
10
10
10
10
10
10
10
10
10
10
10
10
10
10
10
10
10
10
10
10
10
10
10
10
10
10
10
10
10
10
10
10
10
10
10
10
10
10
10
10
10
10
10
10
10
10
10
10
10
10
10
10
10
10
10
10
10
10
10
10
10
10
10
10
10
10
10
10
10
10
10
10
10
10
10
10
10
10
10
10
10
10
10
10
10
10
10
10
10
10
10
10
10
10
10
10
10
10
10
10
10
10
10
10
10
10
10
10
10
10
10
10
10
10
10
10
10
10
10
10
10
10
10
10
10
10
10
10
10
10
10
10
10
10
10
10
10
10
10
10
10
10
10
10
10
10
10
10
10
10
10
10
10
10
10
10
10
10
10
10
10
10
10
10
10
10
10
10
10
10
10
10
10
10
10
10
10
10
10
10
10
10
10
10
10
10
10
10
10
10
10
10
10
10
10
10
10
10
10
10
10
10
10
10
10
10
10
10
10
10
10
10
10
10
10
10
10
10
10
10
10
10
10
10
10
10
10
10
10
10
10
10
10
10
10
10
10
10
10
10
10
10
10
10
10
10
10
10
10
10
10
10
10
10
10
10
10
10
10
10
10
10
10
10
10
10
10
10
10
10
10
10
10
10
10
10
10
10
10
10
10
10
10
10
10
10
10
10
10
10
10
10
10
10
10
10
10
10
10
10
10
10
10
10
10
10
10
10
10
10
10
10
10
10
10
10
10
10
10
10
10
10
10
10
10
10
10
10
10
10
10
10
10
10
10
10
10
10
10
10
10
10
10
10
10
10
10
10
10
10
10
10
10
10
10
10
10
10
10
10
10
10
10
10
10
10
10
10
10
10
10
10
10
10
10
10
10
10
10
10
10
10
10
10
10
10
10
10
10
10
10
10
10
10
10
10
10
10
10
10
10
10
10
10
10
10
10
10
10
10
10
10
10
10
10
10
10
10
10
10
10
10
10
10
10
10
10
10
10
10
10
10
10
10
10
10
10
10
10
10
10
10
10
10
10
10
10
10
10
10
10
10
10
10
10
10
10
10
10
10
10
10
10
10
10
10
10
10
10
10
10
10
10
10
10
10
10
10
10
10
10
10
10
10
10
10
10
10
10
10
10
10
10
10
10
10
10
10
10
10
10
10
10
10
10
10
10
10
10
10
              </DataArray>   
          </Cells>  
          <PointData>  
             <DataArray type="Float64" NumberOfComponents="3" Name="Strains" format="ascii">   
-0.00012566627725337903   0.0   -8.238872985365979e-05
-0.00012566627725337903   0.0   -8.238872985365979e-05
-0.00012566627725337903   0.0   -8.238872985365979e-05
-0.00012566627725337903   0.0   -8.238872985365979e-05
-7.997242082077977e-05   1.3932860892949865e-05   2.1274140697753632e-06
-7.997242082077977e-05   1.3932860892949865e-05   2.1274140697753632e-06
-7.997242082077977e-05   1.3932860892949865e-05   2.1274140697753632e-06
-7.997242082077977e-05   1.3932860892949865e-05   2.1274140697753632e-06
-7.839695842424468e-05   0.0   -7.774734525313863e-05
-7.839695842424468e-05   0.0   -7.774734525313863e-05
-7.839695842424468e-05   0.0   -7.774734525313863e-05
-7.839695842424468e-05   0.0   -7.774734525313863e-05
-0.00013152329092700886   1.6714681082323517e-05   7.677336020745829e-07
-0.00013152329092700886   1.6714681082323517e-05   7.677336020745829e-07
-0.00013152329092700886   1.6714681082323517e-05   7.677336020745829e-07
-0.00013152329092700886   1.6714681082323517e-05   7.677336020745829e-07
-0.00010203161783881167   3.867820500434301e-06   -4.067693852912051e-05
-0.00010203161783881167   3.867820500434301e-06   -4.067693852912051e-05
-0.00010203161783881167   3.867820500434301e-06   -4.067693852912051e-05
-0.00010203161783881167   3.867820500434301e-06   -4.067693852912051e-05
-0.0001315232909270091   0.0   -8.777615390253275e-05
-0.0001315232909270091   0.0   -8.777615390253275e-05
-0.0001315232909270091   0.0   -8.777615390253275e-05
-0.0001315232909270091   0.0   -8.777615390253275e-05
-7.839695842424468e-05   1.6714681082323545e-05   1.0796542251468699e-05
-7.839695842424468e-05   1.6714681082323545e-05   1.0796542251468699e-05
-7.839695842424468e-05   1.6714681082323545e-05   1.0796542251468699e-05
-7.839695842424468e-05   1.6714681082323545e-05   1.0796542251468699e-05
-7.862468381293063e-05   0.0   -7.965211219230231e-05
-7.862468381293063e-05   0.0   -7.965211219230231e-05
-7.862468381293063e-05   0.0   -7.965211219230231e-05
-7.862468381293063e-05   0.0   -7.965211219230231e-05
-0.00013563965890357   1.7905773259718354e-05   4.629382336265972e-06
-0.00013563965890357   1.7905773259718354e-05   4.629382336265972e-06
-0.00013563965890357   1.7905773259718354e-05   4.629382336265972e-06
-0.00013563965890357   1.7905773259718354e-05   4.629382336265972e-06
-0.00010507398736996968   6.770034758525354e-06   -3.9631960452352037e-05
-0.00010507398736996968   6.770034758525354e-06   -3.9631960452352037e-05
-0.00010507398736996968   6.770034758525354e-06   -3.9631960452352037e-05
-0.00010507398736996968   6.770034758525354e-06   -3.9631960452352037e-05
-0.00013563965890357022   0.0   -9.039557614813334e-05
-0.00013563965890357022   0.0   -9.039557614813334e-05
-0.00013563965890357022   0.0   -9.039557614813334e-05
-0.00013563965890357022   0.0   -9.039557614813334e-05
-7.862468381293063e-05   1.7905773259718354e-05   1.537284629209699e-05
-7.862468381293063e-05   1.7905773259718354e-05   1.537284629209699e-05
-7.862468381293063e-05   1.7905773259718354e-05   1.537284629209699e-05
-7.862468381293063e-05   1.7905773259718354e-05   1.537284629209699e-05
-7.859083316390617e-05   0.0   -8.014051551688336e-05
-7.859083316390617e-05   0.0   -8.014051551688336e-05
-7.859083316390617e-05   0.0   -8.014051551688336e-05
-7.859083316390617e-05   0.0   -8.014051551688336e-05
-0.00014450086792640684   2.0393697999184987e-05   1.7473323621107126e-05
-0.00014450086792640684   2.0393697999184987e-05   1.7473323621107126e-05
-0.00014450086792640684   2.0393697999184987e-05   1.7473323621107126e-05
-0.00014450086792640684   2.0393697999184987e-05   1.7473323621107126e-05
-0.00010711524603373803   8.545883859374979e-06   -3.7727357716121535e-05
-0.00010711524603373803   8.545883859374979e-06   -3.7727357716121535e-05
-0.00010711524603373803   8.545883859374979e-06   -3.7727357716121535e-05
-0.00010711524603373803   8.545883859374979e-06   -3.7727357716121535e-05
-7.997242082077991e-05   0.0   -7.402901331788987e-05
-7.997242082077991e-05   0.0   -7.402901331788987e-05
-7.997242082077991e-05   0.0   -7.402901331788987e-05
-7.997242082077991e-05   0.0   -7.402901331788987e-05
-3.641220336714264e-05   5.112234174995084e-06   1.6386896098359105e-06
-3.641220336714264e-05   5.112234174995084e-06   1.6386896098359105e-06
-3.641220336714264e-05   5.112234174995084e-06   1.6386896098359105e-06
-3.641220336714264e-05   5.112234174995084e-06   1.6386896098359105e-06
-3.502720595829135e-05   0.0   -7.33826651389913e-05
-3.502720595829135e-05   0.0   -7.33826651389913e-05
-3.502720595829135e-05   0.0   -7.33826651389913e-05
-3.502720595829135e-05   0.0   -7.33826651389913e-05
-7.839695842424468e-05   7.274466856912218e-06   -5.464424476549749e-06
-7.839695842424468e-05   7.274466856912218e-06   -5.464424476549749e-06
-7.839695842424468e-05   7.274466856912218e-06   -5.464424476549749e-06
-7.839695842424468e-05   7.274466856912218e-06   -5.464424476549749e-06
-5.749981338953553e-05   5.386234824154769e-07   -3.6251493509700034e-05
-5.749981338953553e-05   5.386234824154769e-07   -3.6251493509700034e-05
-5.749981338953553e-05   5.386234824154769e-07   -3.6251493509700034e-05
-5.749981338953553e-05   5.386234824154769e-07   -3.6251493509700034e-05
-7.839695842424462e-05   0.0   -7.774734525313856e-05
-7.839695842424462e-05   0.0   -7.774734525313856e-05
-7.839695842424462e-05   0.0   -7.774734525313856e-05
-7.839695842424462e-05   0.0   -7.774734525313856e-05
-3.502720595829135e-05   7.274466856912218e-06   -1.0997443624024156e-06
-3.502720595829135e-05   7.274466856912218e-06   -1.0997443624024156e-06
-3.502720595829135e-05   7.274466856912218e-06   -1.0997443624024156e-06
-3.502720595829135e-05   7.274466856912218e-06   -1.0997443624024156e-06
-3.4252059802798195e-05   0.0   -7.430518708936661e-05
-3.4252059802798195e-05   0.0   -7.430518708936661e-05
-3.4252059802798195e-05   0.0   -7.430518708936661e-05
-3.4252059802798195e-05   0.0   -7.430518708936661e-05
-7.862468381293063e-05   8.911541838226207e-06   -5.697738842081601e-06
-7.862468381293063e-05   8.911541838226207e-06   -5.697738842081601e-06
-7.862468381293063e-05   8.911541838226207e-06   -5.697738842081601e-06
-7.862468381293063e-05   8.911541838226207e-06   -5.697738842081601e-06
-5.632450911352133e-05   2.8684651364766715e-06   -3.9238850653380424e-05
-5.632450911352133e-05   2.8684651364766715e-06   -3.9238850653380424e-05
-5.632450911352133e-05   2.8684651364766715e-06   -3.9238850653380424e-05
-5.632450911352133e-05   2.8684651364766715e-06   -3.9238850653380424e-05
-7.862468381293063e-05   0.0   -7.965211219230231e-05
-7.862468381293063e-05   0.0   -7.965211219230231e-05
-7.862468381293063e-05   0.0   -7.965211219230231e-05
-7.862468381293063e-05   0.0   -7.965211219230231e-05
-3.4252059802798195e-05   8.911541838226207e-06   -3.508137391458922e-07
-3.4252059802798195e-05   8.911541838226207e-06   -3.508137391458922e-07
-3.4252059802798195e-05   8.911541838226207e-06   -3.508137391458922e-07
-3.4252059802798195e-05   8.911541838226207e-06   -3.508137391458922e-07
-3.354732409691692e-05   0.0   -7.391968799240698e-05
-3.354732409691692e-05   0.0   -7.391968799240698e-05
-3.354732409691692e-05   0.0   -7.391968799240698e-05
-3.354732409691692e-05   0.0   -7.391968799240698e-05
-7.859083316390597e-05   1.036804587412719e-05   -5.068000405234602e-06
-7.859083316390597e-05   1.036804587412719e-05   -5.068000405234602e-06
-7.859083316390597e-05   1.036804587412719e-05   -5.068000405234602e-06
-7.859083316390597e-05   1.036804587412719e-05   -5.068000405234602e-06
-5.608600395492376e-05   4.777020166579397e-06   -3.922143366234322e-05
-5.608600395492376e-05   4.777020166579397e-06   -3.922143366234322e-05
-5.608600395492376e-05   4.777020166579397e-06   -3.922143366234322e-05
-5.608600395492376e-05   4.777020166579397e-06   -3.922143366234322e-05
-3.641220336714271e-05   0.0   -7.096167281289282e-05
-3.641220336714271e-05   0.0   -7.096167281289282e-05
-3.641220336714271e-05   0.0   -7.096167281289282e-05
-3.641220336714271e-05   0.0   -7.096167281289282e-05
4.749687099942074e-06   -6.532899665072893e-07   -2.750496014322476e-06
4.749687099942074e-06   -6.532899665072893e-07   -2.750496014322476e-06
4.749687099942074e-06   -6.532899665072893e-07   -2.750496014322476e-06
4.749687099942074e-06   -6.532899665072893e-07   -2.750496014322476e-06
5.630654315925462e-06   0.0   -7.26093074004073e-05
5.630654315925462e-06   0.0   -7.26093074004073e-05
5.630654315925462e-06   0.0   -7.26093074004073e-05
5.630654315925462e-06   0.0   -7.26093074004073e-05
-3.502720595829129e-05   1.2889295643062445e-06   -5.619564681963239e-06
-3.502720595829129e-05   1.2889295643062445e-06   -5.619564681963239e-06
-3.502720595829129e-05   1.2889295643062445e-06   -5.619564681963239e-06
-3.502720595829129e-05   1.2889295643062445e-06   -5.619564681963239e-06
-1.539077452560856e-05   -1.3730288229289495e-06   -3.674977537075988e-05
-1.539077452560856e-05   -1.3730288229289495e-06   -3.674977537075988e-05
-1.539077452560856e-05   -1.3730288229289495e-06   -3.674977537075988e-05
-1.539077452560856e-05   -1.3730288229289495e-06   -3.674977537075988e-05
-3.502720595829135e-05   0.0   -7.33826651389913e-05
-3.502720595829135e-05   0.0   -7.33826651389913e-05
-3.502720595829135e-05   0.0   -7.33826651389913e-05
-3.502720595829135e-05   0.0   -7.33826651389913e-05
5.630654315925472e-06   1.2889295643062445e-06   -4.846206943379497e-06
5.630654315925472e-06   1.2889295643062445e-06   -4.846206943379497e-06
5.630654315925472e-06   1.2889295643062445e-06   -4.846206943379497e-06
5.630654315925472e-06   1.2889295643062445e-06   -4.846206943379497e-06
6.32509289286186e-06   0.0   -7.250593813483162e-05
6.32509289286186e-06   0.0   -7.250593813483162e-05
6.32509289286186e-06   0.0   -7.250593813483162e-05
6.32509289286186e-06   0.0   -7.250593813483162e-05
-3.425205980279808e-05   2.9987482575580878e-06   -6.676599263266487e-06
-3.425205980279808e-05   2.9987482575580878e-06   -6.676599263266487e-06
-3.425205980279808e-05   2.9987482575580878e-06   -6.676599263266487e-06
-3.425205980279808e-05   2.9987482575580878e-06   -6.676599263266487e-06
-1.4351056532714715e-05   7.306058367996201e-07   -3.848405259428374e-05
-1.4351056532714715e-05   7.306058367996201e-07   -3.848405259428374e-05
-1.4351056532714715e-05   7.306058367996201e-07   -3.848405259428374e-05
-1.4351056532714715e-05   7.306058367996201e-07   -3.848405259428374e-05
-3.4252059802798195e-05   0.0   -7.430518708936661e-05
-3.4252059802798195e-05   0.0   -7.430518708936661e-05
-3.4252059802798195e-05   0.0   -7.430518708936661e-05
-3.4252059802798195e-05   0.0   -7.430518708936661e-05
6.325092892861871e-06   2.9987482575581013e-06   -4.877350308731639e-06
6.325092892861871e-06   2.9987482575581013e-06   -4.877350308731639e-06
6.325092892861871e-06   2.9987482575581013e-06   -4.877350308731639e-06
6.325092892861871e-06   2.9987482575581013e-06   -4.877350308731639e-06
7.2616648798097386e-06   0.0   -7.09319589580197e-05
7.2616648798097386e-06   0.0   -7.09319589580197e-05
7.2616648798097386e-06   0.0   -7.09319589580197e-05
7.2616648798097386e-06   0.0   -7.09319589580197e-05
-3.354732409691684e-05   4.979548390645375e-06   -5.904706364529202e-06
-3.354732409691684e-05   4.979548390645375e-06   -5.904706364529202e-06
-3.354732409691684e-05   4.979548390645375e-06   -5.904706364529202e-06
-3.354732409691684e-05   4.979548390645375e-06   -5.904706364529202e-06
-1.3495197461494201e-05   2.8110234427889942e-06   -3.802380245485316e-05
-1.3495197461494201e-05   2.8110234427889942e-06   -3.802380245485316e-05
-1.3495197461494201e-05   2.8110234427889942e-06   -3.802380245485316e-05
-1.3495197461494201e-05   2.8110234427889942e-06   -3.802380245485316e-05
4.749687099942081e-06   0.0   -7.135364679279718e-05
4.749687099942081e-06   0.0   -7.135364679279718e-05
4.749687099942081e-06   0.0   -7.135364679279718e-05
4.749687099942081e-06   0.0   -7.135364679279718e-05
4.9424653969766035e-05   -5.796972138749122e-06   -3.735519596733387e-07
4.9424653969766035e-05   -5.796972138749122e-06   -3.735519596733387e-07
4.9424653969766035e-05   -5.796972138749122e-06   -3.735519596733387e-07
4.9424653969766035e-05   -5.796972138749122e-06   -3.735519596733387e-07
4.950345281438186e-05   0.0   -7.523251895698536e-05
4.950345281438186e-05   0.0   -7.523251895698536e-05
4.950345281438186e-05   0.0   -7.523251895698536e-05
4.950345281438186e-05   0.0   -7.523251895698536e-05
5.6306543159254815e-06   -4.3720192609630144e-06   5.120234303530687e-07
5.6306543159254815e-06   -4.3720192609630144e-06   5.120234303530687e-07
5.6306543159254815e-06   -4.3720192609630144e-06   5.120234303530687e-07
5.6306543159254815e-06   -4.3720192609630144e-06   5.120234303530687e-07
2.712656995716197e-05   -3.2323934701568256e-06   -3.59982781128581e-05
2.712656995716197e-05   -3.2323934701568256e-06   -3.59982781128581e-05
2.712656995716197e-05   -3.2323934701568256e-06   -3.59982781128581e-05
2.712656995716197e-05   -3.2323934701568256e-06   -3.59982781128581e-05
5.6306543159254815e-06   0.0   -7.260930740040756e-05
5.6306543159254815e-06   0.0   -7.260930740040756e-05
5.6306543159254815e-06   0.0   -7.260930740040756e-05
5.6306543159254815e-06   0.0   -7.260930740040756e-05
4.950345281438186e-05   -4.3720192609630144e-06   -2.111188126224743e-06
4.950345281438186e-05   -4.3720192609630144e-06   -2.111188126224743e-06
4.950345281438186e-05   -4.3720192609630144e-06   -2.111188126224743e-06
4.950345281438186e-05   -4.3720192609630144e-06   -2.111188126224743e-06
4.9283606127484374e-05   0.0   -7.415816189459413e-05
4.9283606127484374e-05   0.0   -7.415816189459413e-05
4.9283606127484374e-05   0.0   -7.415816189459413e-05
4.9283606127484374e-05   0.0   -7.415816189459413e-05
6.325092892861871e-06   -2.753706266270638e-06   -9.084160771275863e-07
6.325092892861871e-06   -2.753706266270638e-06   -9.084160771275863e-07
6.325092892861871e-06   -2.753706266270638e-06   -9.084160771275863e-07
6.325092892861871e-06   -2.753706266270638e-06   -9.084160771275863e-07
2.7457130221704928e-05   -1.2907120784888076e-06   -3.7006274804535076e-05
2.7457130221704928e-05   -1.2907120784888076e-06   -3.7006274804535076e-05
2.7457130221704928e-05   -1.2907120784888076e-06   -3.7006274804535076e-05
2.7457130221704928e-05   -1.2907120784888076e-06   -3.7006274804535076e-05
6.325092892861865e-06   0.0   -7.250593813483168e-05
6.325092892861865e-06   0.0   -7.250593813483168e-05
6.325092892861865e-06   0.0   -7.250593813483168e-05
6.325092892861865e-06   0.0   -7.250593813483168e-05
4.9283606127484374e-05   -2.753706266270638e-06   -2.5606398368899756e-06
4.9283606127484374e-05   -2.753706266270638e-06   -2.5606398368899756e-06
4.9283606127484374e-05   -2.753706266270638e-06   -2.5606398368899756e-06
4.9283606127484374e-05   -2.753706266270638e-06   -2.5606398368899756e-06
5.0230557136316586e-05   0.0   -7.127910561240031e-05
5.0230557136316586e-05   0.0   -7.127910561240031e-05
5.0230557136316586e-05   0.0   -7.127910561240031e-05
5.0230557136316586e-05   0.0   -7.127910561240031e-05
7.261664879809751e-06   -5.785777573008436e-07   6.828614694915533e-07
7.261664879809751e-06   -5.785777573008436e-07   6.828614694915533e-07
7.261664879809751e-06   -5.785777573008436e-07   6.828614694915533e-07
7.261664879809751e-06   -5.785777573008436e-07   6.828614694915533e-07
2.8277825014589205e-05   1.0223604353595218e-06   -3.5304635004070376e-05
2.8277825014589205e-05   1.0223604353595218e-06   -3.5304635004070376e-05
2.8277825014589205e-05   1.0223604353595218e-06   -3.5304635004070376e-05
2.8277825014589205e-05   1.0223604353595218e-06   -3.5304635004070376e-05
4.9424653969766035e-05   0.0   -7.483183007604665e-05
4.9424653969766035e-05   0.0   -7.483183007604665e-05
4.9424653969766035e-05   0.0   -7.483183007604665e-05
4.9424653969766035e-05   0.0   -7.483183007604665e-05
0.00011153517017765706   -1.4689184772362823e-05   1.9872186073687995e-05
0.00011153517017765706   -1.4689184772362823e-05   1.9872186073687995e-05
0.00011153517017765706   -1.4689184772362823e-05   1.9872186073687995e-05
0.00011153517017765706   -1.4689184772362823e-05   1.9872186073687995e-05
0.00010473772147074613   0.0   -8.273429378856307e-05
0.00010473772147074613   0.0   -8.273429378856307e-05
0.00010473772147074613   0.0   -8.273429378856307e-05
0.00010473772147074613   0.0   -8.273429378856307e-05
4.950345281438186e-05   -1.2502958052629508e-05   1.6824595470288408e-05
4.950345281438186e-05   -1.2502958052629508e-05   1.6824595470288408e-05
4.950345281438186e-05   -1.2502958052629508e-05   1.6824595470288408e-05
4.950345281438186e-05   -1.2502958052629508e-05   1.6824595470288408e-05
7.708118772025608e-05   -6.585386427097032e-06   -3.268883901482142e-05
7.708118772025608e-05   -6.585386427097032e-06   -3.268883901482142e-05
7.708118772025608e-05   -6.585386427097032e-06   -3.268883901482142e-05
7.708118772025608e-05   -6.585386427097032e-06   -3.268883901482142e-05
4.950345281438182e-05   0.0   -7.52325189569853e-05
4.950345281438182e-05   0.0   -7.52325189569853e-05
4.950345281438182e-05   0.0   -7.52325189569853e-05
4.950345281438182e-05   0.0   -7.52325189569853e-05
0.00010473772147074577   -1.2502958052629454e-05   9.322820638710662e-06
0.00010473772147074577   -1.2502958052629454e-05   9.322820638710662e-06
0.00010473772147074577   -1.2502958052629454e-05   9.322820638710662e-06
0.00010473772147074577   -1.2502958052629454e-05   9.322820638710662e-06
0.0001015996090863004   0.0   -8.101411670468022e-05
0.0001015996090863004   0.0   -8.101411670468022e-05
0.0001015996090863004   0.0   -8.101411670468022e-05
0.0001015996090863004   0.0   -8.101411670468022e-05
4.9283606127484374e-05   -1.1426591350143477e-05   1.3035176370099243e-05
4.9283606127484374e-05   -1.1426591350143477e-05   1.3035176370099243e-05
4.9283606127484374e-05   -1.1426591350143477e-05   1.3035176370099243e-05
4.9283606127484374e-05   -1.1426591350143477e-05   1.3035176370099243e-05
7.555153095034109e-05   -4.817998123079052e-06   -3.47098542709006e-05
7.555153095034109e-05   -4.817998123079052e-06   -3.47098542709006e-05
7.555153095034109e-05   -4.817998123079052e-06   -3.47098542709006e-05
7.555153095034109e-05   -4.817998123079052e-06   -3.47098542709006e-05
4.9283606127484374e-05   0.0   -7.415816189459413e-05
4.9283606127484374e-05   0.0   -7.415816189459413e-05
4.9283606127484374e-05   0.0   -7.415816189459413e-05
4.9283606127484374e-05   0.0   -7.415816189459413e-05
0.00010159960908630005   -1.142659135014345e-05   6.17922156001313e-06
0.00010159960908630005   -1.142659135014345e-05   6.17922156001313e-06
0.00010159960908630005   -1.142659135014345e-05   6.17922156001313e-06
0.00010159960908630005   -1.142659135014345e-05   6.17922156001313e-06
9.693331556675806e-05   0.0   -7.661110353883673e-05
9.693331556675806e-05   0.0   -7.661110353883673e-05
9.693331556675806e-05   0.0   -7.661110353883673e-05
9.693331556675806e-05   0.0   -7.661110353883673e-05
5.0230557136316586e-05   -8.886663210727557e-06   6.558825105002403e-06
5.0230557136316586e-05   -8.886663210727557e-06   6.558825105002403e-06
5.0230557136316586e-05   -8.886663210727557e-06   6.558825105002403e-06
5.0230557136316586e-05   -8.886663210727557e-06   6.558825105002403e-06
7.31084608471213e-05   -2.0441180368689442e-06   -3.567654151732059e-05
7.31084608471213e-05   -2.0441180368689442e-06   -3.567654151732059e-05
7.31084608471213e-05   -2.0441180368689442e-06   -3.567654151732059e-05
7.31084608471213e-05   -2.0441180368689442e-06   -3.567654151732059e-05
-0.00010909722178394898   1.3932860892949811e-05   -7.152449729581706e-05
-0.00010909722178394898   1.3932860892949811e-05   -7.152449729581706e-05
-0.00010909722178394898   1.3932860892949811e-05   -7.152449729581706e-05
-0.00010909722178394898   1.3932860892949811e-05   -7.152449729581706e-05
-6.987013748204464e-05   1.253344957072598e-05   -6.9856702526441185e-06
-6.987013748204464e-05   1.253344957072598e-05   -6.9856702526441185e-06
-6.987013748204464e-05   1.253344957072598e-05   -6.9856702526441185e-06
-6.987013748204464e-05   1.253344957072598e-05   -6.9856702526441185e-06
-7.163193917631302e-05   1.671468108232349e-05   -6.006364445157935e-05
-7.163193917631302e-05   1.671468108232349e-05   -6.006364445157935e-05
-7.163193917631302e-05   1.671468108232349e-05   -6.006364445157935e-05
-7.163193917631302e-05   1.671468108232349e-05   -6.006364445157935e-05
-0.00011028625163829117   1.5039470044828042e-05   5.3653362742150305e-06
-0.00011028625163829117   1.5039470044828042e-05   5.3653362742150305e-06
-0.00011028625163829117   1.5039470044828042e-05   5.3653362742150305e-06
-0.00011028625163829117   1.5039470044828042e-05   5.3653362742150305e-06
-8.664834244504852e-05   1.4551598260382982e-05   -3.373845597718953e-05
-8.664834244504852e-05   1.4551598260382982e-05   -3.373845597718953e-05
-8.664834244504852e-05   1.4551598260382982e-05   -3.373845597718953e-05
-8.664834244504852e-05   1.4551598260382982e-05   -3.373845597718953e-05
-0.00011028625163829117   1.671468108232349e-05   -5.9058517829082066e-05
-0.00011028625163829117   1.671468108232349e-05   -5.9058517829082066e-05
-0.00011028625163829117   1.671468108232349e-05   -5.9058517829082066e-05
-0.00011028625163829117   1.671468108232349e-05   -5.9058517829082066e-05
-7.163193917631329e-05   1.503947004482815e-05   4.360209651717772e-06
-7.163193917631329e-05   1.503947004482815e-05   4.360209651717772e-06
-7.163193917631329e-05   1.503947004482815e-05   4.360209651717772e-06
-7.163193917631329e-05   1.503947004482815e-05   4.360209651717772e-06
-7.20050947683363e-05   1.7905773259718327e-05   -5.399670005356731e-05
-7.20050947683363e-05   1.7905773259718327e-05   -5.399670005356731e-05
-7.20050947683363e-05   1.7905773259718327e-05   -5.399670005356731e-05
-7.20050947683363e-05   1.7905773259718327e-05   -5.399670005356731e-05
-0.0001110693491351927   1.6170369735913845e-05   1.2151632672142336e-05
-0.0001110693491351927   1.6170369735913845e-05   1.2151632672142336e-05
-0.0001110693491351927   1.6170369735913845e-05   1.2151632672142336e-05
-0.0001110693491351927   1.6170369735913845e-05   1.2151632672142336e-05
-8.920135190937628e-05   1.6127516167456653e-05   -2.426931722981034e-05
-8.920135190937628e-05   1.6127516167456653e-05   -2.426931722981034e-05
-8.920135190937628e-05   1.6127516167456653e-05   -2.426931722981034e-05
-8.920135190937628e-05   1.6127516167456653e-05   -2.426931722981034e-05
-0.00011106934913519251   1.7905773259718327e-05   -5.2955457939284594e-05
-0.00011106934913519251   1.7905773259718327e-05   -5.2955457939284594e-05
-0.00011106934913519251   1.7905773259718327e-05   -5.2955457939284594e-05
-0.00011106934913519251   1.7905773259718327e-05   -5.2955457939284594e-05
-7.200509476833639e-05   1.6170369735913845e-05   1.1110390557859647e-05
-7.200509476833639e-05   1.6170369735913845e-05   1.1110390557859647e-05
-7.200509476833639e-05   1.6170369735913845e-05   1.1110390557859647e-05
-7.200509476833639e-05   1.6170369735913845e-05   1.1110390557859647e-05
-7.160055847508412e-05   2.0393697999184987e-05   -3.988514808382762e-05
-7.160055847508412e-05   2.0393697999184987e-05   -3.988514808382762e-05
-7.160055847508412e-05   2.0393697999184987e-05   -3.988514808382762e-05
-7.160055847508412e-05   2.0393697999184987e-05   -3.988514808382762e-05
-0.00010799953986924627   1.706774027478012e-05   2.277539554108518e-05
-0.00010799953986924627   1.706774027478012e-05   2.277539554108518e-05
-0.00010799953986924627   1.706774027478012e-05   2.277539554108518e-05
-0.00010799953986924627   1.706774027478012e-05   2.277539554108518e-05
-8.688742396920781e-05   1.768741096474743e-05   -1.2783266706292457e-05
-8.688742396920781e-05   1.768741096474743e-05   -1.2783266706292457e-05
-8.688742396920781e-05   1.768741096474743e-05   -1.2783266706292457e-05
-8.688742396920781e-05   1.768741096474743e-05   -1.2783266706292457e-05
-6.987013748204464e-05   5.112234174995084e-06   -7.592020905408787e-05
-6.987013748204464e-05   5.112234174995084e-06   -7.592020905408787e-05
-6.987013748204464e-05   5.112234174995084e-06   -7.592020905408787e-05
-6.987013748204464e-05   5.112234174995084e-06   -7.592020905408787e-05
-3.3098183929778174e-05   5.8318857837790406e-06   -1.4201828835039923e-05
-3.3098183929778174e-05   5.8318857837790406e-06   -1.4201828835039923e-05
-3.3098183929778174e-05   5.8318857837790406e-06   -1.4201828835039923e-05
-3.3098183929778174e-05   5.8318857837790406e-06   -1.4201828835039923e-05
-3.389305255940761e-05   7.2744668569121906e-06   -7.58074410141586e-05
-3.389305255940761e-05   7.2744668569121906e-06   -7.58074410141586e-05
-3.389305255940761e-05   7.2744668569121906e-06   -7.58074410141586e-05
-3.389305255940761e-05   7.2744668569121906e-06   -7.58074410141586e-05
-7.163193917631302e-05   8.136417132644132e-06   -1.3426466818088555e-05
-7.163193917631302e-05   8.136417132644132e-06   -1.3426466818088555e-05
-7.163193917631302e-05   8.136417132644132e-06   -1.3426466818088555e-05
-7.163193917631302e-05   8.136417132644132e-06   -1.3426466818088555e-05
-5.1976827514568145e-05   6.551858587677855e-06   -4.5234251127350666e-05
-5.1976827514568145e-05   6.551858587677855e-06   -4.5234251127350666e-05
-5.1976827514568145e-05   6.551858587677855e-06   -4.5234251127350666e-05
-5.1976827514568145e-05   6.551858587677855e-06   -4.5234251127350666e-05
-7.163193917631298e-05   7.2744668569121906e-06   -7.63246111795976e-05
-7.163193917631298e-05   7.2744668569121906e-06   -7.63246111795976e-05
-7.163193917631298e-05   7.2744668569121906e-06   -7.63246111795976e-05
-7.163193917631298e-05   7.2744668569121906e-06   -7.63246111795976e-05
-3.3893052559407654e-05   8.136417132644132e-06   -1.2909296652649393e-05
-3.3893052559407654e-05   8.136417132644132e-06   -1.2909296652649393e-05
-3.3893052559407654e-05   8.136417132644132e-06   -1.2909296652649393e-05
-3.3893052559407654e-05   8.136417132644132e-06   -1.2909296652649393e-05
-3.414632625228337e-05   8.911541838226152e-06   -7.438810427028448e-05
-3.414632625228337e-05   8.911541838226152e-06   -7.438810427028448e-05
-3.414632625228337e-05   8.911541838226152e-06   -7.438810427028448e-05
-3.414632625228337e-05   8.911541838226152e-06   -7.438810427028448e-05
-7.20050947683363e-05   1.0043510033995234e-05   -1.1969337660991148e-05
-7.20050947683363e-05   1.0043510033995234e-05   -1.1969337660991148e-05
-7.20050947683363e-05   1.0043510033995234e-05   -1.1969337660991148e-05
-7.20050947683363e-05   1.0043510033995234e-05   -1.1969337660991148e-05
-5.2387696942208716e-05   8.313882960637195e-06   -4.362722446052205e-05
-5.2387696942208716e-05   8.313882960637195e-06   -4.362722446052205e-05
-5.2387696942208716e-05   8.313882960637195e-06   -4.362722446052205e-05
-5.2387696942208716e-05   8.313882960637195e-06   -4.362722446052205e-05
-7.20050947683363e-05   8.911541838226152e-06   -7.50672851877459e-05
-7.20050947683363e-05   8.911541838226152e-06   -7.50672851877459e-05
-7.20050947683363e-05   8.911541838226152e-06   -7.50672851877459e-05
-7.20050947683363e-05   8.911541838226152e-06   -7.50672851877459e-05
-3.41463262522835e-05   1.0043510033995234e-05   -1.1290156743529711e-05
-3.41463262522835e-05   1.0043510033995234e-05   -1.1290156743529711e-05
-3.41463262522835e-05   1.0043510033995234e-05   -1.1290156743529711e-05
-3.41463262522835e-05   1.0043510033995234e-05   -1.1290156743529711e-05
-3.406781199597652e-05   1.0368045874127162e-05   -7.36264650750837e-05
-3.406781199597652e-05   1.0368045874127162e-05   -7.36264650750837e-05
-3.406781199597652e-05   1.0368045874127162e-05   -7.36264650750837e-05
-3.406781199597652e-05   1.0368045874127162e-05   -7.36264650750837e-05
-7.160055847508405e-05   1.2095088931788039e-05   -1.2108113444501013e-05
-7.160055847508405e-05   1.2095088931788039e-05   -1.2108113444501013e-05
-7.160055847508405e-05   1.2095088931788039e-05   -1.2108113444501013e-05
-7.160055847508405e-05   1.2095088931788039e-05   -1.2108113444501013e-05
-5.2701010853728055e-05   9.908692482205137e-06   -4.229552161034479e-05
-5.2701010853728055e-05   9.908692482205137e-06   -4.229552161034479e-05
-5.2701010853728055e-05   9.908692482205137e-06   -4.229552161034479e-05
-5.2701010853728055e-05   9.908692482205137e-06   -4.229552161034479e-05
-3.309818392977811e-05   -6.532899665072757e-07   -7.948562973307153e-05
-3.309818392977811e-05   -6.532899665072757e-07   -7.948562973307153e-05
-3.309818392977811e-05   -6.532899665072757e-07   -7.948562973307153e-05
-3.309818392977811e-05   -6.532899665072757e-07   -7.948562973307153e-05
3.210617948256772e-06   -1.7268159866287063e-07   -1.868259491564002e-05
3.210617948256772e-06   -1.7268159866287063e-07   -1.868259491564002e-05
3.210617948256772e-06   -1.7268159866287063e-07   -1.868259491564002e-05
3.210617948256772e-06   -1.7268159866287063e-07   -1.868259491564002e-05
3.0566645665055053e-06   1.2889295643062174e-06   -7.993037206618388e-05
3.0566645665055053e-06   1.2889295643062174e-06   -7.993037206618388e-05
3.0566645665055053e-06   1.2889295643062174e-06   -7.993037206618388e-05
3.0566645665055053e-06   1.2889295643062174e-06   -7.993037206618388e-05
-3.389305255940761e-05   1.950411676865686e-06   -1.8744399457197404e-05
-3.389305255940761e-05   1.950411676865686e-06   -1.8744399457197404e-05
-3.389305255940761e-05   1.950411676865686e-06   -1.8744399457197404e-05
-3.389305255940761e-05   1.950411676865686e-06   -1.8744399457197404e-05
-1.5272774778070285e-05   6.472431225113765e-07   -4.899629462681386e-05
-1.5272774778070285e-05   6.472431225113765e-07   -4.899629462681386e-05
-1.5272774778070285e-05   6.472431225113765e-07   -4.899629462681386e-05
-1.5272774778070285e-05   6.472431225113765e-07   -4.899629462681386e-05
-3.389305255940761e-05   1.288929564306231e-06   -8.032726133371941e-05
-3.389305255940761e-05   1.288929564306231e-06   -8.032726133371941e-05
-3.389305255940761e-05   1.288929564306231e-06   -8.032726133371941e-05
-3.389305255940761e-05   1.288929564306231e-06   -8.032726133371941e-05
3.0566645665055053e-06   1.950411676865686e-06   -1.8347510189661777e-05
3.0566645665055053e-06   1.950411676865686e-06   -1.8347510189661777e-05
3.0566645665055053e-06   1.950411676865686e-06   -1.8347510189661777e-05
3.0566645665055053e-06   1.950411676865686e-06   -1.8347510189661777e-05
2.848363998074282e-06   2.9987482575581013e-06   -8.009832271451049e-05
2.848363998074282e-06   2.9987482575581013e-06   -8.009832271451049e-05
2.848363998074282e-06   2.9987482575581013e-06   -8.009832271451049e-05
2.848363998074282e-06   2.9987482575581013e-06   -8.009832271451049e-05
-3.414632625228337e-05   4.024693390715709e-06   -1.9056072710475717e-05
-3.414632625228337e-05   4.024693390715709e-06   -1.9056072710475717e-05
-3.414632625228337e-05   4.024693390715709e-06   -1.9056072710475717e-05
-3.414632625228337e-05   4.024693390715709e-06   -1.9056072710475717e-05
-1.5562698069945044e-05   2.446714952713023e-06   -4.9081999284904444e-05
-1.5562698069945044e-05   2.446714952713023e-06   -4.9081999284904444e-05
-1.5562698069945044e-05   2.446714952713023e-06   -4.9081999284904444e-05
-1.5562698069945044e-05   2.446714952713023e-06   -4.9081999284904444e-05
-3.414632625228337e-05   2.9987482575581013e-06   -8.071388979440505e-05
-3.414632625228337e-05   2.9987482575581013e-06   -8.071388979440505e-05
-3.414632625228337e-05   2.9987482575581013e-06   -8.071388979440505e-05
-3.414632625228337e-05   2.9987482575581013e-06   -8.071388979440505e-05
2.848363998074288e-06   4.024693390715709e-06   -1.844050563058114e-05
2.848363998074288e-06   4.024693390715709e-06   -1.844050563058114e-05
2.848363998074288e-06   4.024693390715709e-06   -1.844050563058114e-05
2.848363998074288e-06   4.024693390715709e-06   -1.844050563058114e-05
2.434058164973989e-06   4.9795483906453475e-06   -7.996009385376863e-05
2.434058164973989e-06   4.9795483906453475e-06   -7.996009385376863e-05
2.434058164973989e-06   4.9795483906453475e-06   -7.996009385376863e-05
2.434058164973989e-06   4.9795483906453475e-06   -7.996009385376863e-05
-3.406781199597654e-05   6.186056232455363e-06   -1.984754829060384e-05
-3.406781199597654e-05   6.186056232455363e-06   -1.984754829060384e-05
-3.406781199597654e-05   6.186056232455363e-06   -1.984754829060384e-05
-3.406781199597654e-05   6.186056232455363e-06   -1.984754829060384e-05
-1.574021590312137e-05   4.295316773150651e-06   -4.925909810311287e-05
-1.574021590312137e-05   4.295316773150651e-06   -4.925909810311287e-05
-1.574021590312137e-05   4.295316773150651e-06   -4.925909810311287e-05
-1.574021590312137e-05   4.295316773150651e-06   -4.925909810311287e-05
3.210617948256772e-06   -5.796972138749108e-06   -7.334213737446628e-05
3.210617948256772e-06   -5.796972138749108e-06   -7.334213737446628e-05
3.210617948256772e-06   -5.796972138749108e-06   -7.334213737446628e-05
3.210617948256772e-06   -5.796972138749108e-06   -7.334213737446628e-05
4.062758983562185e-05   -5.9601982534933785e-06   -1.1078453231037666e-05
4.062758983562185e-05   -5.9601982534933785e-06   -1.1078453231037666e-05
4.062758983562185e-05   -5.9601982534933785e-06   -1.1078453231037666e-05
4.062758983562185e-05   -5.9601982534933785e-06   -1.1078453231037666e-05
4.0955099411512025e-05   -4.372019260963001e-06   -7.436803134483102e-05
4.0955099411512025e-05   -4.372019260963001e-06   -7.436803134483102e-05
4.0955099411512025e-05   -4.372019260963001e-06   -7.436803134483102e-05
4.0955099411512025e-05   -4.372019260963001e-06   -7.436803134483102e-05
3.0566645665055053e-06   -4.03183534826299e-06   -1.140808361744004e-05
3.0566645665055053e-06   -4.03183534826299e-06   -1.140808361744004e-05
3.0566645665055053e-06   -4.03183534826299e-06   -1.140808361744004e-05
3.0566645665055053e-06   -4.03183534826299e-06   -1.140808361744004e-05
2.1681774494200643e-05   -4.825284603816339e-06   -4.1973863943600036e-05
2.1681774494200643e-05   -4.825284603816339e-06   -4.1973863943600036e-05
2.1681774494200643e-05   -4.825284603816339e-06   -4.1973863943600036e-05
2.1681774494200643e-05   -4.825284603816339e-06   -4.1973863943600036e-05
3.0566645665055003e-06   -4.372019260962987e-06   -7.457214169245116e-05
3.0566645665055003e-06   -4.372019260962987e-06   -7.457214169245116e-05
3.0566645665055003e-06   -4.372019260962987e-06   -7.457214169245116e-05
3.0566645665055003e-06   -4.372019260962987e-06   -7.457214169245116e-05
4.0955099411512086e-05   -4.031835348262936e-06   -1.1203973269819983e-05
4.0955099411512086e-05   -4.031835348262936e-06   -1.1203973269819983e-05
4.0955099411512086e-05   -4.031835348262936e-06   -1.1203973269819983e-05
4.0955099411512086e-05   -4.031835348262936e-06   -1.1203973269819983e-05
4.074685460169742e-05   -2.7537062662706246e-06   -7.576265583721156e-05
4.074685460169742e-05   -2.7537062662706246e-06   -7.576265583721156e-05
4.074685460169742e-05   -2.7537062662706246e-06   -7.576265583721156e-05
4.074685460169742e-05   -2.7537062662706246e-06   -7.576265583721156e-05
2.848363998074282e-06   -2.142485190112758e-06   -1.296523747686783e-05
2.848363998074282e-06   -2.142485190112758e-06   -1.296523747686783e-05
2.848363998074282e-06   -2.142485190112758e-06   -1.296523747686783e-05
2.848363998074282e-06   -2.142485190112758e-06   -1.296523747686783e-05
2.144461695218456e-05   -3.2851172400367773e-06   -4.3273413170430415e-05
2.144461695218456e-05   -3.2851172400367773e-06   -4.3273413170430415e-05
2.144461695218456e-05   -3.2851172400367773e-06   -4.3273413170430415e-05
2.144461695218456e-05   -3.2851172400367773e-06   -4.3273413170430415e-05
2.8483639980742803e-06   -2.753706266270638e-06   -7.61293884829063e-05
2.8483639980742803e-06   -2.753706266270638e-06   -7.61293884829063e-05
2.8483639980742803e-06   -2.753706266270638e-06   -7.61293884829063e-05
2.8483639980742803e-06   -2.753706266270638e-06   -7.61293884829063e-05
4.0746854601697554e-05   -2.142485190112758e-06   -1.2598504831173098e-05
4.0746854601697554e-05   -2.142485190112758e-06   -1.2598504831173098e-05
4.0746854601697554e-05   -2.142485190112758e-06   -1.2598504831173098e-05
4.0746854601697554e-05   -2.142485190112758e-06   -1.2598504831173098e-05
3.955092298349606e-05   -5.7857775730083e-07   -7.589614615662353e-05
3.955092298349606e-05   -5.7857775730083e-07   -7.589614615662353e-05
3.955092298349606e-05   -5.7857775730083e-07   -7.589614615662353e-05
3.955092298349606e-05   -5.7857775730083e-07   -7.589614615662353e-05
2.434058164973989e-06   1.949370718848419e-07   -1.4498813689931585e-05
2.434058164973989e-06   1.949370718848419e-07   -1.4498813689931585e-05
2.434058164973989e-06   1.949370718848419e-07   -1.4498813689931585e-05
2.434058164973989e-06   1.949370718848419e-07   -1.4498813689931585e-05
2.1204833001727365e-05   -1.4861887147227823e-06   -4.4774762945889214e-05
2.1204833001727365e-05   -1.4861887147227823e-06   -4.4774762945889214e-05
2.1204833001727365e-05   -1.4861887147227823e-06   -4.4774762945889214e-05
2.1204833001727365e-05   -1.4861887147227823e-06   -4.4774762945889214e-05
4.062758983562185e-05   -1.4689184772362823e-05   -4.438082414653379e-05
4.062758983562185e-05   -1.4689184772362823e-05   -4.438082414653379e-05
4.062758983562185e-05   -1.4689184772362823e-05   -4.438082414653379e-05
4.062758983562185e-05   -1.4689184772362823e-05   -4.438082414653379e-05
7.756557170714441e-05   -1.1081494925193518e-05   1.9347092880971973e-05
7.756557170714441e-05   -1.1081494925193518e-05   1.9347092880971973e-05
7.756557170714441e-05   -1.1081494925193518e-05   1.9347092880971973e-05
7.756557170714441e-05   -1.1081494925193518e-05   1.9347092880971973e-05
8.050133181254247e-05   -1.2502958052629508e-05   -5.3964442226321053e-05
8.050133181254247e-05   -1.2502958052629508e-05   -5.3964442226321053e-05
8.050133181254247e-05   -1.2502958052629508e-05   -5.3964442226321053e-05
8.050133181254247e-05   -1.2502958052629508e-05   -5.3964442226321053e-05
4.095509941151216e-05   -1.0056615515967662e-05   1.047813958673249e-05
4.095509941151216e-05   -1.0056615515967662e-05   1.047813958673249e-05
4.095509941151216e-05   -1.0056615515967662e-05   1.047813958673249e-05
4.095509941151216e-05   -1.0056615515967662e-05   1.047813958673249e-05
5.7126337048318625e-05   -1.2032075990753386e-05   -1.5288646856406946e-05
5.7126337048318625e-05   -1.2032075990753386e-05   -1.5288646856406946e-05
5.7126337048318625e-05   -1.2032075990753386e-05   -1.5288646856406946e-05
5.7126337048318625e-05   -1.2032075990753386e-05   -1.5288646856406946e-05
4.095509941151206e-05   -1.2502958052629508e-05   -5.543224774831795e-05
4.095509941151206e-05   -1.2502958052629508e-05   -5.543224774831795e-05
4.095509941151206e-05   -1.2502958052629508e-05   -5.543224774831795e-05
4.095509941151206e-05   -1.2502958052629508e-05   -5.543224774831795e-05
8.050133181254247e-05   -1.0056615515967662e-05   1.194594510872958e-05
8.050133181254247e-05   -1.0056615515967662e-05   1.194594510872958e-05
8.050133181254247e-05   -1.0056615515967662e-05   1.194594510872958e-05
8.050133181254247e-05   -1.0056615515967662e-05   1.194594510872958e-05
8.018955808054491e-05   -1.142659135014345e-05   -5.8692432932226276e-05
8.018955808054491e-05   -1.142659135014345e-05   -5.8692432932226276e-05
8.018955808054491e-05   -1.142659135014345e-05   -5.8692432932226276e-05
8.018955808054491e-05   -1.142659135014345e-05   -5.8692432932226276e-05
4.0746854601697554e-05   -8.96924685348286e-06   5.570999501189593e-06
4.0746854601697554e-05   -8.96924685348286e-06   5.570999501189593e-06
4.0746854601697554e-05   -8.96924685348286e-06   5.570999501189593e-06
4.0746854601697554e-05   -8.96924685348286e-06   5.570999501189593e-06
5.911319589725435e-05   -1.0628448885826181e-05   -2.4044048105332437e-05
5.911319589725435e-05   -1.0628448885826181e-05   -2.4044048105332437e-05
5.911319589725435e-05   -1.0628448885826181e-05   -2.4044048105332437e-05
5.911319589725435e-05   -1.0628448885826181e-05   -2.4044048105332437e-05
4.074685460169749e-05   -1.142659135014345e-05   -6.016683963022253e-05
4.074685460169749e-05   -1.142659135014345e-05   -6.016683963022253e-05
4.074685460169749e-05   -1.142659135014345e-05   -6.016683963022253e-05
4.074685460169749e-05   -1.142659135014345e-05   -6.016683963022253e-05
8.018955808054491e-05   -8.96924685348286e-06   7.045406199185898e-06
8.018955808054491e-05   -8.96924685348286e-06   7.045406199185898e-06
8.018955808054491e-05   -8.96924685348286e-06   7.045406199185898e-06
8.018955808054491e-05   -8.96924685348286e-06   7.045406199185898e-06
7.969248951604594e-05   -8.886663210727557e-06   -6.8318409420323e-05
7.969248951604594e-05   -8.886663210727557e-06   -6.8318409420323e-05
7.969248951604594e-05   -8.886663210727557e-06   -6.8318409420323e-05
7.969248951604594e-05   -8.886663210727557e-06   -6.8318409420323e-05
3.95509229834962e-05   -6.628952466711843e-06   -2.7704249791496384e-06
3.95509229834962e-05   -6.628952466711843e-06   -2.7704249791496384e-06
3.95509229834962e-05   -6.628952466711843e-06   -2.7704249791496384e-06
3.95509229834962e-05   -6.628952466711843e-06   -2.7704249791496384e-06
5.741304979468456e-05   -9.153429149443655e-06   -3.102595032149105e-05
5.741304979468456e-05   -9.153429149443655e-06   -3.102595032149105e-05
5.741304979468456e-05   -9.153429149443655e-06   -3.102595032149105e-05
5.741304979468456e-05   -9.153429149443655e-06   -3.102595032149105e-05
-8.695835534423761e-05   1.253344957072598e-05   -5.998247298663893e-05
-8.695835534423761e-05   1.253344957072598e-05   -5.998247298663893e-05
-8.695835534423761e-05   1.253344957072598e-05   -5.998247298663893e-05
-8.695835534423761e-05   1.253344957072598e-05   -5.998247298663893e-05
-5.699646035832554e-05   9.581361589025908e-06   -1.1817234132472266e-05
-5.699646035832554e-05   9.581361589025908e-06   -1.1817234132472266e-05
-5.699646035832554e-05   9.581361589025908e-06   -1.1817234132472266e-05
-5.699646035832554e-05   9.581361589025908e-06   -1.1817234132472266e-05
-5.7274560390507226e-05   1.5039470044828042e-05   -4.9801246938561104e-05
-5.7274560390507226e-05   1.5039470044828042e-05   -4.9801246938561104e-05
-5.7274560390507226e-05   1.5039470044828042e-05   -4.9801246938561104e-05
-5.7274560390507226e-05   1.5039470044828042e-05   -4.9801246938561104e-05
-8.564819204124336e-05   1.158824218265098e-05   -4.411241366947434e-07
-8.564819204124336e-05   1.158824218265098e-05   -4.411241366947434e-07
-8.564819204124336e-05   1.158824218265098e-05   -4.411241366947434e-07
-8.564819204124336e-05   1.158824218265098e-05   -4.411241366947434e-07
-6.868660575225298e-05   1.2743447861398747e-05   -2.940355802559416e-05
-6.868660575225298e-05   1.2743447861398747e-05   -2.940355802559416e-05
-6.868660575225298e-05   1.2743447861398747e-05   -2.940355802559416e-05
-6.868660575225298e-05   1.2743447861398747e-05   -2.940355802559416e-05
-8.564819204124336e-05   1.5039470044828042e-05   -4.7730510221254845e-05
-8.564819204124336e-05   1.5039470044828042e-05   -4.7730510221254845e-05
-8.564819204124336e-05   1.5039470044828042e-05   -4.7730510221254845e-05
-8.564819204124336e-05   1.5039470044828042e-05   -4.7730510221254845e-05
-5.7274560390507226e-05   1.1588242182651088e-05   -2.5118608540007582e-06
-5.7274560390507226e-05   1.1588242182651088e-05   -2.5118608540007582e-06
-5.7274560390507226e-05   1.1588242182651088e-05   -2.5118608540007582e-06
-5.7274560390507226e-05   1.1588242182651088e-05   -2.5118608540007582e-06
-5.721926017091301e-05   1.6170369735913845e-05   -4.260383965415957e-05
-5.721926017091301e-05   1.6170369735913845e-05   -4.260383965415957e-05
-5.721926017091301e-05   1.6170369735913845e-05   -4.260383965415957e-05
-5.721926017091301e-05   1.6170369735913845e-05   -4.260383965415957e-05
-8.436971053684468e-05   1.2469558473273139e-05   4.867397713310831e-06
-8.436971053684468e-05   1.2469558473273139e-05   4.867397713310831e-06
-8.436971053684468e-05   1.2469558473273139e-05   4.867397713310831e-06
-8.436971053684468e-05   1.2469558473273139e-05   4.867397713310831e-06
-6.928443385970154e-05   1.3906889123015717e-05   -2.113712847177262e-05
-6.928443385970154e-05   1.3906889123015717e-05   -2.113712847177262e-05
-6.928443385970154e-05   1.3906889123015717e-05   -2.113712847177262e-05
-6.928443385970154e-05   1.3906889123015717e-05   -2.113712847177262e-05
-8.436971053684468e-05   1.6170369735913845e-05   -4.0383352896575144e-05
-8.436971053684468e-05   1.6170369735913845e-05   -4.0383352896575144e-05
-8.436971053684468e-05   1.6170369735913845e-05   -4.0383352896575144e-05
-8.436971053684468e-05   1.6170369735913845e-05   -4.0383352896575144e-05
-5.721926017091309e-05   1.2469558473273139e-05   2.6469109557267467e-06
-5.721926017091309e-05   1.2469558473273139e-05   2.6469109557267467e-06
-5.721926017091309e-05   1.2469558473273139e-05   2.6469109557267467e-06
-5.721926017091309e-05   1.2469558473273139e-05   2.6469109557267467e-06
-5.727958485360739e-05   1.706774027478012e-05   -3.252163017485087e-05
-5.727958485360739e-05   1.706774027478012e-05   -3.252163017485087e-05
-5.727958485360739e-05   1.706774027478012e-05   -3.252163017485087e-05
-5.727958485360739e-05   1.706774027478012e-05   -3.252163017485087e-05
-8.269826528781502e-05   1.3335653644817261e-05   1.2082089193472443e-05
-8.269826528781502e-05   1.3335653644817261e-05   1.2082089193472443e-05
-8.269826528781502e-05   1.3335653644817261e-05   1.2082089193472443e-05
-8.269826528781502e-05   1.3335653644817261e-05   1.2082089193472443e-05
-6.770975434564252e-05   1.451800908016331e-05   -1.3608175638021728e-05
-6.770975434564252e-05   1.451800908016331e-05   -1.3608175638021728e-05
-6.770975434564252e-05   1.451800908016331e-05   -1.3608175638021728e-05
-6.770975434564252e-05   1.451800908016331e-05   -1.3608175638021728e-05
-5.699646035832554e-05   5.831885783779095e-06   -6.94016753233252e-05
-5.699646035832554e-05   5.831885783779095e-06   -6.94016753233252e-05
-5.699646035832554e-05   5.831885783779095e-06   -6.94016753233252e-05
-5.699646035832554e-05   5.831885783779095e-06   -6.94016753233252e-05
-2.8995364739192533e-05   4.775848544350935e-06   -2.3366804968427072e-05
-2.8995364739192533e-05   4.775848544350935e-06   -2.3366804968427072e-05
-2.8995364739192533e-05   4.775848544350935e-06   -2.3366804968427072e-05
-2.8995364739192533e-05   4.775848544350935e-06   -2.3366804968427072e-05
-2.9349718210768574e-05   8.136417132644132e-06   -6.842023284351587e-05
-2.9349718210768574e-05   8.136417132644132e-06   -6.842023284351587e-05
-2.9349718210768574e-05   8.136417132644132e-06   -6.842023284351587e-05
-2.9349718210768574e-05   8.136417132644132e-06   -6.842023284351587e-05
-5.7274560390507145e-05   6.749234740729905e-06   -2.1046519775469615e-05
-5.7274560390507145e-05   6.749234740729905e-06   -2.1046519775469615e-05
-5.7274560390507145e-05   6.749234740729905e-06   -2.1046519775469615e-05
-5.7274560390507145e-05   6.749234740729905e-06   -2.1046519775469615e-05
-4.278485524606954e-05   6.7235923067262724e-06   -4.518064288913022e-05
-4.278485524606954e-05   6.7235923067262724e-06   -4.518064288913022e-05
-4.278485524606954e-05   6.7235923067262724e-06   -4.518064288913022e-05
-4.278485524606954e-05   6.7235923067262724e-06   -4.518064288913022e-05
-5.72745603905072e-05   8.136417132644132e-06   -6.758792340836721e-05
-5.72745603905072e-05   8.136417132644132e-06   -6.758792340836721e-05
-5.72745603905072e-05   8.136417132644132e-06   -6.758792340836721e-05
-5.72745603905072e-05   8.136417132644132e-06   -6.758792340836721e-05
-2.9349718210768615e-05   6.749234740729905e-06   -2.1878829210618006e-05
-2.9349718210768615e-05   6.749234740729905e-06   -2.1878829210618006e-05
-2.9349718210768615e-05   6.749234740729905e-06   -2.1878829210618006e-05
-2.9349718210768615e-05   6.749234740729905e-06   -2.1878829210618006e-05
-2.9580262323447156e-05   1.0043510033995234e-05   -6.660853858530955e-05
-2.9580262323447156e-05   1.0043510033995234e-05   -6.660853858530955e-05
-2.9580262323447156e-05   1.0043510033995234e-05   -6.660853858530955e-05
-2.9580262323447156e-05   1.0043510033995234e-05   -6.660853858530955e-05
-5.721926017091301e-05   8.501892180163141e-06   -1.961857146056756e-05
-5.721926017091301e-05   8.501892180163141e-06   -1.961857146056756e-05
-5.721926017091301e-05   8.501892180163141e-06   -1.961857146056756e-05
-5.721926017091301e-05   8.501892180163141e-06   -1.961857146056756e-05
-4.286603463531389e-05   8.346737820136806e-06   -4.3447521403882776e-05
-4.286603463531389e-05   8.346737820136806e-06   -4.3447521403882776e-05
-4.286603463531389e-05   8.346737820136806e-06   -4.3447521403882776e-05
-4.286603463531389e-05   8.346737820136806e-06   -4.3447521403882776e-05
-5.721926017091301e-05   1.0043510033995234e-05   -6.568356787301039e-05
-5.721926017091301e-05   1.0043510033995234e-05   -6.568356787301039e-05
-5.721926017091301e-05   1.0043510033995234e-05   -6.568356787301039e-05
-5.721926017091301e-05   1.0043510033995234e-05   -6.568356787301039e-05
-2.958026232344725e-05   8.50189218016325e-06   -2.05435421728665e-05
-2.958026232344725e-05   8.50189218016325e-06   -2.05435421728665e-05
-2.958026232344725e-05   8.50189218016325e-06   -2.05435421728665e-05
-2.958026232344725e-05   8.50189218016325e-06   -2.05435421728665e-05
-2.987777375683386e-05   1.2095088931788039e-05   -6.644718598287517e-05
-2.987777375683386e-05   1.2095088931788039e-05   -6.644718598287517e-05
-2.987777375683386e-05   1.2095088931788039e-05   -6.644718598287517e-05
-2.987777375683386e-05   1.2095088931788039e-05   -6.644718598287517e-05
-5.727958485360736e-05   1.0365719836653094e-05   -1.9739879364505104e-05
-5.727958485360736e-05   1.0365719836653094e-05   -1.9739879364505104e-05
-5.727958485360736e-05   1.0365719836653094e-05   -1.9739879364505104e-05
-5.727958485360736e-05   1.0365719836653094e-05   -1.9739879364505104e-05
-4.337608545391763e-05   9.953974641460899e-06   -4.266533124687211e-05
-4.337608545391763e-05   9.953974641460899e-06   -4.266533124687211e-05
-4.337608545391763e-05   9.953974641460899e-06   -4.266533124687211e-05
-4.337608545391763e-05   9.953974641460899e-06   -4.266533124687211e-05
-2.899536473919248e-05   -1.7268159866287063e-07   -7.480442876828882e-05
-2.899536473919248e-05   -1.7268159866287063e-07   -7.480442876828882e-05
-2.899536473919248e-05   -1.7268159866287063e-07   -7.480442876828882e-05
-2.899536473919248e-05   -1.7268159866287063e-07   -7.480442876828882e-05
-1.3098513289895085e-06   2.539306507791774e-07   -2.8405939068285274e-05
-1.3098513289895085e-06   2.539306507791774e-07   -2.8405939068285274e-05
-1.3098513289895085e-06   2.539306507791774e-07   -2.8405939068285274e-05
-1.3098513289895085e-06   2.539306507791774e-07   -2.8405939068285274e-05
-1.5944487310367352e-06   1.950411676865686e-06   -7.410800808050255e-05
-1.5944487310367352e-06   1.950411676865686e-06   -7.410800808050255e-05
-1.5944487310367352e-06   1.950411676865686e-06   -7.410800808050255e-05
-1.5944487310367352e-06   1.950411676865686e-06   -7.410800808050255e-05
-2.9349718210768574e-05   2.1959576228011268e-06   -2.799655318184424e-05
-2.9349718210768574e-05   2.1959576228011268e-06   -2.799655318184424e-05
-2.9349718210768574e-05   2.1959576228011268e-06   -2.799655318184424e-05
-2.9349718210768574e-05   2.1959576228011268e-06   -2.799655318184424e-05
-1.522646420760948e-05   1.2790974802978942e-06   -5.0985193768274064e-05
-1.522646420760948e-05   1.2790974802978942e-06   -5.0985193768274064e-05
-1.522646420760948e-05   1.2790974802978942e-06   -5.0985193768274064e-05
-1.522646420760948e-05   1.2790974802978942e-06   -5.0985193768274064e-05
-2.9349718210768574e-05   1.950411676865686e-06   -7.425533564806393e-05
-2.9349718210768574e-05   1.950411676865686e-06   -7.425533564806393e-05
-2.9349718210768574e-05   1.950411676865686e-06   -7.425533564806393e-05
-2.9349718210768574e-05   1.950411676865686e-06   -7.425533564806393e-05
-1.5944487310367377e-06   2.195957622801235e-06   -2.7849225614282774e-05
-1.5944487310367377e-06   2.195957622801235e-06   -2.7849225614282774e-05
-1.5944487310367377e-06   2.195957622801235e-06   -2.7849225614282774e-05
-1.5944487310367377e-06   2.195957622801235e-06   -2.7849225614282774e-05
-1.800854297867873e-06   4.024693390715709e-06   -7.430998222697017e-05
-1.800854297867873e-06   4.024693390715709e-06   -7.430998222697017e-05
-1.800854297867873e-06   4.024693390715709e-06   -7.430998222697017e-05
-1.800854297867873e-06   4.024693390715709e-06   -7.430998222697017e-05
-2.958026232344721e-05   4.132147266191219e-06   -2.807544117629026e-05
-2.958026232344721e-05   4.132147266191219e-06   -2.807544117629026e-05
-2.958026232344721e-05   4.132147266191219e-06   -2.807544117629026e-05
-2.958026232344721e-05   4.132147266191219e-06   -2.807544117629026e-05
-1.5593153481374326e-05   2.9916449043026344e-06   -5.0702987829278164e-05
-1.5593153481374326e-05   2.9916449043026344e-06   -5.0702987829278164e-05
-1.5593153481374326e-05   2.9916449043026344e-06   -5.0702987829278164e-05
-1.5593153481374326e-05   2.9916449043026344e-06   -5.0702987829278164e-05
-2.958026232344721e-05   4.024693390715709e-06   -7.437445455225558e-05
-2.958026232344721e-05   4.024693390715709e-06   -7.437445455225558e-05
-2.958026232344721e-05   4.024693390715709e-06   -7.437445455225558e-05
-2.958026232344721e-05   4.024693390715709e-06   -7.437445455225558e-05
-1.8008542978678773e-06   4.132147266191219e-06   -2.8010968851004603e-05
-1.8008542978678773e-06   4.132147266191219e-06   -2.8010968851004603e-05
-1.8008542978678773e-06   4.132147266191219e-06   -2.8010968851004603e-05
-1.8008542978678773e-06   4.132147266191219e-06   -2.8010968851004603e-05
-2.1239146452679087e-06   6.186056232455363e-06   -7.526644006310471e-05
-2.1239146452679087e-06   6.186056232455363e-06   -7.526644006310471e-05
-2.1239146452679087e-06   6.186056232455363e-06   -7.526644006310471e-05
-2.1239146452679087e-06   6.186056232455363e-06   -7.526644006310471e-05
-2.987777375683383e-05   6.113400566571639e-06   -2.896641481096488e-05
-2.987777375683383e-05   6.113400566571639e-06   -2.896641481096488e-05
-2.987777375683383e-05   6.113400566571639e-06   -2.896641481096488e-05
-2.987777375683383e-05   6.113400566571639e-06   -2.896641481096488e-05
-1.5982580388527803e-05   4.724531064128983e-06   -5.1291748723342176e-05
-1.5982580388527803e-05   4.724531064128983e-06   -5.1291748723342176e-05
-1.5982580388527803e-05   4.724531064128983e-06   -5.1291748723342176e-05
-1.5982580388527803e-05   4.724531064128983e-06   -5.1291748723342176e-05
-1.3098513289895102e-06   -5.9601982534933785e-06   -6.68463840651747e-05
-1.3098513289895102e-06   -5.9601982534933785e-06   -6.68463840651747e-05
-1.3098513289895102e-06   -5.9601982534933785e-06   -6.68463840651747e-05
-1.3098513289895102e-06   -5.9601982534933785e-06   -6.68463840651747e-05
2.6239534405973362e-05   -3.999352865782899e-06   -1.975423394094374e-05
2.6239534405973362e-05   -3.999352865782899e-06   -1.975423394094374e-05
2.6239534405973362e-05   -3.999352865782899e-06   -1.975423394094374e-05
2.6239534405973362e-05   -3.999352865782899e-06   -1.975423394094374e-05
2.62172292269442e-05   -4.03183534826299e-06   -6.608142721673823e-05
2.62172292269442e-05   -4.03183534826299e-06   -6.608142721673823e-05
2.62172292269442e-05   -4.03183534826299e-06   -6.608142721673823e-05
2.62172292269442e-05   -4.03183534826299e-06   -6.608142721673823e-05
-1.5944487310367377e-06   -2.219911529025031e-06   -2.0815784911646082e-05
-1.5944487310367377e-06   -2.219911529025031e-06   -2.0815784911646082e-05
-1.5944487310367377e-06   -2.219911529025031e-06   -2.0815784911646082e-05
-1.5944487310367377e-06   -2.219911529025031e-06   -2.0815784911646082e-05
1.2293336242114285e-05   -3.913128574783661e-06   -4.294616297277588e-05
1.2293336242114285e-05   -3.913128574783661e-06   -4.294616297277588e-05
1.2293336242114285e-05   -3.913128574783661e-06   -4.294616297277588e-05
1.2293336242114285e-05   -3.913128574783661e-06   -4.294616297277588e-05
-1.5944487310367377e-06   -4.031835348262936e-06   -6.716858150828092e-05
-1.5944487310367377e-06   -4.031835348262936e-06   -6.716858150828092e-05
-1.5944487310367377e-06   -4.031835348262936e-06   -6.716858150828092e-05
-1.5944487310367377e-06   -4.031835348262936e-06   -6.716858150828092e-05
2.62172292269442e-05   -2.219911529025031e-06   -1.9728630620103227e-05
2.62172292269442e-05   -2.219911529025031e-06   -1.9728630620103227e-05
2.62172292269442e-05   -2.219911529025031e-06   -1.9728630620103227e-05
2.62172292269442e-05   -2.219911529025031e-06   -1.9728630620103227e-05
2.6338045644050908e-05   -2.142485190112758e-06   -6.783170894955918e-05
2.6338045644050908e-05   -2.142485190112758e-06   -6.783170894955918e-05
2.6338045644050908e-05   -2.142485190112758e-06   -6.783170894955918e-05
2.6338045644050908e-05   -2.142485190112758e-06   -6.783170894955918e-05
-1.8008542978678798e-06   -4.7080998394951473e-07   -2.193654750339264e-05
-1.8008542978678798e-06   -4.7080998394951473e-07   -2.193654750339264e-05
-1.8008542978678798e-06   -4.7080998394951473e-07   -2.193654750339264e-05
-1.8008542978678798e-06   -4.7080998394951473e-07   -2.193654750339264e-05
1.1914683703898433e-05   -2.37000326856209e-06   -4.365626153556869e-05
1.1914683703898433e-05   -2.37000326856209e-06   -4.365626153556869e-05
1.1914683703898433e-05   -2.37000326856209e-06   -4.365626153556869e-05
1.1914683703898433e-05   -2.37000326856209e-06   -4.365626153556869e-05
-1.8008542978678756e-06   -2.142485190112758e-06   -6.883471407325684e-05
-1.8008542978678756e-06   -2.142485190112758e-06   -6.883471407325684e-05
-1.8008542978678756e-06   -2.142485190112758e-06   -6.883471407325684e-05
-1.8008542978678756e-06   -2.142485190112758e-06   -6.883471407325684e-05
2.6338045644050908e-05   -4.7080998394962315e-07   -2.093354237969443e-05
2.6338045644050908e-05   -4.7080998394962315e-07   -2.093354237969443e-05
2.6338045644050908e-05   -4.7080998394962315e-07   -2.093354237969443e-05
2.6338045644050908e-05   -4.7080998394962315e-07   -2.093354237969443e-05
2.6133359526435982e-05   1.949370718848961e-07   -6.981364073872009e-05
2.6133359526435982e-05   1.949370718848961e-07   -6.981364073872009e-05
2.6133359526435982e-05   1.949370718848961e-07   -6.981364073872009e-05
2.6133359526435982e-05   1.949370718848961e-07   -6.981364073872009e-05
-2.123914645267912e-06   1.5748861198825034e-06   -2.3546153214679064e-05
-2.123914645267912e-06   1.5748861198825034e-06   -2.3546153214679064e-05
-2.123914645267912e-06   1.5748861198825034e-06   -2.3546153214679064e-05
-2.123914645267912e-06   1.5748861198825034e-06   -2.3546153214679064e-05
1.178062923267562e-05   -7.183702203094082e-07   -4.5344439207136025e-05
1.178062923267562e-05   -7.183702203094082e-07   -4.5344439207136025e-05
1.178062923267562e-05   -7.183702203094082e-07   -4.5344439207136025e-05
1.178062923267562e-05   -7.183702203094082e-07   -4.5344439207136025e-05
2.623953440597332e-05   -1.1081494925193518e-05   -3.7408944628840405e-05
2.623953440597332e-05   -1.1081494925193518e-05   -3.7408944628840405e-05
2.623953440597332e-05   -1.1081494925193518e-05   -3.7408944628840405e-05
2.623953440597332e-05   -1.1081494925193518e-05   -3.7408944628840405e-05
5.204998846413791e-05   -7.257726285489529e-06   7.902739985256291e-06
5.204998846413791e-05   -7.257726285489529e-06   7.902739985256291e-06
5.204998846413791e-05   -7.257726285489529e-06   7.902739985256291e-06
5.204998846413791e-05   -7.257726285489529e-06   7.902739985256291e-06
5.379748315347132e-05   -1.0056615515967662e-05   -4.2105355547099484e-05
5.379748315347132e-05   -1.0056615515967662e-05   -4.2105355547099484e-05
5.379748315347132e-05   -1.0056615515967662e-05   -4.2105355547099484e-05
5.379748315347132e-05   -1.0056615515967662e-05   -4.2105355547099484e-05
2.6217229226944145e-05   -6.233350827490776e-06   1.56777551735981e-06
2.6217229226944145e-05   -6.233350827490776e-06   1.56777551735981e-06
2.6217229226944145e-05   -6.233350827490776e-06   1.56777551735981e-06
2.6217229226944145e-05   -6.233350827490776e-06   1.56777551735981e-06
3.788451026871264e-05   -8.55495734410289e-06   -1.6484728975620522e-05
3.788451026871264e-05   -8.55495734410289e-06   -1.6484728975620522e-05
3.788451026871264e-05   -8.55495734410289e-06   -1.6484728975620522e-05
3.788451026871264e-05   -8.55495734410289e-06   -1.6484728975620522e-05
2.621722922694413e-05   -1.0056615515967662e-05   -4.439931436018546e-05
2.621722922694413e-05   -1.0056615515967662e-05   -4.439931436018546e-05
2.621722922694413e-05   -1.0056615515967662e-05   -4.439931436018546e-05
2.621722922694413e-05   -1.0056615515967662e-05   -4.439931436018546e-05
5.379748315347132e-05   -6.233350827490776e-06   3.861734330446137e-06
5.379748315347132e-05   -6.233350827490776e-06   3.861734330446137e-06
5.379748315347132e-05   -6.233350827490776e-06   3.861734330446137e-06
5.379748315347132e-05   -6.233350827490776e-06   3.861734330446137e-06
5.51392612583323e-05   -8.96924685348286e-06   -4.749282952976397e-05
5.51392612583323e-05   -8.96924685348286e-06   -4.749282952976397e-05
5.51392612583323e-05   -8.96924685348286e-06   -4.749282952976397e-05
5.51392612583323e-05   -8.96924685348286e-06   -4.749282952976397e-05
2.6338045644050813e-05   -5.3536217077621365e-06   -1.6601785933942044e-06
2.6338045644050813e-05   -5.3536217077621365e-06   -1.6601785933942044e-06
2.6338045644050813e-05   -5.3536217077621365e-06   -1.6601785933942044e-06
2.6338045644050813e-05   -5.3536217077621365e-06   -1.6601785933942044e-06
3.916734793277253e-05   -7.893923520858014e-06   -2.1518167986739258e-05
3.916734793277253e-05   -7.893923520858014e-06   -2.1518167986739258e-05
3.916734793277253e-05   -7.893923520858014e-06   -2.1518167986739258e-05
3.916734793277253e-05   -7.893923520858014e-06   -2.1518167986739258e-05
2.6338045644050867e-05   -8.96924685348286e-06   -4.966220461719641e-05
2.6338045644050867e-05   -8.96924685348286e-06   -4.966220461719641e-05
2.6338045644050867e-05   -8.96924685348286e-06   -4.966220461719641e-05
2.6338045644050867e-05   -8.96924685348286e-06   -4.966220461719641e-05
5.513926125833219e-05   -5.353621707762245e-06   5.091964940385878e-07
5.513926125833219e-05   -5.353621707762245e-06   5.091964940385878e-07
5.513926125833219e-05   -5.353621707762245e-06   5.091964940385878e-07
5.513926125833219e-05   -5.353621707762245e-06   5.091964940385878e-07
5.6567943237543047e-05   -6.628952466711843e-06   -5.665605328155039e-05
5.6567943237543047e-05   -6.628952466711843e-06   -5.665605328155039e-05
5.6567943237543047e-05   -6.628952466711843e-06   -5.665605328155039e-05
5.6567943237543047e-05   -6.628952466711843e-06   -5.665605328155039e-05
2.6133359526435887e-05   -3.4734397268801646e-06   -7.825054740271032e-06
2.6133359526435887e-05   -3.4734397268801646e-06   -7.825054740271032e-06
2.6133359526435887e-05   -3.4734397268801646e-06   -7.825054740271032e-06
2.6133359526435887e-05   -3.4734397268801646e-06   -7.825054740271032e-06
3.899580370346096e-05   -6.801777054458611e-06   -2.7265459305432098e-05
3.899580370346096e-05   -6.801777054458611e-06   -2.7265459305432098e-05
3.899580370346096e-05   -6.801777054458611e-06   -2.7265459305432098e-05
3.899580370346096e-05   -6.801777054458611e-06   -2.7265459305432098e-05
-6.253237589006714e-05   9.581361589025908e-06   -4.7546611897446864e-05
-6.253237589006714e-05   9.581361589025908e-06   -4.7546611897446864e-05
-6.253237589006714e-05   9.581361589025908e-06   -4.7546611897446864e-05
-6.253237589006714e-05   9.581361589025908e-06   -4.7546611897446864e-05
-4.256182901102106e-05   6.099137573547034e-06   -1.6351701508323958e-05
-4.256182901102106e-05   6.099137573547034e-06   -1.6351701508323958e-05
-4.256182901102106e-05   6.099137573547034e-06   -1.6351701508323958e-05
-4.256182901102106e-05   6.099137573547034e-06   -1.6351701508323958e-05
-4.240722225141438e-05   1.158824218265098e-05   -4.039201588542144e-05
-4.240722225141438e-05   1.158824218265098e-05   -4.039201588542144e-05
-4.240722225141438e-05   1.158824218265098e-05   -4.039201588542144e-05
-4.240722225141438e-05   1.158824218265098e-05   -4.039201588542144e-05
-6.066593085102273e-05   7.761225777418255e-06   -7.664625042934402e-06
-6.066593085102273e-05   7.761225777418255e-06   -7.664625042934402e-06
-6.066593085102273e-05   7.761225777418255e-06   -7.664625042934402e-06
-6.066593085102273e-05   7.761225777418255e-06   -7.664625042934402e-06
-4.983407862320918e-05   9.225519541605342e-06   -2.6596288347802545e-05
-4.983407862320918e-05   9.225519541605342e-06   -2.6596288347802545e-05
-4.983407862320918e-05   9.225519541605342e-06   -2.6596288347802545e-05
-4.983407862320918e-05   9.225519541605342e-06   -2.6596288347802545e-05
-6.066593085102273e-05   1.158824218265098e-05   -3.809580604228162e-05
-6.066593085102273e-05   1.158824218265098e-05   -3.809580604228162e-05
-6.066593085102273e-05   1.158824218265098e-05   -3.809580604228162e-05
-6.066593085102273e-05   1.158824218265098e-05   -3.809580604228162e-05
-4.240722225141446e-05   7.761225777418038e-06   -9.960834886074084e-06
-4.240722225141446e-05   7.761225777418038e-06   -9.960834886074084e-06
-4.240722225141446e-05   7.761225777418038e-06   -9.960834886074084e-06
-4.240722225141446e-05   7.761225777418038e-06   -9.960834886074084e-06
-4.208583223170315e-05   1.2469558473273139e-05   -3.522139053975244e-05
-4.208583223170315e-05   1.2469558473273139e-05   -3.522139053975244e-05
-4.208583223170315e-05   1.2469558473273139e-05   -3.522139053975244e-05
-4.208583223170315e-05   1.2469558473273139e-05   -3.522139053975244e-05
-5.927003989865566e-05   8.535112021692756e-06   -4.220376557216815e-06
-5.927003989865566e-05   8.535112021692756e-06   -4.220376557216815e-06
-5.927003989865566e-05   8.535112021692756e-06   -4.220376557216815e-06
-5.927003989865566e-05   8.535112021692756e-06   -4.220376557216815e-06
-4.983817993738862e-05   1.0152853235696107e-05   -2.0910787887730875e-05
-4.983817993738862e-05   1.0152853235696107e-05   -2.0910787887730875e-05
-4.983817993738862e-05   1.0152853235696107e-05   -2.0910787887730875e-05
-4.983817993738862e-05   1.0152853235696107e-05   -2.0910787887730875e-05
-5.927003989865566e-05   1.2469558473273139e-05   -3.286072266880442e-05
-5.927003989865566e-05   1.2469558473273139e-05   -3.286072266880442e-05
-5.927003989865566e-05   1.2469558473273139e-05   -3.286072266880442e-05
-5.927003989865566e-05   1.2469558473273139e-05   -3.286072266880442e-05
-4.208583223170323e-05   8.535112021692756e-06   -6.581044428164845e-06
-4.208583223170323e-05   8.535112021692756e-06   -6.581044428164845e-06
-4.208583223170323e-05   8.535112021692756e-06   -6.581044428164845e-06
-4.208583223170323e-05   8.535112021692756e-06   -6.581044428164845e-06
-4.195673925386258e-05   1.3335653644817261e-05   -2.806195017370297e-05
-4.195673925386258e-05   1.3335653644817261e-05   -2.806195017370297e-05
-4.195673925386258e-05   1.3335653644817261e-05   -2.806195017370297e-05
-4.195673925386258e-05   1.3335653644817261e-05   -2.806195017370297e-05
-5.744285009317185e-05   9.507456175631953e-06   4.515303999078589e-08
-5.744285009317185e-05   9.507456175631953e-06   4.515303999078589e-08
-5.744285009317185e-05   9.507456175631953e-06   4.515303999078589e-08
-5.744285009317185e-05   9.507456175631953e-06   4.515303999078589e-08
-4.836438119253771e-05   1.0654337627959143e-05   -1.577375733246276e-05
-4.836438119253771e-05   1.0654337627959143e-05   -1.577375733246276e-05
-4.836438119253771e-05   1.0654337627959143e-05   -1.577375733246276e-05
-4.836438119253771e-05   1.0654337627959143e-05   -1.577375733246276e-05
-4.256182901102098e-05   4.775848544350935e-06   -6.055189479903212e-05
-4.256182901102098e-05   4.775848544350935e-06   -6.055189479903212e-05
-4.256182901102098e-05   4.775848544350935e-06   -6.055189479903212e-05
-4.256182901102098e-05   4.775848544350935e-06   -6.055189479903212e-05
-2.4465431212139215e-05   3.150634795015322e-06   -3.1366360050497186e-05
-2.4465431212139215e-05   3.150634795015322e-06   -3.1366360050497186e-05
-2.4465431212139215e-05   3.150634795015322e-06   -3.1366360050497186e-05
-2.4465431212139215e-05   3.150634795015322e-06   -3.1366360050497186e-05
-2.4477158634185597e-05   6.7492347407300136e-06   -6.003322229084624e-05
-2.4477158634185597e-05   6.7492347407300136e-06   -6.003322229084624e-05
-2.4477158634185597e-05   6.7492347407300136e-06   -6.003322229084624e-05
-2.4477158634185597e-05   6.7492347407300136e-06   -6.003322229084624e-05
-4.240722225141438e-05   4.9049889341364235e-06   -2.9043235444841926e-05
-4.240722225141438e-05   4.9049889341364235e-06   -2.9043235444841926e-05
-4.240722225141438e-05   4.9049889341364235e-06   -2.9043235444841926e-05
-4.240722225141438e-05   4.9049889341364235e-06   -2.9043235444841926e-05
-3.3169386503823006e-05   5.222248402750014e-06   -4.462998403866259e-05
-3.3169386503823006e-05   5.222248402750014e-06   -4.462998403866259e-05
-3.3169386503823006e-05   5.222248402750014e-06   -4.462998403866259e-05
-3.3169386503823006e-05   5.222248402750014e-06   -4.462998403866259e-05
-4.2407222251414323e-05   6.7492347407300136e-06   -5.892667480688978e-05
-4.2407222251414323e-05   6.7492347407300136e-06   -5.892667480688978e-05
-4.2407222251414323e-05   6.7492347407300136e-06   -5.892667480688978e-05
-4.2407222251414323e-05   6.7492347407300136e-06   -5.892667480688978e-05
-2.4477158634185597e-05   4.9049889341364235e-06   -3.014978292879814e-05
-2.4477158634185597e-05   4.9049889341364235e-06   -3.014978292879814e-05
-2.4477158634185597e-05   4.9049889341364235e-06   -3.014978292879814e-05
-2.4477158634185597e-05   4.9049889341364235e-06   -3.014978292879814e-05
-2.4458803052560812e-05   8.501892180163141e-06   -5.8687522066121754e-05
-2.4458803052560812e-05   8.501892180163141e-06   -5.8687522066121754e-05
-2.4458803052560812e-05   8.501892180163141e-06   -5.8687522066121754e-05
-2.4458803052560812e-05   8.501892180163141e-06   -5.8687522066121754e-05
-4.208583223170315e-05   6.500810330037875e-06   -2.8108490990809312e-05
-4.208583223170315e-05   6.500810330037875e-06   -2.8108490990809312e-05
-4.208583223170315e-05   6.500810330037875e-06   -2.8108490990809312e-05
-4.208583223170315e-05   6.500810330037875e-06   -2.8108490990809312e-05
-3.301455809646069e-05   6.6624836457343e-06   -4.332428520563094e-05
-3.301455809646069e-05   6.6624836457343e-06   -4.332428520563094e-05
-3.301455809646069e-05   6.6624836457343e-06   -4.332428520563094e-05
-3.301455809646069e-05   6.6624836457343e-06   -4.332428520563094e-05
-4.208583223170315e-05   8.501892180163141e-06   -5.748687295604652e-05
-4.208583223170315e-05   8.501892180163141e-06   -5.748687295604652e-05
-4.208583223170315e-05   8.501892180163141e-06   -5.748687295604652e-05
-4.208583223170315e-05   8.501892180163141e-06   -5.748687295604652e-05
-2.4458803052560866e-05   6.500810330037875e-06   -2.9309140100884466e-05
-2.4458803052560866e-05   6.500810330037875e-06   -2.9309140100884466e-05
-2.4458803052560866e-05   6.500810330037875e-06   -2.9309140100884466e-05
-2.4458803052560866e-05   6.500810330037875e-06   -2.9309140100884466e-05
-2.4477988239709618e-05   1.0365719836653094e-05   -5.8923890697669054e-05
-2.4477988239709618e-05   1.0365719836653094e-05   -5.8923890697669054e-05
-2.4477988239709618e-05   1.0365719836653094e-05   -5.8923890697669054e-05
-2.4477988239709618e-05   1.0365719836653094e-05   -5.8923890697669054e-05
-4.195673925386261e-05   8.233679930042676e-06   -2.8513415063447672e-05
-4.195673925386261e-05   8.233679930042676e-06   -2.8513415063447672e-05
-4.195673925386261e-05   8.233679930042676e-06   -2.8513415063447672e-05
-4.195673925386261e-05   8.233679930042676e-06   -2.8513415063447672e-05
-3.322807210109671e-05   8.086740849807096e-06   -4.2973030203249376e-05
-3.322807210109671e-05   8.086740849807096e-06   -4.2973030203249376e-05
-3.322807210109671e-05   8.086740849807096e-06   -4.2973030203249376e-05
-3.322807210109671e-05   8.086740849807096e-06   -4.2973030203249376e-05
-2.4465431212139174e-05   2.539306507791774e-07   -6.682212449815703e-05
-2.4465431212139174e-05   2.539306507791774e-07   -6.682212449815703e-05
-2.4465431212139174e-05   2.539306507791774e-07   -6.682212449815703e-05
-2.4465431212139174e-05   2.539306507791774e-07   -6.682212449815703e-05
-6.622908912413709e-06   5.407846057339447e-07   -3.691247495897504e-05
-6.622908912413709e-06   5.407846057339447e-07   -3.691247495897504e-05
-6.622908912413709e-06   5.407846057339447e-07   -3.691247495897504e-05
-6.622908912413709e-06   5.407846057339447e-07   -3.691247495897504e-05
-6.635217936954736e-06   2.1959576228011268e-06   -6.608605429564939e-05
-6.635217936954736e-06   2.1959576228011268e-06   -6.608605429564939e-05
-6.635217936954736e-06   2.1959576228011268e-06   -6.608605429564939e-05
-6.635217936954736e-06   2.1959576228011268e-06   -6.608605429564939e-05
-2.4477158634185543e-05   2.3041109001725735e-06   -3.6414378433354254e-05
-2.4477158634185543e-05   2.3041109001725735e-06   -3.6414378433354254e-05
-2.4477158634185543e-05   2.3041109001725735e-06   -3.6414378433354254e-05
-2.4477158634185543e-05   2.3041109001725735e-06   -3.6414378433354254e-05
-1.5447004012277394e-05   1.5513344103532762e-06   -5.101297024264292e-05
-1.5447004012277394e-05   1.5513344103532762e-06   -5.101297024264292e-05
-1.5447004012277394e-05   1.5513344103532762e-06   -5.101297024264292e-05
-1.5447004012277394e-05   1.5513344103532762e-06   -5.101297024264292e-05
-2.4477158634185543e-05   2.1959576228011268e-06   -6.615094626207213e-05
-2.4477158634185543e-05   2.1959576228011268e-06   -6.615094626207213e-05
-2.4477158634185543e-05   2.1959576228011268e-06   -6.615094626207213e-05
-2.4477158634185543e-05   2.1959576228011268e-06   -6.615094626207213e-05
-6.635217936954736e-06   2.3041109001725735e-06   -3.634948646693138e-05
-6.635217936954736e-06   2.3041109001725735e-06   -3.634948646693138e-05
-6.635217936954736e-06   2.3041109001725735e-06   -3.634948646693138e-05
-6.635217936954736e-06   2.3041109001725735e-06   -3.634948646693138e-05
-6.611538675397769e-06   4.132147266191219e-06   -6.625487001453694e-05
-6.611538675397769e-06   4.132147266191219e-06   -6.625487001453694e-05
-6.611538675397769e-06   4.132147266191219e-06   -6.625487001453694e-05
-6.611538675397769e-06   4.132147266191219e-06   -6.625487001453694e-05
-2.4458803052560812e-05   4.073065691204917e-06   -3.647398044094008e-05
-2.4458803052560812e-05   4.073065691204917e-06   -3.647398044094008e-05
-2.4458803052560812e-05   4.073065691204917e-06   -3.647398044094008e-05
-2.4458803052560812e-05   4.073065691204917e-06   -3.647398044094008e-05
-1.5550146608924015e-05   3.093554745587702e-06   -5.073403461296449e-05
-1.5550146608924015e-05   3.093554745587702e-06   -5.073403461296449e-05
-1.5550146608924015e-05   3.093554745587702e-06   -5.073403461296449e-05
-1.5550146608924015e-05   3.093554745587702e-06   -5.073403461296449e-05
-2.4458803052560812e-05   4.132147266191219e-06   -6.621942106954513e-05
-2.4458803052560812e-05   4.132147266191219e-06   -6.621942106954513e-05
-2.4458803052560812e-05   4.132147266191219e-06   -6.621942106954513e-05
-2.4458803052560812e-05   4.132147266191219e-06   -6.621942106954513e-05
-6.61153867539778e-06   4.0730656912047e-06   -3.650942938593176e-05
-6.61153867539778e-06   4.0730656912047e-06   -3.650942938593176e-05
-6.61153867539778e-06   4.0730656912047e-06   -3.650942938593176e-05
-6.61153867539778e-06   4.0730656912047e-06   -3.650942938593176e-05
-6.62181736839268e-06   6.113400566571639e-06   -6.725707550159416e-05
-6.62181736839268e-06   6.113400566571639e-06   -6.725707550159416e-05
-6.62181736839268e-06   6.113400566571639e-06   -6.725707550159416e-05
-6.62181736839268e-06   6.113400566571639e-06   -6.725707550159416e-05
-2.447798823970959e-05   5.872949208994473e-06   -3.735251990151942e-05
-2.447798823970959e-05   5.872949208994473e-06   -3.735251990151942e-05
-2.447798823970959e-05   5.872949208994473e-06   -3.735251990151942e-05
-2.447798823970959e-05   5.872949208994473e-06   -3.735251990151942e-05
-1.568357657165369e-05   4.656024004054404e-06   -5.1279717558648616e-05
-1.568357657165369e-05   4.656024004054404e-06   -5.1279717558648616e-05
-1.568357657165369e-05   4.656024004054404e-06   -5.1279717558648616e-05
-1.568357657165369e-05   4.656024004054404e-06   -5.1279717558648616e-05
-6.622908912413698e-06   -3.999352865782899e-06   -5.917481423046875e-05
-6.622908912413698e-06   -3.999352865782899e-06   -5.917481423046875e-05
-6.622908912413698e-06   -3.999352865782899e-06   -5.917481423046875e-05
-6.622908912413698e-06   -3.999352865782899e-06   -5.917481423046875e-05
1.0963625162491717e-05   -1.8465020008048665e-06   -2.8572213586639515e-05
1.0963625162491717e-05   -1.8465020008048665e-06   -2.8572213586639515e-05
1.0963625162491717e-05   -1.8465020008048665e-06   -2.8572213586639515e-05
1.0963625162491717e-05   -1.8465020008048665e-06   -2.8572213586639515e-05
1.1107350224176185e-05   -2.2199115290249226e-06   -5.783237503658166e-05
1.1107350224176185e-05   -2.2199115290249226e-06   -5.783237503658166e-05
1.1107350224176185e-05   -2.2199115290249226e-06   -5.783237503658166e-05
1.1107350224176185e-05   -2.2199115290249226e-06   -5.783237503658166e-05
-6.635217936954736e-06   -1.8618060164030635e-07   -2.9481666657794324e-05
-6.635217936954736e-06   -1.8618060164030635e-07   -2.9481666657794324e-05
-6.635217936954736e-06   -1.8618060164030635e-07   -2.9481666657794324e-05
-6.635217936954736e-06   -1.8618060164030635e-07   -2.9481666657794324e-05
2.2130140605272433e-06   -1.9098034376259163e-06   -4.319454628533962e-05
2.2130140605272433e-06   -1.9098034376259163e-06   -4.319454628533962e-05
2.2130140605272433e-06   -1.9098034376259163e-06   -4.319454628533962e-05
2.2130140605272433e-06   -1.9098034376259163e-06   -4.319454628533962e-05
-6.635217936954736e-06   -2.219911529025031e-06   -5.9052613593012584e-05
-6.635217936954736e-06   -2.219911529025031e-06   -5.9052613593012584e-05
-6.635217936954736e-06   -2.219911529025031e-06   -5.9052613593012584e-05
-6.635217936954736e-06   -2.219911529025031e-06   -5.9052613593012584e-05
1.1107350224176212e-05   -1.8618060164030635e-07   -2.8261428101363515e-05
1.1107350224176212e-05   -1.8618060164030635e-07   -2.8261428101363515e-05
1.1107350224176212e-05   -1.8618060164030635e-07   -2.8261428101363515e-05
1.1107350224176212e-05   -1.8618060164030635e-07   -2.8261428101363515e-05
1.144517322472708e-05   -4.7080998394951473e-07   -5.9050989842309625e-05
1.144517322472708e-05   -4.7080998394951473e-07   -5.9050989842309625e-05
1.144517322472708e-05   -4.7080998394951473e-07   -5.9050989842309625e-05
1.144517322472708e-05   -4.7080998394951473e-07   -5.9050989842309625e-05
-6.61153867539778e-06   1.4116213904087366e-06   -3.008592883338329e-05
-6.61153867539778e-06   1.4116213904087366e-06   -3.008592883338329e-05
-6.61153867539778e-06   1.4116213904087366e-06   -3.008592883338329e-05
-6.61153867539778e-06   1.4116213904087366e-06   -3.008592883338329e-05
2.111473883246478e-06   -5.287194069023959e-07   -4.3460078619403624e-05
2.111473883246478e-06   -5.287194069023959e-07   -4.3460078619403624e-05
2.111473883246478e-06   -5.287194069023959e-07   -4.3460078619403624e-05
2.111473883246478e-06   -5.287194069023959e-07   -4.3460078619403624e-05
-6.611538675397774e-06   -4.7080998394951473e-07   -6.018044866692448e-05
-6.611538675397774e-06   -4.7080998394951473e-07   -6.018044866692448e-05
-6.611538675397774e-06   -4.7080998394951473e-07   -6.018044866692448e-05
-6.611538675397774e-06   -4.7080998394951473e-07   -6.018044866692448e-05
1.1445173224727107e-05   1.4116213904087366e-06   -2.8956470008768137e-05
1.1445173224727107e-05   1.4116213904087366e-06   -2.8956470008768137e-05
1.1445173224727107e-05   1.4116213904087366e-06   -2.8956470008768137e-05
1.1445173224727107e-05   1.4116213904087366e-06   -2.8956470008768137e-05
1.1610277488293823e-05   1.5748861198826118e-06   -6.079205101006829e-05
1.1610277488293823e-05   1.5748861198826118e-06   -6.079205101006829e-05
1.1610277488293823e-05   1.5748861198826118e-06   -6.079205101006829e-05
1.1610277488293823e-05   1.5748861198826118e-06   -6.079205101006829e-05
-6.621817368392669e-06   3.2435019460652203e-06   -3.1406395744633634e-05
-6.621817368392669e-06   3.2435019460652203e-06   -3.1406395744633634e-05
-6.621817368392669e-06   3.2435019460652203e-06   -3.1406395744633634e-05
-6.621817368392669e-06   3.2435019460652203e-06   -3.1406395744633634e-05
2.1729331397321537e-06   9.491368562240332e-07   -4.46876942042702e-05
2.1729331397321537e-06   9.491368562240332e-07   -4.46876942042702e-05
2.1729331397321537e-06   9.491368562240332e-07   -4.46876942042702e-05
2.1729331397321537e-06   9.491368562240332e-07   -4.46876942042702e-05
1.0963625162491703e-05   -7.257726285489637e-06   -3.252039096910412e-05
1.0963625162491703e-05   -7.257726285489637e-06   -3.252039096910412e-05
1.0963625162491703e-05   -7.257726285489637e-06   -3.252039096910412e-05
1.0963625162491703e-05   -7.257726285489637e-06   -3.252039096910412e-05
2.6596544133119002e-05   -3.3962524506596804e-06   -4.1486417171606805e-06
2.6596544133119002e-05   -3.3962524506596804e-06   -4.1486417171606805e-06
2.6596544133119002e-05   -3.3962524506596804e-06   -4.1486417171606805e-06
2.6596544133119002e-05   -3.3962524506596804e-06   -4.1486417171606805e-06
2.8448516191582543e-05   -6.233350827490884e-06   -3.4159398852366305e-05
2.8448516191582543e-05   -6.233350827490884e-06   -3.4159398852366305e-05
2.8448516191582543e-05   -6.233350827490884e-06   -3.4159398852366305e-05
2.8448516191582543e-05   -6.233350827490884e-06   -3.4159398852366305e-05
1.1107350224176199e-05   -2.2724007495702418e-06   -7.634025620108047e-06
1.1107350224176199e-05   -2.2724007495702418e-06   -7.634025620108047e-06
1.1107350224176199e-05   -2.2724007495702418e-06   -7.634025620108047e-06
1.1107350224176199e-05   -2.2724007495702418e-06   -7.634025620108047e-06
1.845697210020874e-05   -4.641660190240907e-06   -1.846183974909323e-05
1.845697210020874e-05   -4.641660190240907e-06   -1.846183974909323e-05
1.845697210020874e-05   -4.641660190240907e-06   -1.846183974909323e-05
1.845697210020874e-05   -4.641660190240907e-06   -1.846183974909323e-05
1.1107350224176185e-05   -6.233350827490776e-06   -3.6535968899118355e-05
1.1107350224176185e-05   -6.233350827490776e-06   -3.6535968899118355e-05
1.1107350224176185e-05   -6.233350827490776e-06   -3.6535968899118355e-05
1.1107350224176185e-05   -6.233350827490776e-06   -3.6535968899118355e-05
2.8448516191582462e-05   -2.2724007495704586e-06   -5.257455573355672e-06
2.8448516191582462e-05   -2.2724007495704586e-06   -5.257455573355672e-06
2.8448516191582462e-05   -2.2724007495704586e-06   -5.257455573355672e-06
2.8448516191582462e-05   -2.2724007495704586e-06   -5.257455573355672e-06
2.9873451374497732e-05   -5.353621707762245e-06   -3.746298567727286e-05
2.9873451374497732e-05   -5.353621707762245e-06   -3.746298567727286e-05
2.9873451374497732e-05   -5.353621707762245e-06   -3.746298567727286e-05
2.9873451374497732e-05   -5.353621707762245e-06   -3.746298567727286e-05
1.1445173224727107e-05   -1.4958877432014444e-06   -9.06382913972486e-06
1.1445173224727107e-05   -1.4958877432014444e-06   -9.06382913972486e-06
1.1445173224727107e-05   -1.4958877432014444e-06   -9.06382913972486e-06
1.1445173224727107e-05   -1.4958877432014444e-06   -9.06382913972486e-06
1.958998433334831e-05   -4.064843399453704e-06   -2.1097140927008973e-05
1.958998433334831e-05   -4.064843399453704e-06   -2.1097140927008973e-05
1.958998433334831e-05   -4.064843399453704e-06   -2.1097140927008973e-05
1.958998433334831e-05   -4.064843399453704e-06   -2.1097140927008973e-05
1.1445173224727093e-05   -5.353621707762245e-06   -3.977762605600918e-05
1.1445173224727093e-05   -5.353621707762245e-06   -3.977762605600918e-05
1.1445173224727093e-05   -5.353621707762245e-06   -3.977762605600918e-05
1.1445173224727093e-05   -5.353621707762245e-06   -3.977762605600918e-05
2.987345137449765e-05   -1.4958877432014444e-06   -6.749188760988298e-06
2.987345137449765e-05   -1.4958877432014444e-06   -6.749188760988298e-06
2.987345137449765e-05   -1.4958877432014444e-06   -6.749188760988298e-06
2.987345137449765e-05   -1.4958877432014444e-06   -6.749188760988298e-06
3.176632448952647e-05   -3.4734397268801646e-06   -4.379575603147414e-05
3.176632448952647e-05   -3.4734397268801646e-06   -4.379575603147414e-05
3.176632448952647e-05   -3.4734397268801646e-06   -4.379575603147414e-05
3.176632448952647e-05   -3.4734397268801646e-06   -4.379575603147414e-05
1.1610277488293837e-05   3.1836828094612343e-08   -1.2305510295737901e-05
1.1610277488293837e-05   3.1836828094612343e-08   -1.2305510295737901e-05
1.1610277488293837e-05   3.1836828094612343e-08   -1.2305510295737901e-05
1.1610277488293837e-05   3.1836828094612343e-08   -1.2305510295737901e-05
1.9965242168203625e-05   -3.205009338755403e-06   -2.4288343728810845e-05
1.9965242168203625e-05   -3.205009338755403e-06   -2.4288343728810845e-05
1.9965242168203625e-05   -3.205009338755403e-06   -2.4288343728810845e-05
1.9965242168203625e-05   -3.205009338755403e-06   -2.4288343728810845e-05
-3.788816545558215e-05   6.099137573546817e-06   -3.548384397914948e-05
-3.788816545558215e-05   6.099137573546817e-06   -3.548384397914948e-05
-3.788816545558215e-05   6.099137573546817e-06   -3.548384397914948e-05
-3.788816545558215e-05   6.099137573546817e-06   -3.548384397914948e-05
-2.7956843999931184e-05   2.4881619807826626e-06   -2.109822690872314e-05
-2.7956843999931184e-05   2.4881619807826626e-06   -2.109822690872314e-05
-2.7956843999931184e-05   2.4881619807826626e-06   -2.109822690872314e-05
-2.7956843999931184e-05   2.4881619807826626e-06   -2.109822690872314e-05
-2.754460335455816e-05   7.761225777418255e-06   -3.130304130706052e-05
-2.754460335455816e-05   7.761225777418255e-06   -3.130304130706052e-05
-2.754460335455816e-05   7.761225777418255e-06   -3.130304130706052e-05
-2.754460335455816e-05   7.761225777418255e-06   -3.130304130706052e-05
-3.583177349627013e-05   3.8718703051178124e-06   -1.5157477787493398e-05
-3.583177349627013e-05   3.8718703051178124e-06   -1.5157477787493398e-05
-3.583177349627013e-05   3.8718703051178124e-06   -1.5157477787493398e-05
-3.583177349627013e-05   3.8718703051178124e-06   -1.5157477787493398e-05
-3.093658309725756e-05   5.470291380520447e-06   -2.4275181097757593e-05
-3.093658309725756e-05   5.470291380520447e-06   -2.4275181097757593e-05
-3.093658309725756e-05   5.470291380520447e-06   -2.4275181097757593e-05
-3.093658309725756e-05   5.470291380520447e-06   -2.4275181097757593e-05
-3.583177349627013e-05   7.761225777418255e-06   -2.89694280236803e-05
-3.583177349627013e-05   7.761225777418255e-06   -2.89694280236803e-05
-3.583177349627013e-05   7.761225777418255e-06   -2.89694280236803e-05
-3.583177349627013e-05   7.761225777418255e-06   -2.89694280236803e-05
-2.7544603354558216e-05   3.8718703051178124e-06   -1.7491091070873728e-05
-2.7544603354558216e-05   3.8718703051178124e-06   -1.7491091070873728e-05
-2.7544603354558216e-05   3.8718703051178124e-06   -1.7491091070873728e-05
-2.7544603354558216e-05   3.8718703051178124e-06   -1.7491091070873728e-05
-2.6956562400060513e-05   8.535112021692756e-06   -2.7952362553916718e-05
-2.6956562400060513e-05   8.535112021692756e-06   -2.7952362553916718e-05
-2.6956562400060513e-05   8.535112021692756e-06   -2.7952362553916718e-05
-2.6956562400060513e-05   8.535112021692756e-06   -2.7952362553916718e-05
-3.4190523093385417e-05   4.570411407720139e-06   -1.3516941029991653e-05
-3.4190523093385417e-05   4.570411407720139e-06   -1.3516941029991653e-05
-3.4190523093385417e-05   4.570411407720139e-06   -1.3516941029991653e-05
-3.4190523093385417e-05   4.570411407720139e-06   -1.3516941029991653e-05
-3.039371681051885e-05   6.2166925197846504e-06   -2.083272016867462e-05
-3.039371681051885e-05   6.2166925197846504e-06   -2.083272016867462e-05
-3.039371681051885e-05   6.2166925197846504e-06   -2.083272016867462e-05
-3.039371681051885e-05   6.2166925197846504e-06   -2.083272016867462e-05
-3.419052309338531e-05   8.535112021692756e-06   -2.5573542185533104e-05
-3.419052309338531e-05   8.535112021692756e-06   -2.5573542185533104e-05
-3.419052309338531e-05   8.535112021692756e-06   -2.5573542185533104e-05
-3.419052309338531e-05   8.535112021692756e-06   -2.5573542185533104e-05
-2.6956562400060513e-05   4.570411407720139e-06   -1.5895761398375293e-05
-2.6956562400060513e-05   4.570411407720139e-06   -1.5895761398375293e-05
-2.6956562400060513e-05   4.570411407720139e-06   -1.5895761398375293e-05
-2.6956562400060513e-05   4.570411407720139e-06   -1.5895761398375293e-05
-2.6555093449877874e-05   9.507456175631736e-06   -2.365264364691407e-05
-2.6555093449877874e-05   9.507456175631736e-06   -2.365264364691407e-05
-2.6555093449877874e-05   9.507456175631736e-06   -2.365264364691407e-05
-2.6555093449877874e-05   9.507456175631736e-06   -2.365264364691407e-05
-3.210039682800505e-05   5.676648080339859e-06   -1.2111986492860036e-05
-3.210039682800505e-05   5.676648080339859e-06   -1.2111986492860036e-05
-3.210039682800505e-05   5.676648080339859e-06   -1.2111986492860036e-05
-3.210039682800505e-05   5.676648080339859e-06   -1.2111986492860036e-05
-2.8972848301731885e-05   6.7332551866780815e-06   -1.7958531633785924e-05
-2.8972848301731885e-05   6.7332551866780815e-06   -1.7958531633785924e-05
-2.8972848301731885e-05   6.7332551866780815e-06   -1.7958531633785924e-05
-2.8972848301731885e-05   6.7332551866780815e-06   -1.7958531633785924e-05
-2.7956843999931184e-05   3.150634795015322e-06   -5.168995962738e-05
-2.7956843999931184e-05   3.150634795015322e-06   -5.168995962738e-05
-2.7956843999931184e-05   3.150634795015322e-06   -5.168995962738e-05
-2.7956843999931184e-05   3.150634795015322e-06   -5.168995962738e-05
-1.9889804579751414e-05   1.4253781903761451e-06   -3.928004788986372e-05
-1.9889804579751414e-05   1.4253781903761451e-06   -3.928004788986372e-05
-1.9889804579751414e-05   1.4253781903761451e-06   -3.928004788986372e-05
-1.9889804579751414e-05   1.4253781903761451e-06   -3.928004788986372e-05
-1.9619166125880484e-05   4.9049889341364235e-06   -5.152141569102946e-05
-1.9619166125880484e-05   4.9049889341364235e-06   -5.152141569102946e-05
-1.9619166125880484e-05   4.9049889341364235e-06   -5.152141569102946e-05
-1.9619166125880484e-05   4.9049889341364235e-06   -5.152141569102946e-05
-2.7544603354558216e-05   3.0116992254685705e-06   -3.7176379818031936e-05
-2.7544603354558216e-05   3.0116992254685705e-06   -3.7176379818031936e-05
-2.7544603354558216e-05   3.0116992254685705e-06   -3.7176379818031936e-05
-2.7544603354558216e-05   3.0116992254685705e-06   -3.7176379818031936e-05
-2.352106483495203e-05   3.4267645116618263e-06   -4.413131652242626e-05
-2.352106483495203e-05   3.4267645116618263e-06   -4.413131652242626e-05
-2.352106483495203e-05   3.4267645116618263e-06   -4.413131652242626e-05
-2.352106483495203e-05   3.4267645116618263e-06   -4.413131652242626e-05
-2.754460335455816e-05   4.9049889341364235e-06   -5.038544186582823e-05
-2.754460335455816e-05   4.9049889341364235e-06   -5.038544186582823e-05
-2.754460335455816e-05   4.9049889341364235e-06   -5.038544186582823e-05
-2.754460335455816e-05   4.9049889341364235e-06   -5.038544186582823e-05
-1.9619166125880484e-05   3.0116992254685705e-06   -3.83123536432329e-05
-1.9619166125880484e-05   3.0116992254685705e-06   -3.83123536432329e-05
-1.9619166125880484e-05   3.0116992254685705e-06   -3.83123536432329e-05
-1.9619166125880484e-05   3.0116992254685705e-06   -3.83123536432329e-05
-1.9320368859872738e-05   6.500810330037875e-06   -5.068854943800281e-05
-1.9320368859872738e-05   6.500810330037875e-06   -5.068854943800281e-05
-1.9320368859872738e-05   6.500810330037875e-06   -5.068854943800281e-05
-1.9320368859872738e-05   6.500810330037875e-06   -5.068854943800281e-05
-2.6956562400060567e-05   4.486243127635155e-06   -3.675281988291463e-05
-2.6956562400060567e-05   4.486243127635155e-06   -3.675281988291463e-05
-2.6956562400060567e-05   4.486243127635155e-06   -3.675281988291463e-05
-2.6956562400060567e-05   4.486243127635155e-06   -3.675281988291463e-05
-2.3165548770731845e-05   4.708817387265047e-06   -4.3204720487573494e-05
-2.3165548770731845e-05   4.708817387265047e-06   -4.3204720487573494e-05
-2.3165548770731845e-05   4.708817387265047e-06   -4.3204720487573494e-05
-2.3165548770731845e-05   4.708817387265047e-06   -4.3204720487573494e-05
-2.6956562400060513e-05   6.500810330037875e-06   -4.947980911656114e-05
-2.6956562400060513e-05   6.500810330037875e-06   -4.947980911656114e-05
-2.6956562400060513e-05   6.500810330037875e-06   -4.947980911656114e-05
-2.6956562400060513e-05   6.500810330037875e-06   -4.947980911656114e-05
-1.932036885987271e-05   4.486243127635155e-06   -3.796156020435614e-05
-1.932036885987271e-05   4.486243127635155e-06   -3.796156020435614e-05
-1.932036885987271e-05   4.486243127635155e-06   -3.796156020435614e-05
-1.932036885987271e-05   4.486243127635155e-06   -3.796156020435614e-05
-1.905436350472358e-05   8.233679930042676e-06   -5.1179957436059626e-05
-1.905436350472358e-05   8.233679930042676e-06   -5.1179957436059626e-05
-1.905436350472358e-05   8.233679930042676e-06   -5.1179957436059626e-05
-1.905436350472358e-05   8.233679930042676e-06   -5.1179957436059626e-05
-2.6555093449877982e-05   6.124239651345139e-06   -3.741307669358348e-05
-2.6555093449877982e-05   6.124239651345139e-06   -3.741307669358348e-05
-2.6555093449877982e-05   6.124239651345139e-06   -3.741307669358348e-05
-2.6555093449877982e-05   6.124239651345139e-06   -3.741307669358348e-05
-2.3025763900277063e-05   6.0068463856939765e-06   -4.3224856650194864e-05
-2.3025763900277063e-05   6.0068463856939765e-06   -4.3224856650194864e-05
-2.3025763900277063e-05   6.0068463856939765e-06   -4.3224856650194864e-05
-2.3025763900277063e-05   6.0068463856939765e-06   -4.3224856650194864e-05
-1.988980457975136e-05   5.407846057341615e-07   -5.8443340871614066e-05
-1.988980457975136e-05   5.407846057341615e-07   -5.8443340871614066e-05
-1.988980457975136e-05   5.407846057341615e-07   -5.8443340871614066e-05
-1.988980457975136e-05   5.407846057341615e-07   -5.8443340871614066e-05
-1.2030802005648614e-05   8.148465261280814e-07   -4.518056609587333e-05
-1.2030802005648614e-05   8.148465261280814e-07   -4.518056609587333e-05
-1.2030802005648614e-05   8.148465261280814e-07   -4.518056609587333e-05
-1.2030802005648614e-05   8.148465261280814e-07   -4.518056609587333e-05
-1.1766874258969022e-05   2.3041109001725735e-06   -5.7710478641890975e-05
-1.1766874258969022e-05   2.3041109001725735e-06   -5.7710478641890975e-05
-1.1766874258969022e-05   2.3041109001725735e-06   -5.7710478641890975e-05
-1.1766874258969022e-05   2.3041109001725735e-06   -5.7710478641890975e-05
-1.9619166125880484e-05   2.4299984896635363e-06   -4.469885808406588e-05
-1.9619166125880484e-05   2.4299984896635363e-06   -4.469885808406588e-05
-1.9619166125880484e-05   2.4299984896635363e-06   -4.469885808406588e-05
-1.9619166125880484e-05   2.4299984896635363e-06   -4.469885808406588e-05
-1.572530965833799e-05   1.7469724971042825e-06   -5.077880326776916e-05
-1.572530965833799e-05   1.7469724971042825e-06   -5.077880326776916e-05
-1.572530965833799e-05   1.7469724971042825e-06   -5.077880326776916e-05
-1.572530965833799e-05   1.7469724971042825e-06   -5.077880326776916e-05
-1.9619166125880457e-05   2.3041109001725735e-06   -5.778601119558536e-05
-1.9619166125880457e-05   2.3041109001725735e-06   -5.778601119558536e-05
-1.9619166125880457e-05   2.3041109001725735e-06   -5.778601119558536e-05
-1.9619166125880457e-05   2.3041109001725735e-06   -5.778601119558536e-05
-1.1766874258969022e-05   2.4299984896635363e-06   -4.4623325530371684e-05
-1.1766874258969022e-05   2.4299984896635363e-06   -4.4623325530371684e-05
-1.1766874258969022e-05   2.4299984896635363e-06   -4.4623325530371684e-05
-1.1766874258969022e-05   2.4299984896635363e-06   -4.4623325530371684e-05
-1.147023785541701e-05   4.073065691204917e-06   -5.786163426511784e-05
-1.147023785541701e-05   4.073065691204917e-06   -5.786163426511784e-05
-1.147023785541701e-05   4.073065691204917e-06   -5.786163426511784e-05
-1.147023785541701e-05   4.073065691204917e-06   -5.786163426511784e-05
-1.932036885987271e-05   4.05932487943894e-06   -4.4769838103965275e-05
-1.932036885987271e-05   4.05932487943894e-06   -4.4769838103965275e-05
-1.932036885987271e-05   4.05932487943894e-06   -4.4769838103965275e-05
-1.932036885987271e-05   4.05932487943894e-06   -4.4769838103965275e-05
-1.554783810481499e-05   3.134280499317906e-06   -5.05023627343223e-05
-1.554783810481499e-05   3.134280499317906e-06   -5.05023627343223e-05
-1.554783810481499e-05   3.134280499317906e-06   -5.05023627343223e-05
-1.554783810481499e-05   3.134280499317906e-06   -5.05023627343223e-05
-1.9320368859872657e-05   4.0730656912047e-06   -5.785338977805821e-05
-1.9320368859872657e-05   4.0730656912047e-06   -5.785338977805821e-05
-1.9320368859872657e-05   4.0730656912047e-06   -5.785338977805821e-05
-1.9320368859872657e-05   4.0730656912047e-06   -5.785338977805821e-05
-1.147023785541703e-05   4.05932487943894e-06   -4.477808259102493e-05
-1.147023785541703e-05   4.05932487943894e-06   -4.477808259102493e-05
-1.147023785541703e-05   4.05932487943894e-06   -4.477808259102493e-05
-1.147023785541703e-05   4.05932487943894e-06   -4.477808259102493e-05
-1.1203645585539587e-05   5.872949208994473e-06   -5.8835680976957686e-05
-1.1203645585539587e-05   5.872949208994473e-06   -5.8835680976957686e-05
-1.1203645585539587e-05   5.872949208994473e-06   -5.8835680976957686e-05
-1.1203645585539587e-05   5.872949208994473e-06   -5.8835680976957686e-05
-1.9054363504723606e-05   5.713211464340685e-06   -4.565530846485825e-05
-1.9054363504723606e-05   5.713211464340685e-06   -4.565530846485825e-05
-1.9054363504723606e-05   5.713211464340685e-06   -4.565530846485825e-05
-1.9054363504723606e-05   5.713211464340685e-06   -4.565530846485825e-05
-1.5400820336806143e-05   4.540023434627645e-06   -5.1040634260226614e-05
-1.5400820336806143e-05   4.540023434627645e-06   -5.1040634260226614e-05
-1.5400820336806143e-05   4.540023434627645e-06   -5.1040634260226614e-05
-1.5400820336806143e-05   4.540023434627645e-06   -5.1040634260226614e-05
-1.2030802005648572e-05   -1.8465020008048665e-06   -5.123035286602913e-05
-1.2030802005648572e-05   -1.8465020008048665e-06   -5.123035286602913e-05
-1.2030802005648572e-05   -1.8465020008048665e-06   -5.123035286602913e-05
-1.2030802005648572e-05   -1.8465020008048665e-06   -5.123035286602913e-05
-4.405374650843385e-06   3.445960788486021e-07   -3.720664842689532e-05
-4.405374650843385e-06   3.445960788486021e-07   -3.720664842689532e-05
-4.405374650843385e-06   3.445960788486021e-07   -3.720664842689532e-05
-4.405374650843385e-06   3.445960788486021e-07   -3.720664842689532e-05
-4.0117522799034365e-06   -1.8618060164030635e-07   -4.958572249874041e-05
-4.0117522799034365e-06   -1.8618060164030635e-07   -4.958572249874041e-05
-4.0117522799034365e-06   -1.8618060164030635e-07   -4.958572249874041e-05
-4.0117522799034365e-06   -1.8618060164030635e-07   -4.958572249874041e-05
-1.1766874258969002e-05   1.9087132883820364e-06   -3.791745553431091e-05
-1.1766874258969002e-05   1.9087132883820364e-06   -3.791745553431091e-05
-1.1766874258969002e-05   1.9087132883820364e-06   -3.791745553431091e-05
-1.1766874258969002e-05   1.9087132883820364e-06   -3.791745553431091e-05
-7.972466695017254e-06   2.185994277428653e-07   -4.322739982451444e-05
-7.972466695017254e-06   2.185994277428653e-07   -4.322739982451444e-05
-7.972466695017254e-06   2.185994277428653e-07   -4.322739982451444e-05
-7.972466695017254e-06   2.185994277428653e-07   -4.322739982451444e-05
-1.1766874258968982e-05   -1.8618060164030635e-07   -5.0842658832753814e-05
-1.1766874258968982e-05   -1.8618060164030635e-07   -5.0842658832753814e-05
-1.1766874258968982e-05   -1.8618060164030635e-07   -5.0842658832753814e-05
-1.1766874258968982e-05   -1.8618060164030635e-07   -5.0842658832753814e-05
-4.0117522799034365e-06   1.9087132883820364e-06   -3.6660519200297764e-05
-4.0117522799034365e-06   1.9087132883820364e-06   -3.6660519200297764e-05
-4.0117522799034365e-06   1.9087132883820364e-06   -3.6660519200297764e-05
-4.0117522799034365e-06   1.9087132883820364e-06   -3.6660519200297764e-05
-3.428507050336053e-06   1.4116213904089535e-06   -5.0255259221550935e-05
-3.428507050336053e-06   1.4116213904089535e-06   -5.0255259221550935e-05
-3.428507050336053e-06   1.4116213904089535e-06   -5.0255259221550935e-05
-3.428507050336053e-06   1.4116213904089535e-06   -5.0255259221550935e-05
-1.147023785541701e-05   3.383078875438981e-06   -3.803524903743408e-05
-1.147023785541701e-05   3.383078875438981e-06   -3.803524903743408e-05
-1.147023785541701e-05   3.383078875438981e-06   -3.803524903743408e-05
-1.147023785541701e-05   3.383078875438981e-06   -3.803524903743408e-05
-7.734122545795259e-06   1.4811975457829085e-06   -4.312097908901018e-05
-7.734122545795259e-06   1.4811975457829085e-06   -4.312097908901018e-05
-7.734122545795259e-06   1.4811975457829085e-06   -4.312097908901018e-05
-7.734122545795259e-06   1.4811975457829085e-06   -4.312097908901018e-05
-1.1470237855416981e-05   1.4116213904089535e-06   -5.14381337125688e-05
-1.1470237855416981e-05   1.4116213904089535e-06   -5.14381337125688e-05
-1.1470237855416981e-05   1.4116213904089535e-06   -5.14381337125688e-05
-1.1470237855416981e-05   1.4116213904089535e-06   -5.14381337125688e-05
-3.428507050336053e-06   3.383078875438981e-06   -3.685237454641589e-05
-3.428507050336053e-06   3.383078875438981e-06   -3.685237454641589e-05
-3.428507050336053e-06   3.383078875438981e-06   -3.685237454641589e-05
-3.428507050336053e-06   3.383078875438981e-06   -3.685237454641589e-05
-3.0210872565557376e-06   3.2435019460652203e-06   -5.166094953154175e-05
-3.0210872565557376e-06   3.2435019460652203e-06   -5.166094953154175e-05
-3.0210872565557376e-06   3.2435019460652203e-06   -5.166094953154175e-05
-3.0210872565557376e-06   3.2435019460652203e-06   -5.166094953154175e-05
-1.1203645585539587e-05   5.050729402704618e-06   -3.9107688790551996e-05
-1.1203645585539587e-05   5.050729402704618e-06   -3.9107688790551996e-05
-1.1203645585539587e-05   5.050729402704618e-06   -3.9107688790551996e-05
-1.1203645585539587e-05   5.050729402704618e-06   -3.9107688790551996e-05
-7.484407344421432e-06   2.8050617869677247e-06   -4.3959018622973596e-05
-7.484407344421432e-06   2.8050617869677247e-06   -4.3959018622973596e-05
-7.484407344421432e-06   2.8050617869677247e-06   -4.3959018622973596e-05
-7.484407344421432e-06   2.8050617869677247e-06   -4.3959018622973596e-05
-4.405374650843358e-06   -3.3962524506596804e-06   -2.7809006449656297e-05
-4.405374650843358e-06   -3.3962524506596804e-06   -2.7809006449656297e-05
-4.405374650843358e-06   -3.3962524506596804e-06   -2.7809006449656297e-05
-4.405374650843358e-06   -3.3962524506596804e-06   -2.7809006449656297e-05
1.249942141407954e-06   4.737066012924177e-07   -1.606150303139946e-05
1.249942141407954e-06   4.737066012924177e-07   -1.606150303139946e-05
1.249942141407954e-06   4.737066012924177e-07   -1.606150303139946e-05
1.249942141407954e-06   4.737066012924177e-07   -1.606150303139946e-05
3.3192941934016276e-06   -2.2724007495702418e-06   -2.6569217134307546e-05
3.3192941934016276e-06   -2.2724007495702418e-06   -2.6569217134307546e-05
3.3192941934016276e-06   -2.2724007495702418e-06   -2.6569217134307546e-05
3.3192941934016276e-06   -2.2724007495702418e-06   -2.6569217134307546e-05
-4.0117522799034365e-06   1.7094373890589112e-06   -1.6739909228642778e-05
-4.0117522799034365e-06   1.7094373890589112e-06   -1.6739909228642778e-05
-4.0117522799034365e-06   1.7094373890589112e-06   -1.6739909228642778e-05
-4.0117522799034365e-06   1.7094373890589112e-06   -1.6739909228642778e-05
-9.380153071597656e-07   -7.040158416617755e-07   -2.0414732244783862e-05
-9.380153071597656e-07   -7.040158416617755e-07   -2.0414732244783862e-05
-9.380153071597656e-07   -7.040158416617755e-07   -2.0414732244783862e-05
-9.380153071597656e-07   -7.040158416617755e-07   -2.0414732244783862e-05
-4.0117522799034365e-06   -2.2724007495702418e-06   -2.895832001748467e-05
-4.0117522799034365e-06   -2.2724007495702418e-06   -2.895832001748467e-05
-4.0117522799034365e-06   -2.2724007495702418e-06   -2.895832001748467e-05
-4.0117522799034365e-06   -2.2724007495702418e-06   -2.895832001748467e-05
3.3192941934016276e-06   1.7094373890589112e-06   -1.4350806345465438e-05
3.3192941934016276e-06   1.7094373890589112e-06   -1.4350806345465438e-05
3.3192941934016276e-06   1.7094373890589112e-06   -1.4350806345465438e-05
3.3192941934016276e-06   1.7094373890589112e-06   -1.4350806345465438e-05
4.953071742049779e-06   -1.4958877432016612e-06   -2.802227046951614e-05
4.953071742049779e-06   -1.4958877432016612e-06   -2.802227046951614e-05
4.953071742049779e-06   -1.4958877432016612e-06   -2.802227046951614e-05
4.953071742049779e-06   -1.4958877432016612e-06   -2.802227046951614e-05
-3.428507050336053e-06   2.4046920617843033e-06   -1.6393320365197794e-05
-3.428507050336053e-06   2.4046920617843033e-06   -1.6393320365197794e-05
-3.428507050336053e-06   2.4046920617843033e-06   -1.6393320365197794e-05
-3.428507050336053e-06   2.4046920617843033e-06   -1.6393320365197794e-05
1.1379935626667506e-07   -1.1282413750523038e-07   -2.07866546566284e-05
1.1379935626667506e-07   -1.1282413750523038e-07   -2.07866546566284e-05
1.1379935626667506e-07   -1.1282413750523038e-07   -2.07866546566284e-05
1.1379935626667506e-07   -1.1282413750523038e-07   -2.07866546566284e-05
-3.428507050336053e-06   -1.4958877432016612e-06   -3.0362618352507468e-05
-3.428507050336053e-06   -1.4958877432016612e-06   -3.0362618352507468e-05
-3.428507050336053e-06   -1.4958877432016612e-06   -3.0362618352507468e-05
-3.428507050336053e-06   -1.4958877432016612e-06   -3.0362618352507468e-05
4.9530717420497245e-06   2.4046920617843033e-06   -1.4052972482206166e-05
4.9530717420497245e-06   2.4046920617843033e-06   -1.4052972482206166e-05
4.9530717420497245e-06   2.4046920617843033e-06   -1.4052972482206166e-05
4.9530717420497245e-06   2.4046920617843033e-06   -1.4052972482206166e-05
7.013489632086119e-06   3.1836828094829184e-08   -3.1396962480597875e-05
7.013489632086119e-06   3.1836828094829184e-08   -3.1396962480597875e-05
7.013489632086119e-06   3.1836828094829184e-08   -3.1396962480597875e-05
7.013489632086119e-06   3.1836828094829184e-08   -3.1396962480597875e-05
-3.0210872565557376e-06   3.6389553243578506e-06   -1.683693876395218e-05
-3.0210872565557376e-06   3.6389553243578506e-06   -1.683693876395218e-05
-3.0210872565557376e-06   3.6389553243578506e-06   -1.683693876395218e-05
-3.0210872565557376e-06   3.6389553243578506e-06   -1.683693876395218e-05
1.0158690276828664e-06   5.633051667936102e-07   -2.1719809143145186e-05
1.0158690276828664e-06   5.633051667936102e-07   -2.1719809143145186e-05
1.0158690276828664e-06   5.633051667936102e-07   -2.1719809143145186e-05
1.0158690276828664e-06   5.633051667936102e-07   -2.1719809143145186e-05
-1.3235010356460106e-05   2.4881619807826626e-06   -2.367914236389181e-05
-1.3235010356460106e-05   2.4881619807826626e-06   -2.367914236389181e-05
-1.3235010356460106e-05   2.4881619807826626e-06   -2.367914236389181e-05
-1.3235010356460106e-05   2.4881619807826626e-06   -2.367914236389181e-05
-1.33786842234125e-05   -1.1520200140732219e-06   -2.610270800572611e-05
-1.33786842234125e-05   -1.1520200140732219e-06   -2.610270800572611e-05
-1.33786842234125e-05   -1.1520200140732219e-06   -2.610270800572611e-05
-1.33786842234125e-05   -1.1520200140732219e-06   -2.610270800572611e-05
-1.27065759925872e-05   3.8718703051178124e-06   -2.2247437749638816e-05
-1.27065759925872e-05   3.8718703051178124e-06   -2.2247437749638816e-05
-1.27065759925872e-05   3.8718703051178124e-06   -2.2247437749638816e-05
-1.27065759925872e-05   3.8718703051178124e-06   -2.2247437749638816e-05
-1.0928923116106993e-05   -3.19813756206877e-08   -2.28678815353292e-05
-1.0928923116106993e-05   -3.19813756206877e-08   -2.28678815353292e-05
-1.0928923116106993e-05   -3.19813756206877e-08   -2.28678815353292e-05
-1.0928923116106993e-05   -3.19813756206877e-08   -2.28678815353292e-05
-1.2013067523680503e-05   1.7127542913737866e-06   -2.2107815589571082e-05
-1.2013067523680503e-05   1.7127542913737866e-06   -2.2107815589571082e-05
-1.2013067523680503e-05   1.7127542913737866e-06   -2.2107815589571082e-05
-1.2013067523680503e-05   1.7127542913737866e-06   -2.2107815589571082e-05
-1.0928923116106993e-05   3.8718703051178124e-06   -1.990512674119563e-05
-1.0928923116106993e-05   3.8718703051178124e-06   -1.990512674119563e-05
-1.0928923116106993e-05   3.8718703051178124e-06   -1.990512674119563e-05
-1.0928923116106993e-05   3.8718703051178124e-06   -1.990512674119563e-05
-1.27065759925872e-05   -3.19813756206877e-08   -2.5210192543772495e-05
-1.27065759925872e-05   -3.19813756206877e-08   -2.5210192543772495e-05
-1.27065759925872e-05   -3.19813756206877e-08   -2.5210192543772495e-05
-1.27065759925872e-05   -3.19813756206877e-08   -2.5210192543772495e-05
-1.1859163114816273e-05   4.570411407719922e-06   -2.064609935529334e-05
-1.1859163114816273e-05   4.570411407719922e-06   -2.064609935529334e-05
-1.1859163114816273e-05   4.570411407719922e-06   -2.064609935529334e-05
-1.1859163114816273e-05   4.570411407719922e-06   -2.064609935529334e-05
-9.020752569111946e-06   6.009429889645979e-07   -2.2995102546880973e-05
-9.020752569111946e-06   6.009429889645979e-07   -2.2995102546880973e-05
-9.020752569111946e-06   6.009429889645979e-07   -2.2995102546880973e-05
-9.020752569111946e-06   6.009429889645979e-07   -2.2995102546880973e-05
-1.0920196702008723e-05   2.28742364063398e-06   -2.084125071638869e-05
-1.0920196702008723e-05   2.28742364063398e-06   -2.084125071638869e-05
-1.0920196702008723e-05   2.28742364063398e-06   -2.084125071638869e-05
-1.0920196702008723e-05   2.28742364063398e-06   -2.084125071638869e-05
-9.020752569111946e-06   4.570411407719922e-06   -1.8264418304040318e-05
-9.020752569111946e-06   4.570411407719922e-06   -1.8264418304040318e-05
-9.020752569111946e-06   4.570411407719922e-06   -1.8264418304040318e-05
-9.020752569111946e-06   4.570411407719922e-06   -1.8264418304040318e-05
-1.1859163114816382e-05   6.009429889645979e-07   -2.5376783598133994e-05
-1.1859163114816382e-05   6.009429889645979e-07   -2.5376783598133994e-05
-1.1859163114816382e-05   6.009429889645979e-07   -2.5376783598133994e-05
-1.1859163114816382e-05   6.009429889645979e-07   -2.5376783598133994e-05
-1.1197254063293632e-05   5.676648080339642e-06   -1.9155788160627124e-05
-1.1197254063293632e-05   5.676648080339642e-06   -1.9155788160627124e-05
-1.1197254063293632e-05   5.676648080339642e-06   -1.9155788160627124e-05
-1.1197254063293632e-05   5.676648080339642e-06   -1.9155788160627124e-05
-6.664776350540633e-06   1.8635002491263625e-06   -2.4422028983153948e-05
-6.664776350540633e-06   1.8635002491263625e-06   -2.4422028983153948e-05
-6.664776350540633e-06   1.8635002491263625e-06   -2.4422028983153948e-05
-6.664776350540633e-06   1.8635002491263625e-06   -2.4422028983153948e-05
-9.553372003901894e-06   2.8373012182607293e-06   -2.0191983475699232e-05
-9.553372003901894e-06   2.8373012182607293e-06   -2.0191983475699232e-05
-9.553372003901894e-06   2.8373012182607293e-06   -2.0191983475699232e-05
-9.553372003901894e-06   2.8373012182607293e-06   -2.0191983475699232e-05
-1.3378684223412445e-05   1.425378190376362e-06   -4.300991857916238e-05
-1.3378684223412445e-05   1.425378190376362e-06   -4.300991857916238e-05
-1.3378684223412445e-05   1.425378190376362e-06   -4.300991857916238e-05
-1.3378684223412445e-05   1.425378190376362e-06   -4.300991857916238e-05
-1.5388464729197368e-05   -2.517332439188648e-07   -4.7365819616047725e-05
-1.5388464729197368e-05   -2.517332439188648e-07   -4.7365819616047725e-05
-1.5388464729197368e-05   -2.517332439188648e-07   -4.7365819616047725e-05
-1.5388464729197368e-05   -2.517332439188648e-07   -4.7365819616047725e-05
-1.484466775277836e-05   3.0116992254683537e-06   -4.3043123619944564e-05
-1.484466775277836e-05   3.0116992254683537e-06   -4.3043123619944564e-05
-1.484466775277836e-05   3.0116992254683537e-06   -4.3043123619944564e-05
-1.484466775277836e-05   3.0116992254683537e-06   -4.3043123619944564e-05
-1.27065759925872e-05   1.1610373535559694e-06   -4.5496212763782246e-05
-1.27065759925872e-05   1.1610373535559694e-06   -4.5496212763782246e-05
-1.27065759925872e-05   1.1610373535559694e-06   -4.5496212763782246e-05
-1.27065759925872e-05   1.1610373535559694e-06   -4.5496212763782246e-05
-1.3915536855892672e-05   1.646036917817657e-06   -4.3772277730164306e-05
-1.3915536855892672e-05   1.646036917817657e-06   -4.3772277730164306e-05
-1.3915536855892672e-05   1.646036917817657e-06   -4.3772277730164306e-05
-1.3915536855892672e-05   1.646036917817657e-06   -4.3772277730164306e-05
-1.2706575992587146e-05   3.0116992254683537e-06   -4.193272649679681e-05
-1.2706575992587146e-05   3.0116992254683537e-06   -4.193272649679681e-05
-1.2706575992587146e-05   3.0116992254683537e-06   -4.193272649679681e-05
-1.2706575992587146e-05   3.0116992254683537e-06   -4.193272649679681e-05
-1.484466775277836e-05   1.161037353556403e-06   -4.660660988692984e-05
-1.484466775277836e-05   1.161037353556403e-06   -4.660660988692984e-05
-1.484466775277836e-05   1.161037353556403e-06   -4.660660988692984e-05
-1.484466775277836e-05   1.161037353556403e-06   -4.660660988692984e-05
-1.4279160201996298e-05   4.486243127635155e-06   -4.268243554768456e-05
-1.4279160201996298e-05   4.486243127635155e-06   -4.268243554768456e-05
-1.4279160201996298e-05   4.486243127635155e-06   -4.268243554768456e-05
-1.4279160201996298e-05   4.486243127635155e-06   -4.268243554768456e-05
-1.1859163114816382e-05   2.520780281215721e-06   -4.5536486318465796e-05
-1.1859163114816382e-05   2.520780281215721e-06   -4.5536486318465796e-05
-1.1859163114816382e-05   2.520780281215721e-06   -4.5536486318465796e-05
-1.1859163114816382e-05   2.520780281215721e-06   -4.5536486318465796e-05
-1.3370552605053028e-05   2.7844483779261835e-06   -4.3175704692764813e-05
-1.3370552605053028e-05   2.7844483779261835e-06   -4.3175704692764813e-05
-1.3370552605053028e-05   2.7844483779261835e-06   -4.3175704692764813e-05
-1.3370552605053028e-05   2.7844483779261835e-06   -4.3175704692764813e-05
-1.1859163114816273e-05   4.486243127635155e-06   -4.150315783983281e-05
-1.1859163114816273e-05   4.486243127635155e-06   -4.150315783983281e-05
-1.1859163114816273e-05   4.486243127635155e-06   -4.150315783983281e-05
-1.1859163114816273e-05   4.486243127635155e-06   -4.150315783983281e-05
-1.4279160201996244e-05   2.520780281215721e-06   -4.671576402631749e-05
-1.4279160201996244e-05   2.520780281215721e-06   -4.671576402631749e-05
-1.4279160201996244e-05   2.520780281215721e-06   -4.671576402631749e-05
-1.4279160201996244e-05   2.520780281215721e-06   -4.671576402631749e-05
-1.3746293371414862e-05   6.124239651345356e-06   -4.3389132494035506e-05
-1.3746293371414862e-05   6.124239651345356e-06   -4.3389132494035506e-05
-1.3746293371414862e-05   6.124239651345356e-06   -4.3389132494035506e-05
-1.3746293371414862e-05   6.124239651345356e-06   -4.3389132494035506e-05
-1.1197254063293632e-05   4.07300800157797e-06   -4.640679235104353e-05
-1.1197254063293632e-05   4.07300800157797e-06   -4.640679235104353e-05
-1.1197254063293632e-05   4.07300800157797e-06   -4.640679235104353e-05
-1.1197254063293632e-05   4.07300800157797e-06   -4.640679235104353e-05
-1.2890760988517339e-05   3.9781312482153885e-06   -4.3527354756986555e-05
-1.2890760988517339e-05   3.9781312482153885e-06   -4.3527354756986555e-05
-1.2890760988517339e-05   3.9781312482153885e-06   -4.3527354756986555e-05
-1.2890760988517339e-05   3.9781312482153885e-06   -4.3527354756986555e-05
-1.5388464729197313e-05   8.148465261280814e-07   -5.008114079798525e-05
-1.5388464729197313e-05   8.148465261280814e-07   -5.008114079798525e-05
-1.5388464729197313e-05   8.148465261280814e-07   -5.008114079798525e-05
-1.5388464729197313e-05   8.148465261280814e-07   -5.008114079798525e-05
-1.7508384339841334e-05   1.1685615000055216e-06   -5.3402111164732396e-05
-1.7508384339841334e-05   1.1685615000055216e-06   -5.3402111164732396e-05
-1.7508384339841334e-05   1.1685615000055216e-06   -5.3402111164732396e-05
-1.7508384339841334e-05   1.1685615000055216e-06   -5.3402111164732396e-05
-1.6973785661660673e-05   2.4299984896635363e-06   -4.931070171600247e-05
-1.6973785661660673e-05   2.4299984896635363e-06   -4.931070171600247e-05
-1.6973785661660673e-05   2.4299984896635363e-06   -4.931070171600247e-05
-1.6973785661660673e-05   2.4299984896635363e-06   -4.931070171600247e-05
-1.484466775277836e-05   2.628209064289063e-06   -5.297815790891475e-05
-1.484466775277836e-05   2.628209064289063e-06   -5.297815790891475e-05
-1.484466775277836e-05   2.628209064289063e-06   -5.297815790891475e-05
-1.484466775277836e-05   2.628209064289063e-06   -5.297815790891475e-05
-1.6081450788002437e-05   1.9875817222517016e-06   -5.0532476444986e-05
-1.6081450788002437e-05   1.9875817222517016e-06   -5.0532476444986e-05
-1.6081450788002437e-05   1.9875817222517016e-06   -5.0532476444986e-05
-1.6081450788002437e-05   1.9875817222517016e-06   -5.0532476444986e-05
-1.4844667752778333e-05   2.4299984896635363e-06   -4.942962806077757e-05
-1.4844667752778333e-05   2.4299984896635363e-06   -4.942962806077757e-05
-1.4844667752778333e-05   2.4299984896635363e-06   -4.942962806077757e-05
-1.4844667752778333e-05   2.4299984896635363e-06   -4.942962806077757e-05
-1.6973785661660704e-05   2.628209064289063e-06   -5.285923156413965e-05
-1.6973785661660704e-05   2.628209064289063e-06   -5.285923156413965e-05
-1.6973785661660704e-05   2.628209064289063e-06   -5.285923156413965e-05
-1.6973785661660704e-05   2.628209064289063e-06   -5.285923156413965e-05
-1.6411771431710547e-05   4.05932487943894e-06   -4.9454287790431884e-05
-1.6411771431710547e-05   4.05932487943894e-06   -4.9454287790431884e-05
-1.6411771431710547e-05   4.05932487943894e-06   -4.9454287790431884e-05
-1.6411771431710547e-05   4.05932487943894e-06   -4.9454287790431884e-05
-1.4279160201996298e-05   4.120034307542736e-06   -5.304506549681749e-05
-1.4279160201996298e-05   4.120034307542736e-06   -5.304506549681749e-05
-1.4279160201996298e-05   4.120034307542736e-06   -5.304506549681749e-05
-1.4279160201996298e-05   4.120034307542736e-06   -5.304506549681749e-05
-1.56324361376386e-05   3.2358245359339743e-06   -5.0259079741115655e-05
-1.56324361376386e-05   3.2358245359339743e-06   -5.0259079741115655e-05
-1.56324361376386e-05   3.2358245359339743e-06   -5.0259079741115655e-05
-1.56324361376386e-05   3.2358245359339743e-06   -5.0259079741115655e-05
-1.4279160201996244e-05   4.05932487943894e-06   -4.9490713447293663e-05
-1.4279160201996244e-05   4.05932487943894e-06   -4.9490713447293663e-05
-1.4279160201996244e-05   4.05932487943894e-06   -4.9490713447293663e-05
-1.4279160201996244e-05   4.05932487943894e-06   -4.9490713447293663e-05
-1.6411771431710547e-05   4.120034307542736e-06   -5.300863983995522e-05
-1.6411771431710547e-05   4.120034307542736e-06   -5.300863983995522e-05
-1.6411771431710547e-05   4.120034307542736e-06   -5.300863983995522e-05
-1.6411771431710547e-05   4.120034307542736e-06   -5.300863983995522e-05
-1.58816471794894e-05   5.713211464340685e-06   -5.041414975410119e-05
-1.58816471794894e-05   5.713211464340685e-06   -5.041414975410119e-05
-1.58816471794894e-05   5.713211464340685e-06   -5.041414975410119e-05
-1.58816471794894e-05   5.713211464340685e-06   -5.041414975410119e-05
-1.3746293371414862e-05   5.6324620376583395e-06   -5.3924623111549074e-05
-1.3746293371414862e-05   5.6324620376583395e-06   -5.3924623111549074e-05
-1.3746293371414862e-05   5.6324620376583395e-06   -5.3924623111549074e-05
-1.3746293371414862e-05   5.6324620376583395e-06   -5.3924623111549074e-05
-1.5218923347478697e-05   4.501514740483381e-06   -5.079167143980432e-05
-1.5218923347478697e-05   4.501514740483381e-06   -5.079167143980432e-05
-1.5218923347478697e-05   4.501514740483381e-06   -5.079167143980432e-05
-1.5218923347478697e-05   4.501514740483381e-06   -5.079167143980432e-05
-1.7508384339841273e-05   3.445960788486021e-07   -4.320965299247292e-05
-1.7508384339841273e-05   3.445960788486021e-07   -4.320965299247292e-05
-1.7508384339841273e-05   3.445960788486021e-07   -4.320965299247292e-05
-1.7508384339841273e-05   3.445960788486021e-07   -4.320965299247292e-05
-1.9744375054018827e-05   2.598484264643066e-06   -4.558397127129221e-05
-1.9744375054018827e-05   2.598484264643066e-06   -4.558397127129221e-05
-1.9744375054018827e-05   2.598484264643066e-06   -4.558397127129221e-05
-1.9744375054018827e-05   2.598484264643066e-06   -4.558397127129221e-05
-1.909803395848015e-05   1.9087132883820364e-06   -4.131240415338074e-05
-1.909803395848015e-05   1.9087132883820364e-06   -4.131240415338074e-05
-1.909803395848015e-05   1.9087132883820364e-06   -4.131240415338074e-05
-1.909803395848015e-05   1.9087132883820364e-06   -4.131240415338074e-05
-1.6973785661660673e-05   4.0627592326506964e-06   -4.614524554797415e-05
-1.6973785661660673e-05   4.0627592326506964e-06   -4.614524554797415e-05
-1.6973785661660673e-05   4.0627592326506964e-06   -4.614524554797415e-05
-1.6973785661660673e-05   4.0627592326506964e-06   -4.614524554797415e-05
-1.8189551389271804e-05   2.391979383166822e-06   -4.311650142559912e-05
-1.8189551389271804e-05   2.391979383166822e-06   -4.311650142559912e-05
-1.8189551389271804e-05   2.391979383166822e-06   -4.311650142559912e-05
-1.8189551389271804e-05   2.391979383166822e-06   -4.311650142559912e-05
-1.6973785661660643e-05   1.9087132883820364e-06   -4.260483171994163e-05
-1.6973785661660643e-05   1.9087132883820364e-06   -4.260483171994163e-05
-1.6973785661660643e-05   1.9087132883820364e-06   -4.260483171994163e-05
-1.6973785661660643e-05   1.9087132883820364e-06   -4.260483171994163e-05
-1.909803395848015e-05   4.06275923265113e-06   -4.485281798141303e-05
-1.909803395848015e-05   4.06275923265113e-06   -4.485281798141303e-05
-1.909803395848015e-05   4.06275923265113e-06   -4.485281798141303e-05
-1.909803395848015e-05   4.06275923265113e-06   -4.485281798141303e-05
-1.8263934843966504e-05   3.383078875439198e-06   -4.149293646335398e-05
-1.8263934843966504e-05   3.383078875439198e-06   -4.149293646335398e-05
-1.8263934843966504e-05   3.383078875439198e-06   -4.149293646335398e-05
-1.8263934843966504e-05   3.383078875439198e-06   -4.149293646335398e-05
-1.641177143171052e-05   5.413941831250695e-06   -4.579839325726709e-05
-1.641177143171052e-05   5.413941831250695e-06   -4.579839325726709e-05
-1.641177143171052e-05   5.413941831250695e-06   -4.579839325726709e-05
-1.641177143171052e-05   5.413941831250695e-06   -4.579839325726709e-05
-1.7611987730948625e-05   3.5533851238857966e-06   -4.2681698734118884e-05
-1.7611987730948625e-05   3.5533851238857966e-06   -4.2681698734118884e-05
-1.7611987730948625e-05   3.5533851238857966e-06   -4.2681698734118884e-05
-1.7611987730948625e-05   3.5533851238857966e-06   -4.2681698734118884e-05
-1.641177143171048e-05   3.383078875439198e-06   -4.271145423684049e-05
-1.641177143171048e-05   3.383078875439198e-06   -4.271145423684049e-05
-1.641177143171048e-05   3.383078875439198e-06   -4.271145423684049e-05
-1.641177143171048e-05   3.383078875439198e-06   -4.271145423684049e-05
-1.826393484396653e-05   5.4139418312502616e-06   -4.457987548378041e-05
-1.826393484396653e-05   5.4139418312502616e-06   -4.457987548378041e-05
-1.826393484396653e-05   5.4139418312502616e-06   -4.457987548378041e-05
-1.826393484396653e-05   5.4139418312502616e-06   -4.457987548378041e-05
-1.760837518088263e-05   5.050729402704618e-06   -4.2643858094537244e-05
-1.760837518088263e-05   5.050729402704618e-06   -4.2643858094537244e-05
-1.760837518088263e-05   5.050729402704618e-06   -4.2643858094537244e-05
-1.760837518088263e-05   5.050729402704618e-06   -4.2643858094537244e-05
-1.58816471794894e-05   6.928778300147216e-06   -4.6648567435324366e-05
-1.58816471794894e-05   6.928778300147216e-06   -4.6648567435324366e-05
-1.58816471794894e-05   6.928778300147216e-06   -4.6648567435324366e-05
-1.58816471794894e-05   6.928778300147216e-06   -4.6648567435324366e-05
-1.717840433278017e-05   4.740820442334769e-06   -4.317453079848545e-05
-1.717840433278017e-05   4.740820442334769e-06   -4.317453079848545e-05
-1.717840433278017e-05   4.740820442334769e-06   -4.317453079848545e-05
-1.717840433278017e-05   4.740820442334769e-06   -4.317453079848545e-05
-1.9744375054018773e-05   4.737066012924177e-07   -2.3034150116671816e-05
-1.9744375054018773e-05   4.737066012924177e-07   -2.3034150116671816e-05
-1.9744375054018773e-05   4.737066012924177e-07   -2.3034150116671816e-05
-1.9744375054018773e-05   4.737066012924177e-07   -2.3034150116671816e-05
-2.3890645936427545e-05   4.364322075417742e-06   -2.761023230287785e-05
-2.3890645936427545e-05   4.364322075417742e-06   -2.761023230287785e-05
-2.3890645936427545e-05   4.364322075417742e-06   -2.761023230287785e-05
-2.3890645936427545e-05   4.364322075417742e-06   -2.761023230287785e-05
-2.1602535079864762e-05   1.7094373890589112e-06   -1.900266443429974e-05
-2.1602535079864762e-05   1.7094373890589112e-06   -1.900266443429974e-05
-2.1602535079864762e-05   1.7094373890589112e-06   -1.900266443429974e-05
-2.1602535079864762e-05   1.7094373890589112e-06   -1.900266443429974e-05
-1.9098033958480124e-05   5.691320301436358e-06   -2.5565962717366753e-05
-1.9098033958480124e-05   5.691320301436358e-06   -2.5565962717366753e-05
-1.9098033958480124e-05   5.691320301436358e-06   -2.5565962717366753e-05
-1.9098033958480124e-05   5.691320301436358e-06   -2.5565962717366753e-05
-2.0230565304853826e-05   3.2208940580185502e-06   -2.2196154727360524e-05
-2.0230565304853826e-05   3.2208940580185502e-06   -2.2196154727360524e-05
-2.0230565304853826e-05   3.2208940580185502e-06   -2.2196154727360524e-05
-2.0230565304853826e-05   3.2208940580185502e-06   -2.2196154727360524e-05
-1.909803395848007e-05   1.7094373890589112e-06   -2.139179418172586e-05
-1.909803395848007e-05   1.7094373890589112e-06   -2.139179418172586e-05
-1.909803395848007e-05   1.7094373890589112e-06   -2.139179418172586e-05
-1.909803395848007e-05   1.7094373890589112e-06   -2.139179418172586e-05
-2.1602535079864762e-05   5.6913203014359245e-06   -2.3176832969940822e-05
-2.1602535079864762e-05   5.6913203014359245e-06   -2.3176832969940822e-05
-2.1602535079864762e-05   5.6913203014359245e-06   -2.3176832969940822e-05
-2.1602535079864762e-05   5.6913203014359245e-06   -2.3176832969940822e-05
-1.9741476184969914e-05   2.4046920617843033e-06   -1.8697321217397977e-05
-1.9741476184969914e-05   2.4046920617843033e-06   -1.8697321217397977e-05
-1.9741476184969914e-05   2.4046920617843033e-06   -1.8697321217397977e-05
-1.9741476184969914e-05   2.4046920617843033e-06   -1.8697321217397977e-05
-1.8263934843966504e-05   6.298960503013998e-06   -2.3496451183808054e-05
-1.8263934843966504e-05   6.298960503013998e-06   -2.3496451183808054e-05
-1.8263934843966504e-05   6.298960503013998e-06   -2.3496451183808054e-05
-1.8263934843966504e-05   6.298960503013998e-06   -2.3496451183808054e-05
-1.925134928699113e-05   3.834665015877304e-06   -2.0372183153151825e-05
-1.925134928699113e-05   3.834665015877304e-06   -2.0372183153151825e-05
-1.925134928699113e-05   3.834665015877304e-06   -2.0372183153151825e-05
-1.925134928699113e-05   3.834665015877304e-06   -2.0372183153151825e-05
-1.8263934843966464e-05   2.4046920617843033e-06   -2.1033882282135968e-05
-1.8263934843966464e-05   2.4046920617843033e-06   -2.1033882282135968e-05
-1.8263934843966464e-05   2.4046920617843033e-06   -2.1033882282135968e-05
-1.8263934843966464e-05   2.4046920617843033e-06   -2.1033882282135968e-05
-1.9741476184969914e-05   6.2989605030144315e-06   -2.1159890119070227e-05
-1.9741476184969914e-05   6.2989605030144315e-06   -2.1159890119070227e-05
-1.9741476184969914e-05   6.2989605030144315e-06   -2.1159890119070227e-05
-1.9741476184969914e-05   6.2989605030144315e-06   -2.1159890119070227e-05
-1.746656479706171e-05   3.6389553243578506e-06   -1.9295667392598662e-05
-1.746656479706171e-05   3.6389553243578506e-06   -1.9295667392598662e-05
-1.746656479706171e-05   3.6389553243578506e-06   -1.9295667392598662e-05
-1.746656479706171e-05   3.6389553243578506e-06   -1.9295667392598662e-05
-1.760837518088259e-05   7.241917239895427e-06   -2.122109390221934e-05
-1.760837518088259e-05   7.241917239895427e-06   -2.122109390221934e-05
-1.760837518088259e-05   7.241917239895427e-06   -2.122109390221934e-05
-1.760837518088259e-05   7.241917239895427e-06   -2.122109390221934e-05
-1.7815373035578262e-05   4.331789476197086e-06   -1.9130020819507754e-05
-1.7815373035578262e-05   4.331789476197086e-06   -1.9130020819507754e-05
-1.7815373035578262e-05   4.331789476197086e-06   -1.9130020819507754e-05
-1.7815373035578262e-05   4.331789476197086e-06   -1.9130020819507754e-05
1.1637786695082935e-05   -1.1520200140732219e-06   -1.2021123698255061e-05
1.1637786695082935e-05   -1.1520200140732219e-06   -1.2021123698255061e-05
1.1637786695082935e-05   -1.1520200140732219e-06   -1.2021123698255061e-05
1.1637786695082935e-05   -1.1520200140732219e-06   -1.2021123698255061e-05
1.1877765455344598e-06   -4.86023674868552e-06   -3.1662737321603196e-05
1.1877765455344598e-06   -4.86023674868552e-06   -3.1662737321603196e-05
1.1877765455344598e-06   -4.86023674868552e-06   -3.1662737321603196e-05
1.1877765455344598e-06   -4.86023674868552e-06   -3.1662737321603196e-05
2.1096926833306462e-06   -3.19813756206877e-08   -1.3273318479970972e-05
2.1096926833306462e-06   -3.19813756206877e-08   -1.3273318479970972e-05
2.1096926833306462e-06   -3.19813756206877e-08   -1.3273318479970972e-05
2.1096926833306462e-06   -3.19813756206877e-08   -1.3273318479970972e-05
1.4206736798718289e-05   -3.993225135989157e-06   -3.105831241606235e-05
1.4206736798718289e-05   -3.993225135989157e-06   -3.105831241606235e-05
1.4206736798718289e-05   -3.993225135989157e-06   -3.105831241606235e-05
1.4206736798718289e-05   -3.993225135989157e-06   -3.105831241606235e-05
7.014475835286034e-06   -2.026430085386166e-06   -2.0251287840704064e-05
7.014475835286034e-06   -2.026430085386166e-06   -2.0251287840704064e-05
7.014475835286034e-06   -2.026430085386166e-06   -2.0251287840704064e-05
7.014475835286034e-06   -2.026430085386166e-06   -2.0251287840704064e-05
1.4206736798718289e-05   -3.19813756206877e-08   -1.0896572223749977e-05
1.4206736798718289e-05   -3.19813756206877e-08   -1.0896572223749977e-05
1.4206736798718289e-05   -3.19813756206877e-08   -1.0896572223749977e-05
1.4206736798718289e-05   -3.19813756206877e-08   -1.0896572223749977e-05
2.1096926833306462e-06   -3.993225135989591e-06   -3.343505867228378e-05
2.1096926833306462e-06   -3.993225135989591e-06   -3.343505867228378e-05
2.1096926833306462e-06   -3.993225135989591e-06   -3.343505867228378e-05
2.1096926833306462e-06   -3.993225135989591e-06   -3.343505867228378e-05
3.196117294932625e-06   6.009429889645979e-07   -1.337253592285188e-05
3.196117294932625e-06   6.009429889645979e-07   -1.337253592285188e-05
3.196117294932625e-06   6.009429889645979e-07   -1.337253592285188e-05
3.196117294932625e-06   6.009429889645979e-07   -1.337253592285188e-05
1.637936894702941e-05   -3.4159896221807456e-06   -3.293446244299241e-05
1.637936894702941e-05   -3.4159896221807456e-06   -3.293446244299241e-05
1.637936894702941e-05   -3.4159896221807456e-06   -3.293446244299241e-05
1.637936894702941e-05   -3.4159896221807456e-06   -3.293446244299241e-05
8.644894625666307e-06   -1.6217877726936933e-06   -2.1120193017080307e-05
8.644894625666307e-06   -1.6217877726936933e-06   -2.1120193017080307e-05
8.644894625666307e-06   -1.6217877726936933e-06   -2.1120193017080307e-05
8.644894625666307e-06   -1.6217877726936933e-06   -2.1120193017080307e-05
1.6379368947029463e-05   6.009429889645979e-07   -1.0962376356164543e-05
1.6379368947029463e-05   6.009429889645979e-07   -1.0962376356164543e-05
1.6379368947029463e-05   6.009429889645979e-07   -1.0962376356164543e-05
1.6379368947029463e-05   6.009429889645979e-07   -1.0962376356164543e-05
3.1961172949325706e-06   -3.4159896221807456e-06   -3.5344622009679744e-05
3.1961172949325706e-06   -3.4159896221807456e-06   -3.5344622009679744e-05
3.1961172949325706e-06   -3.4159896221807456e-06   -3.5344622009679744e-05
3.1961172949325706e-06   -3.4159896221807456e-06   -3.5344622009679744e-05
4.09138127751863e-06   1.8635002491263625e-06   -1.4646302699294336e-05
4.09138127751863e-06   1.8635002491263625e-06   -1.4646302699294336e-05
4.09138127751863e-06   1.8635002491263625e-06   -1.4646302699294336e-05
4.09138127751863e-06   1.8635002491263625e-06   -1.4646302699294336e-05
1.89891423906762e-05   -1.960733227005223e-06   -3.718136446887832e-05
1.89891423906762e-05   -1.960733227005223e-06   -3.718136446887832e-05
1.89891423906762e-05   -1.960733227005223e-06   -3.718136446887832e-05
1.89891423906762e-05   -1.960733227005223e-06   -3.718136446887832e-05
9.943972841050606e-06   -1.028266246832013e-06   -2.266556207427368e-05
9.943972841050606e-06   -1.028266246832013e-06   -2.266556207427368e-05
9.943972841050606e-06   -1.028266246832013e-06   -2.266556207427368e-05
9.943972841050606e-06   -1.028266246832013e-06   -2.266556207427368e-05
1.1877765455344598e-06   -2.517332439188648e-07   -3.450289848876695e-05
1.1877765455344598e-06   -2.517332439188648e-07   -3.450289848876695e-05
1.1877765455344598e-06   -2.517332439188648e-07   -3.450289848876695e-05
1.1877765455344598e-06   -2.517332439188648e-07   -3.450289848876695e-05
-1.102196267688534e-05   -1.9256970899806346e-06   -5.585684216710392e-05
-1.102196267688534e-05   -1.9256970899806346e-06   -5.585684216710392e-05
-1.102196267688534e-05   -1.9256970899806346e-06   -5.585684216710392e-05
-1.102196267688534e-05   -1.9256970899806346e-06   -5.585684216710392e-05
-1.0212593607320176e-05   1.1610373535559694e-06   -3.4698677149619253e-05
-1.0212593607320176e-05   1.1610373535559694e-06   -3.4698677149619253e-05
-1.0212593607320176e-05   1.1610373535559694e-06   -3.4698677149619253e-05
-1.0212593607320176e-05   1.1610373535559694e-06   -3.4698677149619253e-05
2.1096926833306462e-06   -7.378600625079779e-07   -5.409648251773221e-05
2.1096926833306462e-06   -7.378600625079779e-07   -5.409648251773221e-05
2.1096926833306462e-06   -7.378600625079779e-07   -5.409648251773221e-05
2.1096926833306462e-06   -7.378600625079779e-07   -5.409648251773221e-05
-4.380425025893246e-06   -7.51176764462666e-08   -4.3677265100662826e-05
-4.380425025893246e-06   -7.51176764462666e-08   -4.3677265100662826e-05
-4.380425025893246e-06   -7.51176764462666e-08   -4.3677265100662826e-05
-4.380425025893246e-06   -7.51176764462666e-08   -4.3677265100662826e-05
2.1096926833306462e-06   1.1610373535559694e-06   -3.355933869998045e-05
2.1096926833306462e-06   1.1610373535559694e-06   -3.355933869998045e-05
2.1096926833306462e-06   1.1610373535559694e-06   -3.355933869998045e-05
2.1096926833306462e-06   1.1610373535559694e-06   -3.355933869998045e-05
-1.0212593607320176e-05   -7.378600625079779e-07   -5.523582096737085e-05
-1.0212593607320176e-05   -7.378600625079779e-07   -5.523582096737085e-05
-1.0212593607320176e-05   -7.378600625079779e-07   -5.523582096737085e-05
-1.0212593607320176e-05   -7.378600625079779e-07   -5.523582096737085e-05
-9.39863719179307e-06   2.520780281215721e-06   -3.4750638642425894e-05
-9.39863719179307e-06   2.520780281215721e-06   -3.4750638642425894e-05
-9.39863719179307e-06   2.520780281215721e-06   -3.4750638642425894e-05
-9.39863719179307e-06   2.520780281215721e-06   -3.4750638642425894e-05
3.196117294932625e-06   4.90113615811763e-07   -5.4523496121059876e-05
3.196117294932625e-06   4.90113615811763e-07   -5.4523496121059876e-05
3.196117294932625e-06   4.90113615811763e-07   -5.4523496121059876e-05
3.196117294932625e-06   4.90113615811763e-07   -5.4523496121059876e-05
-3.663109425486869e-06   8.999287855020188e-07   -4.333734068884146e-05
-3.663109425486869e-06   8.999287855020188e-07   -4.333734068884146e-05
-3.663109425486869e-06   8.999287855020188e-07   -4.333734068884146e-05
-3.663109425486869e-06   8.999287855020188e-07   -4.333734068884146e-05
3.196117294932625e-06   2.520780281215721e-06   -3.3532238643183736e-05
3.196117294932625e-06   2.520780281215721e-06   -3.3532238643183736e-05
3.196117294932625e-06   2.520780281215721e-06   -3.3532238643183736e-05
3.196117294932625e-06   2.520780281215721e-06   -3.3532238643183736e-05
-9.39863719179307e-06   4.90113615811763e-07   -5.574189612030209e-05
-9.39863719179307e-06   4.90113615811763e-07   -5.574189612030209e-05
-9.39863719179307e-06   4.90113615811763e-07   -5.574189612030209e-05
-9.39863719179307e-06   4.90113615811763e-07   -5.574189612030209e-05
-8.62068093566046e-06   4.0730080015784036e-06   -3.5620628878575396e-05
-8.62068093566046e-06   4.0730080015784036e-06   -3.5620628878575396e-05
-8.62068093566046e-06   4.0730080015784036e-06   -3.5620628878575396e-05
-8.62068093566046e-06   4.0730080015784036e-06   -3.5620628878575396e-05
4.091381277518576e-06   1.9439221513790385e-06   -5.552994772375431e-05
4.091381277518576e-06   1.9439221513790385e-06   -5.552994772375431e-05
4.091381277518576e-06   1.9439221513790385e-06   -5.552994772375431e-05
4.091381277518576e-06   1.9439221513790385e-06   -5.552994772375431e-05
-2.8648356762363047e-06   1.9803296559925583e-06   -4.3958097303598476e-05
-2.8648356762363047e-06   1.9803296559925583e-06   -4.3958097303598476e-05
-2.8648356762363047e-06   1.9803296559925583e-06   -4.3958097303598476e-05
-2.8648356762363047e-06   1.9803296559925583e-06   -4.3958097303598476e-05
-1.1021962676885366e-05   1.1685615000055216e-06   -4.175579732941547e-05
-1.1021962676885366e-05   1.1685615000055216e-06   -4.175579732941547e-05
-1.1021962676885366e-05   1.1685615000055216e-06   -4.175579732941547e-05
-1.1021962676885366e-05   1.1685615000055216e-06   -4.175579732941547e-05
-2.3126945383302277e-05   1.473257520563133e-06   -6.17479508944422e-05
-2.3126945383302277e-05   1.473257520563133e-06   -6.17479508944422e-05
-2.3126945383302277e-05   1.473257520563133e-06   -6.17479508944422e-05
-2.3126945383302277e-05   1.473257520563133e-06   -6.17479508944422e-05
-2.2311673044098397e-05   2.628209064289063e-06   -4.100947315049887e-05
-2.2311673044098397e-05   2.628209064289063e-06   -4.100947315049887e-05
-2.2311673044098397e-05   2.628209064289063e-06   -4.100947315049887e-05
-2.2311673044098397e-05   2.628209064289063e-06   -4.100947315049887e-05
-1.0212593607320176e-05   2.7294624327985767e-06   -6.12353575662349e-05
-1.0212593607320176e-05   2.7294624327985767e-06   -6.12353575662349e-05
-1.0212593607320176e-05   2.7294624327985767e-06   -6.12353575662349e-05
-1.0212593607320176e-05   2.7294624327985767e-06   -6.12353575662349e-05
-1.6571742602184505e-05   2.256224158168115e-06   -5.035283294334953e-05
-1.6571742602184505e-05   2.256224158168115e-06   -5.035283294334953e-05
-1.6571742602184505e-05   2.256224158168115e-06   -5.035283294334953e-05
-1.6571742602184505e-05   2.256224158168115e-06   -5.035283294334953e-05
-1.0212593607320176e-05   2.628209064289063e-06   -4.107022517160449e-05
-1.0212593607320176e-05   2.628209064289063e-06   -4.107022517160449e-05
-1.0212593607320176e-05   2.628209064289063e-06   -4.107022517160449e-05
-1.0212593607320176e-05   2.628209064289063e-06   -4.107022517160449e-05
-2.2311673044098397e-05   2.7294624327985767e-06   -6.117460554512944e-05
-2.2311673044098397e-05   2.7294624327985767e-06   -6.117460554512944e-05
-2.2311673044098397e-05   2.7294624327985767e-06   -6.117460554512944e-05
-2.2311673044098397e-05   2.7294624327985767e-06   -6.117460554512944e-05
-2.1483516912354274e-05   4.120034307542736e-06   -4.1116147853301546e-05
-2.1483516912354274e-05   4.120034307542736e-06   -4.1116147853301546e-05
-2.1483516912354274e-05   4.120034307542736e-06   -4.1116147853301546e-05
-2.1483516912354274e-05   4.120034307542736e-06   -4.1116147853301546e-05
-9.398637191793097e-06   4.059688073582753e-06   -6.12214063138609e-05
-9.398637191793097e-06   4.059688073582753e-06   -6.12214063138609e-05
-9.398637191793097e-06   4.059688073582753e-06   -6.12214063138609e-05
-9.398637191793097e-06   4.059688073582753e-06   -6.12214063138609e-05
-1.5854018465647323e-05   3.3524172450838385e-06   -5.003807502700563e-05
-1.5854018465647323e-05   3.3524172450838385e-06   -5.003807502700563e-05
-1.5854018465647323e-05   3.3524172450838385e-06   -5.003807502700563e-05
-1.5854018465647323e-05   3.3524172450838385e-06   -5.003807502700563e-05
-9.398637191793097e-06   4.120034307542736e-06   -4.107994011292573e-05
-9.398637191793097e-06   4.120034307542736e-06   -4.107994011292573e-05
-9.398637191793097e-06   4.120034307542736e-06   -4.107994011292573e-05
-9.398637191793097e-06   4.120034307542736e-06   -4.107994011292573e-05
-2.1483516912354237e-05   4.059688073582753e-06   -6.125761405423682e-05
-2.1483516912354237e-05   4.059688073582753e-06   -6.125761405423682e-05
-2.1483516912354237e-05   4.059688073582753e-06   -6.125761405423682e-05
-2.1483516912354237e-05   4.059688073582753e-06   -6.125761405423682e-05
-2.069377968341541e-05   5.6324620376583395e-06   -4.203947112722947e-05
-2.069377968341541e-05   5.6324620376583395e-06   -4.203947112722947e-05
-2.069377968341541e-05   5.6324620376583395e-06   -4.203947112722947e-05
-2.069377968341541e-05   5.6324620376583395e-06   -4.203947112722947e-05
-8.620680935660487e-06   5.412877907643929e-06   -6.202955189547882e-05
-8.620680935660487e-06   5.412877907643929e-06   -6.202955189547882e-05
-8.620680935660487e-06   5.412877907643929e-06   -6.202955189547882e-05
-8.620680935660487e-06   5.412877907643929e-06   -6.202955189547882e-05
-1.5186099383520246e-05   4.465224954891024e-06   -5.051859604406138e-05
-1.5186099383520246e-05   4.465224954891024e-06   -5.051859604406138e-05
-1.5186099383520246e-05   4.465224954891024e-06   -5.051859604406138e-05
-1.5186099383520246e-05   4.465224954891024e-06   -5.051859604406138e-05
-2.312694538330232e-05   2.598484264643066e-06   -3.510717273511716e-05
-2.312694538330232e-05   2.598484264643066e-06   -3.510717273511716e-05
-2.312694538330232e-05   2.598484264643066e-06   -3.510717273511716e-05
-2.312694538330232e-05   2.598484264643066e-06   -3.510717273511716e-05
-3.508303928603382e-05   4.770849815305227e-06   -5.373057657593922e-05
-3.508303928603382e-05   4.770849815305227e-06   -5.373057657593922e-05
-3.508303928603382e-05   4.770849815305227e-06   -5.373057657593922e-05
-3.508303928603382e-05   4.770849815305227e-06   -5.373057657593922e-05
-3.41518865494479e-05   4.0627592326506964e-06   -3.306613311214934e-05
-3.41518865494479e-05   4.0627592326506964e-06   -3.306613311214934e-05
-3.41518865494479e-05   4.0627592326506964e-06   -3.306613311214934e-05
-3.41518865494479e-05   4.0627592326506964e-06   -3.306613311214934e-05
-2.2311673044098397e-05   6.111682602958149e-06   -5.4029176309915934e-05
-2.2311673044098397e-05   6.111682602958149e-06   -5.4029176309915934e-05
-2.2311673044098397e-05   6.111682602958149e-06   -5.4029176309915934e-05
-2.2311673044098397e-05   6.111682602958149e-06   -5.4029176309915934e-05
-2.8469886997807134e-05   4.560574299542625e-06   -4.283482140501904e-05
-2.8469886997807134e-05   4.560574299542625e-06   -4.283482140501904e-05
-2.8469886997807134e-05   4.560574299542625e-06   -4.283482140501904e-05
-2.8469886997807134e-05   4.560574299542625e-06   -4.283482140501904e-05
-2.2311673044098437e-05   4.06275923265113e-06   -3.42954871343339e-05
-2.2311673044098437e-05   4.06275923265113e-06   -3.42954871343339e-05
-2.2311673044098437e-05   4.06275923265113e-06   -3.42954871343339e-05
-2.2311673044098437e-05   4.06275923265113e-06   -3.42954871343339e-05
-3.415188654944797e-05   6.111682602957715e-06   -5.279982228773234e-05
-3.415188654944797e-05   6.111682602957715e-06   -5.279982228773234e-05
-3.415188654944797e-05   6.111682602957715e-06   -5.279982228773234e-05
-3.415188654944797e-05   6.111682602957715e-06   -5.279982228773234e-05
-3.3038065614746984e-05   5.4139418312502616e-06   -3.276242183965282e-05
-3.3038065614746984e-05   5.4139418312502616e-06   -3.276242183965282e-05
-3.3038065614746984e-05   5.4139418312502616e-06   -3.276242183965282e-05
-3.3038065614746984e-05   5.4139418312502616e-06   -3.276242183965282e-05
-2.1483516912354274e-05   7.319740882851585e-06   -5.3163482441268256e-05
-2.1483516912354274e-05   7.319740882851585e-06   -5.3163482441268256e-05
-2.1483516912354274e-05   7.319740882851585e-06   -5.3163482441268256e-05
-2.1483516912354274e-05   7.319740882851585e-06   -5.3163482441268256e-05
-2.7531954365276014e-05   5.6189189326649736e-06   -4.2062260182953786e-05
-2.7531954365276014e-05   5.6189189326649736e-06   -4.2062260182953786e-05
-2.7531954365276014e-05   5.6189189326649736e-06   -4.2062260182953786e-05
-2.7531954365276014e-05   5.6189189326649736e-06   -4.2062260182953786e-05
-2.1483516912354257e-05   5.4139418312502616e-06   -3.390590127061335e-05
-2.1483516912354257e-05   5.4139418312502616e-06   -3.390590127061335e-05
-2.1483516912354257e-05   5.4139418312502616e-06   -3.390590127061335e-05
-2.1483516912354257e-05   5.4139418312502616e-06   -3.390590127061335e-05
-3.3038065614746984e-05   7.319740882852019e-06   -5.202000301030734e-05
-3.3038065614746984e-05   7.319740882852019e-06   -5.202000301030734e-05
-3.3038065614746984e-05   7.319740882852019e-06   -5.202000301030734e-05
-3.3038065614746984e-05   7.319740882852019e-06   -5.202000301030734e-05
-3.2109840477862126e-05   6.928778300147216e-06   -3.366902316959564e-05
-3.2109840477862126e-05   6.928778300147216e-06   -3.366902316959564e-05
-3.2109840477862126e-05   6.928778300147216e-06   -3.366902316959564e-05
-3.2109840477862126e-05   6.928778300147216e-06   -3.366902316959564e-05
-2.069377968341541e-05   8.672016009146633e-06   -5.374173378574003e-05
-2.069377968341541e-05   8.672016009146633e-06   -5.374173378574003e-05
-2.069377968341541e-05   8.672016009146633e-06   -5.374173378574003e-05
-2.069377968341541e-05   8.672016009146633e-06   -5.374173378574003e-05
-2.6902292016160426e-05   6.662128819468274e-06   -4.2188280917358247e-05
-2.6902292016160426e-05   6.662128819468274e-06   -4.2188280917358247e-05
-2.6902292016160426e-05   6.662128819468274e-06   -4.2188280917358247e-05
-2.6902292016160426e-05   6.662128819468274e-06   -4.2188280917358247e-05
-3.508303928603382e-05   4.364322075417742e-06   -1.8164383720781045e-05
-3.508303928603382e-05   4.364322075417742e-06   -1.8164383720781045e-05
-3.508303928603382e-05   4.364322075417742e-06   -1.8164383720781045e-05
-3.508303928603382e-05   4.364322075417742e-06   -1.8164383720781045e-05
-4.8704112287438435e-05   8.201338384237079e-06   -3.856396227116415e-05
-4.8704112287438435e-05   8.201338384237079e-06   -3.856396227116415e-05
-4.8704112287438435e-05   8.201338384237079e-06   -3.856396227116415e-05
-4.8704112287438435e-05   8.201338384237079e-06   -3.856396227116415e-05
-4.615174354247881e-05   5.6913203014359245e-06   -1.1438338779199905e-05
-4.615174354247881e-05   5.6913203014359245e-06   -1.1438338779199905e-05
-4.615174354247881e-05   5.6913203014359245e-06   -1.1438338779199905e-05
-4.615174354247881e-05   5.6913203014359245e-06   -1.1438338779199905e-05
-3.41518865494479e-05   9.592885416275128e-06   -3.377903950315479e-05
-3.41518865494479e-05   9.592885416275128e-06   -3.377903950315479e-05
-3.41518865494479e-05   9.592885416275128e-06   -3.377903950315479e-05
-3.41518865494479e-05   9.592885416275128e-06   -3.377903950315479e-05
-3.9353616771656284e-05   7.122373521411315e-06   -2.3627181995889194e-05
-3.9353616771656284e-05   7.122373521411315e-06   -2.3627181995889194e-05
-3.9353616771656284e-05   7.122373521411315e-06   -2.3627181995889194e-05
-3.9353616771656284e-05   7.122373521411315e-06   -2.3627181995889194e-05
-3.415188654944793e-05   5.6913203014359245e-06   -1.3779277848103254e-05
-3.415188654944793e-05   5.6913203014359245e-06   -1.3779277848103254e-05
-3.415188654944793e-05   5.6913203014359245e-06   -1.3779277848103254e-05
-3.415188654944793e-05   5.6913203014359245e-06   -1.3779277848103254e-05
-4.6151743542478644e-05   9.592885416275128e-06   -3.143810043425136e-05
-4.6151743542478644e-05   9.592885416275128e-06   -3.143810043425136e-05
-4.6151743542478644e-05   9.592885416275128e-06   -3.143810043425136e-05
-4.6151743542478644e-05   9.592885416275128e-06   -3.143810043425136e-05
-4.4042145216481875e-05   6.298960503013998e-06   -9.403581321380848e-06
-4.4042145216481875e-05   6.298960503013998e-06   -9.403581321380848e-06
-4.4042145216481875e-05   6.298960503013998e-06   -9.403581321380848e-06
-4.4042145216481875e-05   6.298960503013998e-06   -9.403581321380848e-06
-3.303806561474693e-05   1.009132086684638e-05   -3.0019130209238626e-05
-3.303806561474693e-05   1.009132086684638e-05   -3.0019130209238626e-05
-3.303806561474693e-05   1.009132086684638e-05   -3.0019130209238626e-05
-3.303806561474693e-05   1.009132086684638e-05   -3.0019130209238626e-05
-3.841513020804036e-05   7.74742729970192e-06   -1.96510197467963e-05
-3.841513020804036e-05   7.74742729970192e-06   -1.96510197467963e-05
-3.841513020804036e-05   7.74742729970192e-06   -1.96510197467963e-05
-3.841513020804036e-05   7.74742729970192e-06   -1.96510197467963e-05
-3.3038065614746984e-05   6.298960503013998e-06   -1.1678997539680408e-05
-3.3038065614746984e-05   6.298960503013998e-06   -1.1678997539680408e-05
-3.3038065614746984e-05   6.298960503013998e-06   -1.1678997539680408e-05
-3.3038065614746984e-05   6.298960503013998e-06   -1.1678997539680408e-05
-4.4042145216481793e-05   1.009132086684638e-05   -2.7743713990939283e-05
-4.4042145216481793e-05   1.009132086684638e-05   -2.7743713990939283e-05
-4.4042145216481793e-05   1.009132086684638e-05   -2.7743713990939283e-05
-4.4042145216481793e-05   1.009132086684638e-05   -2.7743713990939283e-05
-4.154870332361674e-05   7.241917239894993e-06   -7.278555599672925e-06
-4.154870332361674e-05   7.241917239894993e-06   -7.278555599672925e-06
-4.154870332361674e-05   7.241917239894993e-06   -7.278555599672925e-06
-4.154870332361674e-05   7.241917239894993e-06   -7.278555599672925e-06
-3.2109840477862126e-05   1.072495619870023e-05   -2.5099817051213523e-05
-3.2109840477862126e-05   1.072495619870023e-05   -2.5099817051213523e-05
-3.2109840477862126e-05   1.072495619870023e-05   -2.5099817051213523e-05
-3.2109840477862126e-05   1.072495619870023e-05   -2.5099817051213523e-05
-3.6433831821833766e-05   8.049827578826638e-06   -1.6288087639336913e-05
-3.6433831821833766e-05   8.049827578826638e-06   -1.6288087639336913e-05
-3.6433831821833766e-05   8.049827578826638e-06   -1.6288087639336913e-05
-3.6433831821833766e-05   8.049827578826638e-06   -1.6288087639336913e-05
3.703391687534199e-05   -4.86023674868552e-06   -3.36422595269845e-07
3.703391687534199e-05   -4.86023674868552e-06   -3.36422595269845e-07
3.703391687534199e-05   -4.86023674868552e-06   -3.36422595269845e-07
3.703391687534199e-05   -4.86023674868552e-06   -3.36422595269845e-07
1.5793118975708574e-05   -8.774785539538386e-06   -3.808648170250373e-05
1.5793118975708574e-05   -8.774785539538386e-06   -3.808648170250373e-05
1.5793118975708574e-05   -8.774785539538386e-06   -3.808648170250373e-05
1.5793118975708574e-05   -8.774785539538386e-06   -3.808648170250373e-05
1.691792631248367e-05   -3.993225135989591e-06   -4.237127648858748e-06
1.691792631248367e-05   -3.993225135989591e-06   -4.237127648858748e-06
1.691792631248367e-05   -3.993225135989591e-06   -4.237127648858748e-06
1.691792631248367e-05   -3.993225135989591e-06   -4.237127648858748e-06
3.9845108001085934e-05   -8.159718819865814e-06   -3.994920091953671e-05
3.9845108001085934e-05   -8.159718819865814e-06   -3.994920091953671e-05
3.9845108001085934e-05   -8.159718819865814e-06   -3.994920091953671e-05
3.9845108001085934e-05   -8.159718819865814e-06   -3.994920091953671e-05
2.6293140757072407e-05   -5.780705051326718e-06   -1.878999710730391e-05
2.6293140757072407e-05   -5.780705051326718e-06   -1.878999710730391e-05
2.6293140757072407e-05   -5.780705051326718e-06   -1.878999710730391e-05
2.6293140757072407e-05   -5.780705051326718e-06   -1.878999710730391e-05
3.984510800108604e-05   -3.993225135989591e-06   -1.737231438532754e-06
3.984510800108604e-05   -3.993225135989591e-06   -1.737231438532754e-06
3.984510800108604e-05   -3.993225135989591e-06   -1.737231438532754e-06
3.984510800108604e-05   -3.993225135989591e-06   -1.737231438532754e-06
1.6917926312483614e-05   -8.159718819865814e-06   -4.244909712986249e-05
1.6917926312483614e-05   -8.159718819865814e-06   -4.244909712986249e-05
1.6917926312483614e-05   -8.159718819865814e-06   -4.244909712986249e-05
1.6917926312483614e-05   -8.159718819865814e-06   -4.244909712986249e-05
1.816365983439987e-05   -3.415989622180312e-06   -5.945682578341761e-06
1.816365983439987e-05   -3.415989622180312e-06   -5.945682578341761e-06
1.816365983439987e-05   -3.415989622180312e-06   -5.945682578341761e-06
1.816365983439987e-05   -3.415989622180312e-06   -5.945682578341761e-06
4.2207926662417425e-05   -7.632254703669218e-06   -4.348970157614469e-05
4.2207926662417425e-05   -7.632254703669218e-06   -4.348970157614469e-05
4.2207926662417425e-05   -7.632254703669218e-06   -4.348970157614469e-05
4.2207926662417425e-05   -7.632254703669218e-06   -4.348970157614469e-05
2.840474772822918e-05   -5.545993913609864e-06   -2.1736159826532932e-05
2.840474772822918e-05   -5.545993913609864e-06   -2.1736159826532932e-05
2.840474772822918e-05   -5.545993913609864e-06   -2.1736159826532932e-05
2.840474772822918e-05   -5.545993913609864e-06   -2.1736159826532932e-05
4.220792666241748e-05   -3.415989622180312e-06   -3.415923529448547e-06
4.220792666241748e-05   -3.415989622180312e-06   -3.415923529448547e-06
4.220792666241748e-05   -3.415989622180312e-06   -3.415923529448547e-06
4.220792666241748e-05   -3.415989622180312e-06   -3.415923529448547e-06
1.816365983439987e-05   -7.632254703669218e-06   -4.60194606250379e-05
1.816365983439987e-05   -7.632254703669218e-06   -4.60194606250379e-05
1.816365983439987e-05   -7.632254703669218e-06   -4.60194606250379e-05
1.816365983439987e-05   -7.632254703669218e-06   -4.60194606250379e-05
1.9194378765660105e-05   -1.960733227005223e-06   -9.892702233049982e-06
1.9194378765660105e-05   -1.960733227005223e-06   -9.892702233049982e-06
1.9194378765660105e-05   -1.960733227005223e-06   -9.892702233049982e-06
1.9194378765660105e-05   -1.960733227005223e-06   -9.892702233049982e-06
4.495124419693231e-05   -5.962926074015197e-06   -5.0419495576964346e-05
4.495124419693231e-05   -5.962926074015197e-06   -5.0419495576964346e-05
4.495124419693231e-05   -5.962926074015197e-06   -5.0419495576964346e-05
4.495124419693231e-05   -5.962926074015197e-06   -5.0419495576964346e-05
2.9552495712284905e-05   -4.894963117168128e-06   -2.5395692543328237e-05
2.9552495712284905e-05   -4.894963117168128e-06   -2.5395692543328237e-05
2.9552495712284905e-05   -4.894963117168128e-06   -2.5395692543328237e-05
2.9552495712284905e-05   -4.894963117168128e-06   -2.5395692543328237e-05
1.5793118975708574e-05   -1.9256970899810683e-06   -2.5874878407644965e-05
1.5793118975708574e-05   -1.9256970899810683e-06   -2.5874878407644965e-05
1.5793118975708574e-05   -1.9256970899810683e-06   -2.5874878407644965e-05
1.5793118975708574e-05   -1.9256970899810683e-06   -2.5874878407644965e-05
-6.701977540584736e-06   -4.1151786899906034e-06   -6.468039489480621e-05
-6.701977540584736e-06   -4.1151786899906034e-06   -6.468039489480621e-05
-6.701977540584736e-06   -4.1151786899906034e-06   -6.468039489480621e-05
-6.701977540584736e-06   -4.1151786899906034e-06   -6.468039489480621e-05
-5.65472717107109e-06   -7.378600625079779e-07   -2.6413434673191625e-05
-5.65472717107109e-06   -7.378600625079779e-07   -2.6413434673191625e-05
-5.65472717107109e-06   -7.378600625079779e-07   -2.6413434673191625e-05
-5.65472717107109e-06   -7.378600625079779e-07   -2.6413434673191625e-05
1.6917926312483614e-05   -3.2626653606484916e-06   -6.2519640633565e-05
1.6917926312483614e-05   -3.2626653606484916e-06   -6.2519640633565e-05
1.6917926312483614e-05   -3.2626653606484916e-06   -6.2519640633565e-05
1.6917926312483614e-05   -3.2626653606484916e-06   -6.2519640633565e-05
5.144905873202856e-06   -1.9908809388781597e-06   -4.366101055449257e-05
5.144905873202856e-06   -1.9908809388781597e-06   -4.366101055449257e-05
5.144905873202856e-06   -1.9908809388781597e-06   -4.366101055449257e-05
5.144905873202856e-06   -1.9908809388781597e-06   -4.366101055449257e-05
1.691792631248367e-05   -7.378600625079779e-07   -2.489855149430723e-05
1.691792631248367e-05   -7.378600625079779e-07   -2.489855149430723e-05
1.691792631248367e-05   -7.378600625079779e-07   -2.489855149430723e-05
1.691792631248367e-05   -7.378600625079779e-07   -2.489855149430723e-05
-5.6547271710710625e-06   -3.2626653606484916e-06   -6.40345238124495e-05
-5.6547271710710625e-06   -3.2626653606484916e-06   -6.40345238124495e-05
-5.6547271710710625e-06   -3.2626653606484916e-06   -6.40345238124495e-05
-5.6547271710710625e-06   -3.2626653606484916e-06   -6.40345238124495e-05
-4.654793671827491e-06   4.90113615811763e-07   -2.675087570570031e-05
-4.654793671827491e-06   4.90113615811763e-07   -2.675087570570031e-05
-4.654793671827491e-06   4.90113615811763e-07   -2.675087570570031e-05
-4.654793671827491e-06   4.90113615811763e-07   -2.675087570570031e-05
1.816365983439987e-05   -2.2204180774856516e-06   -6.315531253343393e-05
1.816365983439987e-05   -2.2204180774856516e-06   -6.315531253343393e-05
1.816365983439987e-05   -2.2204180774856516e-06   -6.315531253343393e-05
1.816365983439987e-05   -2.2204180774856516e-06   -6.315531253343393e-05
5.9766950510349814e-06   -1.2372787625836157e-06   -4.343358815009964e-05
5.9766950510349814e-06   -1.2372787625836157e-06   -4.343358815009964e-05
5.9766950510349814e-06   -1.2372787625836157e-06   -4.343358815009964e-05
5.9766950510349814e-06   -1.2372787625836157e-06   -4.343358815009964e-05
1.816365983439987e-05   4.90113615811763e-07   -2.512455668972173e-05
1.816365983439987e-05   4.90113615811763e-07   -2.512455668972173e-05
1.816365983439987e-05   4.90113615811763e-07   -2.512455668972173e-05
1.816365983439987e-05   4.90113615811763e-07   -2.512455668972173e-05
-4.654793671827491e-06   -2.2204180774856516e-06   -6.478163154941268e-05
-4.654793671827491e-06   -2.2204180774856516e-06   -6.478163154941268e-05
-4.654793671827491e-06   -2.2204180774856516e-06   -6.478163154941268e-05
-4.654793671827491e-06   -2.2204180774856516e-06   -6.478163154941268e-05
-3.7152982261838205e-06   1.943922151378605e-06   -2.765874793320849e-05
-3.7152982261838205e-06   1.943922151378605e-06   -2.765874793320849e-05
-3.7152982261838205e-06   1.943922151378605e-06   -2.765874793320849e-05
-3.7152982261838205e-06   1.943922151378605e-06   -2.765874793320849e-05
1.9194378765660105e-05   -9.09415400222359e-07   -6.412954038865413e-05
1.9194378765660105e-05   -9.09415400222359e-07   -6.412954038865413e-05
1.9194378765660105e-05   -9.09415400222359e-07   -6.412954038865413e-05
1.9194378765660105e-05   -9.09415400222359e-07   -6.412954038865413e-05
7.01297308500894e-06   -3.0812004403642235e-07   -4.418797480128147e-05
7.01297308500894e-06   -3.0812004403642235e-07   -4.418797480128147e-05
7.01297308500894e-06   -3.0812004403642235e-07   -4.418797480128147e-05
7.01297308500894e-06   -3.0812004403642235e-07   -4.418797480128147e-05
-6.701977540584736e-06   1.473257520563133e-06   -3.326249370732377e-05
-6.701977540584736e-06   1.473257520563133e-06   -3.326249370732377e-05
-6.701977540584736e-06   1.473257520563133e-06   -3.326249370732377e-05
-6.701977540584736e-06   1.473257520563133e-06   -3.326249370732377e-05
-2.880089513667854e-05   7.373993307809024e-07   -7.053553794801625e-05
-2.880089513667854e-05   7.373993307809024e-07   -7.053553794801625e-05
-2.880089513667854e-05   7.373993307809024e-07   -7.053553794801625e-05
-2.880089513667854e-05   7.373993307809024e-07   -7.053553794801625e-05
-2.767359600440212e-05   2.729462432798143e-06   -3.3033956953904594e-05
-2.767359600440212e-05   2.729462432798143e-06   -3.3033956953904594e-05
-2.767359600440212e-05   2.729462432798143e-06   -3.3033956953904594e-05
-2.767359600440212e-05   2.729462432798143e-06   -3.3033956953904594e-05
-5.6547271710710625e-06   1.6944862963833712e-06   -6.911108599427416e-05
-5.6547271710710625e-06   1.6944862963833712e-06   -6.911108599427416e-05
-5.6547271710710625e-06   1.6944862963833712e-06   -6.911108599427416e-05
-5.6547271710710625e-06   1.6944862963833712e-06   -6.911108599427416e-05
-1.7089759879366673e-05   2.0195103458448167e-06   -5.024771257679153e-05
-1.7089759879366673e-05   2.0195103458448167e-06   -5.024771257679153e-05
-1.7089759879366673e-05   2.0195103458448167e-06   -5.024771257679153e-05
-1.7089759879366673e-05   2.0195103458448167e-06   -5.024771257679153e-05
-5.65472717107109e-06   2.7294624327985767e-06   -3.241297127205573e-05
-5.65472717107109e-06   2.7294624327985767e-06   -3.241297127205573e-05
-5.65472717107109e-06   2.7294624327985767e-06   -3.241297127205573e-05
-5.65472717107109e-06   2.7294624327985767e-06   -3.241297127205573e-05
-2.767359600440212e-05   1.6944862963833712e-06   -6.973207167612302e-05
-2.767359600440212e-05   1.6944862963833712e-06   -6.973207167612302e-05
-2.767359600440212e-05   1.6944862963833712e-06   -6.973207167612302e-05
-2.767359600440212e-05   1.6944862963833712e-06   -6.973207167612302e-05
-2.6586446193806213e-05   4.059688073582753e-06   -3.2984147979483276e-05
-2.6586446193806213e-05   4.059688073582753e-06   -3.2984147979483276e-05
-2.6586446193806213e-05   4.059688073582753e-06   -3.2984147979483276e-05
-2.6586446193806213e-05   4.059688073582753e-06   -3.2984147979483276e-05
-4.654793671827464e-06   2.8034179398758567e-06   -6.878314010255716e-05
-4.654793671827464e-06   2.8034179398758567e-06   -6.878314010255716e-05
-4.654793671827464e-06   2.8034179398758567e-06   -6.878314010255716e-05
-4.654793671827464e-06   2.8034179398758567e-06   -6.878314010255716e-05
-1.611945003014021e-05   2.9154372961715316e-06   -4.974259111914677e-05
-1.611945003014021e-05   2.9154372961715316e-06   -4.974259111914677e-05
-1.611945003014021e-05   2.9154372961715316e-06   -4.974259111914677e-05
-1.611945003014021e-05   2.9154372961715316e-06   -4.974259111914677e-05
-4.654793671827464e-06   4.059688073582753e-06   -3.2230385899259225e-05
-4.654793671827464e-06   4.059688073582753e-06   -3.2230385899259225e-05
-4.654793671827464e-06   4.059688073582753e-06   -3.2230385899259225e-05
-4.654793671827464e-06   4.059688073582753e-06   -3.2230385899259225e-05
-2.6586446193806213e-05   2.803417939875423e-06   -6.953690218278142e-05
-2.6586446193806213e-05   2.803417939875423e-06   -6.953690218278142e-05
-2.6586446193806213e-05   2.803417939875423e-06   -6.953690218278142e-05
-2.6586446193806213e-05   2.803417939875423e-06   -6.953690218278142e-05
-2.5581835421200857e-05   5.412877907643929e-06   -3.3758881295042854e-05
-2.5581835421200857e-05   5.412877907643929e-06   -3.3758881295042854e-05
-2.5581835421200857e-05   5.412877907643929e-06   -3.3758881295042854e-05
-2.5581835421200857e-05   5.412877907643929e-06   -3.3758881295042854e-05
-3.7152982261838205e-06   3.9495767405945716e-06   -6.932512925317513e-05
-3.7152982261838205e-06   3.9495767405945716e-06   -6.932512925317513e-05
-3.7152982261838205e-06   3.9495767405945716e-06   -6.932512925317513e-05
-3.7152982261838205e-06   3.9495767405945716e-06   -6.932512925317513e-05
-1.525231500602704e-05   3.8347603261057635e-06   -5.002787810474399e-05
-1.525231500602704e-05   3.8347603261057635e-06   -5.002787810474399e-05
-1.525231500602704e-05   3.8347603261057635e-06   -5.002787810474399e-05
-1.525231500602704e-05   3.8347603261057635e-06   -5.002787810474399e-05
-2.8800895136678595e-05   4.770849815305227e-06   -2.6990053633087294e-05
-2.8800895136678595e-05   4.770849815305227e-06   -2.6990053633087294e-05
-2.8800895136678595e-05   4.770849815305227e-06   -2.6990053633087294e-05
-2.8800895136678595e-05   4.770849815305227e-06   -2.6990053633087294e-05
-5.048385368287238e-05   5.763378011413179e-06   -6.25328009590787e-05
-5.048385368287238e-05   5.763378011413179e-06   -6.25328009590787e-05
-5.048385368287238e-05   5.763378011413179e-06   -6.25328009590787e-05
-5.048385368287238e-05   5.763378011413179e-06   -6.25328009590787e-05
-4.912552095058102e-05   6.111682602958149e-06   -2.5367818574117658e-05
-4.912552095058102e-05   6.111682602958149e-06   -2.5367818574117658e-05
-4.912552095058102e-05   6.111682602958149e-06   -2.5367818574117658e-05
-4.912552095058102e-05   6.111682602958149e-06   -2.5367818574117658e-05
-2.7673596004402167e-05   6.979531177247426e-06   -6.16417359623231e-05
-2.7673596004402167e-05   6.979531177247426e-06   -6.16417359623231e-05
-2.7673596004402167e-05   6.979531177247426e-06   -6.16417359623231e-05
-2.7673596004402167e-05   6.979531177247426e-06   -6.16417359623231e-05
-3.873573887637091e-05   6.16126996033162e-06   -4.271387444555882e-05
-3.873573887637091e-05   6.16126996033162e-06   -4.271387444555882e-05
-3.873573887637091e-05   6.16126996033162e-06   -4.271387444555882e-05
-3.873573887637091e-05   6.16126996033162e-06   -4.271387444555882e-05
-2.7673596004402167e-05   6.111682602957715e-06   -2.5888527718691615e-05
-2.7673596004402167e-05   6.111682602957715e-06   -2.5888527718691615e-05
-2.7673596004402167e-05   6.111682602957715e-06   -2.5888527718691615e-05
-2.7673596004402167e-05   6.111682602957715e-06   -2.5888527718691615e-05
-4.912552095058111e-05   6.979531177247426e-06   -6.112102681774911e-05
-4.912552095058111e-05   6.979531177247426e-06   -6.112102681774911e-05
-4.912552095058111e-05   6.979531177247426e-06   -6.112102681774911e-05
-4.912552095058111e-05   6.979531177247426e-06   -6.112102681774911e-05
-4.762337854662745e-05   7.319740882851585e-06   -2.4465663197992173e-05
-4.762337854662745e-05   7.319740882851585e-06   -2.4465663197992173e-05
-4.762337854662745e-05   7.319740882851585e-06   -2.4465663197992173e-05
-4.762337854662745e-05   7.319740882851585e-06   -2.4465663197992173e-05
-2.6586446193806267e-05   8.026996163722645e-06   -5.995157028788328e-05
-2.6586446193806267e-05   8.026996163722645e-06   -5.995157028788328e-05
-2.6586446193806267e-05   8.026996163722645e-06   -5.995157028788328e-05
-2.6586446193806267e-05   8.026996163722645e-06   -5.995157028788328e-05
-3.7362739909889704e-05   7.107689494528866e-06   -4.143949675956143e-05
-3.7362739909889704e-05   7.107689494528866e-06   -4.143949675956143e-05
-3.7362739909889704e-05   7.107689494528866e-06   -4.143949675956143e-05
-3.7362739909889704e-05   7.107689494528866e-06   -4.143949675956143e-05
-2.658644619380624e-05   7.319740882851585e-06   -2.489001636651455e-05
-2.658644619380624e-05   7.319740882851585e-06   -2.489001636651455e-05
-2.658644619380624e-05   7.319740882851585e-06   -2.489001636651455e-05
-2.658644619380624e-05   7.319740882851585e-06   -2.489001636651455e-05
-4.762337854662745e-05   8.026996163722645e-06   -5.9527217119360876e-05
-4.762337854662745e-05   8.026996163722645e-06   -5.9527217119360876e-05
-4.762337854662745e-05   8.026996163722645e-06   -5.9527217119360876e-05
-4.762337854662745e-05   8.026996163722645e-06   -5.9527217119360876e-05
-4.6353830036454576e-05   8.672016009146633e-06   -2.5030690423417327e-05
-4.6353830036454576e-05   8.672016009146633e-06   -2.5030690423417327e-05
-4.6353830036454576e-05   8.672016009146633e-06   -2.5030690423417327e-05
-4.6353830036454576e-05   8.672016009146633e-06   -2.5030690423417327e-05
-2.5581835421200898e-05   9.186386482276307e-06   -5.995930373271807e-05
-2.5581835421200898e-05   9.186386482276307e-06   -5.995930373271807e-05
-2.5581835421200898e-05   9.186386482276307e-06   -5.995930373271807e-05
-2.5581835421200898e-05   9.186386482276307e-06   -5.995930373271807e-05
-3.650650748220963e-05   7.97967608491025e-06   -4.1027490725950556e-05
-3.650650748220963e-05   7.97967608491025e-06   -4.1027490725950556e-05
-3.650650748220963e-05   7.97967608491025e-06   -4.1027490725950556e-05
-3.650650748220963e-05   7.97967608491025e-06   -4.1027490725950556e-05
-5.048385368287238e-05   8.201338384237079e-06   -1.353013219593897e-05
-5.048385368287238e-05   8.201338384237079e-06   -1.353013219593897e-05
-5.048385368287238e-05   8.201338384237079e-06   -1.353013219593897e-05
-5.048385368287238e-05   8.201338384237079e-06   -1.353013219593897e-05
-7.331386510975644e-05   1.1336558710984407e-05   -4.96990190446973e-05
-7.331386510975644e-05   1.1336558710984407e-05   -4.96990190446973e-05
-7.331386510975644e-05   1.1336558710984407e-05   -4.96990190446973e-05
-7.331386510975644e-05   1.1336558710984407e-05   -4.96990190446973e-05
-7.020031946673377e-05   9.592885416275128e-06   -4.331373862130703e-06
-7.020031946673377e-05   9.592885416275128e-06   -4.331373862130703e-06
-7.020031946673377e-05   9.592885416275128e-06   -4.331373862130703e-06
-7.020031946673377e-05   9.592885416275128e-06   -4.331373862130703e-06
-4.912552095058102e-05   1.2952321961958065e-05   -4.147169998312842e-05
-4.912552095058102e-05   1.2952321961958065e-05   -4.147169998312842e-05
-4.912552095058102e-05   1.2952321961958065e-05   -4.147169998312842e-05
-4.912552095058102e-05   1.2952321961958065e-05   -4.147169998312842e-05
-5.826770392801602e-05   1.0800569826243094e-05   -2.494367707264126e-05
-5.826770392801602e-05   1.0800569826243094e-05   -2.494367707264126e-05
-5.826770392801602e-05   1.0800569826243094e-05   -2.494367707264126e-05
-5.826770392801602e-05   1.0800569826243094e-05   -2.494367707264126e-05
-4.912552095058107e-05   9.592885416275562e-06   -6.347035789540465e-06
-4.912552095058107e-05   9.592885416275562e-06   -6.347035789540465e-06
-4.912552095058107e-05   9.592885416275562e-06   -6.347035789540465e-06
-4.912552095058107e-05   9.592885416275562e-06   -6.347035789540465e-06
-7.020031946673366e-05   1.2952321961958065e-05   -3.945603805571873e-05
-7.020031946673366e-05   1.2952321961958065e-05   -3.945603805571873e-05
-7.020031946673366e-05   1.2952321961958065e-05   -3.945603805571873e-05
-7.020031946673366e-05   1.2952321961958065e-05   -3.945603805571873e-05
-6.763808185185737e-05   1.0091320866846814e-05   -4.933965642166423e-07
-6.763808185185737e-05   1.0091320866846814e-05   -4.933965642166423e-07
-6.763808185185737e-05   1.0091320866846814e-05   -4.933965642166423e-07
-6.763808185185737e-05   1.0091320866846814e-05   -4.933965642166423e-07
-4.762337854662745e-05   1.3376977254691072e-05   -3.582262923897339e-05
-4.762337854662745e-05   1.3376977254691072e-05   -3.582262923897339e-05
-4.762337854662745e-05   1.3376977254691072e-05   -3.582262923897339e-05
-4.762337854662745e-05   1.3376977254691072e-05   -3.582262923897339e-05
-5.720202703064675e-05   1.144298479996246e-05   -1.8697819626103452e-05
-5.720202703064675e-05   1.144298479996246e-05   -1.8697819626103452e-05
-5.720202703064675e-05   1.144298479996246e-05   -1.8697819626103452e-05
-5.720202703064675e-05   1.144298479996246e-05   -1.8697819626103452e-05
-4.762337854662745e-05   1.0091320866846814e-05   -2.4647903969234573e-06
-4.762337854662745e-05   1.0091320866846814e-05   -2.4647903969234573e-06
-4.762337854662745e-05   1.0091320866846814e-05   -2.4647903969234573e-06
-4.762337854662745e-05   1.0091320866846814e-05   -2.4647903969234573e-06
-6.763808185185713e-05   1.3376977254691072e-05   -3.3851235406266635e-05
-6.763808185185713e-05   1.3376977254691072e-05   -3.3851235406266635e-05
-6.763808185185713e-05   1.3376977254691072e-05   -3.3851235406266635e-05
-6.763808185185713e-05   1.3376977254691072e-05   -3.3851235406266635e-05
-6.487545691767128e-05   1.072495619870023e-05   4.377075518925168e-06
-6.487545691767128e-05   1.072495619870023e-05   4.377075518925168e-06
-6.487545691767128e-05   1.072495619870023e-05   4.377075518925168e-06
-6.487545691767128e-05   1.072495619870023e-05   4.377075518925168e-06
-4.6353830036454576e-05   1.3744609254060392e-05   -2.830409444965186e-05
-4.6353830036454576e-05   1.3744609254060392e-05   -2.830409444965186e-05
-4.6353830036454576e-05   1.3744609254060392e-05   -2.830409444965186e-05
-4.6353830036454576e-05   1.3744609254060392e-05   -2.830409444965186e-05
-5.460725670681115e-05   1.1548135058928998e-05   -1.3230498815312765e-05
-5.460725670681115e-05   1.1548135058928998e-05   -1.3230498815312765e-05
-5.460725670681115e-05   1.1548135058928998e-05   -1.3230498815312765e-05
-5.460725670681115e-05   1.1548135058928998e-05   -1.3230498815312765e-05
6.2903546006961e-05   -8.774785539538386e-06   1.2412609976841446e-05
6.2903546006961e-05   -8.774785539538386e-06   1.2412609976841446e-05
6.2903546006961e-05   -8.774785539538386e-06   1.2412609976841446e-05
6.2903546006961e-05   -8.774785539538386e-06   1.2412609976841446e-05
3.0327247497868902e-05   -1.3001740456484653e-05   -4.441739382181299e-05
3.0327247497868902e-05   -1.3001740456484653e-05   -4.441739382181299e-05
3.0327247497868902e-05   -1.3001740456484653e-05   -4.441739382181299e-05
3.0327247497868902e-05   -1.3001740456484653e-05   -4.441739382181299e-05
3.157418464603092e-05   -8.159718819865814e-06   5.955111618383569e-06
3.157418464603092e-05   -8.159718819865814e-06   5.955111618383569e-06
3.157418464603092e-05   -8.159718819865814e-06   5.955111618383569e-06
3.157418464603092e-05   -8.159718819865814e-06   5.955111618383569e-06
6.579317157744195e-05   -1.2697058419962326e-05   -4.8354129507243815e-05
6.579317157744195e-05   -1.2697058419962326e-05   -4.8354129507243815e-05
6.579317157744195e-05   -1.2697058419962326e-05   -4.8354129507243815e-05
6.579317157744195e-05   -1.2697058419962326e-05   -4.8354129507243815e-05
4.571289259517102e-05   -9.609687669181414e-06   -1.6739420320594075e-05
4.571289259517102e-05   -9.609687669181414e-06   -1.6739420320594075e-05
4.571289259517102e-05   -9.609687669181414e-06   -1.6739420320594075e-05
4.571289259517102e-05   -9.609687669181414e-06   -1.6739420320594075e-05
6.579317157744206e-05   -8.159718819865814e-06   8.677515378441433e-06
6.579317157744206e-05   -8.159718819865814e-06   8.677515378441433e-06
6.579317157744206e-05   -8.159718819865814e-06   8.677515378441433e-06
6.579317157744206e-05   -8.159718819865814e-06   8.677515378441433e-06
3.157418464603084e-05   -1.2697058419962326e-05   -5.107653326730157e-05
3.157418464603084e-05   -1.2697058419962326e-05   -5.107653326730157e-05
3.157418464603084e-05   -1.2697058419962326e-05   -5.107653326730157e-05
3.157418464603084e-05   -1.2697058419962326e-05   -5.107653326730157e-05
3.281447496592454e-05   -7.632254703669652e-06   2.798291881724556e-06
3.281447496592454e-05   -7.632254703669652e-06   2.798291881724556e-06
3.281447496592454e-05   -7.632254703669652e-06   2.798291881724556e-06
3.281447496592454e-05   -7.632254703669652e-06   2.798291881724556e-06
6.80119822075374e-05   -1.2256604550642172e-05   -5.3089610279446206e-05
6.80119822075374e-05   -1.2256604550642172e-05   -5.3089610279446206e-05
6.80119822075374e-05   -1.2256604550642172e-05   -5.3089610279446206e-05
6.80119822075374e-05   -1.2256604550642172e-05   -5.3089610279446206e-05
4.814564451246196e-05   -9.578176455638833e-06   -2.158610431132258e-05
4.814564451246196e-05   -9.578176455638833e-06   -2.158610431132258e-05
4.814564451246196e-05   -9.578176455638833e-06   -2.158610431132258e-05
4.814564451246196e-05   -9.578176455638833e-06   -2.158610431132258e-05
6.80119822075374e-05   -7.632254703669652e-06   5.572901789908718e-06
6.80119822075374e-05   -7.632254703669652e-06   5.572901789908718e-06
6.80119822075374e-05   -7.632254703669652e-06   5.572901789908718e-06
6.80119822075374e-05   -7.632254703669652e-06   5.572901789908718e-06
3.281447496592454e-05   -1.2256604550642172e-05   -5.586422018763037e-05
3.281447496592454e-05   -1.2256604550642172e-05   -5.586422018763037e-05
3.281447496592454e-05   -1.2256604550642172e-05   -5.586422018763037e-05
3.281447496592454e-05   -1.2256604550642172e-05   -5.586422018763037e-05
3.365778437840146e-05   -5.962926074014763e-06   -3.5643865453401785e-06
3.365778437840146e-05   -5.962926074014763e-06   -3.5643865453401785e-06
3.365778437840146e-05   -5.962926074014763e-06   -3.5643865453401785e-06
3.365778437840146e-05   -5.962926074014763e-06   -3.5643865453401785e-06
7.035793323256203e-05   -1.0537350013122351e-05   -6.198664693880991e-05
7.035793323256203e-05   -1.0537350013122351e-05   -6.198664693880991e-05
7.035793323256203e-05   -1.0537350013122351e-05   -6.198664693880991e-05
7.035793323256203e-05   -1.0537350013122351e-05   -6.198664693880991e-05
4.8829926989588365e-05   -8.84267426993655e-06   -2.7123441979766145e-05
4.8829926989588365e-05   -8.84267426993655e-06   -2.7123441979766145e-05
4.8829926989588365e-05   -8.84267426993655e-06   -2.7123441979766145e-05
4.8829926989588365e-05   -8.84267426993655e-06   -2.7123441979766145e-05
3.0327247497868984e-05   -4.1151786899906034e-06   -1.540378720562294e-05
3.0327247497868984e-05   -4.1151786899906034e-06   -1.540378720562294e-05
3.0327247497868984e-05   -4.1151786899906034e-06   -1.540378720562294e-05
3.0327247497868984e-05   -4.1151786899906034e-06   -1.540378720562294e-05
-1.8112200426895545e-06   -8.440547657740088e-06   -7.15631211538701e-05
-1.8112200426895545e-06   -8.440547657740088e-06   -7.15631211538701e-05
-1.8112200426895545e-06   -8.440547657740088e-06   -7.15631211538701e-05
-1.8112200426895545e-06   -8.440547657740088e-06   -7.15631211538701e-05
-5.307161172933095e-07   -3.262665360648058e-06   -1.6980956125276815e-05
-5.307161172933095e-07   -3.262665360648058e-06   -1.6980956125276815e-05
-5.307161172933095e-07   -3.262665360648058e-06   -1.6980956125276815e-05
-5.307161172933095e-07   -3.262665360648058e-06   -1.6980956125276815e-05
3.157418464603092e-05   -8.03853909391158e-06   -6.76235998241927e-05
3.157418464603092e-05   -8.03853909391158e-06   -6.76235998241927e-05
3.157418464603092e-05   -8.03853909391158e-06   -6.76235998241927e-05
3.157418464603092e-05   -8.03853909391158e-06   -6.76235998241927e-05
1.4935197177541254e-05   -5.105816922957272e-06   -4.16515873459493e-05
1.4935197177541254e-05   -5.105816922957272e-06   -4.16515873459493e-05
1.4935197177541254e-05   -5.105816922957272e-06   -4.16515873459493e-05
1.4935197177541254e-05   -5.105816922957272e-06   -4.16515873459493e-05
3.157418464603084e-05   -3.262665360648058e-06   -1.4115431885318832e-05
3.157418464603084e-05   -3.262665360648058e-06   -1.4115431885318832e-05
3.157418464603084e-05   -3.262665360648058e-06   -1.4115431885318832e-05
3.157418464603084e-05   -3.262665360648058e-06   -1.4115431885318832e-05
-5.307161172933095e-07   -8.03853909391158e-06   -7.048912406415063e-05
-5.307161172933095e-07   -8.03853909391158e-06   -7.048912406415063e-05
-5.307161172933095e-07   -8.03853909391158e-06   -7.048912406415063e-05
-5.307161172933095e-07   -8.03853909391158e-06   -7.048912406415063e-05
5.97635826064428e-07   -2.2204180774856516e-06   -1.7378447571961882e-05
5.97635826064428e-07   -2.2204180774856516e-06   -1.7378447571961882e-05
5.97635826064428e-07   -2.2204180774856516e-06   -1.7378447571961882e-05
5.97635826064428e-07   -2.2204180774856516e-06   -1.7378447571961882e-05
3.281447496592454e-05   -7.288563986302798e-06   -6.803229192643863e-05
3.281447496592454e-05   -7.288563986302798e-06   -6.803229192643863e-05
3.281447496592454e-05   -7.288563986302798e-06   -6.803229192643863e-05
3.281447496592454e-05   -7.288563986302798e-06   -6.803229192643863e-05
1.5808138955418212e-05   -4.689134567298706e-06   -4.1248056226996063e-05
1.5808138955418212e-05   -4.689134567298706e-06   -4.1248056226996063e-05
1.5808138955418212e-05   -4.689134567298706e-06   -4.1248056226996063e-05
1.5808138955418212e-05   -4.689134567298706e-06   -4.1248056226996063e-05
3.281447496592454e-05   -2.220418077485218e-06   -1.4337560026671638e-05
3.281447496592454e-05   -2.220418077485218e-06   -1.4337560026671638e-05
3.281447496592454e-05   -2.220418077485218e-06   -1.4337560026671638e-05
3.281447496592454e-05   -2.220418077485218e-06   -1.4337560026671638e-05
5.976358260644551e-07   -7.288563986302798e-06   -7.107317947172877e-05
5.976358260644551e-07   -7.288563986302798e-06   -7.107317947172877e-05
5.976358260644551e-07   -7.288563986302798e-06   -7.107317947172877e-05
5.976358260644551e-07   -7.288563986302798e-06   -7.107317947172877e-05
1.4014932503020078e-06   -9.09415400222359e-07   -1.8060448919475676e-05
1.4014932503020078e-06   -9.09415400222359e-07   -1.8060448919475676e-05
1.4014932503020078e-06   -9.09415400222359e-07   -1.8060448919475676e-05
1.4014932503020078e-06   -9.09415400222359e-07   -1.8060448919475676e-05
3.3657784378401565e-05   -6.221637517974873e-06   -6.86336008623234e-05
3.3657784378401565e-05   -6.221637517974873e-06   -6.86336008623234e-05
3.3657784378401565e-05   -6.221637517974873e-06   -6.86336008623234e-05
3.3657784378401565e-05   -6.221637517974873e-06   -6.86336008623234e-05
1.6851164646205908e-05   -3.953936755338346e-06   -4.198318843291358e-05
1.6851164646205908e-05   -3.953936755338346e-06   -4.198318843291358e-05
1.6851164646205908e-05   -3.953936755338346e-06   -4.198318843291358e-05
1.6851164646205908e-05   -3.953936755338346e-06   -4.198318843291358e-05
-1.8112200426895545e-06   7.373993307804687e-07   -2.3412636725612772e-05
-1.8112200426895545e-06   7.373993307804687e-07   -2.3412636725612772e-05
-1.8112200426895545e-06   7.373993307804687e-07   -2.3412636725612772e-05
-1.8112200426895545e-06   7.373993307804687e-07   -2.3412636725612772e-05
-3.347485644776801e-05   -4.455346890962133e-06   -7.930101180045638e-05
-3.347485644776801e-05   -4.455346890962133e-06   -7.930101180045638e-05
-3.347485644776801e-05   -4.455346890962133e-06   -7.930101180045638e-05
-3.347485644776801e-05   -4.455346890962133e-06   -7.930101180045638e-05
-3.193869149390065e-05   1.6944862963833712e-06   -2.546360895744988e-05
-3.193869149390065e-05   1.6944862963833712e-06   -2.546360895744988e-05
-3.193869149390065e-05   1.6944862963833712e-06   -2.546360895744988e-05
-3.193869149390065e-05   1.6944862963833712e-06   -2.546360895744988e-05
-5.307161172933095e-07   -3.982331454196585e-06   -7.440414393478063e-05
-5.307161172933095e-07   -3.982331454196585e-06   -7.440414393478063e-05
-5.307161172933095e-07   -3.982331454196585e-06   -7.440414393478063e-05
-5.307161172933095e-07   -3.982331454196585e-06   -7.440414393478063e-05
-1.6736904493786947e-05   -8.766764754714745e-07   -4.9257222961192944e-05
-1.6736904493786947e-05   -8.766764754714745e-07   -4.9257222961192944e-05
-1.6736904493786947e-05   -8.766764754714745e-07   -4.9257222961192944e-05
-1.6736904493786947e-05   -8.766764754714745e-07   -4.9257222961192944e-05
-5.307161172933095e-07   1.6944862963833712e-06   -2.2057518307101688e-05
-5.307161172933095e-07   1.6944862963833712e-06   -2.2057518307101688e-05
-5.307161172933095e-07   1.6944862963833712e-06   -2.2057518307101688e-05
-5.307161172933095e-07   1.6944862963833712e-06   -2.2057518307101688e-05
-3.193869149390065e-05   -3.982331454196585e-06   -7.781023458512865e-05
-3.193869149390065e-05   -3.982331454196585e-06   -7.781023458512865e-05
-3.193869149390065e-05   -3.982331454196585e-06   -7.781023458512865e-05
-3.193869149390065e-05   -3.982331454196585e-06   -7.781023458512865e-05
-3.052931450016641e-05   2.803417939875423e-06   -2.5008265609631052e-05
-3.052931450016641e-05   2.803417939875423e-06   -2.5008265609631052e-05
-3.052931450016641e-05   2.803417939875423e-06   -2.5008265609631052e-05
-3.052931450016641e-05   2.803417939875423e-06   -2.5008265609631052e-05
5.976358260644551e-07   -3.243764534332106e-06   -7.325820666882434e-05
5.976358260644551e-07   -3.243764534332106e-06   -7.325820666882434e-05
5.976358260644551e-07   -3.243764534332106e-06   -7.325820666882434e-05
5.976358260644551e-07   -3.243764534332106e-06   -7.325820666882434e-05
-1.5485270500755264e-05   -3.3429510057445683e-07   -4.8199044451046214e-05
-1.5485270500755264e-05   -3.3429510057445683e-07   -4.8199044451046214e-05
-1.5485270500755264e-05   -3.3429510057445683e-07   -4.8199044451046214e-05
-1.5485270500755264e-05   -3.3429510057445683e-07   -4.8199044451046214e-05
5.976358260644551e-07   2.803417939875423e-06   -2.1379956125106145e-05
5.976358260644551e-07   2.803417939875423e-06   -2.1379956125106145e-05
5.976358260644551e-07   2.803417939875423e-06   -2.1379956125106145e-05
5.976358260644551e-07   2.803417939875423e-06   -2.1379956125106145e-05
-3.052931450016645e-05   -3.243764534332106e-06   -7.68865161533492e-05
-3.052931450016645e-05   -3.243764534332106e-06   -7.68865161533492e-05
-3.052931450016645e-05   -3.243764534332106e-06   -7.68865161533492e-05
-3.052931450016645e-05   -3.243764534332106e-06   -7.68865161533492e-05
-2.9578849511810134e-05   3.9495767405945716e-06   -2.544000015708512e-05
-2.9578849511810134e-05   3.9495767405945716e-06   -2.544000015708512e-05
-2.9578849511810134e-05   3.9495767405945716e-06   -2.544000015708512e-05
-2.9578849511810134e-05   3.9495767405945716e-06   -2.544000015708512e-05
1.4014932503020078e-06   -2.543698099488189e-06   -7.317793985655582e-05
1.4014932503020078e-06   -2.543698099488189e-06   -7.317793985655582e-05
1.4014932503020078e-06   -2.543698099488189e-06   -7.317793985655582e-05
1.4014932503020078e-06   -2.543698099488189e-06   -7.317793985655582e-05
-1.4592049638904863e-05   2.7491285811828345e-07   -4.821320161577569e-05
-1.4592049638904863e-05   2.7491285811828345e-07   -4.821320161577569e-05
-1.4592049638904863e-05   2.7491285811828345e-07   -4.821320161577569e-05
-1.4592049638904863e-05   2.7491285811828345e-07   -4.821320161577569e-05
-3.347485644776797e-05   5.763378011413179e-06   -1.9121064387386246e-05
-3.347485644776797e-05   5.763378011413179e-06   -1.9121064387386246e-05
-3.347485644776797e-05   5.763378011413179e-06   -1.9121064387386246e-05
-3.347485644776797e-05   5.763378011413179e-06   -1.9121064387386246e-05
-6.557690555801796e-05   1.080996617170392e-06   -7.543390840768173e-05
-6.557690555801796e-05   1.080996617170392e-06   -7.543390840768173e-05
-6.557690555801796e-05   1.080996617170392e-06   -7.543390840768173e-05
-6.557690555801796e-05   1.080996617170392e-06   -7.543390840768173e-05
-6.339024825864926e-05   6.979531177247426e-06   -2.0385732049178805e-05
-6.339024825864926e-05   6.979531177247426e-06   -2.0385732049178805e-05
-6.339024825864926e-05   6.979531177247426e-06   -2.0385732049178805e-05
-6.339024825864926e-05   6.979531177247426e-06   -2.0385732049178805e-05
-3.19386914939006e-05   1.958766501365672e-06   -6.979253451823089e-05
-3.19386914939006e-05   1.958766501365672e-06   -6.979253451823089e-05
-3.19386914939006e-05   1.958766501365672e-06   -6.979253451823089e-05
-3.19386914939006e-05   1.958766501365672e-06   -6.979253451823089e-05
-4.8089566385942236e-05   4.364826078207765e-06   -4.431804544426663e-05
-4.8089566385942236e-05   4.364826078207765e-06   -4.431804544426663e-05
-4.8089566385942236e-05   4.364826078207765e-06   -4.431804544426663e-05
-4.8089566385942236e-05   4.364826078207765e-06   -4.431804544426663e-05
-3.19386914939006e-05   6.979531177247426e-06   -1.737327324364971e-05
-3.19386914939006e-05   6.979531177247426e-06   -1.737327324364971e-05
-3.19386914939006e-05   6.979531177247426e-06   -1.737327324364971e-05
-3.19386914939006e-05   6.979531177247426e-06   -1.737327324364971e-05
-6.339024825864937e-05   1.958766501365672e-06   -7.280499332375993e-05
-6.339024825864937e-05   1.958766501365672e-06   -7.280499332375993e-05
-6.339024825864937e-05   1.958766501365672e-06   -7.280499332375993e-05
-6.339024825864937e-05   1.958766501365672e-06   -7.280499332375993e-05
-6.12774582820103e-05   8.026996163722645e-06   -1.857884991431839e-05
-6.12774582820103e-05   8.026996163722645e-06   -1.857884991431839e-05
-6.12774582820103e-05   8.026996163722645e-06   -1.857884991431839e-05
-6.12774582820103e-05   8.026996163722645e-06   -1.857884991431839e-05
-3.052931450016645e-05   2.767135831080198e-06   -6.666984001780642e-05
-3.052931450016645e-05   2.767135831080198e-06   -6.666984001780642e-05
-3.052931450016645e-05   2.767135831080198e-06   -6.666984001780642e-05
-3.052931450016645e-05   2.767135831080198e-06   -6.666984001780642e-05
-4.611483122565146e-05   5.128495160750153e-06   -4.2110794406466216e-05
-4.611483122565146e-05   5.128495160750153e-06   -4.2110794406466216e-05
-4.611483122565146e-05   5.128495160750153e-06   -4.2110794406466216e-05
-4.611483122565146e-05   5.128495160750153e-06   -4.2110794406466216e-05
-3.052931450016638e-05   8.026996163722645e-06   -1.5422933714732663e-05
-3.052931450016638e-05   8.026996163722645e-06   -1.5422933714732663e-05
-3.052931450016638e-05   8.026996163722645e-06   -1.5422933714732663e-05
-3.052931450016638e-05   8.026996163722645e-06   -1.5422933714732663e-05
-6.12774582820104e-05   2.767135831080198e-06   -6.982575621739158e-05
-6.12774582820104e-05   2.767135831080198e-06   -6.982575621739158e-05
-6.12774582820104e-05   2.767135831080198e-06   -6.982575621739158e-05
-6.12774582820104e-05   2.767135831080198e-06   -6.982575621739158e-05
-5.9673248963287915e-05   9.186386482275873e-06   -1.863704710856006e-05
-5.9673248963287915e-05   9.186386482275873e-06   -1.863704710856006e-05
-5.9673248963287915e-05   9.186386482275873e-06   -1.863704710856006e-05
-5.9673248963287915e-05   9.186386482275873e-06   -1.863704710856006e-05
-2.9578849511810188e-05   3.451631195340154e-06   -6.535352635552829e-05
-2.9578849511810188e-05   3.451631195340154e-06   -6.535352635552829e-05
-2.9578849511810188e-05   3.451631195340154e-06   -6.535352635552829e-05
-2.9578849511810188e-05   3.451631195340154e-06   -6.535352635552829e-05
-4.500518223002259e-05   5.66132043451845e-06   -4.096878536868085e-05
-4.500518223002259e-05   5.66132043451845e-06   -4.096878536868085e-05
-4.500518223002259e-05   5.66132043451845e-06   -4.096878536868085e-05
-4.500518223002259e-05   5.66132043451845e-06   -4.096878536868085e-05
-6.557690555801796e-05   1.1336558710984407e-05   -1.0977843505599258e-05
-6.557690555801796e-05   1.1336558710984407e-05   -1.0977843505599258e-05
-6.557690555801796e-05   1.1336558710984407e-05   -1.0977843505599258e-05
-6.557690555801796e-05   1.1336558710984407e-05   -1.0977843505599258e-05
-9.910778533241799e-05   1.06929431758899e-05   -6.724881245065667e-05
-9.910778533241799e-05   1.06929431758899e-05   -6.724881245065667e-05
-9.910778533241799e-05   1.06929431758899e-05   -6.724881245065667e-05
-9.910778533241799e-05   1.06929431758899e-05   -6.724881245065667e-05
-9.480232744819847e-05   1.2952321961958498e-05   -3.7805127604904204e-07
-9.480232744819847e-05   1.2952321961958498e-05   -3.7805127604904204e-07
-9.480232744819847e-05   1.2952321961958498e-05   -3.7805127604904204e-07
-9.480232744819847e-05   1.2952321961958498e-05   -3.7805127604904204e-07
-6.339024825864914e-05   1.3549578526140041e-05   -5.308987053047375e-05
-6.339024825864914e-05   1.3549578526140041e-05   -5.308987053047375e-05
-6.339024825864914e-05   1.3549578526140041e-05   -5.308987053047375e-05
-6.339024825864914e-05   1.3549578526140041e-05   -5.308987053047375e-05
-7.723762740095548e-05   1.2777630799561297e-05   -2.9547736657349263e-05
-7.723762740095548e-05   1.2777630799561297e-05   -2.9547736657349263e-05
-7.723762740095548e-05   1.2777630799561297e-05   -2.9547736657349263e-05
-7.723762740095548e-05   1.2777630799561297e-05   -2.9547736657349263e-05
-6.339024825864932e-05   1.2952321961958065e-05   -7.364052145579676e-07
-6.339024825864932e-05   1.2952321961958065e-05   -7.364052145579676e-07
-6.339024825864932e-05   1.2952321961958065e-05   -7.364052145579676e-07
-6.339024825864932e-05   1.2952321961958065e-05   -7.364052145579676e-07
-9.480232744819847e-05   1.3549578526140041e-05   -5.273151659196461e-05
-9.480232744819847e-05   1.3549578526140041e-05   -5.273151659196461e-05
-9.480232744819847e-05   1.3549578526140041e-05   -5.273151659196461e-05
-9.480232744819847e-05   1.3549578526140041e-05   -5.273151659196461e-05
-9.123016019998596e-05   1.3376977254691072e-05   5.614142917008012e-06
-9.123016019998596e-05   1.3376977254691072e-05   5.614142917008012e-06
-9.123016019998596e-05   1.3376977254691072e-05   5.614142917008012e-06
-9.123016019998596e-05   1.3376977254691072e-05   5.614142917008012e-06
-6.12774582820103e-05   1.4190985506256325e-05   -4.479543189722371e-05
-6.12774582820103e-05   1.4190985506256325e-05   -4.479543189722371e-05
-6.12774582820103e-05   1.4190985506256325e-05   -4.479543189722371e-05
-6.12774582820103e-05   1.4190985506256325e-05   -4.479543189722371e-05
-7.560038225328365e-05   1.3707267562313406e-05   -2.063366117873507e-05
-7.560038225328365e-05   1.3707267562313406e-05   -2.063366117873507e-05
-7.560038225328365e-05   1.3707267562313406e-05   -2.063366117873507e-05
-7.560038225328365e-05   1.3707267562313406e-05   -2.063366117873507e-05
-6.12774582820104e-05   1.3376977254691506e-05   5.125737966069034e-06
-6.12774582820104e-05   1.3376977254691506e-05   5.125737966069034e-06
-6.12774582820104e-05   1.3376977254691506e-05   5.125737966069034e-06
-6.12774582820104e-05   1.3376977254691506e-05   5.125737966069034e-06
-9.12301601999858e-05   1.4190985506255891e-05   -4.430702694628477e-05
-9.12301601999858e-05   1.4190985506255891e-05   -4.430702694628477e-05
-9.12301601999858e-05   1.4190985506255891e-05   -4.430702694628477e-05
-9.12301601999858e-05   1.4190985506255891e-05   -4.430702694628477e-05
-8.749551033780695e-05   1.3744609254060392e-05   1.3640659570166372e-05
-8.749551033780695e-05   1.3744609254060392e-05   1.3640659570166372e-05
-8.749551033780695e-05   1.3744609254060392e-05   1.3640659570166372e-05
-8.749551033780695e-05   1.3744609254060392e-05   1.3640659570166372e-05
-5.9673248963287915e-05   1.5296475386623876e-05   -3.366089573357045e-05
-5.9673248963287915e-05   1.5296475386623876e-05   -3.366089573357045e-05
-5.9673248963287915e-05   1.5296475386623876e-05   -3.366089573357045e-05
-5.9673248963287915e-05   1.5296475386623876e-05   -3.366089573357045e-05
-7.199778507256389e-05   1.4021285598497454e-05   -1.23548883452356e-05
-7.199778507256389e-05   1.4021285598497454e-05   -1.23548883452356e-05
-7.199778507256389e-05   1.4021285598497454e-05   -1.23548883452356e-05
-7.199778507256389e-05   1.4021285598497454e-05   -1.23548883452356e-05
8.652106461291611e-05   -1.300174045648422e-05   2.9470322562448947e-05
8.652106461291611e-05   -1.300174045648422e-05   2.9470322562448947e-05
8.652106461291611e-05   -1.300174045648422e-05   2.9470322562448947e-05
8.652106461291611e-05   -1.300174045648422e-05   2.9470322562448947e-05
4.350491095346778e-05   -1.6449746327583045e-05   -4.429207039262427e-05
4.350491095346778e-05   -1.6449746327583045e-05   -4.429207039262427e-05
4.350491095346778e-05   -1.6449746327583045e-05   -4.429207039262427e-05
4.350491095346778e-05   -1.6449746327583045e-05   -4.429207039262427e-05
4.457260699958175e-05   -1.2697058419962326e-05   2.1127776764247232e-05
4.457260699958175e-05   -1.2697058419962326e-05   2.1127776764247232e-05
4.457260699958175e-05   -1.2697058419962326e-05   2.1127776764247232e-05
4.457260699958175e-05   -1.2697058419962326e-05   2.1127776764247232e-05
8.86832164869626e-05   -1.6861205976488863e-05   -4.989141718080497e-05
8.86832164869626e-05   -1.6861205976488863e-05   -4.989141718080497e-05
8.86832164869626e-05   -1.6861205976488863e-05   -4.989141718080497e-05
8.86832164869626e-05   -1.6861205976488863e-05   -4.989141718080497e-05
6.319951886376452e-05   -1.3281196096490578e-05   -9.566593736807247e-06
6.319951886376452e-05   -1.3281196096490578e-05   -9.566593736807247e-06
6.319951886376452e-05   -1.3281196096490578e-05   -9.566593736807247e-06
6.319951886376452e-05   -1.3281196096490578e-05   -9.566593736807247e-06
8.86832164869626e-05   -1.2697058419962326e-05   2.362626529816311e-05
8.86832164869626e-05   -1.2697058419962326e-05   2.362626529816311e-05
8.86832164869626e-05   -1.2697058419962326e-05   2.362626529816311e-05
8.86832164869626e-05   -1.2697058419962326e-05   2.362626529816311e-05
4.457260699958175e-05   -1.6861205976488863e-05   -5.2389905714720795e-05
4.457260699958175e-05   -1.6861205976488863e-05   -5.2389905714720795e-05
4.457260699958175e-05   -1.6861205976488863e-05   -5.2389905714720795e-05
4.457260699958175e-05   -1.6861205976488863e-05   -5.2389905714720795e-05
4.5475184838727936e-05   -1.2256604550642172e-05   1.6664803899354638e-05
4.5475184838727936e-05   -1.2256604550642172e-05   1.6664803899354638e-05
4.5475184838727936e-05   -1.2256604550642172e-05   1.6664803899354638e-05
4.5475184838727936e-05   -1.2256604550642172e-05   1.6664803899354638e-05
9.003117408550767e-05   -1.670937873357939e-05   -5.4923513668849496e-05
9.003117408550767e-05   -1.670937873357939e-05   -5.4923513668849496e-05
9.003117408550767e-05   -1.670937873357939e-05   -5.4923513668849496e-05
9.003117408550767e-05   -1.670937873357939e-05   -5.4923513668849496e-05
6.543176174852307e-05   -1.3701830111192102e-05   -1.572902228064079e-05
6.543176174852307e-05   -1.3701830111192102e-05   -1.572902228064079e-05
6.543176174852307e-05   -1.3701830111192102e-05   -1.572902228064079e-05
6.543176174852307e-05   -1.3701830111192102e-05   -1.572902228064079e-05
9.003117408550767e-05   -1.2256604550642172e-05   1.933646840911684e-05
9.003117408550767e-05   -1.2256604550642172e-05   1.933646840911684e-05
9.003117408550767e-05   -1.2256604550642172e-05   1.933646840911684e-05
9.003117408550767e-05   -1.2256604550642172e-05   1.933646840911684e-05
4.5475184838727936e-05   -1.670937873357939e-05   -5.759517817861132e-05
4.5475184838727936e-05   -1.670937873357939e-05   -5.759517817861132e-05
4.5475184838727936e-05   -1.670937873357939e-05   -5.759517817861132e-05
4.5475184838727936e-05   -1.670937873357939e-05   -5.759517817861132e-05
4.6418868185946205e-05   -1.0537350013122351e-05   7.999636776456504e-06
4.6418868185946205e-05   -1.0537350013122351e-05   7.999636776456504e-06
4.6418868185946205e-05   -1.0537350013122351e-05   7.999636776456504e-06
4.6418868185946205e-05   -1.0537350013122351e-05   7.999636776456504e-06
9.135839153475312e-05   -1.578251068354384e-05   -6.375247240263565e-05
9.135839153475312e-05   -1.578251068354384e-05   -6.375247240263565e-05
9.135839153475312e-05   -1.578251068354384e-05   -6.375247240263565e-05
9.135839153475312e-05   -1.578251068354384e-05   -6.375247240263565e-05
6.546874402607192e-05   -1.3188011671169154e-05   -2.21597592955919e-05
6.546874402607192e-05   -1.3188011671169154e-05   -2.21597592955919e-05
6.546874402607192e-05   -1.3188011671169154e-05   -2.21597592955919e-05
6.546874402607192e-05   -1.3188011671169154e-05   -2.21597592955919e-05
4.350491095346778e-05   -8.440547657740088e-06   2.8510130883824866e-06
4.350491095346778e-05   -8.440547657740088e-06   2.8510130883824866e-06
4.350491095346778e-05   -8.440547657740088e-06   2.8510130883824866e-06
4.350491095346778e-05   -8.440547657740088e-06   2.8510130883824866e-06
5.2003896319859815e-06   -1.653944231044596e-05   -6.584919257237773e-05
5.2003896319859815e-06   -1.653944231044596e-05   -6.584919257237773e-05
5.2003896319859815e-06   -1.653944231044596e-05   -6.584919257237773e-05
5.2003896319859815e-06   -1.653944231044596e-05   -6.584919257237773e-05
6.4452409347015756e-06   -8.038539093912014e-06   -4.6992175953622373e-07
6.4452409347015756e-06   -8.038539093912014e-06   -4.6992175953622373e-07
6.4452409347015756e-06   -8.038539093912014e-06   -4.6992175953622373e-07
6.4452409347015756e-06   -8.038539093912014e-06   -4.6992175953622373e-07
4.457260699958183e-05   -1.64562590387325e-05   -5.89648999007777e-05
4.457260699958183e-05   -1.64562590387325e-05   -5.89648999007777e-05
4.457260699958183e-05   -1.64562590387325e-05   -5.89648999007777e-05
4.457260699958183e-05   -1.64562590387325e-05   -5.89648999007777e-05
2.5028790819955234e-05   -1.1156197070954187e-05   -2.95719101154003e-05
2.5028790819955234e-05   -1.1156197070954187e-05   -2.95719101154003e-05
2.5028790819955234e-05   -1.1156197070954187e-05   -2.95719101154003e-05
2.5028790819955234e-05   -1.1156197070954187e-05   -2.95719101154003e-05
4.457260699958172e-05   -8.03853909391158e-06   4.580710207356372e-06
4.457260699958172e-05   -8.03853909391158e-06   4.580710207356372e-06
4.457260699958172e-05   -8.03853909391158e-06   4.580710207356372e-06
4.457260699958172e-05   -8.03853909391158e-06   4.580710207356372e-06
6.4452409347015484e-06   -1.64562590387325e-05   -6.401553186767008e-05
6.4452409347015484e-06   -1.64562590387325e-05   -6.401553186767008e-05
6.4452409347015484e-06   -1.64562590387325e-05   -6.401553186767008e-05
6.4452409347015484e-06   -1.64562590387325e-05   -6.401553186767008e-05
7.568981783610986e-06   -7.288563986302798e-06   -8.726937670059352e-07
7.568981783610986e-06   -7.288563986302798e-06   -8.726937670059352e-07
7.568981783610986e-06   -7.288563986302798e-06   -8.726937670059352e-07
7.568981783610986e-06   -7.288563986302798e-06   -8.726937670059352e-07
4.5475184838727936e-05   -1.6237607198889368e-05   -5.868027293131511e-05
4.5475184838727936e-05   -1.6237607198889368e-05   -5.868027293131511e-05
4.5475184838727936e-05   -1.6237607198889368e-05   -5.868027293131511e-05
4.5475184838727936e-05   -1.6237607198889368e-05   -5.868027293131511e-05
2.5737053922699044e-05   -1.1280997994027493e-05   -2.875735359418347e-05
2.5737053922699044e-05   -1.1280997994027493e-05   -2.875735359418347e-05
2.5737053922699044e-05   -1.1280997994027493e-05   -2.875735359418347e-05
2.5737053922699044e-05   -1.1280997994027493e-05   -2.875735359418347e-05
4.5475184838727936e-05   -7.288563986302798e-06   4.496732160546484e-06
4.5475184838727936e-05   -7.288563986302798e-06   4.496732160546484e-06
4.5475184838727936e-05   -7.288563986302798e-06   4.496732160546484e-06
4.5475184838727936e-05   -7.288563986302798e-06   4.496732160546484e-06
7.568981783610986e-06   -1.6237607198889368e-05   -6.404969885886753e-05
7.568981783610986e-06   -1.6237607198889368e-05   -6.404969885886753e-05
7.568981783610986e-06   -1.6237607198889368e-05   -6.404969885886753e-05
7.568981783610986e-06   -1.6237607198889368e-05   -6.404969885886753e-05
9.245751573218249e-06   -6.221637517974873e-06   -1.6492732571155543e-06
9.245751573218249e-06   -6.221637517974873e-06   -1.6492732571155543e-06
9.245751573218249e-06   -6.221637517974873e-06   -1.6492732571155543e-06
9.245751573218249e-06   -6.221637517974873e-06   -1.6492732571155543e-06
4.641886818594615e-05   -1.5799321640513637e-05   -5.7857857138138595e-05
4.641886818594615e-05   -1.5799321640513637e-05   -5.7857857138138595e-05
4.641886818594615e-05   -1.5799321640513637e-05   -5.7857857138138595e-05
4.641886818594615e-05   -1.5799321640513637e-05   -5.7857857138138595e-05
2.7083922749946045e-05   -1.1108590111226502e-05   -2.8447386995710997e-05
2.7083922749946045e-05   -1.1108590111226502e-05   -2.8447386995710997e-05
2.7083922749946045e-05   -1.1108590111226502e-05   -2.8447386995710997e-05
2.7083922749946045e-05   -1.1108590111226502e-05   -2.8447386995710997e-05
5.2003896319859815e-06   -4.455346890962133e-06   -6.63056661678158e-06
5.2003896319859815e-06   -4.455346890962133e-06   -6.63056661678158e-06
5.2003896319859815e-06   -4.455346890962133e-06   -6.63056661678158e-06
5.2003896319859815e-06   -4.455346890962133e-06   -6.63056661678158e-06
-3.2709673979067016e-05   -1.9991358127840336e-05   -7.913561271066338e-05
-3.2709673979067016e-05   -1.9991358127840336e-05   -7.913561271066338e-05
-3.2709673979067016e-05   -1.9991358127840336e-05   -7.913561271066338e-05
-3.2709673979067016e-05   -1.9991358127840336e-05   -7.913561271066338e-05
-3.0770997493324165e-05   -3.982331454196585e-06   -1.4257217168679899e-05
-3.0770997493324165e-05   -3.982331454196585e-06   -1.4257217168679899e-05
-3.0770997493324165e-05   -3.982331454196585e-06   -1.4257217168679899e-05
-3.0770997493324165e-05   -3.982331454196585e-06   -1.4257217168679899e-05
6.4452409347015484e-06   -2.0436124018385817e-05   -6.641200567687581e-05
6.4452409347015484e-06   -2.0436124018385817e-05   -6.641200567687581e-05
6.4452409347015484e-06   -2.0436124018385817e-05   -6.641200567687581e-05
6.4452409347015484e-06   -2.0436124018385817e-05   -6.641200567687581e-05
-1.25194221419254e-05   -1.1312941823448958e-05   -4.027814319945927e-05
-1.25194221419254e-05   -1.1312941823448958e-05   -4.027814319945927e-05
-1.25194221419254e-05   -1.1312941823448958e-05   -4.027814319945927e-05
-1.25194221419254e-05   -1.1312941823448958e-05   -4.027814319945927e-05
6.4452409347015484e-06   -3.982331454196585e-06   -4.384941630166056e-06
6.4452409347015484e-06   -3.982331454196585e-06   -4.384941630166056e-06
6.4452409347015484e-06   -3.982331454196585e-06   -4.384941630166056e-06
6.4452409347015484e-06   -3.982331454196585e-06   -4.384941630166056e-06
-3.077099749332422e-05   -2.0436124018385817e-05   -7.628428121538955e-05
-3.077099749332422e-05   -2.0436124018385817e-05   -7.628428121538955e-05
-3.077099749332422e-05   -2.0436124018385817e-05   -7.628428121538955e-05
-3.077099749332422e-05   -2.0436124018385817e-05   -7.628428121538955e-05
-2.910087546603078e-05   -3.243764534332106e-06   -1.3317693174498373e-05
-2.910087546603078e-05   -3.243764534332106e-06   -1.3317693174498373e-05
-2.910087546603078e-05   -3.243764534332106e-06   -1.3317693174498373e-05
-2.910087546603078e-05   -3.243764534332106e-06   -1.3317693174498373e-05
7.568981783610986e-06   -2.0343718218327183e-05   -6.417414971350441e-05
7.568981783610986e-06   -2.0343718218327183e-05   -6.417414971350441e-05
7.568981783610986e-06   -2.0343718218327183e-05   -6.417414971350441e-05
7.568981783610986e-06   -2.0343718218327183e-05   -6.417414971350441e-05
-1.1142559932501796e-05   -1.157161131777086e-05   -3.8251510993649734e-05
-1.1142559932501796e-05   -1.157161131777086e-05   -3.8251510993649734e-05
-1.1142559932501796e-05   -1.157161131777086e-05   -3.8251510993649734e-05
-1.1142559932501796e-05   -1.157161131777086e-05   -3.8251510993649734e-05
7.568981783610986e-06   -3.243764534332106e-06   -3.0577209641014565e-06
7.568981783610986e-06   -3.243764534332106e-06   -3.0577209641014565e-06
7.568981783610986e-06   -3.243764534332106e-06   -3.0577209641014565e-06
7.568981783610986e-06   -3.243764534332106e-06   -3.0577209641014565e-06
-2.9100875466030876e-05   -2.0343718218327183e-05   -7.443412192390127e-05
-2.9100875466030876e-05   -2.0343718218327183e-05   -7.443412192390127e-05
-2.9100875466030876e-05   -2.0343718218327183e-05   -7.443412192390127e-05
-2.9100875466030876e-05   -2.0343718218327183e-05   -7.443412192390127e-05
-2.6219601946064202e-05   -2.5436980994877553e-06   -1.3260523611737483e-05
-2.6219601946064202e-05   -2.5436980994877553e-06   -1.3260523611737483e-05
-2.6219601946064202e-05   -2.5436980994877553e-06   -1.3260523611737483e-05
-2.6219601946064202e-05   -2.5436980994877553e-06   -1.3260523611737483e-05
9.245751573218249e-06   -1.963410581788975e-05   -6.21152015128341e-05
9.245751573218249e-06   -1.963410581788975e-05   -6.21152015128341e-05
9.245751573218249e-06   -1.963410581788975e-05   -6.21152015128341e-05
9.245751573218249e-06   -1.963410581788975e-05   -6.21152015128341e-05
-9.353449095199292e-06   -1.1317902928905527e-05   -3.610625546552888e-05
-9.353449095199292e-06   -1.1317902928905527e-05   -3.610625546552888e-05
-9.353449095199292e-06   -1.1317902928905527e-05   -3.610625546552888e-05
-9.353449095199292e-06   -1.1317902928905527e-05   -3.610625546552888e-05
-3.270967397906696e-05   1.080996617170392e-06   -9.275641129588216e-06
-3.270967397906696e-05   1.080996617170392e-06   -9.275641129588216e-06
-3.270967397906696e-05   1.080996617170392e-06   -9.275641129588216e-06
-3.270967397906696e-05   1.080996617170392e-06   -9.275641129588216e-06
-7.50206841537154e-05   -2.4964278744595697e-05   -9.542115663772866e-05
-7.50206841537154e-05   -2.4964278744595697e-05   -9.542115663772866e-05
-7.50206841537154e-05   -2.4964278744595697e-05   -9.542115663772866e-05
-7.50206841537154e-05   -2.4964278744595697e-05   -9.542115663772866e-05
-7.270839581260263e-05   1.958766501365672e-06   -2.4130521301118403e-05
-7.270839581260263e-05   1.958766501365672e-06   -2.4130521301118403e-05
-7.270839581260263e-05   1.958766501365672e-06   -2.4130521301118403e-05
-7.270839581260263e-05   1.958766501365672e-06   -2.4130521301118403e-05
-3.0770997493324165e-05   -2.7859573830862037e-05   -7.613518096724598e-05
-3.0770997493324165e-05   -2.7859573830862037e-05   -7.613518096724598e-05
-3.0770997493324165e-05   -2.7859573830862037e-05   -7.613518096724598e-05
-3.0770997493324165e-05   -2.7859573830862037e-05   -7.613518096724598e-05
-5.204080275581775e-05   -1.271538563927697e-05   -4.9772018444707794e-05
-5.204080275581775e-05   -1.271538563927697e-05   -4.9772018444707794e-05
-5.204080275581775e-05   -1.271538563927697e-05   -4.9772018444707794e-05
-5.204080275581775e-05   -1.271538563927697e-05   -4.9772018444707794e-05
-3.0770997493324165e-05   1.958766501365672e-06   -6.239517101781864e-06
-3.0770997493324165e-05   1.958766501365672e-06   -6.239517101781864e-06
-3.0770997493324165e-05   1.958766501365672e-06   -6.239517101781864e-06
-3.0770997493324165e-05   1.958766501365672e-06   -6.239517101781864e-06
-7.270839581260263e-05   -2.7859573830862037e-05   -9.402618516658268e-05
-7.270839581260263e-05   -2.7859573830862037e-05   -9.402618516658268e-05
-7.270839581260263e-05   -2.7859573830862037e-05   -9.402618516658268e-05
-7.270839581260263e-05   -2.7859573830862037e-05   -9.402618516658268e-05
-7.049152415573054e-05   2.767135831080198e-06   -2.1572251645315347e-05
-7.049152415573054e-05   2.767135831080198e-06   -2.1572251645315347e-05
-7.049152415573054e-05   2.767135831080198e-06   -2.1572251645315347e-05
-7.049152415573054e-05   2.767135831080198e-06   -2.1572251645315347e-05
-2.910087546603081e-05   -2.8018255179519756e-05   -7.208543152178854e-05
-2.910087546603081e-05   -2.8018255179519756e-05   -7.208543152178854e-05
-2.910087546603081e-05   -2.8018255179519756e-05   -7.208543152178854e-05
-2.910087546603081e-05   -2.8018255179519756e-05   -7.208543152178854e-05
-4.9786310670770983e-05   -1.2761411380489158e-05   -4.676381245997279e-05
-4.9786310670770983e-05   -1.2761411380489158e-05   -4.676381245997279e-05
-4.9786310670770983e-05   -1.2761411380489158e-05   -4.676381245997279e-05
-4.9786310670770983e-05   -1.2761411380489158e-05   -4.676381245997279e-05
-2.9100875466030795e-05   2.767135831080198e-06   -3.1010170389552446e-06
-2.9100875466030795e-05   2.767135831080198e-06   -3.1010170389552446e-06
-2.9100875466030795e-05   2.767135831080198e-06   -3.1010170389552446e-06
-2.9100875466030795e-05   2.767135831080198e-06   -3.1010170389552446e-06
-7.049152415573067e-05   -2.8018255179519322e-05   -9.055666612814862e-05
-7.049152415573067e-05   -2.8018255179519322e-05   -9.055666612814862e-05
-7.049152415573067e-05   -2.8018255179519322e-05   -9.055666612814862e-05
-7.049152415573067e-05   -2.8018255179519322e-05   -9.055666612814862e-05
-6.686014849965362e-05   3.451631195340154e-06   -1.896457853319336e-05
-6.686014849965362e-05   3.451631195340154e-06   -1.896457853319336e-05
-6.686014849965362e-05   3.451631195340154e-06   -1.896457853319336e-05
-6.686014849965362e-05   3.451631195340154e-06   -1.896457853319336e-05
-2.6219601946064284e-05   -2.558909101554787e-05   -6.927438946264272e-05
-2.6219601946064284e-05   -2.558909101554787e-05   -6.927438946264272e-05
-2.6219601946064284e-05   -2.558909101554787e-05   -6.927438946264272e-05
-2.6219601946064284e-05   -2.558909101554787e-05   -6.927438946264272e-05
-4.7557540315954554e-05   -1.1285172362231026e-05   -4.229351003814778e-05
-4.7557540315954554e-05   -1.1285172362231026e-05   -4.229351003814778e-05
-4.7557540315954554e-05   -1.1285172362231026e-05   -4.229351003814778e-05
-4.7557540315954554e-05   -1.1285172362231026e-05   -4.229351003814778e-05
-7.50206841537154e-05   1.06929431758899e-05   -1.6331541068566107e-05
-7.50206841537154e-05   1.06929431758899e-05   -1.6331541068566107e-05
-7.50206841537154e-05   1.06929431758899e-05   -1.6331541068566107e-05
-7.50206841537154e-05   1.06929431758899e-05   -1.6331541068566107e-05
-0.00012924587631122633   0.0   -0.00011312262723661855
-0.00012924587631122633   0.0   -0.00011312262723661855
-0.00012924587631122633   0.0   -0.00011312262723661855
-0.00012924587631122633   0.0   -0.00011312262723661855
-0.00012585995245103794   1.3549578526140475e-05   -1.2545145623516591e-05
-0.00012585995245103794   1.3549578526140475e-05   -1.2545145623516591e-05
-0.00012585995245103794   1.3549578526140475e-05   -1.2545145623516591e-05
-0.00012585995245103794   1.3549578526140475e-05   -1.2545145623516591e-05
-7.270839581260251e-05   0.0   -9.300132623855811e-05
-7.270839581260251e-05   0.0   -9.300132623855811e-05
-7.270839581260251e-05   0.0   -9.300132623855811e-05
-7.270839581260251e-05   0.0   -9.300132623855811e-05
-9.642892890779837e-05   4.133842070283642e-06   -5.594740965540171e-05
-9.642892890779837e-05   4.133842070283642e-06   -5.594740965540171e-05
-9.642892890779837e-05   4.133842070283642e-06   -5.594740965540171e-05
-9.642892890779837e-05   4.133842070283642e-06   -5.594740965540171e-05
-7.270839581260258e-05   1.3549578526140475e-05   -4.41539850783222e-06
-7.270839581260258e-05   1.3549578526140475e-05   -4.41539850783222e-06
-7.270839581260258e-05   1.3549578526140475e-05   -4.41539850783222e-06
-7.270839581260258e-05   1.3549578526140475e-05   -4.41539850783222e-06
-0.00012585995245103772   0.0   -0.00010113107335424213
-0.00012585995245103772   0.0   -0.00010113107335424213
-0.00012585995245103772   0.0   -0.00010113107335424213
-0.00012585995245103772   0.0   -0.00010113107335424213
-0.0001229972867712154   1.4190985506256325e-05   -5.056518628901354e-06
-0.0001229972867712154   1.4190985506256325e-05   -5.056518628901354e-06
-0.0001229972867712154   1.4190985506256325e-05   -5.056518628901354e-06
-0.0001229972867712154   1.4190985506256325e-05   -5.056518628901354e-06
-7.049152415573067e-05   0.0   -8.405153168428918e-05
-7.049152415573067e-05   0.0   -8.405153168428918e-05
-7.049152415573067e-05   0.0   -8.405153168428918e-05
-7.049152415573067e-05   0.0   -8.405153168428918e-05
-9.541333068008808e-05   6.559596882471999e-06   -4.645094560650875e-05
-9.541333068008808e-05   6.559596882471999e-06   -4.645094560650875e-05
-9.541333068008808e-05   6.559596882471999e-06   -4.645094560650875e-05
-9.541333068008808e-05   6.559596882471999e-06   -4.645094560650875e-05
-7.049152415573067e-05   1.4190985506256325e-05   3.4580726748522674e-06
-7.049152415573067e-05   1.4190985506256325e-05   3.4580726748522674e-06
-7.049152415573067e-05   1.4190985506256325e-05   3.4580726748522674e-06
-7.049152415573067e-05   1.4190985506256325e-05   3.4580726748522674e-06
-0.0001229972867712152   0.0   -9.25661229880428e-05
-0.0001229972867712152   0.0   -9.25661229880428e-05
-0.0001229972867712152   0.0   -9.25661229880428e-05
-0.0001229972867712152   0.0   -9.25661229880428e-05
-0.00011728737762779979   1.5296475386623876e-05   6.991020028951616e-06
-0.00011728737762779979   1.5296475386623876e-05   6.991020028951616e-06
-0.00011728737762779979   1.5296475386623876e-05   6.991020028951616e-06
-0.00011728737762779979   1.5296475386623876e-05   6.991020028951616e-06
-6.686014849965373e-05   0.0   -6.787647661931747e-05
-6.686014849965373e-05   0.0   -6.787647661931747e-05
-6.686014849965373e-05   0.0   -6.787647661931747e-05
-6.686014849965373e-05   0.0   -6.787647661931747e-05
-9.043553138269212e-05   8.093632382986504e-06   -3.344035124404538e-05
-9.043553138269212e-05   8.093632382986504e-06   -3.344035124404538e-05
-9.043553138269212e-05   8.093632382986504e-06   -3.344035124404538e-05
-9.043553138269212e-05   8.093632382986504e-06   -3.344035124404538e-05
9.572282351626442e-05   -1.6449746327583045e-05   5.71624687206989e-05
9.572282351626442e-05   -1.6449746327583045e-05   5.71624687206989e-05
9.572282351626442e-05   -1.6449746327583045e-05   5.71624687206989e-05
9.572282351626442e-05   -1.6449746327583045e-05   5.71624687206989e-05
4.968010949648764e-05   -1.2663705813477973e-05   -1.7303763670466037e-05
4.968010949648764e-05   -1.2663705813477973e-05   -1.7303763670466037e-05
4.968010949648764e-05   -1.2663705813477973e-05   -1.7303763670466037e-05
4.968010949648764e-05   -1.2663705813477973e-05   -1.7303763670466037e-05
4.842704728736164e-05   -1.6861205976488863e-05   5.049920684670672e-05
4.842704728736164e-05   -1.6861205976488863e-05   5.049920684670672e-05
4.842704728736164e-05   -1.6861205976488863e-05   5.049920684670672e-05
4.842704728736164e-05   -1.6861205976488863e-05   5.049920684670672e-05
9.469455947090934e-05   -1.3925545888244031e-05   -2.837470951215279e-05
9.469455947090934e-05   -1.3925545888244031e-05   -2.837470951215279e-05
9.469455947090934e-05   -1.3925545888244031e-05   -2.837470951215279e-05
9.469455947090934e-05   -1.3925545888244031e-05   -2.837470951215279e-05
6.918039054536236e-05   -1.4167792001333265e-05   1.4294253031612246e-05
6.918039054536236e-05   -1.4167792001333265e-05   1.4294253031612246e-05
6.918039054536236e-05   -1.4167792001333265e-05   1.4294253031612246e-05
6.918039054536236e-05   -1.4167792001333265e-05   1.4294253031612246e-05
9.469455947090934e-05   -1.6861205976488863e-05   4.873781079376034e-05
9.469455947090934e-05   -1.6861205976488863e-05   4.873781079376034e-05
9.469455947090934e-05   -1.6861205976488863e-05   4.873781079376034e-05
9.469455947090934e-05   -1.6861205976488863e-05   4.873781079376034e-05
4.842704728736164e-05   -1.3925545888244031e-05   -2.661331345920584e-05
4.842704728736164e-05   -1.3925545888244031e-05   -2.661331345920584e-05
4.842704728736164e-05   -1.3925545888244031e-05   -2.661331345920584e-05
4.842704728736164e-05   -1.3925545888244031e-05   -2.661331345920584e-05
4.729379711215396e-05   -1.670937873357939e-05   4.5346915353234544e-05
4.729379711215396e-05   -1.670937873357939e-05   4.5346915353234544e-05
4.729379711215396e-05   -1.670937873357939e-05   4.5346915353234544e-05
4.729379711215396e-05   -1.670937873357939e-05   4.5346915353234544e-05
9.350649606242964e-05   -1.404254671249442e-05   -3.327434877654255e-05
9.350649606242964e-05   -1.404254671249442e-05   -3.327434877654255e-05
9.350649606242964e-05   -1.404254671249442e-05   -3.327434877654255e-05
9.350649606242964e-05   -1.404254671249442e-05   -3.327434877654255e-05
6.912404949751001e-05   -1.4416236349856955e-05   7.587275947407266e-06
6.912404949751001e-05   -1.4416236349856955e-05   7.587275947407266e-06
6.912404949751001e-05   -1.4416236349856955e-05   7.587275947407266e-06
6.912404949751001e-05   -1.4416236349856955e-05   7.587275947407266e-06
9.35064960624298e-05   -1.6709378733578955e-05   4.3746816140583606e-05
9.35064960624298e-05   -1.6709378733578955e-05   4.3746816140583606e-05
9.35064960624298e-05   -1.6709378733578955e-05   4.3746816140583606e-05
9.35064960624298e-05   -1.6709378733578955e-05   4.3746816140583606e-05
4.729379711215396e-05   -1.404254671249442e-05   -3.1674249563891886e-05
4.729379711215396e-05   -1.404254671249442e-05   -3.1674249563891886e-05
4.729379711215396e-05   -1.404254671249442e-05   -3.1674249563891886e-05
4.729379711215396e-05   -1.404254671249442e-05   -3.1674249563891886e-05
4.591136349394443e-05   -1.578251068354384e-05   3.696463409568092e-05
4.591136349394443e-05   -1.578251068354384e-05   3.696463409568092e-05
4.591136349394443e-05   -1.578251068354384e-05   3.696463409568092e-05
4.591136349394443e-05   -1.578251068354384e-05   3.696463409568092e-05
9.164511643814738e-05   -1.3752565289046597e-05   -4.0476254714689184e-05
9.164511643814738e-05   -1.3752565289046597e-05   -4.0476254714689184e-05
9.164511643814738e-05   -1.3752565289046597e-05   -4.0476254714689184e-05
9.164511643814738e-05   -1.3752565289046597e-05   -4.0476254714689184e-05
6.676088561751844e-05   -1.370875152190143e-05   9.71175059405016e-07
6.676088561751844e-05   -1.370875152190143e-05   9.71175059405016e-07
6.676088561751844e-05   -1.370875152190143e-05   9.71175059405016e-07
6.676088561751844e-05   -1.370875152190143e-05   9.71175059405016e-07
4.968010949648764e-05   -1.653944231044596e-05   4.273630764103182e-05
4.968010949648764e-05   -1.653944231044596e-05   4.273630764103182e-05
4.968010949648764e-05   -1.653944231044596e-05   4.273630764103182e-05
4.968010949648764e-05   -1.653944231044596e-05   4.273630764103182e-05
1.0626754732397065e-05   -7.844135294555413e-06   -1.713543275625156e-05
1.0626754732397065e-05   -7.844135294555413e-06   -1.713543275625156e-05
1.0626754732397065e-05   -7.844135294555413e-06   -1.713543275625156e-05
1.0626754732397065e-05   -7.844135294555413e-06   -1.713543275625156e-05
8.643541800805763e-06   -1.64562590387325e-05   4.880550452876758e-05
8.643541800805763e-06   -1.64562590387325e-05   4.880550452876758e-05
8.643541800805763e-06   -1.64562590387325e-05   4.880550452876758e-05
8.643541800805763e-06   -1.64562590387325e-05   4.880550452876758e-05
4.842704728736164e-05   -8.320772591870283e-06   -2.238162981694285e-05
4.842704728736164e-05   -8.320772591870283e-06   -2.238162981694285e-05
4.842704728736164e-05   -8.320772591870283e-06   -2.238162981694285e-05
4.842704728736164e-05   -8.320772591870283e-06   -2.238162981694285e-05
2.930411815281807e-05   -1.1835443557507534e-05   1.1598721320012109e-05
2.930411815281807e-05   -1.1835443557507534e-05   1.1598721320012109e-05
2.930411815281807e-05   -1.1835443557507534e-05   1.1598721320012109e-05
2.930411815281807e-05   -1.1835443557507534e-05   1.1598721320012109e-05
4.842704728736169e-05   -1.64562590387325e-05   4.392421266065025e-05
4.842704728736169e-05   -1.64562590387325e-05   4.392421266065025e-05
4.842704728736169e-05   -1.64562590387325e-05   4.392421266065025e-05
4.842704728736169e-05   -1.64562590387325e-05   4.392421266065025e-05
8.643541800805763e-06   -8.320772591870283e-06   -1.7500337948825545e-05
8.643541800805763e-06   -8.320772591870283e-06   -1.7500337948825545e-05
8.643541800805763e-06   -8.320772591870283e-06   -1.7500337948825545e-05
8.643541800805763e-06   -8.320772591870283e-06   -1.7500337948825545e-05
7.229779726478813e-06   -1.6237607198889368e-05   4.888405616667365e-05
7.229779726478813e-06   -1.6237607198889368e-05   4.888405616667365e-05
7.229779726478813e-06   -1.6237607198889368e-05   4.888405616667365e-05
7.229779726478813e-06   -1.6237607198889368e-05   4.888405616667365e-05
4.729379711215396e-05   -8.53388125531809e-06   -2.2511541708928245e-05
4.729379711215396e-05   -8.53388125531809e-06   -2.2511541708928245e-05
4.729379711215396e-05   -8.53388125531809e-06   -2.2511541708928245e-05
4.729379711215396e-05   -8.53388125531809e-06   -2.2511541708928245e-05
2.7605254542904486e-05   -1.1593844185970106e-05   1.2138673664879819e-05
2.7605254542904486e-05   -1.1593844185970106e-05   1.2138673664879819e-05
2.7605254542904486e-05   -1.1593844185970106e-05   1.2138673664879819e-05
2.7605254542904486e-05   -1.1593844185970106e-05   1.2138673664879819e-05
4.729379711215404e-05   -1.62376071988898e-05   4.4261820600530535e-05
4.729379711215404e-05   -1.62376071988898e-05   4.4261820600530535e-05
4.729379711215404e-05   -1.62376071988898e-05   4.4261820600530535e-05
4.729379711215404e-05   -1.62376071988898e-05   4.4261820600530535e-05
7.229779726478813e-06   -8.53388125531809e-06   -1.788930614278505e-05
7.229779726478813e-06   -8.53388125531809e-06   -1.788930614278505e-05
7.229779726478813e-06   -8.53388125531809e-06   -1.788930614278505e-05
7.229779726478813e-06   -8.53388125531809e-06   -1.788930614278505e-05
5.656904245272018e-06   -1.5799321640513637e-05   5.047982325569189e-05
5.656904245272018e-06   -1.5799321640513637e-05   5.047982325569189e-05
5.656904245272018e-06   -1.5799321640513637e-05   5.047982325569189e-05
5.656904245272018e-06   -1.5799321640513637e-05   5.047982325569189e-05
4.591136349394438e-05   -8.34352581841058e-06   -2.1084419652023516e-05
4.591136349394438e-05   -8.34352581841058e-06   -2.1084419652023516e-05
4.591136349394438e-05   -8.34352581841058e-06   -2.1084419652023516e-05
4.591136349394438e-05   -8.34352581841058e-06   -2.1084419652023516e-05
2.6565348443880466e-05   -1.1086789332532057e-05   1.280489687322244e-05
2.6565348443880466e-05   -1.1086789332532057e-05   1.280489687322244e-05
2.6565348443880466e-05   -1.1086789332532057e-05   1.280489687322244e-05
2.6565348443880466e-05   -1.1086789332532057e-05   1.280489687322244e-05
1.0626754732397065e-05   -1.9991358127840336e-05   4.398867845440725e-05
1.0626754732397065e-05   -1.9991358127840336e-05   4.398867845440725e-05
1.0626754732397065e-05   -1.9991358127840336e-05   4.398867845440725e-05
1.0626754732397065e-05   -1.9991358127840336e-05   4.398867845440725e-05
-2.68857233052939e-05   -3.319898532096275e-06   -8.52924251763137e-06
-2.68857233052939e-05   -3.319898532096275e-06   -8.52924251763137e-06
-2.68857233052939e-05   -3.319898532096275e-06   -8.52924251763137e-06
-2.68857233052939e-05   -3.319898532096275e-06   -8.52924251763137e-06
-2.997120930189079e-05   -2.0436124018385817e-05   5.656691775139276e-05
-2.997120930189079e-05   -2.0436124018385817e-05   5.656691775139276e-05
-2.997120930189079e-05   -2.0436124018385817e-05   5.656691775139276e-05
-2.997120930189079e-05   -2.0436124018385817e-05   5.656691775139276e-05
8.64354180080579e-06   -3.506312298668171e-06   -1.7948887784931993e-05
8.64354180080579e-06   -3.506312298668171e-06   -1.7948887784931993e-05
8.64354180080579e-06   -3.506312298668171e-06   -1.7948887784931993e-05
8.64354180080579e-06   -3.506312298668171e-06   -1.7948887784931993e-05
-9.059432904489527e-06   -1.1434081604117397e-05   1.631273164049644e-05
-9.059432904489527e-06   -1.1434081604117397e-05   1.631273164049644e-05
-9.059432904489527e-06   -1.1434081604117397e-05   1.631273164049644e-05
-9.059432904489527e-06   -1.1434081604117397e-05   1.631273164049644e-05
8.643541800805763e-06   -2.0436124018385817e-05   4.640903071956217e-05
8.643541800805763e-06   -2.0436124018385817e-05   4.640903071956217e-05
8.643541800805763e-06   -2.0436124018385817e-05   4.640903071956217e-05
8.643541800805763e-06   -2.0436124018385817e-05   4.640903071956217e-05
-2.9971209301890735e-05   -3.506312298668171e-06   -7.791000753101622e-06
-2.9971209301890735e-05   -3.506312298668171e-06   -7.791000753101622e-06
-2.9971209301890735e-05   -3.506312298668171e-06   -7.791000753101622e-06
-2.9971209301890735e-05   -3.506312298668171e-06   -7.791000753101622e-06
-3.1856273394018986e-05   -2.0343718218327183e-05   5.8725243966317123e-05
-3.1856273394018986e-05   -2.0343718218327183e-05   5.8725243966317123e-05
-3.1856273394018986e-05   -2.0343718218327183e-05   5.8725243966317123e-05
-3.1856273394018986e-05   -2.0343718218327183e-05   5.8725243966317123e-05
7.229779726478813e-06   -3.7343204611927673e-06   -1.6383816555459827e-05
7.229779726478813e-06   -3.7343204611927673e-06   -1.6383816555459827e-05
7.229779726478813e-06   -3.7343204611927673e-06   -1.6383816555459827e-05
7.229779726478813e-06   -3.7343204611927673e-06   -1.6383816555459827e-05
-1.1147917874251818e-05   -1.139987653037914e-05   1.8845013087270173e-05
-1.1147917874251818e-05   -1.139987653037914e-05   1.8845013087270173e-05
-1.1147917874251818e-05   -1.139987653037914e-05   1.8845013087270173e-05
-1.1147917874251818e-05   -1.139987653037914e-05   1.8845013087270173e-05
7.229779726478813e-06   -2.0343718218327183e-05   4.875960531203617e-05
7.229779726478813e-06   -2.0343718218327183e-05   4.875960531203617e-05
7.229779726478813e-06   -2.0343718218327183e-05   4.875960531203617e-05
7.229779726478813e-06   -2.0343718218327183e-05   4.875960531203617e-05
-3.185627339401893e-05   -3.7343204611927673e-06   -6.418177901179253e-06
-3.185627339401893e-05   -3.7343204611927673e-06   -6.418177901179253e-06
-3.185627339401893e-05   -3.7343204611927673e-06   -6.418177901179253e-06
-3.185627339401893e-05   -3.7343204611927673e-06   -6.418177901179253e-06
-3.4074328803379935e-05   -1.963410581788975e-05   6.152116931682893e-05
-3.4074328803379935e-05   -1.963410581788975e-05   6.152116931682893e-05
-3.4074328803379935e-05   -1.963410581788975e-05   6.152116931682893e-05
-3.4074328803379935e-05   -1.963410581788975e-05   6.152116931682893e-05
5.656904245272018e-06   -3.713972547375339e-06   -1.4249632393233081e-05
5.656904245272018e-06   -3.713972547375339e-06   -1.4249632393233081e-05
5.656904245272018e-06   -3.713972547375339e-06   -1.4249632393233081e-05
5.656904245272018e-06   -3.713972547375339e-06   -1.4249632393233081e-05
-1.2848161687243519e-05   -1.0949033267467455e-05   2.0933180593014715e-05
-1.2848161687243519e-05   -1.0949033267467455e-05   2.0933180593014715e-05
-1.2848161687243519e-05   -1.0949033267467455e-05   2.0933180593014715e-05
-1.2848161687243519e-05   -1.0949033267467455e-05   2.0933180593014715e-05
-2.6885723305293953e-05   -2.4964278744595697e-05   5.333317550184789e-05
-2.6885723305293953e-05   -2.4964278744595697e-05   5.333317550184789e-05
-2.6885723305293953e-05   -2.4964278744595697e-05   5.333317550184789e-05
-2.6885723305293953e-05   -2.4964278744595697e-05   5.333317550184789e-05
-6.962632696296017e-05   3.5089148510739597e-06   -8.172477701936468e-07
-6.962632696296017e-05   3.5089148510739597e-06   -8.172477701936468e-07
-6.962632696296017e-05   3.5089148510739597e-06   -8.172477701936468e-07
-6.962632696296017e-05   3.5089148510739597e-06   -8.172477701936468e-07
-7.33311291052473e-05   -2.7859573830862037e-05   7.540807394458169e-05
-7.33311291052473e-05   -2.7859573830862037e-05   7.540807394458169e-05
-7.33311291052473e-05   -2.7859573830862037e-05   7.540807394458169e-05
-7.33311291052473e-05   -2.7859573830862037e-05   7.540807394458169e-05
-2.9971209301890735e-05   3.2938527442143498e-06   -1.5550515006058116e-05
-2.9971209301890735e-05   3.2938527442143498e-06   -1.5550515006058116e-05
-2.9971209301890735e-05   3.2938527442143498e-06   -1.5550515006058116e-05
-2.9971209301890735e-05   3.2938527442143498e-06   -1.5550515006058116e-05
-4.925338813756866e-05   -1.0391283329067458e-05   2.479753136404078e-05
-4.925338813756866e-05   -1.0391283329067458e-05   2.479753136404078e-05
-4.925338813756866e-05   -1.0391283329067458e-05   2.479753136404078e-05
-4.925338813756866e-05   -1.0391283329067458e-05   2.479753136404078e-05
-2.997120930189079e-05   -2.7859573830862037e-05   5.671601799953595e-05
-2.997120930189079e-05   -2.7859573830862037e-05   5.671601799953595e-05
-2.997120930189079e-05   -2.7859573830862037e-05   5.671601799953595e-05
-2.997120930189079e-05   -2.7859573830862037e-05   5.671601799953595e-05
-7.33311291052473e-05   3.293852744213916e-06   3.1415409389877382e-06
-7.33311291052473e-05   3.293852744213916e-06   3.1415409389877382e-06
-7.33311291052473e-05   3.293852744213916e-06   3.1415409389877382e-06
-7.33311291052473e-05   3.293852744213916e-06   3.1415409389877382e-06
-7.558983981557678e-05   -2.8018255179519322e-05   7.962565441859033e-05
-7.558983981557678e-05   -2.8018255179519322e-05   7.962565441859033e-05
-7.558983981557678e-05   -2.8018255179519322e-05   7.962565441859033e-05
-7.558983981557678e-05   -2.8018255179519322e-05   7.962565441859033e-05
-3.185627339401893e-05   2.9012782374140435e-06   -1.181534300083285e-05
-3.185627339401893e-05   2.9012782374140435e-06   -1.181534300083285e-05
-3.185627339401893e-05   2.9012782374140435e-06   -1.181534300083285e-05
-3.185627339401893e-05   2.9012782374140435e-06   -1.181534300083285e-05
-5.166219959018801e-05   -1.1954009068605893e-05   3.0107706376394038e-05
-5.166219959018801e-05   -1.1954009068605893e-05   3.0107706376394038e-05
-5.166219959018801e-05   -1.1954009068605893e-05   3.0107706376394038e-05
-5.166219959018801e-05   -1.1954009068605893e-05   3.0107706376394038e-05
-3.1856273394018905e-05   -2.8018255179519756e-05   6.107393436842988e-05
-3.1856273394018905e-05   -2.8018255179519756e-05   6.107393436842988e-05
-3.1856273394018905e-05   -2.8018255179519756e-05   6.107393436842988e-05
-3.1856273394018905e-05   -2.8018255179519756e-05   6.107393436842988e-05
-7.558983981557664e-05   2.9012782374140435e-06   6.736377049327115e-06
-7.558983981557664e-05   2.9012782374140435e-06   6.736377049327115e-06
-7.558983981557664e-05   2.9012782374140435e-06   6.736377049327115e-06
-7.558983981557664e-05   2.9012782374140435e-06   6.736377049327115e-06
-7.802281406014925e-05   -2.558909101554787e-05   8.144405958520782e-05
-7.802281406014925e-05   -2.558909101554787e-05   8.144405958520782e-05
-7.802281406014925e-05   -2.558909101554787e-05   8.144405958520782e-05
-7.802281406014925e-05   -2.558909101554787e-05   8.144405958520782e-05
-3.40743288033798e-05   2.4572982963624174e-06   -8.63124942988749e-06
-3.40743288033798e-05   2.4572982963624174e-06   -8.63124942988749e-06
-3.40743288033798e-05   2.4572982963624174e-06   -8.63124942988749e-06
-3.40743288033798e-05   2.4572982963624174e-06   -8.63124942988749e-06
-5.4141520992141154e-05   -1.2045298569504648e-05   3.351562900423576e-05
-5.4141520992141154e-05   -1.2045298569504648e-05   3.351562900423576e-05
-5.4141520992141154e-05   -1.2045298569504648e-05   3.351562900423576e-05
-5.4141520992141154e-05   -1.2045298569504648e-05   3.351562900423576e-05
-6.962632696295992e-05   0.0   5.91313869658936e-05
-6.962632696295992e-05   0.0   5.91313869658936e-05
-6.962632696295992e-05   0.0   5.91313869658936e-05
-6.962632696295992e-05   0.0   5.91313869658936e-05
-0.0001226982928444886   1.6080030360108872e-05   -1.9673871287255668e-05
-0.0001226982928444886   1.6080030360108872e-05   -1.9673871287255668e-05
-0.0001226982928444886   1.6080030360108872e-05   -1.9673871287255668e-05
-0.0001226982928444886   1.6080030360108872e-05   -1.9673871287255668e-05
-0.00012781324146948487   0.0   8.574081358665242e-05
-0.00012781324146948487   0.0   8.574081358665242e-05
-0.00012781324146948487   0.0   8.574081358665242e-05
-0.00012781324146948487   0.0   8.574081358665242e-05
-7.333112910524718e-05   1.5513134523410625e-05   -1.4370587734457226e-05
-7.333112910524718e-05   1.5513134523410625e-05   -1.4370587734457226e-05
-7.333112910524718e-05   1.5513134523410625e-05   -1.4370587734457226e-05
-7.333112910524718e-05   1.5513134523410625e-05   -1.4370587734457226e-05
-9.417157706210642e-05   9.540613422531676e-06   2.3947004854168682e-05
-9.417157706210642e-05   9.540613422531676e-06   2.3947004854168682e-05
-9.417157706210642e-05   9.540613422531676e-06   2.3947004854168682e-05
-9.417157706210642e-05   9.540613422531676e-06   2.3947004854168682e-05
-7.333112910524712e-05   0.0   7.643293287260596e-05
-7.333112910524712e-05   0.0   7.643293287260596e-05
-7.333112910524712e-05   0.0   7.643293287260596e-05
-7.333112910524712e-05   0.0   7.643293287260596e-05
-0.00012781324146948512   1.5513134523410625e-05   -5.062707020410872e-06
-0.00012781324146948512   1.5513134523410625e-05   -5.062707020410872e-06
-0.00012781324146948512   1.5513134523410625e-05   -5.062707020410872e-06
-0.00012781324146948512   1.5513134523410625e-05   -5.062707020410872e-06
-0.00013038998629265742   0.0   9.519848439152332e-05
-0.00013038998629265742   0.0   9.519848439152332e-05
-0.00013038998629265742   0.0   9.519848439152332e-05
-0.00013038998629265742   0.0   9.519848439152332e-05
-7.558983981557664e-05   1.5112825881790758e-05   -5.202788599352156e-06
-7.558983981557664e-05   1.5112825881790758e-05   -5.202788599352156e-06
-7.558983981557664e-05   1.5112825881790758e-05   -5.202788599352156e-06
-7.558983981557664e-05   1.5112825881790758e-05   -5.202788599352156e-06
-9.909815007565619e-05   7.964605089941755e-06   3.826666097589025e-05
-9.909815007565619e-05   7.964605089941755e-06   3.826666097589025e-05
-9.909815007565619e-05   7.964605089941755e-06   3.826666097589025e-05
-9.909815007565619e-05   7.964605089941755e-06   3.826666097589025e-05
-7.558983981557664e-05   0.0   8.613078886244934e-05
-7.558983981557664e-05   0.0   8.613078886244934e-05
-7.558983981557664e-05   0.0   8.613078886244934e-05
-7.558983981557664e-05   0.0   8.613078886244934e-05
-0.00013038998629265786   1.5112825881790758e-05   3.864906929721985e-06
-0.00013038998629265786   1.5112825881790758e-05   3.864906929721985e-06
-0.00013038998629265786   1.5112825881790758e-05   3.864906929721985e-06
-0.00013038998629265786   1.5112825881790758e-05   3.864906929721985e-06
-0.0001332620057943621   0.0   0.0001078115139794872
-0.0001332620057943621   0.0   0.0001078115139794872
-0.0001332620057943621   0.0   0.0001078115139794872
-0.0001332620057943621   0.0   0.0001078115139794872
-7.802281406014925e-05   1.25751803740368e-05   8.201086198043601e-06
-7.802281406014925e-05   1.25751803740368e-05   8.201086198043601e-06
-7.802281406014925e-05   1.25751803740368e-05   8.201086198043601e-06
-7.802281406014925e-05   1.25751803740368e-05   8.201086198043601e-06
-9.993273655222708e-05   5.5861980065804485e-06   4.8911013105313716e-05
-9.993273655222708e-05   5.5861980065804485e-06   4.8911013105313716e-05
-9.993273655222708e-05   5.5861980065804485e-06   4.8911013105313716e-05
-9.993273655222708e-05   5.5861980065804485e-06   4.8911013105313716e-05
8.414042011758437e-05   -1.2663705813477973e-05   5.978249497623836e-05
8.414042011758437e-05   -1.2663705813477973e-05   5.978249497623836e-05
8.414042011758437e-05   -1.2663705813477973e-05   5.978249497623836e-05
8.414042011758437e-05   -1.2663705813477973e-05   5.978249497623836e-05
4.256580403046708e-05   -9.541044749457675e-06   -7.634935197211624e-06
4.256580403046708e-05   -9.541044749457675e-06   -7.634935197211624e-06
4.256580403046708e-05   -9.541044749457675e-06   -7.634935197211624e-06
4.256580403046708e-05   -9.541044749457675e-06   -7.634935197211624e-06
4.1439411132797654e-05   -1.3925545888244031e-05   5.219278593256594e-05
4.1439411132797654e-05   -1.3925545888244031e-05   5.219278593256594e-05
4.1439411132797654e-05   -1.3925545888244031e-05   5.219278593256594e-05
4.1439411132797654e-05   -1.3925545888244031e-05   5.219278593256594e-05
8.212805047267507e-05   -1.0816335868656102e-05   -1.748713897898261e-05
8.212805047267507e-05   -1.0816335868656102e-05   -1.748713897898261e-05
8.212805047267507e-05   -1.0816335868656102e-05   -1.748713897898261e-05
8.212805047267507e-05   -1.0816335868656102e-05   -1.748713897898261e-05
5.978297168685492e-05   -1.1266761336320603e-05   2.002491427798307e-05
5.978297168685492e-05   -1.1266761336320603e-05   2.002491427798307e-05
5.978297168685492e-05   -1.1266761336320603e-05   2.002491427798307e-05
5.978297168685492e-05   -1.1266761336320603e-05   2.002491427798307e-05
8.212805047267495e-05   -1.3925545888244031e-05   5.032725992081292e-05
8.212805047267495e-05   -1.3925545888244031e-05   5.032725992081292e-05
8.212805047267495e-05   -1.3925545888244031e-05   5.032725992081292e-05
8.212805047267495e-05   -1.3925545888244031e-05   5.032725992081292e-05
4.143941113279771e-05   -1.0816335868656102e-05   -1.562161296722966e-05
4.143941113279771e-05   -1.0816335868656102e-05   -1.562161296722966e-05
4.143941113279771e-05   -1.0816335868656102e-05   -1.562161296722966e-05
4.143941113279771e-05   -1.0816335868656102e-05   -1.562161296722966e-05
3.9987925256848564e-05   -1.404254671249442e-05   4.6854472318619365e-05
3.9987925256848564e-05   -1.404254671249442e-05   4.6854472318619365e-05
3.9987925256848564e-05   -1.404254671249442e-05   4.6854472318619365e-05
3.9987925256848564e-05   -1.404254671249442e-05   4.6854472318619365e-05
8.009343881299493e-05   -1.1006548360947832e-05   -2.180964928588601e-05
8.009343881299493e-05   -1.1006548360947832e-05   -2.180964928588601e-05
8.009343881299493e-05   -1.1006548360947832e-05   -2.180964928588601e-05
8.009343881299493e-05   -1.1006548360947832e-05   -2.180964928588601e-05
5.921526568737609e-05   -1.1759363253903594e-05   1.3438994859252327e-05
5.921526568737609e-05   -1.1759363253903594e-05   1.3438994859252327e-05
5.921526568737609e-05   -1.1759363253903594e-05   1.3438994859252327e-05
5.921526568737609e-05   -1.1759363253903594e-05   1.3438994859252327e-05
8.009343881299493e-05   -1.404254671249442e-05   4.503287330769154e-05
8.009343881299493e-05   -1.404254671249442e-05   4.503287330769154e-05
8.009343881299493e-05   -1.404254671249442e-05   4.503287330769154e-05
8.009343881299493e-05   -1.404254671249442e-05   4.503287330769154e-05
3.9987925256848564e-05   -1.1006548360947832e-05   -1.998805027495789e-05
3.9987925256848564e-05   -1.1006548360947832e-05   -1.998805027495789e-05
3.9987925256848564e-05   -1.1006548360947832e-05   -1.998805027495789e-05
3.9987925256848564e-05   -1.1006548360947832e-05   -1.998805027495789e-05
3.8465293036585006e-05   -1.3752565289046163e-05   3.893836753978081e-05
3.8465293036585006e-05   -1.3752565289046163e-05   3.893836753978081e-05
3.8465293036585006e-05   -1.3752565289046163e-05   3.893836753978081e-05
3.8465293036585006e-05   -1.3752565289046163e-05   3.893836753978081e-05
7.754673477036981e-05   -1.0939831205401557e-05   -2.7885009133380346e-05
7.754673477036981e-05   -1.0939831205401557e-05   -2.7885009133380346e-05
7.754673477036981e-05   -1.0939831205401557e-05   -2.7885009133380346e-05
7.754673477036981e-05   -1.0939831205401557e-05   -2.7885009133380346e-05
5.657079476715786e-05   -1.145250203616081e-05   7.382493370429043e-06
5.657079476715786e-05   -1.145250203616081e-05   7.382493370429043e-06
5.657079476715786e-05   -1.145250203616081e-05   7.382493370429043e-06
5.657079476715786e-05   -1.145250203616081e-05   7.382493370429043e-06
4.256580403046716e-05   -7.844135294555413e-06   5.660723831933082e-05
4.256580403046716e-05   -7.844135294555413e-06   5.660723831933082e-05
4.256580403046716e-05   -7.844135294555413e-06   5.660723831933082e-05
4.256580403046716e-05   -7.844135294555413e-06   5.660723831933082e-05
4.693434580128154e-06   -3.369956200429628e-06   -3.8288699747586735e-06
4.693434580128154e-06   -3.369956200429628e-06   -3.8288699747586735e-06
4.693434580128154e-06   -3.369956200429628e-06   -3.8288699747586735e-06
4.693434580128154e-06   -3.369956200429628e-06   -3.8288699747586735e-06
3.574805578673569e-06   -8.320772591870283e-06   5.898340329528549e-05
3.574805578673569e-06   -8.320772591870283e-06   5.898340329528549e-05
3.574805578673569e-06   -8.320772591870283e-06   5.898340329528549e-05
3.574805578673569e-06   -8.320772591870283e-06   5.898340329528549e-05
4.143941113279771e-05   -4.055883057776412e-06   -6.6832063487112065e-06
4.143941113279771e-05   -4.055883057776412e-06   -6.6832063487112065e-06
4.143941113279771e-05   -4.055883057776412e-06   -6.6832063487112065e-06
4.143941113279771e-05   -4.055883057776412e-06   -6.6832063487112065e-06
2.2847521947509017e-05   -5.48347519363588e-06   2.5159830908286045e-05
2.2847521947509017e-05   -5.48347519363588e-06   2.5159830908286045e-05
2.2847521947509017e-05   -5.48347519363588e-06   2.5159830908286045e-05
2.2847521947509017e-05   -5.48347519363588e-06   2.5159830908286045e-05
4.143941113279767e-05   -8.320772591870283e-06   5.6424469574828905e-05
4.143941113279767e-05   -8.320772591870283e-06   5.6424469574828905e-05
4.143941113279767e-05   -8.320772591870283e-06   5.6424469574828905e-05
4.143941113279767e-05   -8.320772591870283e-06   5.6424469574828905e-05
3.574805578673569e-06   -4.055883057776412e-06   -4.124272628254705e-06
3.574805578673569e-06   -4.055883057776412e-06   -4.124272628254705e-06
3.574805578673569e-06   -4.055883057776412e-06   -4.124272628254705e-06
3.574805578673569e-06   -4.055883057776412e-06   -4.124272628254705e-06
2.146503436976422e-06   -8.533881255318523e-06   5.843359496874277e-05
2.146503436976422e-06   -8.533881255318523e-06   5.843359496874277e-05
2.146503436976422e-06   -8.533881255318523e-06   5.843359496874277e-05
2.146503436976422e-06   -8.533881255318523e-06   5.843359496874277e-05
3.9987925256848564e-05   -4.506523263385787e-06   -7.051856192870316e-06
3.9987925256848564e-05   -4.506523263385787e-06   -7.051856192870316e-06
3.9987925256848564e-05   -4.506523263385787e-06   -7.051856192870316e-06
3.9987925256848564e-05   -4.506523263385787e-06   -7.051856192870316e-06
2.142954237131169e-05   -5.743569890956802e-06   2.4621009926234592e-05
2.142954237131169e-05   -5.743569890956802e-06   2.4621009926234592e-05
2.142954237131169e-05   -5.743569890956802e-06   2.4621009926234592e-05
2.142954237131169e-05   -5.743569890956802e-06   2.4621009926234592e-05
3.9987925256848496e-05   -8.53388125531809e-06   5.6017180173583304e-05
3.9987925256848496e-05   -8.53388125531809e-06   5.6017180173583304e-05
3.9987925256848496e-05   -8.53388125531809e-06   5.6017180173583304e-05
3.9987925256848496e-05   -8.53388125531809e-06   5.6017180173583304e-05
2.146503436976422e-06   -4.506523263385787e-06   -4.635441397710929e-06
2.146503436976422e-06   -4.506523263385787e-06   -4.635441397710929e-06
2.146503436976422e-06   -4.506523263385787e-06   -4.635441397710929e-06
2.146503436976422e-06   -4.506523263385787e-06   -4.635441397710929e-06
5.686385189228467e-07   -8.34352581841058e-06   5.9297858532727805e-05
5.686385189228467e-07   -8.34352581841058e-06   5.9297858532727805e-05
5.686385189228467e-07   -8.34352581841058e-06   5.9297858532727805e-05
5.686385189228467e-07   -8.34352581841058e-06   5.9297858532727805e-05
3.846529303658498e-05   -4.700820540110961e-06   -6.048855497022595e-06
3.846529303658498e-05   -4.700820540110961e-06   -6.048855497022595e-06
3.846529303658498e-05   -4.700820540110961e-06   -6.048855497022595e-06
3.846529303658498e-05   -4.700820540110961e-06   -6.048855497022595e-06
2.0273058721554502e-05   -5.690296108878338e-06   2.4865220369289765e-05
2.0273058721554502e-05   -5.690296108878338e-06   2.4865220369289765e-05
2.0273058721554502e-05   -5.690296108878338e-06   2.4865220369289765e-05
2.0273058721554502e-05   -5.690296108878338e-06   2.4865220369289765e-05
4.693434580128181e-06   -3.319898532096275e-06   5.789506025698026e-05
4.693434580128181e-06   -3.319898532096275e-06   5.789506025698026e-05
4.693434580128181e-06   -3.319898532096275e-06   5.789506025698026e-05
4.693434580128181e-06   -3.319898532096275e-06   5.789506025698026e-05
-3.199403474311109e-05   2.9875778474767675e-06   5.337638793252893e-07
-3.199403474311109e-05   2.9875778474767675e-06   5.337638793252893e-07
-3.199403474311109e-05   2.9875778474767675e-06   5.337638793252893e-07
-3.199403474311109e-05   2.9875778474767675e-06   5.337638793252893e-07
-3.3254286627047946e-05   -3.506312298668171e-06   6.211555865954675e-05
-3.3254286627047946e-05   -3.506312298668171e-06   6.211555865954675e-05
-3.3254286627047946e-05   -3.506312298668171e-06   6.211555865954675e-05
-3.3254286627047946e-05   -3.506312298668171e-06   6.211555865954675e-05
3.574805578673569e-06   2.46152970194511e-06   -2.8469668836900077e-06
3.574805578673569e-06   2.46152970194511e-06   -2.8469668836900077e-06
3.574805578673569e-06   2.46152970194511e-06   -2.8469668836900077e-06
3.574805578673569e-06   2.46152970194511e-06   -2.8469668836900077e-06
-1.4218768175705329e-05   -6.729521256172363e-08   2.8326284322311855e-05
-1.4218768175705329e-05   -6.729521256172363e-08   2.8326284322311855e-05
-1.4218768175705329e-05   -6.729521256172363e-08   2.8326284322311855e-05
-1.4218768175705329e-05   -6.729521256172363e-08   2.8326284322311855e-05
3.574805578673569e-06   -3.506312298668171e-06   5.853485345917904e-05
3.574805578673569e-06   -3.506312298668171e-06   5.853485345917904e-05
3.574805578673569e-06   -3.506312298668171e-06   5.853485345917904e-05
3.574805578673569e-06   -3.506312298668171e-06   5.853485345917904e-05
-3.3254286627047946e-05   2.4615297019446765e-06   7.33738316677484e-07
-3.3254286627047946e-05   2.4615297019446765e-06   7.33738316677484e-07
-3.3254286627047946e-05   2.4615297019446765e-06   7.33738316677484e-07
-3.3254286627047946e-05   2.4615297019446765e-06   7.33738316677484e-07
-3.4944586092656256e-05   -3.7343204611927673e-06   6.336277514837427e-05
-3.4944586092656256e-05   -3.7343204611927673e-06   6.336277514837427e-05
-3.4944586092656256e-05   -3.7343204611927673e-06   6.336277514837427e-05
-3.4944586092656256e-05   -3.7343204611927673e-06   6.336277514837427e-05
2.146503436976422e-06   1.971830525984708e-06   -1.8793979933198735e-06
2.146503436976422e-06   1.971830525984708e-06   -1.8793979933198735e-06
2.146503436976422e-06   1.971830525984708e-06   -1.8793979933198735e-06
2.146503436976422e-06   1.971830525984708e-06   -1.8793979933198735e-06
-1.5462093343537186e-05   -2.1592862075106578e-07   2.878091879557755e-05
-1.5462093343537186e-05   -2.1592862075106578e-07   2.878091879557755e-05
-1.5462093343537186e-05   -2.1592862075106578e-07   2.878091879557755e-05
-1.5462093343537186e-05   -2.1592862075106578e-07   2.878091879557755e-05
2.146503436976422e-06   -3.7343204611927673e-06   5.993908455606783e-05
2.146503436976422e-06   -3.7343204611927673e-06   5.993908455606783e-05
2.146503436976422e-06   -3.7343204611927673e-06   5.993908455606783e-05
2.146503436976422e-06   -3.7343204611927673e-06   5.993908455606783e-05
-3.494458609265623e-05   1.971830525984708e-06   1.544292598986514e-06
-3.494458609265623e-05   1.971830525984708e-06   1.544292598986514e-06
-3.494458609265623e-05   1.971830525984708e-06   1.544292598986514e-06
-3.494458609265623e-05   1.971830525984708e-06   1.544292598986514e-06
-3.674549705274204e-05   -3.713972547375339e-06   6.485885714097766e-05
-3.674549705274204e-05   -3.713972547375339e-06   6.485885714097766e-05
-3.674549705274204e-05   -3.713972547375339e-06   6.485885714097766e-05
-3.674549705274204e-05   -3.713972547375339e-06   6.485885714097766e-05
5.686385189228467e-07   1.6188421904923637e-06   -5.310576545179994e-07
5.686385189228467e-07   1.6188421904923637e-06   -5.310576545179994e-07
5.686385189228467e-07   1.6188421904923637e-06   -5.310576545179994e-07
5.686385189228467e-07   1.6188421904923637e-06   -5.310576545179994e-07
-1.7047973920752843e-05   -3.2301070333013923e-07   2.9995074814569036e-05
-1.7047973920752843e-05   -3.2301070333013923e-07   2.9995074814569036e-05
-1.7047973920752843e-05   -3.2301070333013923e-07   2.9995074814569036e-05
-1.7047973920752843e-05   -3.2301070333013923e-07   2.9995074814569036e-05
-3.199403474311098e-05   3.5089148510739597e-06   5.230762467475997e-05
-3.199403474311098e-05   3.5089148510739597e-06   5.230762467475997e-05
-3.199403474311098e-05   3.5089148510739597e-06   5.230762467475997e-05
-3.199403474311098e-05   3.5089148510739597e-06   5.230762467475997e-05
-6.792716957107202e-05   9.742269564304556e-06   -3.840920543903437e-06
-6.792716957107202e-05   9.742269564304556e-06   -3.840920543903437e-06
-6.792716957107202e-05   9.742269564304556e-06   -3.840920543903437e-06
-6.792716957107202e-05   9.742269564304556e-06   -3.840920543903437e-06
-6.976419828922073e-05   3.2938527442143498e-06   5.7908320963222324e-05
-6.976419828922073e-05   3.2938527442143498e-06   5.7908320963222324e-05
-6.976419828922073e-05   3.2938527442143498e-06   5.7908320963222324e-05
-6.976419828922073e-05   3.2938527442143498e-06   5.7908320963222324e-05
-3.325428662704781e-05   9.214313671934357e-06   -6.493808363697642e-06
-3.325428662704781e-05   9.214313671934357e-06   -6.493808363697642e-06
-3.325428662704781e-05   9.214313671934357e-06   -6.493808363697642e-06
-3.325428662704781e-05   9.214313671934357e-06   -6.493808363697642e-06
-5.0333736521309023e-05   6.553686274538353e-06   2.356831789850837e-05
-5.0333736521309023e-05   6.553686274538353e-06   2.356831789850837e-05
-5.0333736521309023e-05   6.553686274538353e-06   2.356831789850837e-05
-5.0333736521309023e-05   6.553686274538353e-06   2.356831789850837e-05
-3.325428662704789e-05   3.293852744213916e-06   5.4356044406590146e-05
-3.325428662704789e-05   3.293852744213916e-06   5.4356044406590146e-05
-3.325428662704789e-05   3.293852744213916e-06   5.4356044406590146e-05
-3.325428662704789e-05   3.293852744213916e-06   5.4356044406590146e-05
-6.976419828922062e-05   9.214313671933923e-06   -2.9415318070658437e-06
-6.976419828922062e-05   9.214313671933923e-06   -2.9415318070658437e-06
-6.976419828922062e-05   9.214313671933923e-06   -2.9415318070658437e-06
-6.976419828922062e-05   9.214313671933923e-06   -2.9415318070658437e-06
-7.201495104134598e-05   2.9012782374140435e-06   6.146078661734e-05
-7.201495104134598e-05   2.9012782374140435e-06   6.146078661734e-05
-7.201495104134598e-05   2.9012782374140435e-06   6.146078661734e-05
-7.201495104134598e-05   2.9012782374140435e-06   6.146078661734e-05
-3.494458609265623e-05   8.726572518445545e-06   -3.818331532428731e-06
-3.494458609265623e-05   8.726572518445545e-06   -3.818331532428731e-06
-3.494458609265623e-05   8.726572518445545e-06   -3.818331532428731e-06
-3.494458609265623e-05   8.726572518445545e-06   -3.818331532428731e-06
-5.170311717475192e-05   6.4306793902024935e-06   2.5490089481343316e-05
-5.170311717475192e-05   6.4306793902024935e-06   2.5490089481343316e-05
-5.170311717475192e-05   6.4306793902024935e-06   2.5490089481343316e-05
-5.170311717475192e-05   6.4306793902024935e-06   2.5490089481343316e-05
-3.4944586092656174e-05   2.9012782374140435e-06   5.7965610048720624e-05
-3.4944586092656174e-05   2.9012782374140435e-06   5.7965610048720624e-05
-3.4944586092656174e-05   2.9012782374140435e-06   5.7965610048720624e-05
-3.4944586092656174e-05   2.9012782374140435e-06   5.7965610048720624e-05
-7.201495104134598e-05   8.726572518445545e-06   -3.2315496380956946e-07
-7.201495104134598e-05   8.726572518445545e-06   -3.2315496380956946e-07
-7.201495104134598e-05   8.726572518445545e-06   -3.2315496380956946e-07
-7.201495104134598e-05   8.726572518445545e-06   -3.2315496380956946e-07
-7.439703649375572e-05   2.4572982963624174e-06   6.429368839438575e-05
-7.439703649375572e-05   2.4572982963624174e-06   6.429368839438575e-05
-7.439703649375572e-05   2.4572982963624174e-06   6.429368839438575e-05
-7.439703649375572e-05   2.4572982963624174e-06   6.429368839438575e-05
-3.674549705274193e-05   8.071512050315463e-06   -1.827405593008433e-06
-3.674549705274193e-05   8.071512050315463e-06   -1.827405593008433e-06
-3.674549705274193e-05   8.071512050315463e-06   -1.827405593008433e-06
-3.674549705274193e-05   8.071512050315463e-06   -1.827405593008433e-06
-5.398024797586885e-05   6.034455451229496e-06   2.811941323832296e-05
-5.398024797586885e-05   6.034455451229496e-06   2.811941323832296e-05
-5.398024797586885e-05   6.034455451229496e-06   2.811941323832296e-05
-5.398024797586885e-05   6.034455451229496e-06   2.811941323832296e-05
-6.792716957107202e-05   1.6080030360108872e-05   2.7542995769571157e-05
-6.792716957107202e-05   1.6080030360108872e-05   2.7542995769571157e-05
-6.792716957107202e-05   1.6080030360108872e-05   2.7542995769571157e-05
-6.792716957107202e-05   1.6080030360108872e-05   2.7542995769571157e-05
-0.00010233009586670846   1.584406336147719e-05   -2.9936794922335577e-05
-0.00010233009586670846   1.584406336147719e-05   -2.9936794922335577e-05
-0.00010233009586670846   1.584406336147719e-05   -2.9936794922335577e-05
-0.00010233009586670846   1.584406336147719e-05   -2.9936794922335577e-05
-0.00010562687626970702   1.5513134523410625e-05   4.077548186297124e-05
-0.00010562687626970702   1.5513134523410625e-05   4.077548186297124e-05
-0.00010562687626970702   1.5513134523410625e-05   4.077548186297124e-05
-0.00010562687626970702   1.5513134523410625e-05   4.077548186297124e-05
-6.976419828922062e-05   1.6145283812067993e-05   -1.9374937677700467e-05
-6.976419828922062e-05   1.6145283812067993e-05   -1.9374937677700467e-05
-6.976419828922062e-05   1.6145283812067993e-05   -1.9374937677700467e-05
-6.976419828922062e-05   1.6145283812067993e-05   -1.9374937677700467e-05
-8.293388900762808e-05   1.61482822063669e-05   2.57274781639903e-06
-8.293388900762808e-05   1.61482822063669e-05   2.57274781639903e-06
-8.293388900762808e-05   1.61482822063669e-05   2.57274781639903e-06
-8.293388900762808e-05   1.61482822063669e-05   2.57274781639903e-06
-6.976419828922057e-05   1.551313452341106e-05   4.0396192289777035e-05
-6.976419828922057e-05   1.551313452341106e-05   4.0396192289777035e-05
-6.976419828922057e-05   1.551313452341106e-05   4.0396192289777035e-05
-6.976419828922057e-05   1.551313452341106e-05   4.0396192289777035e-05
-0.00010562687626970702   1.614528381206756e-05   -1.899564810450621e-05
-0.00010562687626970702   1.614528381206756e-05   -1.899564810450621e-05
-0.00010562687626970702   1.614528381206756e-05   -1.899564810450621e-05
-0.00010562687626970702   1.614528381206756e-05   -1.899564810450621e-05
-0.00010885992732830588   1.5112825881790325e-05   5.007077115192285e-05
-0.00010885992732830588   1.5112825881790325e-05   5.007077115192285e-05
-0.00010885992732830588   1.5112825881790325e-05   5.007077115192285e-05
-0.00010885992732830588   1.5112825881790325e-05   5.007077115192285e-05
-7.201495104134587e-05   1.6028076187228363e-05   -1.1886672842940124e-05
-7.201495104134587e-05   1.6028076187228363e-05   -1.1886672842940124e-05
-7.201495104134587e-05   1.6028076187228363e-05   -1.1886672842940124e-05
-7.201495104134587e-05   1.6028076187228363e-05   -1.1886672842940124e-05
-8.670867224188862e-05   1.6143488790847788e-05   1.2533614929126726e-05
-8.670867224188862e-05   1.6143488790847788e-05   1.2533614929126726e-05
-8.670867224188862e-05   1.6143488790847788e-05   1.2533614929126726e-05
-8.670867224188862e-05   1.6143488790847788e-05   1.2533614929126726e-05
-7.201495104134587e-05   1.5112825881790758e-05   4.9521620968660026e-05
-7.201495104134587e-05   1.5112825881790758e-05   4.9521620968660026e-05
-7.201495104134587e-05   1.5112825881790758e-05   4.9521620968660026e-05
-7.201495104134587e-05   1.5112825881790758e-05   4.9521620968660026e-05
-0.00010885992732830588   1.602807618722793e-05   -1.1337522659677626e-05
-0.00010885992732830588   1.602807618722793e-05   -1.1337522659677626e-05
-0.00010885992732830588   1.602807618722793e-05   -1.1337522659677626e-05
-0.00010885992732830588   1.602807618722793e-05   -1.1337522659677626e-05
-0.00011267237781987803   1.25751803740368e-05   6.560441370627359e-05
-0.00011267237781987803   1.25751803740368e-05   6.560441370627359e-05
-0.00011267237781987803   1.25751803740368e-05   6.560441370627359e-05
-0.00011267237781987803   1.25751803740368e-05   6.560441370627359e-05
-7.439703649375547e-05   1.4752219159209264e-05   5.059548916324362e-07
-7.439703649375547e-05   1.4752219159209264e-05   5.059548916324362e-07
-7.439703649375547e-05   1.4752219159209264e-05   5.059548916324362e-07
-7.439703649375547e-05   1.4752219159209264e-05   5.059548916324362e-07
-8.807000080643573e-05   1.5375042564325526e-05   2.2920534703030934e-05
-8.807000080643573e-05   1.5375042564325526e-05   2.2920534703030934e-05
-8.807000080643573e-05   1.5375042564325526e-05   2.2920534703030934e-05
-8.807000080643573e-05   1.5375042564325526e-05   2.2920534703030934e-05
6.818134915891587e-05   -9.541044749457675e-06   5.266045297724984e-05
6.818134915891587e-05   -9.541044749457675e-06   5.266045297724984e-05
6.818134915891587e-05   -9.541044749457675e-06   5.266045297724984e-05
6.818134915891587e-05   -9.541044749457675e-06   5.266045297724984e-05
3.3765202641241826e-05   -6.987455165019356e-06   -3.167637468210697e-06
3.3765202641241826e-05   -6.987455165019356e-06   -3.167637468210697e-06
3.3765202641241826e-05   -6.987455165019356e-06   -3.167637468210697e-06
3.3765202641241826e-05   -6.987455165019356e-06   -3.167637468210697e-06
3.2467860832766004e-05   -1.0816335868656102e-05   4.58005987703299e-05
3.2467860832766004e-05   -1.0816335868656102e-05   4.58005987703299e-05
3.2467860832766004e-05   -1.0816335868656102e-05   4.58005987703299e-05
3.2467860832766004e-05   -1.0816335868656102e-05   4.58005987703299e-05
6.57949565100586e-05   -8.109821974571375e-06   -1.1368469028274691e-05
6.57949565100586e-05   -8.109821974571375e-06   -1.1368469028274691e-05
6.57949565100586e-05   -8.109821974571375e-06   -1.1368469028274691e-05
6.57949565100586e-05   -8.109821974571375e-06   -1.1368469028274691e-05
4.776064943112475e-05   -8.773136690611635e-06   1.9086698266238857e-05
4.776064943112475e-05   -8.773136690611635e-06   1.9086698266238857e-05
4.776064943112475e-05   -8.773136690611635e-06   1.9086698266238857e-05
4.776064943112475e-05   -8.773136690611635e-06   1.9086698266238857e-05
6.57949565100585e-05   -1.0816335868656102e-05   4.417669043387928e-05
6.57949565100585e-05   -1.0816335868656102e-05   4.417669043387928e-05
6.57949565100585e-05   -1.0816335868656102e-05   4.417669043387928e-05
6.57949565100585e-05   -1.0816335868656102e-05   4.417669043387928e-05
3.2467860832766126e-05   -8.109821974571375e-06   -9.744560691823815e-06
3.2467860832766126e-05   -8.109821974571375e-06   -9.744560691823815e-06
3.2467860832766126e-05   -8.109821974571375e-06   -9.744560691823815e-06
3.2467860832766126e-05   -8.109821974571375e-06   -9.744560691823815e-06
3.1026537035954685e-05   -1.1006548360947832e-05   4.105041457913507e-05
3.1026537035954685e-05   -1.1006548360947832e-05   4.105041457913507e-05
3.1026537035954685e-05   -1.1006548360947832e-05   4.105041457913507e-05
3.1026537035954685e-05   -1.1006548360947832e-05   4.105041457913507e-05
6.36345674731027e-05   -8.335757976675288e-06   -1.489877704667463e-05
6.36345674731027e-05   -8.335757976675288e-06   -1.489877704667463e-05
6.36345674731027e-05   -8.335757976675288e-06   -1.489877704667463e-05
6.36345674731027e-05   -8.335757976675288e-06   -1.489877704667463e-05
4.685958748748646e-05   -9.20789620064387e-06   1.3582805863733322e-05
4.685958748748646e-05   -9.20789620064387e-06   1.3582805863733322e-05
4.685958748748646e-05   -9.20789620064387e-06   1.3582805863733322e-05
4.685958748748646e-05   -9.20789620064387e-06   1.3582805863733322e-05
6.363456747310248e-05   -1.1006548360947832e-05   3.944794034857176e-05
6.363456747310248e-05   -1.1006548360947832e-05   3.944794034857176e-05
6.363456747310248e-05   -1.1006548360947832e-05   3.944794034857176e-05
6.363456747310248e-05   -1.1006548360947832e-05   3.944794034857176e-05
3.102653703595474e-05   -8.335757976675288e-06   -1.3296302816111476e-05
3.102653703595474e-05   -8.335757976675288e-06   -1.3296302816111476e-05
3.102653703595474e-05   -8.335757976675288e-06   -1.3296302816111476e-05
3.102653703595474e-05   -8.335757976675288e-06   -1.3296302816111476e-05
2.964052426388577e-05   -1.0939831205401557e-05   3.443010052718706e-05
2.964052426388577e-05   -1.0939831205401557e-05   3.443010052718706e-05
2.964052426388577e-05   -1.0939831205401557e-05   3.443010052718706e-05
2.964052426388577e-05   -1.0939831205401557e-05   3.443010052718706e-05
6.118827959605847e-05   -8.429415933468992e-06   -1.9655740856260123e-05
6.118827959605847e-05   -8.429415933468992e-06   -1.9655740856260123e-05
6.118827959605847e-05   -8.429415933468992e-06   -1.9655740856260123e-05
6.118827959605847e-05   -8.429415933468992e-06   -1.9655740856260123e-05
4.444101062204281e-05   -9.053236171962381e-06   8.630666243529235e-06
4.444101062204281e-05   -9.053236171962381e-06   8.630666243529235e-06
4.444101062204281e-05   -9.053236171962381e-06   8.630666243529235e-06
4.444101062204281e-05   -9.053236171962381e-06   8.630666243529235e-06
3.3765202641241826e-05   -3.369956200429628e-06   5.531416449389018e-05
3.3765202641241826e-05   -3.369956200429628e-06   5.531416449389018e-05
3.3765202641241826e-05   -3.369956200429628e-06   5.531416449389018e-05
3.3765202641241826e-05   -3.369956200429628e-06   5.531416449389018e-05
1.4609000819873529e-06   -1.3355629506907156e-06   2.6942961783094424e-06
1.4609000819873529e-06   -1.3355629506907156e-06   2.6942961783094424e-06
1.4609000819873529e-06   -1.3355629506907156e-06   2.6942961783094424e-06
1.4609000819873529e-06   -1.3355629506907156e-06   2.6942961783094424e-06
2.1577539748081245e-07   -4.055883057775978e-06   5.58933320005295e-05
2.1577539748081245e-07   -4.055883057775978e-06   5.58933320005295e-05
2.1577539748081245e-07   -4.055883057775978e-06   5.58933320005295e-05
2.1577539748081245e-07   -4.055883057775978e-06   5.58933320005295e-05
3.2467860832766126e-05   -2.1320053716412414e-06   9.85529663373333e-07
3.2467860832766126e-05   -2.1320053716412414e-06   9.85529663373333e-07
3.2467860832766126e-05   -2.1320053716412414e-06   9.85529663373333e-07
3.2467860832766126e-05   -2.1320053716412414e-06   9.85529663373333e-07
1.6771588110407398e-05   -2.6222219598093406e-06   2.7440114153538505e-05
1.6771588110407398e-05   -2.6222219598093406e-06   2.7440114153538505e-05
1.6771588110407398e-05   -2.6222219598093406e-06   2.7440114153538505e-05
1.6771588110407398e-05   -2.6222219598093406e-06   2.7440114153538505e-05
3.2467860832766085e-05   -4.055883057776412e-06   5.47390053888487e-05
3.2467860832766085e-05   -4.055883057776412e-06   5.47390053888487e-05
3.2467860832766085e-05   -4.055883057776412e-06   5.47390053888487e-05
3.2467860832766085e-05   -4.055883057776412e-06   5.47390053888487e-05
2.1577539748081245e-07   -2.1320053716412414e-06   2.1398562750542943e-06
2.1577539748081245e-07   -2.1320053716412414e-06   2.1398562750542943e-06
2.1577539748081245e-07   -2.1320053716412414e-06   2.1398562750542943e-06
2.1577539748081245e-07   -2.1320053716412414e-06   2.1398562750542943e-06
-1.0784313053695716e-06   -4.506523263385787e-06   5.50558969359175e-05
-1.0784313053695716e-06   -4.506523263385787e-06   5.50558969359175e-05
-1.0784313053695716e-06   -4.506523263385787e-06   5.50558969359175e-05
-1.0784313053695716e-06   -4.506523263385787e-06   5.50558969359175e-05
3.102653703595474e-05   -2.724376138894726e-06   4.783280923488259e-07
3.102653703595474e-05   -2.724376138894726e-06   4.783280923488259e-07
3.102653703595474e-05   -2.724376138894726e-06   4.783280923488259e-07
3.102653703595474e-05   -2.724376138894726e-06   4.783280923488259e-07
1.5342891717248872e-05   -3.0398406312198353e-06   2.6807015652254452e-05
1.5342891717248872e-05   -3.0398406312198353e-06   2.6807015652254452e-05
1.5342891717248872e-05   -3.0398406312198353e-06   2.6807015652254452e-05
1.5342891717248872e-05   -3.0398406312198353e-06   2.6807015652254452e-05
3.1026537035954685e-05   -4.506523263385787e-06   5.398660866122256e-05
3.1026537035954685e-05   -4.506523263385787e-06   5.398660866122256e-05
3.1026537035954685e-05   -4.506523263385787e-06   5.398660866122256e-05
3.1026537035954685e-05   -4.506523263385787e-06   5.398660866122256e-05
-1.0784313053695716e-06   -2.724376138894726e-06   1.5476163670435222e-06
-1.0784313053695716e-06   -2.724376138894726e-06   1.5476163670435222e-06
-1.0784313053695716e-06   -2.724376138894726e-06   1.5476163670435222e-06
-1.0784313053695716e-06   -2.724376138894726e-06   1.5476163670435222e-06
-2.425783065057775e-06   -4.700820540110961e-06   5.54835741727387e-05
-2.425783065057775e-06   -4.700820540110961e-06   5.54835741727387e-05
-2.425783065057775e-06   -4.700820540110961e-06   5.54835741727387e-05
-2.425783065057775e-06   -4.700820540110961e-06   5.54835741727387e-05
2.964052426388585e-05   -3.192553107809939e-06   1.1347681651192616e-06
2.964052426388585e-05   -3.192553107809939e-06   1.1347681651192616e-06
2.964052426388585e-05   -3.192553107809939e-06   1.1347681651192616e-06
2.964052426388585e-05   -3.192553107809939e-06   1.1347681651192616e-06
1.4267537470222189e-05   -3.2649797665216043e-06   2.6799868816452903e-05
1.4267537470222189e-05   -3.2649797665216043e-06   2.6799868816452903e-05
1.4267537470222189e-05   -3.2649797665216043e-06   2.6799868816452903e-05
1.4267537470222189e-05   -3.2649797665216043e-06   2.6799868816452903e-05
1.4609000819873529e-06   2.9875778474767675e-06   5.7112948470073536e-05
1.4609000819873529e-06   2.9875778474767675e-06   5.7112948470073536e-05
1.4609000819873529e-06   2.9875778474767675e-06   5.7112948470073536e-05
1.4609000819873529e-06   2.9875778474767675e-06   5.7112948470073536e-05
-2.9897873554714894e-05   4.34244751312601e-06   5.661247541625773e-06
-2.9897873554714894e-05   4.34244751312601e-06   5.661247541625773e-06
-2.9897873554714894e-05   4.34244751312601e-06   5.661247541625773e-06
-2.9897873554714894e-05   4.34244751312601e-06   5.661247541625773e-06
-3.119866873969575e-05   2.4615297019446765e-06   5.790103726099243e-05
-3.119866873969575e-05   2.4615297019446765e-06   5.790103726099243e-05
-3.119866873969575e-05   2.4615297019446765e-06   5.790103726099243e-05
-3.119866873969575e-05   2.4615297019446765e-06   5.790103726099243e-05
2.1577539748081245e-07   3.678862228441871e-06   4.813230849799667e-06
2.1577539748081245e-07   3.678862228441871e-06   4.813230849799667e-06
2.1577539748081245e-07   3.678862228441871e-06   4.813230849799667e-06
2.1577539748081245e-07   3.678862228441871e-06   4.813230849799667e-06
-1.4878037922340793e-05   3.4067210823831087e-06   3.0132871070470734e-05
-1.4878037922340793e-05   3.4067210823831087e-06   3.0132871070470734e-05
-1.4878037922340793e-05   3.4067210823831087e-06   3.0132871070470734e-05
-1.4878037922340793e-05   3.4067210823831087e-06   3.0132871070470734e-05
2.1577539748081245e-07   2.4615297019446765e-06   5.717063774509398e-05
2.1577539748081245e-07   2.4615297019446765e-06   5.717063774509398e-05
2.1577539748081245e-07   2.4615297019446765e-06   5.717063774509398e-05
2.1577539748081245e-07   2.4615297019446765e-06   5.717063774509398e-05
-3.119866873969575e-05   3.678862228441871e-06   5.5436303656982225e-06
-3.119866873969575e-05   3.678862228441871e-06   5.5436303656982225e-06
-3.119866873969575e-05   3.678862228441871e-06   5.5436303656982225e-06
-3.119866873969575e-05   3.678862228441871e-06   5.5436303656982225e-06
-3.257249598496195e-05   1.971830525984708e-06   5.844953194924195e-05
-3.257249598496195e-05   1.971830525984708e-06   5.844953194924195e-05
-3.257249598496195e-05   1.971830525984708e-06   5.844953194924195e-05
-3.257249598496195e-05   1.971830525984708e-06   5.844953194924195e-05
-1.0784313053695716e-06   3.0344832075406697e-06   5.321832540987673e-06
-1.0784313053695716e-06   3.0344832075406697e-06   5.321832540987673e-06
-1.0784313053695716e-06   3.0344832075406697e-06   5.321832540987673e-06
-1.0784313053695716e-06   3.0344832075406697e-06   5.321832540987673e-06
-1.608656204224202e-05   3.0274301410370026e-06   3.0339615609011245e-05
-1.608656204224202e-05   3.0274301410370026e-06   3.0339615609011245e-05
-1.608656204224202e-05   3.0274301410370026e-06   3.0339615609011245e-05
-1.608656204224202e-05   3.0274301410370026e-06   3.0339615609011245e-05
-1.0784313053695716e-06   1.971830525984708e-06   5.78119403403085e-05
-1.0784313053695716e-06   1.971830525984708e-06   5.78119403403085e-05
-1.0784313053695716e-06   1.971830525984708e-06   5.78119403403085e-05
-1.0784313053695716e-06   1.971830525984708e-06   5.78119403403085e-05
-3.257249598496203e-05   3.0344832075406697e-06   5.959424149921391e-06
-3.257249598496203e-05   3.0344832075406697e-06   5.959424149921391e-06
-3.257249598496203e-05   3.0344832075406697e-06   5.959424149921391e-06
-3.257249598496203e-05   3.0344832075406697e-06   5.959424149921391e-06
-3.399029644783144e-05   1.6188421904923637e-06   5.9320956992480346e-05
-3.399029644783144e-05   1.6188421904923637e-06   5.9320956992480346e-05
-3.399029644783144e-05   1.6188421904923637e-06   5.9320956992480346e-05
-3.399029644783144e-05   1.6188421904923637e-06   5.9320956992480346e-05
-2.425783065057802e-06   2.460855764186646e-06   6.2082265436409485e-06
-2.425783065057802e-06   2.460855764186646e-06   6.2082265436409485e-06
-2.425783065057802e-06   2.460855764186646e-06   6.2082265436409485e-06
-2.425783065057802e-06   2.460855764186646e-06   6.2082265436409485e-06
-1.7394364010486687e-05   2.663961718067133e-06   3.1033997880361864e-05
-1.7394364010486687e-05   2.663961718067133e-06   3.1033997880361864e-05
-1.7394364010486687e-05   2.663961718067133e-06   3.1033997880361864e-05
-1.7394364010486687e-05   2.663961718067133e-06   3.1033997880361864e-05
-2.9897873554715003e-05   9.74226956430499e-06   4.981117301829574e-05
-2.9897873554715003e-05   9.74226956430499e-06   4.981117301829574e-05
-2.9897873554715003e-05   9.74226956430499e-06   4.981117301829574e-05
-2.9897873554715003e-05   9.74226956430499e-06   4.981117301829574e-05
-6.026033538057902e-05   9.865372813232503e-06   -7.190680754544983e-07
-6.026033538057902e-05   9.865372813232503e-06   -7.190680754544983e-07
-6.026033538057902e-05   9.865372813232503e-06   -7.190680754544983e-07
-6.026033538057902e-05   9.865372813232503e-06   -7.190680754544983e-07
-6.177058126121245e-05   9.214313671933923e-06   5.068346315795702e-05
-6.177058126121245e-05   9.214313671933923e-06   5.068346315795702e-05
-6.177058126121245e-05   9.214313671933923e-06   5.068346315795702e-05
-6.177058126121245e-05   9.214313671933923e-06   5.068346315795702e-05
-3.11986687396958e-05   9.230934634167198e-06   -2.796969552438448e-07
-3.11986687396958e-05   9.230934634167198e-06   -2.796969552438448e-07
-3.11986687396958e-05   9.230934634167198e-06   -2.796969552438448e-07
-3.11986687396958e-05   9.230934634167198e-06   -2.796969552438448e-07
-4.557723583021263e-05   9.491334574084076e-06   2.352834156500055e-05
-4.557723583021263e-05   9.491334574084076e-06   2.352834156500055e-05
-4.557723583021263e-05   9.491334574084076e-06   2.352834156500055e-05
-4.557723583021263e-05   9.491334574084076e-06   2.352834156500055e-05
-3.11986687396958e-05   9.214313671933923e-06   5.067349058061714e-05
-3.11986687396958e-05   9.214313671933923e-06   5.067349058061714e-05
-3.11986687396958e-05   9.214313671933923e-06   5.067349058061714e-05
-3.11986687396958e-05   9.214313671933923e-06   5.067349058061714e-05
-6.177058126121229e-05   9.230934634167198e-06   -2.697243779042381e-07
-6.177058126121229e-05   9.230934634167198e-06   -2.697243779042381e-07
-6.177058126121229e-05   9.230934634167198e-06   -2.697243779042381e-07
-6.177058126121229e-05   9.230934634167198e-06   -2.697243779042381e-07
-6.344482625078064e-05   8.726572518445545e-06   5.303899126675362e-05
-6.344482625078064e-05   8.726572518445545e-06   5.303899126675362e-05
-6.344482625078064e-05   8.726572518445545e-06   5.303899126675362e-05
-6.344482625078064e-05   8.726572518445545e-06   5.303899126675362e-05
-3.257249598496203e-05   8.646711599990479e-06   1.633024041462739e-06
-3.257249598496203e-05   8.646711599990479e-06   1.633024041462739e-06
-3.257249598496203e-05   8.646711599990479e-06   1.633024041462739e-06
-3.257249598496203e-05   8.646711599990479e-06   1.633024041462739e-06
-4.667047247905165e-05   9.132596399785264e-06   2.483812065173503e-05
-4.667047247905165e-05   9.132596399785264e-06   2.483812065173503e-05
-4.667047247905165e-05   9.132596399785264e-06   2.483812065173503e-05
-4.667047247905165e-05   9.132596399785264e-06   2.483812065173503e-05
-3.2572495984962e-05   8.726572518445979e-06   5.308690781782692e-05
-3.2572495984962e-05   8.726572518445979e-06   5.308690781782692e-05
-3.2572495984962e-05   8.726572518445979e-06   5.308690781782692e-05
-3.2572495984962e-05   8.726572518445979e-06   5.308690781782692e-05
-6.344482625078053e-05   8.646711599990045e-06   1.5851074903891135e-06
-6.344482625078053e-05   8.646711599990045e-06   1.5851074903891135e-06
-6.344482625078053e-05   8.646711599990045e-06   1.5851074903891135e-06
-6.344482625078053e-05   8.646711599990045e-06   1.5851074903891135e-06
-6.504070271990867e-05   8.071512050315463e-06   5.4742314724465224e-05
-6.504070271990867e-05   8.071512050315463e-06   5.4742314724465224e-05
-6.504070271990867e-05   8.071512050315463e-06   5.4742314724465224e-05
-6.504070271990867e-05   8.071512050315463e-06   5.4742314724465224e-05
-3.399029644783158e-05   7.933836238975967e-06   3.0742430911405785e-06
-3.399029644783158e-05   7.933836238975967e-06   3.0742430911405785e-06
-3.399029644783158e-05   7.933836238975967e-06   3.0742430911405785e-06
-3.399029644783158e-05   7.933836238975967e-06   3.0742430911405785e-06
-4.840662328126014e-05   8.667503397761372e-06   2.6661254184919296e-05
-4.840662328126014e-05   8.667503397761372e-06   2.6661254184919296e-05
-4.840662328126014e-05   8.667503397761372e-06   2.6661254184919296e-05
-4.840662328126014e-05   8.667503397761372e-06   2.6661254184919296e-05
-6.026033538057891e-05   1.584406336147719e-05   2.393074078839907e-05
-6.026033538057891e-05   1.584406336147719e-05   2.393074078839907e-05
-6.026033538057891e-05   1.584406336147719e-05   2.393074078839907e-05
-6.026033538057891e-05   1.584406336147719e-05   2.393074078839907e-05
-8.909544045652913e-05   1.4196112495413332e-05   -2.5116538191156078e-05
-8.909544045652913e-05   1.4196112495413332e-05   -2.5116538191156078e-05
-8.909544045652913e-05   1.4196112495413332e-05   -2.5116538191156078e-05
-8.909544045652913e-05   1.4196112495413332e-05   -2.5116538191156078e-05
-9.14735533008014e-05   1.614528381206756e-05   3.316940492811057e-05
-9.14735533008014e-05   1.614528381206756e-05   3.316940492811057e-05
-9.14735533008014e-05   1.614528381206756e-05   3.316940492811057e-05
-9.14735533008014e-05   1.614528381206756e-05   3.316940492811057e-05
-6.177058126121245e-05   1.434419654671457e-05   -1.5254896111993447e-05
-6.177058126121245e-05   1.434419654671457e-05   -1.5254896111993447e-05
-6.177058126121245e-05   1.434419654671457e-05   -1.5254896111993447e-05
-6.177058126121245e-05   1.434419654671457e-05   -1.5254896111993447e-05
-7.27536862703537e-05   1.5045621285597176e-05   2.629424059912922e-06
-7.27536862703537e-05   1.5045621285597176e-05   2.629424059912922e-06
-7.27536862703537e-05   1.5045621285597176e-05   2.629424059912922e-06
-7.27536862703537e-05   1.5045621285597176e-05   2.629424059912922e-06
-6.177058126121223e-05   1.614528381206756e-05   3.4250057287322014e-05
-6.177058126121223e-05   1.614528381206756e-05   3.4250057287322014e-05
-6.177058126121223e-05   1.614528381206756e-05   3.4250057287322014e-05
-6.177058126121223e-05   1.614528381206756e-05   3.4250057287322014e-05
-9.147355330080172e-05   1.434419654671457e-05   -1.633554847120522e-05
-9.147355330080172e-05   1.434419654671457e-05   -1.633554847120522e-05
-9.147355330080172e-05   1.434419654671457e-05   -1.633554847120522e-05
-9.147355330080172e-05   1.434419654671457e-05   -1.633554847120522e-05
-9.379627553802479e-05   1.602807618722793e-05   4.0370001893781215e-05
-9.379627553802479e-05   1.602807618722793e-05   4.0370001893781215e-05
-9.379627553802479e-05   1.602807618722793e-05   4.0370001893781215e-05
-9.379627553802479e-05   1.602807618722793e-05   4.0370001893781215e-05
-6.344482625078064e-05   1.4185623697491549e-05   -9.110275424451149e-06
-6.344482625078064e-05   1.4185623697491549e-05   -9.110275424451149e-06
-6.344482625078064e-05   1.4185623697491549e-05   -9.110275424451149e-06
-6.344482625078064e-05   1.4185623697491549e-05   -9.110275424451149e-06
-7.567118698598066e-05   1.531929657825823e-05   1.0586788739090029e-05
-7.567118698598066e-05   1.531929657825823e-05   1.0586788739090029e-05
-7.567118698598066e-05   1.531929657825823e-05   1.0586788739090029e-05
-7.567118698598066e-05   1.531929657825823e-05   1.0586788739090029e-05
-6.344482625078064e-05   1.602807618722793e-05   4.147547338762296e-05
-6.344482625078064e-05   1.602807618722793e-05   4.147547338762296e-05
-6.344482625078064e-05   1.602807618722793e-05   4.147547338762296e-05
-6.344482625078064e-05   1.602807618722793e-05   4.147547338762296e-05
-9.379627553802512e-05   1.4185623697491549e-05   -1.0215746918293108e-05
-9.379627553802512e-05   1.4185623697491549e-05   -1.0215746918293108e-05
-9.379627553802512e-05   1.4185623697491549e-05   -1.0215746918293108e-05
-9.379627553802512e-05   1.4185623697491549e-05   -1.0215746918293108e-05
-9.650955680966521e-05   1.4752219159209264e-05   5.270983098245273e-05
-9.650955680966521e-05   1.4752219159209264e-05   5.270983098245273e-05
-9.650955680966521e-05   1.4752219159209264e-05   5.270983098245273e-05
-9.650955680966521e-05   1.4752219159209264e-05   5.270983098245273e-05
-6.504070271990867e-05   1.3090025868739332e-05   1.2590568071403543e-06
-6.504070271990867e-05   1.3090025868739332e-05   1.2590568071403543e-06
-6.504070271990867e-05   1.3090025868739332e-05   1.2590568071403543e-06
-6.504070271990867e-05   1.3090025868739332e-05   1.2590568071403543e-06
-7.641871042562775e-05   1.4867442600591599e-05   1.9155952944228602e-05
-7.641871042562775e-05   1.4867442600591599e-05   1.9155952944228602e-05
-7.641871042562775e-05   1.4867442600591599e-05   1.9155952944228602e-05
-7.641871042562775e-05   1.4867442600591599e-05   1.9155952944228602e-05
5.170040802257464e-05   -6.987455165019356e-06   4.392502062489892e-05
5.170040802257464e-05   -6.987455165019356e-06   4.392502062489892e-05
5.170040802257464e-05   -6.987455165019356e-06   4.392502062489892e-05
5.170040802257464e-05   -6.987455165019356e-06   4.392502062489892e-05
2.4344592712868318e-05   -4.610560420567102e-06   -2.4186804460668045e-07
2.4344592712868318e-05   -4.610560420567102e-06   -2.4186804460668045e-07
2.4344592712868318e-05   -4.610560420567102e-06   -2.4186804460668045e-07
2.4344592712868318e-05   -4.610560420567102e-06   -2.4186804460668045e-07
2.3186401386655038e-05   -8.109821974571375e-06   3.860152809710216e-05
2.3186401386655038e-05   -8.109821974571375e-06   3.860152809710216e-05
2.3186401386655038e-05   -8.109821974571375e-06   3.860152809710216e-05
2.3186401386655038e-05   -8.109821974571375e-06   3.860152809710216e-05
4.945997847875084e-05   -5.598690310740749e-06   -6.69444605468894e-06
4.945997847875084e-05   -5.598690310740749e-06   -6.69444605468894e-06
4.945997847875084e-05   -5.598690310740749e-06   -6.69444605468894e-06
4.945997847875084e-05   -5.598690310740749e-06   -6.69444605468894e-06
3.542397456008948e-05   -6.375354163722091e-06   1.716489212153535e-05
3.542397456008948e-05   -6.375354163722091e-06   1.716489212153535e-05
3.542397456008948e-05   -6.375354163722091e-06   1.716489212153535e-05
3.542397456008948e-05   -6.375354163722091e-06   1.716489212153535e-05
4.945997847875084e-05   -8.109821974571375e-06   3.709484909880396e-05
4.945997847875084e-05   -8.109821974571375e-06   3.709484909880396e-05
4.945997847875084e-05   -8.109821974571375e-06   3.709484909880396e-05
4.945997847875084e-05   -8.109821974571375e-06   3.709484909880396e-05
2.318640138665508e-05   -5.598690310740749e-06   -5.187767056390874e-06
2.318640138665508e-05   -5.598690310740749e-06   -5.187767056390874e-06
2.318640138665508e-05   -5.598690310740749e-06   -5.187767056390874e-06
2.318640138665508e-05   -5.598690310740749e-06   -5.187767056390874e-06
2.1908471710904205e-05   -8.335757976675288e-06   3.485886702509996e-05
2.1908471710904205e-05   -8.335757976675288e-06   3.485886702509996e-05
2.1908471710904205e-05   -8.335757976675288e-06   3.485886702509996e-05
2.1908471710904205e-05   -8.335757976675288e-06   3.485886702509996e-05
4.74970263357145e-05   -5.8630761172405975e-06   -9.272333131911124e-06
4.74970263357145e-05   -5.8630761172405975e-06   -9.272333131911124e-06
4.74970263357145e-05   -5.8630761172405975e-06   -9.272333131911124e-06
4.74970263357145e-05   -5.8630761172405975e-06   -9.272333131911124e-06
3.4492598429379605e-05   -6.776034299686793e-06   1.2949488288115291e-05
3.4492598429379605e-05   -6.776034299686793e-06   1.2949488288115291e-05
3.4492598429379605e-05   -6.776034299686793e-06   1.2949488288115291e-05
3.4492598429379605e-05   -6.776034299686793e-06   1.2949488288115291e-05
4.749702633571442e-05   -8.335757976675288e-06   3.337525790943923e-05
4.749702633571442e-05   -8.335757976675288e-06   3.337525790943923e-05
4.749702633571442e-05   -8.335757976675288e-06   3.337525790943923e-05
4.749702633571442e-05   -8.335757976675288e-06   3.337525790943923e-05
2.1908471710904245e-05   -5.8630761172405975e-06   -7.788724016250274e-06
2.1908471710904245e-05   -5.8630761172405975e-06   -7.788724016250274e-06
2.1908471710904245e-05   -5.8630761172405975e-06   -7.788724016250274e-06
2.1908471710904245e-05   -5.8630761172405975e-06   -7.788724016250274e-06
2.0728718877921514e-05   -8.429415933468992e-06   2.979383253025607e-05
2.0728718877921514e-05   -8.429415933468992e-06   2.979383253025607e-05
2.0728718877921514e-05   -8.429415933468992e-06   2.979383253025607e-05
2.0728718877921514e-05   -8.429415933468992e-06   2.979383253025607e-05
4.5304629483922045e-05   -6.112052422507265e-06   -1.2556436586321897e-05
4.5304629483922045e-05   -6.112052422507265e-06   -1.2556436586321897e-05
4.5304629483922045e-05   -6.112052422507265e-06   -1.2556436586321897e-05
4.5304629483922045e-05   -6.112052422507265e-06   -1.2556436586321897e-05
3.2446474912854255e-05   -6.738225621157664e-06   9.24952495131551e-06
3.2446474912854255e-05   -6.738225621157664e-06   9.24952495131551e-06
3.2446474912854255e-05   -6.738225621157664e-06   9.24952495131551e-06
3.2446474912854255e-05   -6.738225621157664e-06   9.24952495131551e-06
2.4344592712868236e-05   -1.3355629506907156e-06   4.9992455168247065e-05
2.4344592712868236e-05   -1.3355629506907156e-06   4.9992455168247065e-05
2.4344592712868236e-05   -1.3355629506907156e-06   4.9992455168247065e-05
2.4344592712868236e-05   -1.3355629506907156e-06   4.9992455168247065e-05
-1.5512229978890339e-06   -1.9768232856643558e-08   7.622239147685476e-06
-1.5512229978890339e-06   -1.9768232856643558e-08   7.622239147685476e-06
-1.5512229978890339e-06   -1.9768232856643558e-08   7.622239147685476e-06
-1.5512229978890339e-06   -1.9768232856643558e-08   7.622239147685476e-06
-2.6398430507307334e-06   -2.1320053716412414e-06   5.0082826822483864e-05
-2.6398430507307334e-06   -2.1320053716412414e-06   5.0082826822483864e-05
-2.6398430507307334e-06   -2.1320053716412414e-06   5.0082826822483864e-05
-2.6398430507307334e-06   -2.1320053716412414e-06   5.0082826822483864e-05
2.318640138665508e-05   -8.79991421333555e-07   6.287877723322967e-06
2.318640138665508e-05   -8.79991421333555e-07   6.287877723322967e-06
2.318640138665508e-05   -8.79991421333555e-07   6.287877723322967e-06
2.318640138665508e-05   -8.79991421333555e-07   6.287877723322967e-06
1.0659582484099461e-05   -1.1229401521649883e-06   2.73116784660813e-05
1.0659582484099461e-05   -1.1229401521649883e-06   2.73116784660813e-05
1.0659582484099461e-05   -1.1229401521649883e-06   2.73116784660813e-05
1.0659582484099461e-05   -1.1229401521649883e-06   2.73116784660813e-05
2.3186401386655018e-05   -2.1320053716412414e-06   4.933161845229925e-05
2.3186401386655018e-05   -2.1320053716412414e-06   4.933161845229925e-05
2.3186401386655018e-05   -2.1320053716412414e-06   4.933161845229925e-05
2.3186401386655018e-05   -2.1320053716412414e-06   4.933161845229925e-05
-2.6398430507307334e-06   -8.79991421333555e-07   7.039086093507457e-06
-2.6398430507307334e-06   -8.79991421333555e-07   7.039086093507457e-06
-2.6398430507307334e-06   -8.79991421333555e-07   7.039086093507457e-06
-2.6398430507307334e-06   -8.79991421333555e-07   7.039086093507457e-06
-3.751525955824898e-06   -2.724376138894726e-06   4.9332861079770226e-05
-3.751525955824898e-06   -2.724376138894726e-06   4.9332861079770226e-05
-3.751525955824898e-06   -2.724376138894726e-06   4.9332861079770226e-05
-3.751525955824898e-06   -2.724376138894726e-06   4.9332861079770226e-05
2.1908471710904245e-05   -1.5587708952118431e-06   5.866835155678488e-06
2.1908471710904245e-05   -1.5587708952118431e-06   5.866835155678488e-06
2.1908471710904245e-05   -1.5587708952118431e-06   5.866835155678488e-06
2.1908471710904245e-05   -1.5587708952118431e-06   5.866835155678488e-06
9.439173215946194e-06   -1.6541982894050997e-06   2.670625575045937e-05
9.439173215946194e-06   -1.6541982894050997e-06   2.670625575045937e-05
9.439173215946194e-06   -1.6541982894050997e-06   2.670625575045937e-05
9.439173215946194e-06   -1.6541982894050997e-06   2.670625575045937e-05
2.1908471710904205e-05   -2.724376138894726e-06   4.863349793356045e-05
2.1908471710904205e-05   -2.724376138894726e-06   4.863349793356045e-05
2.1908471710904205e-05   -2.724376138894726e-06   4.863349793356045e-05
2.1908471710904205e-05   -2.724376138894726e-06   4.863349793356045e-05
-3.751525955824898e-06   -1.5587708952118431e-06   6.566198301888315e-06
-3.751525955824898e-06   -1.5587708952118431e-06   6.566198301888315e-06
-3.751525955824898e-06   -1.5587708952118431e-06   6.566198301888315e-06
-3.751525955824898e-06   -1.5587708952118431e-06   6.566198301888315e-06
-4.869179427587192e-06   -3.192553107809939e-06   4.968064587829212e-05
-4.869179427587192e-06   -3.192553107809939e-06   4.968064587829212e-05
-4.869179427587192e-06   -3.192553107809939e-06   4.968064587829212e-05
-4.869179427587192e-06   -3.192553107809939e-06   4.968064587829212e-05
2.0728718877921528e-05   -2.188297291449027e-06   6.414928545960902e-06
2.0728718877921528e-05   -2.188297291449027e-06   6.414928545960902e-06
2.0728718877921528e-05   -2.188297291449027e-06   6.414928545960902e-06
2.0728718877921528e-05   -2.188297291449027e-06   6.414928545960902e-06
8.506137132622582e-06   -2.048316310974529e-06   2.6701909533175623e-05
8.506137132622582e-06   -2.048316310974529e-06   2.6701909533175623e-05
8.506137132622582e-06   -2.048316310974529e-06   2.6701909533175623e-05
8.506137132622582e-06   -2.048316310974529e-06   2.6701909533175623e-05
-1.5512229978890339e-06   4.342447513125576e-06   5.293596156287451e-05
-1.5512229978890339e-06   4.342447513125576e-06   5.293596156287451e-05
-1.5512229978890339e-06   4.342447513125576e-06   5.293596156287451e-05
-1.5512229978890339e-06   4.342447513125576e-06   5.293596156287451e-05
-2.6903832482579206e-05   4.468091050777688e-06   1.075699854431538e-05
-2.6903832482579206e-05   4.468091050777688e-06   1.075699854431538e-05
-2.6903832482579206e-05   4.468091050777688e-06   1.075699854431538e-05
-2.6903832482579206e-05   4.468091050777688e-06   1.075699854431538e-05
-2.7998071454928128e-05   3.678862228441871e-06   5.277574227754815e-05
-2.7998071454928128e-05   3.678862228441871e-06   5.277574227754815e-05
-2.7998071454928128e-05   3.678862228441871e-06   5.277574227754815e-05
-2.7998071454928128e-05   3.678862228441871e-06   5.277574227754815e-05
-2.6398430507307334e-06   3.7114303623065475e-06   1.04924873902335e-05
-2.6398430507307334e-06   3.7114303623065475e-06   1.04924873902335e-05
-2.6398430507307334e-06   3.7114303623065475e-06   1.04924873902335e-05
-2.6398430507307334e-06   3.7114303623065475e-06   1.04924873902335e-05
-1.4811636070132306e-05   3.979885587800016e-06   3.061773595394008e-05
-1.4811636070132306e-05   3.979885587800016e-06   3.061773595394008e-05
-1.4811636070132306e-05   3.979885587800016e-06   3.061773595394008e-05
-1.4811636070132306e-05   3.979885587800016e-06   3.061773595394008e-05
-2.6398430507307334e-06   3.678862228441871e-06   5.275620139722956e-05
-2.6398430507307334e-06   3.678862228441871e-06   5.275620139722956e-05
-2.6398430507307334e-06   3.678862228441871e-06   5.275620139722956e-05
-2.6398430507307334e-06   3.678862228441871e-06   5.275620139722956e-05
-2.7998071454928128e-05   3.7114303623065475e-06   1.051202827055263e-05
-2.7998071454928128e-05   3.7114303623065475e-06   1.051202827055263e-05
-2.7998071454928128e-05   3.7114303623065475e-06   1.051202827055263e-05
-2.7998071454928128e-05   3.7114303623065475e-06   1.051202827055263e-05
-2.9119766911784217e-05   3.0344832075411034e-06   5.306643227034782e-05
-2.9119766911784217e-05   3.0344832075411034e-06   5.306643227034782e-05
-2.9119766911784217e-05   3.0344832075411034e-06   5.306643227034782e-05
-2.9119766911784217e-05   3.0344832075411034e-06   5.306643227034782e-05
-3.751525955824925e-06   2.9667415685969735e-06   1.082667566044889e-05
-3.751525955824925e-06   2.9667415685969735e-06   1.082667566044889e-05
-3.751525955824925e-06   2.9667415685969735e-06   1.082667566044889e-05
-3.751525955824925e-06   2.9667415685969735e-06   1.082667566044889e-05
-1.5827817000966835e-05   3.4707873892282463e-06   3.065139990997398e-05
-1.5827817000966835e-05   3.4707873892282463e-06   3.065139990997398e-05
-1.5827817000966835e-05   3.4707873892282463e-06   3.065139990997398e-05
-1.5827817000966835e-05   3.4707873892282463e-06   3.065139990997398e-05
-3.751525955824925e-06   3.0344832075406697e-06   5.310707725371465e-05
-3.751525955824925e-06   3.0344832075406697e-06   5.310707725371465e-05
-3.751525955824925e-06   3.0344832075406697e-06   5.310707725371465e-05
-3.751525955824925e-06   3.0344832075406697e-06   5.310707725371465e-05
-2.9119766911784217e-05   2.9667415685969735e-06   1.0786030677082227e-05
-2.9119766911784217e-05   2.9667415685969735e-06   1.0786030677082227e-05
-2.9119766911784217e-05   2.9667415685969735e-06   1.0786030677082227e-05
-2.9119766911784217e-05   2.9667415685969735e-06   1.0786030677082227e-05
-3.0241135947200326e-05   2.460855764186646e-06   5.3728649839058064e-05
-3.0241135947200326e-05   2.460855764186646e-06   5.3728649839058064e-05
-3.0241135947200326e-05   2.460855764186646e-06   5.3728649839058064e-05
-3.0241135947200326e-05   2.460855764186646e-06   5.3728649839058064e-05
-4.869179427587192e-06   2.2600325002282255e-06   1.1562549598078049e-05
-4.869179427587192e-06   2.2600325002282255e-06   1.1562549598078049e-05
-4.869179427587192e-06   2.2600325002282255e-06   1.1562549598078049e-05
-4.869179427587192e-06   2.2600325002282255e-06   1.1562549598078049e-05
-1.689155543698949e-05   2.97460354442081e-06   3.117110032056737e-05
-1.689155543698949e-05   2.97460354442081e-06   3.117110032056737e-05
-1.689155543698949e-05   2.97460354442081e-06   3.117110032056737e-05
-1.689155543698949e-05   2.97460354442081e-06   3.117110032056737e-05
-2.690383248257918e-05   9.865372813232503e-06   4.655717011902891e-05
-2.690383248257918e-05   9.865372813232503e-06   4.655717011902891e-05
-2.690383248257918e-05   9.865372813232503e-06   4.655717011902891e-05
-2.690383248257918e-05   9.865372813232503e-06   4.655717011902891e-05
-5.168962236239746e-05   8.785759847664259e-06   4.599752539990922e-06
-5.168962236239746e-05   8.785759847664259e-06   4.599752539990922e-06
-5.168962236239746e-05   8.785759847664259e-06   4.599752539990922e-06
-5.168962236239746e-05   8.785759847664259e-06   4.599752539990922e-06
-5.286684129710814e-05   9.230934634167198e-06   4.625009847348052e-05
-5.286684129710814e-05   9.230934634167198e-06   4.625009847348052e-05
-5.286684129710814e-05   9.230934634167198e-06   4.625009847348052e-05
-5.286684129710814e-05   9.230934634167198e-06   4.625009847348052e-05
-2.7998071454928155e-05   8.060407162291134e-06   5.504465219639701e-06
-2.7998071454928155e-05   8.060407162291134e-06   5.504465219639701e-06
-2.7998071454928155e-05   8.060407162291134e-06   5.504465219639701e-06
-2.7998071454928155e-05   8.060407162291134e-06   5.504465219639701e-06
-3.973307065991896e-05   8.869298935952272e-06   2.4577462163761056e-05
-3.973307065991896e-05   8.869298935952272e-06   2.4577462163761056e-05
-3.973307065991896e-05   8.869298935952272e-06   2.4577462163761056e-05
-3.973307065991896e-05   8.869298935952272e-06   2.4577462163761056e-05
-2.7998071454928128e-05   9.230934634167198e-06   4.6952414956606464e-05
-2.7998071454928128e-05   9.230934634167198e-06   4.6952414956606464e-05
-2.7998071454928128e-05   9.230934634167198e-06   4.6952414956606464e-05
-2.7998071454928128e-05   9.230934634167198e-06   4.6952414956606464e-05
-5.286684129710814e-05   8.060407162291134e-06   4.802148736513922e-06
-5.286684129710814e-05   8.060407162291134e-06   4.802148736513922e-06
-5.286684129710814e-05   8.060407162291134e-06   4.802148736513922e-06
-5.286684129710814e-05   8.060407162291134e-06   4.802148736513922e-06
-5.416311271069823e-05   8.646711599990479e-06   4.7983136764704736e-05
-5.416311271069823e-05   8.646711599990479e-06   4.7983136764704736e-05
-5.416311271069823e-05   8.646711599990479e-06   4.7983136764704736e-05
-5.416311271069823e-05   8.646711599990479e-06   4.7983136764704736e-05
-2.9119766911784244e-05   7.385219271349285e-06   7.001122497032669e-06
-2.9119766911784244e-05   7.385219271349285e-06   7.001122497032669e-06
-2.9119766911784244e-05   7.385219271349285e-06   7.001122497032669e-06
-2.9119766911784244e-05   7.385219271349285e-06   7.001122497032669e-06
-4.057952593877756e-05   8.405907557062879e-06   2.548830790392745e-05
-4.057952593877756e-05   8.405907557062879e-06   2.548830790392745e-05
-4.057952593877756e-05   8.405907557062879e-06   2.548830790392745e-05
-4.057952593877756e-05   8.405907557062879e-06   2.548830790392745e-05
-2.9119766911784217e-05   8.646711599990479e-06   4.874003216188906e-05
-2.9119766911784217e-05   8.646711599990479e-06   4.874003216188906e-05
-2.9119766911784217e-05   8.646711599990479e-06   4.874003216188906e-05
-2.9119766911784217e-05   8.646711599990479e-06   4.874003216188906e-05
-5.416311271069823e-05   7.385219271349285e-06   6.244227099848126e-06
-5.416311271069823e-05   7.385219271349285e-06   6.244227099848126e-06
-5.416311271069823e-05   7.385219271349285e-06   6.244227099848126e-06
-5.416311271069823e-05   7.385219271349285e-06   6.244227099848126e-06
-5.534876515855109e-05   7.933836238975967e-06   4.928889566666126e-05
-5.534876515855109e-05   7.933836238975967e-06   4.928889566666126e-05
-5.534876515855109e-05   7.933836238975967e-06   4.928889566666126e-05
-5.534876515855109e-05   7.933836238975967e-06   4.928889566666126e-05
-3.0241135947200407e-05   6.599565279508893e-06   8.243409556757115e-06
-3.0241135947200407e-05   6.599565279508893e-06   8.243409556757115e-06
-3.0241135947200407e-05   6.599565279508893e-06   8.243409556757115e-06
-3.0241135947200407e-05   6.599565279508893e-06   8.243409556757115e-06
-4.1923327967121626e-05   7.883943317778253e-06   2.694310276699942e-05
-4.1923327967121626e-05   7.883943317778253e-06   2.694310276699942e-05
-4.1923327967121626e-05   7.883943317778253e-06   2.694310276699942e-05
-4.1923327967121626e-05   7.883943317778253e-06   2.694310276699942e-05
-5.168962236239746e-05   1.4196112495413332e-05   2.2500702743624744e-05
-5.168962236239746e-05   1.4196112495413332e-05   2.2500702743624744e-05
-5.168962236239746e-05   1.4196112495413332e-05   2.2500702743624744e-05
-5.168962236239746e-05   1.4196112495413332e-05   2.2500702743624744e-05
-7.521031969334236e-05   1.209940854504871e-05   -1.7958481844835943e-05
-7.521031969334236e-05   1.209940854504871e-05   -1.7958481844835943e-05
-7.521031969334236e-05   1.209940854504871e-05   -1.7958481844835943e-05
-7.521031969334236e-05   1.209940854504871e-05   -1.7958481844835943e-05
-7.732519457539919e-05   1.4344196546714136e-05   2.9880195522817912e-05
-7.732519457539919e-05   1.4344196546714136e-05   2.9880195522817912e-05
-7.732519457539919e-05   1.4344196546714136e-05   2.9880195522817912e-05
-7.732519457539919e-05   1.4344196546714136e-05   2.9880195522817912e-05
-5.286684129710814e-05   1.2036311185758576e-05   -9.49899539109413e-06
-5.286684129710814e-05   1.2036311185758576e-05   -9.49899539109413e-06
-5.286684129710814e-05   1.2036311185758576e-05   -9.49899539109413e-06
-5.286684129710814e-05   1.2036311185758576e-05   -9.49899539109413e-06
-6.182808388038136e-05   1.2977163535622064e-05   4.8718975044432025e-06
-6.182808388038136e-05   1.2977163535622064e-05   4.8718975044432025e-06
-6.182808388038136e-05   1.2977163535622064e-05   4.8718975044432025e-06
-6.182808388038136e-05   1.2977163535622064e-05   4.8718975044432025e-06
-5.286684129710814e-05   1.434419654671457e-05   3.126492673939164e-05
-5.286684129710814e-05   1.434419654671457e-05   3.126492673939164e-05
-5.286684129710814e-05   1.434419654671457e-05   3.126492673939164e-05
-5.286684129710814e-05   1.434419654671457e-05   3.126492673939164e-05
-7.73251945753993e-05   1.2036311185758576e-05   -1.0883726607667532e-05
-7.73251945753993e-05   1.2036311185758576e-05   -1.0883726607667532e-05
-7.73251945753993e-05   1.2036311185758576e-05   -1.0883726607667532e-05
-7.73251945753993e-05   1.2036311185758576e-05   -1.0883726607667532e-05
-7.921949992446863e-05   1.4185623697491982e-05   3.585048164486291e-05
-7.921949992446863e-05   1.4185623697491982e-05   3.585048164486291e-05
-7.921949992446863e-05   1.4185623697491982e-05   3.585048164486291e-05
-7.921949992446863e-05   1.4185623697491982e-05   3.585048164486291e-05
-5.416311271069823e-05   1.1790170022489381e-05   -4.472891506420275e-06
-5.416311271069823e-05   1.1790170022489381e-05   -4.472891506420275e-06
-5.416311271069823e-05   1.1790170022489381e-05   -4.472891506420275e-06
-5.416311271069823e-05   1.1790170022489381e-05   -4.472891506420275e-06
-6.4255167820978e-05   1.3119531460524698e-05   1.154958348122744e-05
-6.4255167820978e-05   1.3119531460524698e-05   1.154958348122744e-05
-6.4255167820978e-05   1.3119531460524698e-05   1.154958348122744e-05
-6.4255167820978e-05   1.3119531460524698e-05   1.154958348122744e-05
-5.416311271069823e-05   1.4185623697491549e-05   3.7287753849864474e-05
-5.416311271069823e-05   1.4185623697491549e-05   3.7287753849864474e-05
-5.416311271069823e-05   1.4185623697491549e-05   3.7287753849864474e-05
-5.416311271069823e-05   1.4185623697491549e-05   3.7287753849864474e-05
-7.921949992446874e-05   1.1790170022489381e-05   -5.910163711421511e-06
-7.921949992446874e-05   1.1790170022489381e-05   -5.910163711421511e-06
-7.921949992446874e-05   1.1790170022489381e-05   -5.910163711421511e-06
-7.921949992446874e-05   1.1790170022489381e-05   -5.910163711421511e-06
-8.139686760255687e-05   1.3090025868739332e-05   4.612618301813977e-05
-8.139686760255687e-05   1.3090025868739332e-05   4.612618301813977e-05
-8.139686760255687e-05   1.3090025868739332e-05   4.612618301813977e-05
-8.139686760255687e-05   1.3090025868739332e-05   4.612618301813977e-05
-5.534876515855109e-05   1.0706472783198525e-05   4.142810796121054e-06
-5.534876515855109e-05   1.0706472783198525e-05   4.142810796121054e-06
-5.534876515855109e-05   1.0706472783198525e-05   4.142810796121054e-06
-5.534876515855109e-05   1.0706472783198525e-05   4.142810796121054e-06
-6.478021145328873e-05   1.2670463802960663e-05   1.8683493342161093e-05
-6.478021145328873e-05   1.2670463802960663e-05   1.8683493342161093e-05
-6.478021145328873e-05   1.2670463802960663e-05   1.8683493342161093e-05
-6.478021145328873e-05   1.2670463802960663e-05   1.8683493342161093e-05
3.5563624213565695e-05   -4.610560420567535e-06   3.5719663669237e-05
3.5563624213565695e-05   -4.610560420567535e-06   3.5719663669237e-05
3.5563624213565695e-05   -4.610560420567535e-06   3.5719663669237e-05
3.5563624213565695e-05   -4.610560420567535e-06   3.5719663669237e-05
1.4753191303129241e-05   -2.258306951949743e-06   2.4469608996800524e-06
1.4753191303129241e-05   -2.258306951949743e-06   2.4469608996800524e-06
1.4753191303129241e-05   -2.258306951949743e-06   2.4469608996800524e-06
1.4753191303129241e-05   -2.258306951949743e-06   2.4469608996800524e-06
1.3822407446440991e-05   -5.598690310740749e-06   3.212171511711589e-05
1.3822407446440991e-05   -5.598690310740749e-06   3.212171511711589e-05
1.3822407446440991e-05   -5.598690310740749e-06   3.212171511711589e-05
1.3822407446440991e-05   -5.598690310740749e-06   3.212171511711589e-05
3.358330204364486e-05   -3.1411881674008393e-06   -2.287610497561372e-06
3.358330204364486e-05   -3.1411881674008393e-06   -2.287610497561372e-06
3.358330204364486e-05   -3.1411881674008393e-06   -2.287610497561372e-06
3.358330204364486e-05   -3.1411881674008393e-06   -2.287610497561372e-06
2.321470479428327e-05   -3.996496282086641e-06   1.5506569786853642e-05
2.321470479428327e-05   -3.996496282086641e-06   1.5506569786853642e-05
2.321470479428327e-05   -3.996496282086641e-06   1.5506569786853642e-05
2.321470479428327e-05   -3.996496282086641e-06   1.5506569786853642e-05
3.358330204364493e-05   -5.598690310741183e-06   3.0647213831111854e-05
3.358330204364493e-05   -5.598690310741183e-06   3.0647213831111854e-05
3.358330204364493e-05   -5.598690310741183e-06   3.0647213831111854e-05
3.358330204364493e-05   -5.598690310741183e-06   3.0647213831111854e-05
1.3822407446440943e-05   -3.1411881674008393e-06   -8.131092115570143e-07
1.3822407446440943e-05   -3.1411881674008393e-06   -8.131092115570143e-07
1.3822407446440943e-05   -3.1411881674008393e-06   -8.131092115570143e-07
1.3822407446440943e-05   -3.1411881674008393e-06   -8.131092115570143e-07
1.2777494595772815e-05   -5.8630761172405975e-06   2.9448938197597363e-05
1.2777494595772815e-05   -5.8630761172405975e-06   2.9448938197597363e-05
1.2777494595772815e-05   -5.8630761172405975e-06   2.9448938197597363e-05
1.2777494595772815e-05   -5.8630761172405975e-06   2.9448938197597363e-05
3.188383660234116e-05   -3.4456538318813554e-06   -3.845418517898493e-06
3.188383660234116e-05   -3.4456538318813554e-06   -3.845418517898493e-06
3.188383660234116e-05   -3.4456538318813554e-06   -3.845418517898493e-06
3.188383660234116e-05   -3.4456538318813554e-06   -3.845418517898493e-06
2.233128288790375e-05   -4.370792264681879e-06   1.2630587399177929e-05
2.233128288790375e-05   -4.370792264681879e-06   1.2630587399177929e-05
2.233128288790375e-05   -4.370792264681879e-06   1.2630587399177929e-05
2.233128288790375e-05   -4.370792264681879e-06   1.2630587399177929e-05
3.1883836602341215e-05   -5.8630761172405975e-06   2.7998484826381948e-05
3.1883836602341215e-05   -5.8630761172405975e-06   2.7998484826381948e-05
3.1883836602341215e-05   -5.8630761172405975e-06   2.7998484826381948e-05
3.1883836602341215e-05   -5.8630761172405975e-06   2.7998484826381948e-05
1.2777494595772788e-05   -3.4456538318813554e-06   -2.394965146683241e-06
1.2777494595772788e-05   -3.4456538318813554e-06   -2.394965146683241e-06
1.2777494595772788e-05   -3.4456538318813554e-06   -2.394965146683241e-06
1.2777494595772788e-05   -3.4456538318813554e-06   -2.394965146683241e-06
1.1841046944849305e-05   -6.112052422507265e-06   2.5982260636553053e-05
1.1841046944849305e-05   -6.112052422507265e-06   2.5982260636553053e-05
1.1841046944849305e-05   -6.112052422507265e-06   2.5982260636553053e-05
1.1841046944849305e-05   -6.112052422507265e-06   2.5982260636553053e-05
2.9957143733916572e-05   -3.8498518825100594e-06   -5.568554335890787e-06
2.9957143733916572e-05   -3.8498518825100594e-06   -5.568554335890787e-06
2.9957143733916572e-05   -3.8498518825100594e-06   -5.568554335890787e-06
2.9957143733916572e-05   -3.8498518825100594e-06   -5.568554335890787e-06
2.0702366089036418e-05   -4.445318637623721e-06   1.0213355125310904e-05
2.0702366089036418e-05   -4.445318637623721e-06   1.0213355125310904e-05
2.0702366089036418e-05   -4.445318637623721e-06   1.0213355125310904e-05
2.0702366089036418e-05   -4.445318637623721e-06   1.0213355125310904e-05
1.4753191303129295e-05   -1.9768232856643558e-08   4.420564611199926e-05
1.4753191303129295e-05   -1.9768232856643558e-08   4.420564611199926e-05
1.4753191303129295e-05   -1.9768232856643558e-08   4.420564611199926e-05
1.4753191303129295e-05   -1.9768232856643558e-08   4.420564611199926e-05
-4.7796441608898065e-06   1.172951738490774e-06   1.2366552321442905e-05
-4.7796441608898065e-06   1.172951738490774e-06   1.2366552321442905e-05
-4.7796441608898065e-06   1.172951738490774e-06   1.2366552321442905e-05
-4.7796441608898065e-06   1.172951738490774e-06   1.2366552321442905e-05
-5.634689327537617e-06   -8.79991421333555e-07   4.429228112928091e-05
-5.634689327537617e-06   -8.79991421333555e-07   4.429228112928091e-05
-5.634689327537617e-06   -8.79991421333555e-07   4.429228112928091e-05
-5.634689327537617e-06   -8.79991421333555e-07   4.429228112928091e-05
1.3822407446440943e-05   2.782106327523827e-07   1.1168865273532023e-05
1.3822407446440943e-05   2.782106327523827e-07   1.1168865273532023e-05
1.3822407446440943e-05   2.782106327523827e-07   1.1168865273532023e-05
1.3822407446440943e-05   2.782106327523827e-07   1.1168865273532023e-05
4.4012442775122846e-06   6.122354920647458e-08   2.7000996138541668e-05
4.4012442775122846e-06   6.122354920647458e-08   2.7000996138541668e-05
4.4012442775122846e-06   6.122354920647458e-08   2.7000996138541668e-05
4.4012442775122846e-06   6.122354920647458e-08   2.7000996138541668e-05
1.3822407446440977e-05   -8.79991421333555e-07   4.359735989682982e-05
1.3822407446440977e-05   -8.79991421333555e-07   4.359735989682982e-05
1.3822407446440977e-05   -8.79991421333555e-07   4.359735989682982e-05
1.3822407446440977e-05   -8.79991421333555e-07   4.359735989682982e-05
-5.634689327537617e-06   2.782106327523827e-07   1.18637865059838e-05
-5.634689327537617e-06   2.782106327523827e-07   1.18637865059838e-05
-5.634689327537617e-06   2.782106327523827e-07   1.18637865059838e-05
-5.634689327537617e-06   2.782106327523827e-07   1.18637865059838e-05
-6.50879850031715e-06   -1.5587708952118431e-06   4.376698599262976e-05
-6.50879850031715e-06   -1.5587708952118431e-06   4.376698599262976e-05
-6.50879850031715e-06   -1.5587708952118431e-06   4.376698599262976e-05
-6.50879850031715e-06   -1.5587708952118431e-06   4.376698599262976e-05
1.2777494595772788e-05   -4.546231900386284e-07   1.0960675542709632e-05
1.2777494595772788e-05   -4.546231900386284e-07   1.0960675542709632e-05
1.2777494595772788e-05   -4.546231900386284e-07   1.0960675542709632e-05
1.2777494595772788e-05   -4.546231900386284e-07   1.0960675542709632e-05
3.4616633589213682e-06   -5.359674280472522e-07   2.6535867480268665e-05
3.4616633589213682e-06   -5.359674280472522e-07   2.6535867480268665e-05
3.4616633589213682e-06   -5.359674280472522e-07   2.6535867480268665e-05
3.4616633589213682e-06   -5.359674280472522e-07   2.6535867480268665e-05
1.2777494595772835e-05   -1.5587708952118431e-06   4.310449736952618e-05
1.2777494595772835e-05   -1.5587708952118431e-06   4.310449736952618e-05
1.2777494595772835e-05   -1.5587708952118431e-06   4.310449736952618e-05
1.2777494595772835e-05   -1.5587708952118431e-06   4.310449736952618e-05
-6.50879850031715e-06   -4.546231900386284e-07   1.162316416581364e-05
-6.50879850031715e-06   -4.546231900386284e-07   1.162316416581364e-05
-6.50879850031715e-06   -4.546231900386284e-07   1.162316416581364e-05
-6.50879850031715e-06   -4.546231900386284e-07   1.162316416581364e-05
-7.375478286974346e-06   -2.188297291449027e-06   4.416957732728097e-05
-7.375478286974346e-06   -2.188297291449027e-06   4.416957732728097e-05
-7.375478286974346e-06   -2.188297291449027e-06   4.416957732728097e-05
-7.375478286974346e-06   -2.188297291449027e-06   4.416957732728097e-05
1.1841046944849244e-05   -1.1776811830789026e-06   1.1535665609219438e-05
1.1841046944849244e-05   -1.1776811830789026e-06   1.1535665609219438e-05
1.1841046944849244e-05   -1.1776811830789026e-06   1.1535665609219438e-05
1.1841046944849244e-05   -1.1776811830789026e-06   1.1535665609219438e-05
2.7185488259734847e-06   -1.0346915495741335e-06   2.6654035360576425e-05
2.7185488259734847e-06   -1.0346915495741335e-06   2.6654035360576425e-05
2.7185488259734847e-06   -1.0346915495741335e-06   2.6654035360576425e-05
2.7185488259734847e-06   -1.0346915495741335e-06   2.6654035360576425e-05
-4.7796441608898065e-06   4.468091050777688e-06   4.7980651368846865e-05
-4.7796441608898065e-06   4.468091050777688e-06   4.7980651368846865e-05
-4.7796441608898065e-06   4.468091050777688e-06   4.7980651368846865e-05
-4.7796441608898065e-06   4.468091050777688e-06   4.7980651368846865e-05
-2.3992460446847124e-05   4.39461340761161e-06   1.591520430635181e-05
-2.3992460446847124e-05   4.39461340761161e-06   1.591520430635181e-05
-2.3992460446847124e-05   4.39461340761161e-06   1.591520430635181e-05
-2.3992460446847124e-05   4.39461340761161e-06   1.591520430635181e-05
-2.4835786279640316e-05   3.7114303623065475e-06   4.76672982126444e-05
-2.4835786279640316e-05   3.7114303623065475e-06   4.76672982126444e-05
-2.4835786279640316e-05   3.7114303623065475e-06   4.76672982126444e-05
-2.4835786279640316e-05   3.7114303623065475e-06   4.76672982126444e-05
-5.63468932753759e-06   3.580790006701539e-06   1.5743854172503048e-05
-5.63468932753759e-06   3.580790006701539e-06   1.5743854172503048e-05
-5.63468932753759e-06   3.580790006701539e-06   1.5743854172503048e-05
-5.63468932753759e-06   3.580790006701539e-06   1.5743854172503048e-05
-1.4847513523742384e-05   3.939183919367262e-06   3.088352481857911e-05
-1.4847513523742384e-05   3.939183919367262e-06   3.088352481857911e-05
-1.4847513523742384e-05   3.939183919367262e-06   3.088352481857911e-05
-1.4847513523742384e-05   3.939183919367262e-06   3.088352481857911e-05
-5.634689327537617e-06   3.7114303623065475e-06   4.7745682426007276e-05
-5.634689327537617e-06   3.7114303623065475e-06   4.7745682426007276e-05
-5.634689327537617e-06   3.7114303623065475e-06   4.7745682426007276e-05
-5.634689327537617e-06   3.7114303623065475e-06   4.7745682426007276e-05
-2.4835786279640316e-05   3.580790006701539e-06   1.5665469959139956e-05
-2.4835786279640316e-05   3.580790006701539e-06   1.5665469959139956e-05
-2.4835786279640316e-05   3.580790006701539e-06   1.5665469959139956e-05
-2.4835786279640316e-05   3.580790006701539e-06   1.5665469959139956e-05
-2.5699496882693206e-05   2.9667415685969735e-06   4.791318483125264e-05
-2.5699496882693206e-05   2.9667415685969735e-06   4.791318483125264e-05
-2.5699496882693206e-05   2.9667415685969735e-06   4.791318483125264e-05
-2.5699496882693206e-05   2.9667415685969735e-06   4.791318483125264e-05
-6.50879850031715e-06   2.7762773686999635e-06   1.604296604723062e-05
-6.50879850031715e-06   2.7762773686999635e-06   1.604296604723062e-05
-6.50879850031715e-06   2.7762773686999635e-06   1.604296604723062e-05
-6.50879850031715e-06   2.7762773686999635e-06   1.604296604723062e-05
-1.562011140070568e-05   3.3481665686861672e-06   3.0885354027887545e-05
-1.562011140070568e-05   3.3481665686861672e-06   3.0885354027887545e-05
-1.562011140070568e-05   3.3481665686861672e-06   3.0885354027887545e-05
-1.562011140070568e-05   3.3481665686861672e-06   3.0885354027887545e-05
-6.50879850031715e-06   2.9667415685969735e-06   4.80274633511905e-05
-6.50879850031715e-06   2.9667415685969735e-06   4.80274633511905e-05
-6.50879850031715e-06   2.9667415685969735e-06   4.80274633511905e-05
-6.50879850031715e-06   2.9667415685969735e-06   4.80274633511905e-05
-2.5699496882693206e-05   2.776277368700397e-06   1.5928687527292816e-05
-2.5699496882693206e-05   2.776277368700397e-06   1.5928687527292816e-05
-2.5699496882693206e-05   2.776277368700397e-06   1.5928687527292816e-05
-2.5699496882693206e-05   2.776277368700397e-06   1.5928687527292816e-05
-2.6553254660120968e-05   2.2600325002282255e-06   4.8559606619913475e-05
-2.6553254660120968e-05   2.2600325002282255e-06   4.8559606619913475e-05
-2.6553254660120968e-05   2.2600325002282255e-06   4.8559606619913475e-05
-2.6553254660120968e-05   2.2600325002282255e-06   4.8559606619913475e-05
-7.375478286974346e-06   2.0016353841148526e-06   1.6751684267670482e-05
-7.375478286974346e-06   2.0016353841148526e-06   1.6751684267670482e-05
-7.375478286974346e-06   2.0016353841148526e-06   1.6751684267670482e-05
-7.375478286974346e-06   2.0016353841148526e-06   1.6751684267670482e-05
-1.6428108847522764e-05   2.7709571675249567e-06   3.137780879853831e-05
-1.6428108847522764e-05   2.7709571675249567e-06   3.137780879853831e-05
-1.6428108847522764e-05   2.7709571675249567e-06   3.137780879853831e-05
-1.6428108847522764e-05   2.7709571675249567e-06   3.137780879853831e-05
-2.3992460446847124e-05   8.785759847664693e-06   4.2427086557963534e-05
-2.3992460446847124e-05   8.785759847664693e-06   4.2427086557963534e-05
-2.3992460446847124e-05   8.785759847664693e-06   4.2427086557963534e-05
-2.3992460446847124e-05   8.785759847664693e-06   4.2427086557963534e-05
-4.287704557244412e-05   7.528164520970333e-06   1.0198220819285491e-05
-4.287704557244412e-05   7.528164520970333e-06   1.0198220819285491e-05
-4.287704557244412e-05   7.528164520970333e-06   1.0198220819285491e-05
-4.287704557244412e-05   7.528164520970333e-06   1.0198220819285491e-05
-4.3781360853213745e-05   8.060407162291134e-06   4.186304271814722e-05
-4.3781360853213745e-05   8.060407162291134e-06   4.186304271814722e-05
-4.3781360853213745e-05   8.060407162291134e-06   4.186304271814722e-05
-4.3781360853213745e-05   8.060407162291134e-06   4.186304271814722e-05
-2.4835786279640154e-05   6.732586422984136e-06   1.1083777539108784e-05
-2.4835786279640154e-05   6.732586422984136e-06   1.1083777539108784e-05
-2.4835786279640154e-05   6.732586422984136e-06   1.1083777539108784e-05
-2.4835786279640154e-05   6.732586422984136e-06   1.1083777539108784e-05
-3.377613440128655e-05   7.64533516973238e-06   2.5436708493805174e-05
-3.377613440128655e-05   7.64533516973238e-06   2.5436708493805174e-05
-3.377613440128655e-05   7.64533516973238e-06   2.5436708493805174e-05
-3.377613440128655e-05   7.64533516973238e-06   2.5436708493805174e-05
-2.4835786279640316e-05   8.060407162291134e-06   4.265973516173142e-05
-2.4835786279640316e-05   8.060407162291134e-06   4.265973516173142e-05
-2.4835786279640316e-05   8.060407162291134e-06   4.265973516173142e-05
-2.4835786279640316e-05   8.060407162291134e-06   4.265973516173142e-05
-4.3781360853213636e-05   6.73258642298457e-06   1.0287085095525127e-05
-4.3781360853213636e-05   6.73258642298457e-06   1.0287085095525127e-05
-4.3781360853213636e-05   6.73258642298457e-06   1.0287085095525127e-05
-4.3781360853213636e-05   6.73258642298457e-06   1.0287085095525127e-05
-4.479938348526659e-05   7.385219271349285e-06   4.329537244060033e-05
-4.479938348526659e-05   7.385219271349285e-06   4.329537244060033e-05
-4.479938348526659e-05   7.385219271349285e-06   4.329537244060033e-05
-4.479938348526659e-05   7.385219271349285e-06   4.329537244060033e-05
-2.5699496882693098e-05   5.997045587012237e-06   1.229513231358056e-05
-2.5699496882693098e-05   5.997045587012237e-06   1.229513231358056e-05
-2.5699496882693098e-05   5.997045587012237e-06   1.229513231358056e-05
-2.5699496882693098e-05   5.997045587012237e-06   1.229513231358056e-05
-3.440380671678478e-05   7.10312715568838e-06   2.6138666429195126e-05
-3.440380671678478e-05   7.10312715568838e-06   2.6138666429195126e-05
-3.440380671678478e-05   7.10312715568838e-06   2.6138666429195126e-05
-3.440380671678478e-05   7.10312715568838e-06   2.6138666429195126e-05
-2.5699496882693152e-05   7.385219271349285e-06   4.412827665120243e-05
-2.5699496882693152e-05   7.385219271349285e-06   4.412827665120243e-05
-2.5699496882693152e-05   7.385219271349285e-06   4.412827665120243e-05
-2.5699496882693152e-05   7.385219271349285e-06   4.412827665120243e-05
-4.4799383485266534e-05   5.997045587012237e-06   1.146222810297819e-05
-4.4799383485266534e-05   5.997045587012237e-06   1.146222810297819e-05
-4.4799383485266534e-05   5.997045587012237e-06   1.146222810297819e-05
-4.4799383485266534e-05   5.997045587012237e-06   1.146222810297819e-05
-4.570494686951664e-05   6.599565279508893e-06   4.450646331068727e-05
-4.570494686951664e-05   6.599565279508893e-06   4.450646331068727e-05
-4.570494686951664e-05   6.599565279508893e-06   4.450646331068727e-05
-4.570494686951664e-05   6.599565279508893e-06   4.450646331068727e-05
-2.655325466012086e-05   5.175403235709204e-06   1.3441473521308368e-05
-2.655325466012086e-05   5.175403235709204e-06   1.3441473521308368e-05
-2.655325466012086e-05   5.175403235709204e-06   1.3441473521308368e-05
-2.655325466012086e-05   5.175403235709204e-06   1.3441473521308368e-05
-3.542342551427722e-05   6.53311348658989e-06   2.7410465461040652e-05
-3.542342551427722e-05   6.53311348658989e-06   2.7410465461040652e-05
-3.542342551427722e-05   6.53311348658989e-06   2.7410465461040652e-05
-3.542342551427722e-05   6.53311348658989e-06   2.7410465461040652e-05
-4.287704557244412e-05   1.2099408545048276e-05   2.0372317347339217e-05
-4.287704557244412e-05   1.2099408545048276e-05   2.0372317347339217e-05
-4.287704557244412e-05   1.2099408545048276e-05   2.0372317347339217e-05
-4.287704557244412e-05   1.2099408545048276e-05   2.0372317347339217e-05
-6.056786186182093e-05   9.86577921579081e-06   -1.0452554065843648e-05
-6.056786186182093e-05   9.86577921579081e-06   -1.0452554065843648e-05
-6.056786186182093e-05   9.86577921579081e-06   -1.0452554065843648e-05
-6.056786186182093e-05   9.86577921579081e-06   -1.0452554065843648e-05
-6.245746865764495e-05   1.2036311185758576e-05   2.6105495409647125e-05
-6.245746865764495e-05   1.2036311185758576e-05   2.6105495409647125e-05
-6.245746865764495e-05   1.2036311185758576e-05   2.6105495409647125e-05
-6.245746865764495e-05   1.2036311185758576e-05   2.6105495409647125e-05
-4.378136085321353e-05   9.60897255093858e-06   -3.5649477501791807e-06
-4.378136085321353e-05   9.60897255093858e-06   -3.5649477501791807e-06
-4.378136085321353e-05   9.60897255093858e-06   -3.5649477501791807e-06
-4.378136085321353e-05   9.60897255093858e-06   -3.5649477501791807e-06
-5.04567605002007e-05   1.0705239876095726e-05   6.9029579330392435e-06
-5.04567605002007e-05   1.0705239876095726e-05   6.9029579330392435e-06
-5.04567605002007e-05   1.0705239876095726e-05   6.9029579330392435e-06
-5.04567605002007e-05   1.0705239876095726e-05   6.9029579330392435e-06
-4.3781360853213636e-05   1.2036311185758576e-05   2.7561898590539166e-05
-4.3781360853213636e-05   1.2036311185758576e-05   2.7561898590539166e-05
-4.3781360853213636e-05   1.2036311185758576e-05   2.7561898590539166e-05
-4.3781360853213636e-05   1.2036311185758576e-05   2.7561898590539166e-05
-6.245746865764506e-05   9.60897255093858e-06   -5.021350931071439e-06
-6.245746865764506e-05   9.60897255093858e-06   -5.021350931071439e-06
-6.245746865764506e-05   9.60897255093858e-06   -5.021350931071439e-06
-6.245746865764506e-05   9.60897255093858e-06   -5.021350931071439e-06
-6.410691082747223e-05   1.1790170022489381e-05   3.1082524869958245e-05
-6.410691082747223e-05   1.1790170022489381e-05   3.1082524869958245e-05
-6.410691082747223e-05   1.1790170022489381e-05   3.1082524869958245e-05
-6.410691082747223e-05   1.1790170022489381e-05   3.1082524869958245e-05
-4.479938348526648e-05   9.297288415200267e-06   3.990415973222604e-07
-4.479938348526648e-05   9.297288415200267e-06   3.990415973222604e-07
-4.479938348526648e-05   9.297288415200267e-06   3.990415973222604e-07
-4.479938348526648e-05   9.297288415200267e-06   3.990415973222604e-07
-5.2455150018272244e-05   1.0711024109001308e-05   1.2310411069387157e-05
-5.2455150018272244e-05   1.0711024109001308e-05   1.2310411069387157e-05
-5.2455150018272244e-05   1.0711024109001308e-05   1.2310411069387157e-05
-5.2455150018272244e-05   1.0711024109001308e-05   1.2310411069387157e-05
-4.479938348526659e-05   1.1790170022489381e-05   3.257825383433193e-05
-4.479938348526659e-05   1.1790170022489381e-05   3.257825383433193e-05
-4.479938348526659e-05   1.1790170022489381e-05   3.257825383433193e-05
-4.479938348526659e-05   1.1790170022489381e-05   3.257825383433193e-05
-6.410691082747223e-05   9.297288415200267e-06   -1.096687367050991e-06
-6.410691082747223e-05   9.297288415200267e-06   -1.096687367050991e-06
-6.410691082747223e-05   9.297288415200267e-06   -1.096687367050991e-06
-6.410691082747223e-05   9.297288415200267e-06   -1.096687367050991e-06
-6.602095240015085e-05   1.0706472783198525e-05   3.973439284964651e-05
-6.602095240015085e-05   1.0706472783198525e-05   3.973439284964651e-05
-6.602095240015085e-05   1.0706472783198525e-05   3.973439284964651e-05
-6.602095240015085e-05   1.0706472783198525e-05   3.973439284964651e-05
-4.570494686951648e-05   8.253082323056524e-06   7.346417908008092e-06
-4.570494686951648e-05   8.253082323056524e-06   7.346417908008092e-06
-4.570494686951648e-05   8.253082323056524e-06   7.346417908008092e-06
-4.570494686951648e-05   8.253082323056524e-06   7.346417908008092e-06
-5.290624685448759e-05   1.0256434226102711e-05   1.8146573407798374e-05
-5.290624685448759e-05   1.0256434226102711e-05   1.8146573407798374e-05
-5.290624685448759e-05   1.0256434226102711e-05   1.8146573407798374e-05
-5.290624685448759e-05   1.0256434226102711e-05   1.8146573407798374e-05
1.968625347412094e-05   -2.258306951949743e-06   2.8068699082713176e-05
1.968625347412094e-05   -2.258306951949743e-06   2.8068699082713176e-05
1.968625347412094e-05   -2.258306951949743e-06   2.8068699082713176e-05
1.968625347412094e-05   -2.258306951949743e-06   2.8068699082713176e-05
5.122786237907922e-06   6.68523947606331e-08   5.191349297051229e-06
5.122786237907922e-06   6.68523947606331e-08   5.191349297051229e-06
5.122786237907922e-06   6.68523947606331e-08   5.191349297051229e-06
5.122786237907922e-06   6.68523947606331e-08   5.191349297051229e-06
4.42760368192694e-06   -3.1411881674004057e-06   2.6178733985508405e-05
4.42760368192694e-06   -3.1411881674004057e-06   2.6178733985508405e-05
4.42760368192694e-06   -3.1411881674004057e-06   2.6178733985508405e-05
4.42760368192694e-06   -3.1411881674004057e-06   2.6178733985508405e-05
1.7968634118241817e-05   -7.236541889655852e-07   2.1598295379230304e-06
1.7968634118241817e-05   -7.236541889655852e-07   2.1598295379230304e-06
1.7968634118241817e-05   -7.236541889655852e-07   2.1598295379230304e-06
1.7968634118241817e-05   -7.236541889655852e-07   2.1598295379230304e-06
1.1103386698920124e-05   -1.6259910320557888e-06   1.4143310675980591e-05
1.1103386698920124e-05   -1.6259910320557888e-06   1.4143310675980591e-05
1.1103386698920124e-05   -1.6259910320557888e-06   1.4143310675980591e-05
1.1103386698920124e-05   -1.6259910320557888e-06   1.4143310675980591e-05
1.7968634118241845e-05   -3.1411881674008393e-06   2.4728213598447643e-05
1.7968634118241845e-05   -3.1411881674008393e-06   2.4728213598447643e-05
1.7968634118241845e-05   -3.1411881674008393e-06   2.4728213598447643e-05
1.7968634118241845e-05   -3.1411881674008393e-06   2.4728213598447643e-05
4.4276036819269334e-06   -7.236541889655852e-07   3.6103499249837655e-06
4.4276036819269334e-06   -7.236541889655852e-07   3.6103499249837655e-06
4.4276036819269334e-06   -7.236541889655852e-07   3.6103499249837655e-06
4.4276036819269334e-06   -7.236541889655852e-07   3.6103499249837655e-06
3.6179355729462997e-06   -3.445653831881789e-06   2.4575686011249964e-05
3.6179355729462997e-06   -3.445653831881789e-06   2.4575686011249964e-05
3.6179355729462997e-06   -3.445653831881789e-06   2.4575686011249964e-05
3.6179355729462997e-06   -3.445653831881789e-06   2.4575686011249964e-05
1.6514937052907746e-05   -1.0652628061442147e-06   1.6524489292055406e-06
1.6514937052907746e-05   -1.0652628061442147e-06   1.6524489292055406e-06
1.6514937052907746e-05   -1.0652628061442147e-06   1.6524489292055406e-06
1.6514937052907746e-05   -1.0652628061442147e-06   1.6524489292055406e-06
1.0271445709106725e-05   -1.9709741653967973e-06   1.2601694651091636e-05
1.0271445709106725e-05   -1.9709741653967973e-06   1.2601694651091636e-05
1.0271445709106725e-05   -1.9709741653967973e-06   1.2601694651091636e-05
1.0271445709106725e-05   -1.9709741653967973e-06   1.2601694651091636e-05
1.6514937052907773e-05   -3.445653831881789e-06   2.3147451395807506e-05
1.6514937052907773e-05   -3.445653831881789e-06   2.3147451395807506e-05
1.6514937052907773e-05   -3.445653831881789e-06   2.3147451395807506e-05
1.6514937052907773e-05   -3.445653831881789e-06   2.3147451395807506e-05
3.617935572946286e-06   -1.0652628061442147e-06   3.08068354464789e-06
3.617935572946286e-06   -1.0652628061442147e-06   3.08068354464789e-06
3.617935572946286e-06   -1.0652628061442147e-06   3.08068354464789e-06
3.617935572946286e-06   -1.0652628061442147e-06   3.08068354464789e-06
2.9166940086401043e-06   -3.8498518825100594e-06   2.272781387175531e-05
2.9166940086401043e-06   -3.8498518825100594e-06   2.272781387175531e-05
2.9166940086401043e-06   -3.8498518825100594e-06   2.272781387175531e-05
2.9166940086401043e-06   -3.8498518825100594e-06   2.272781387175531e-05
1.481350848832875e-05   -1.6357513886789722e-06   1.5713294426428865e-06
1.481350848832875e-05   -1.6357513886789722e-06   1.5713294426428865e-06
1.481350848832875e-05   -1.6357513886789722e-06   1.5713294426428865e-06
1.481350848832875e-05   -1.6357513886789722e-06   1.5713294426428865e-06
9.050862454965636e-06   -2.1503589166600896e-06   1.1484504015036711e-05
9.050862454965636e-06   -2.1503589166600896e-06   1.1484504015036711e-05
9.050862454965636e-06   -2.1503589166600896e-06   1.1484504015036711e-05
9.050862454965636e-06   -2.1503589166600896e-06   1.1484504015036711e-05
5.122786237907932e-06   1.1729517384912076e-06   3.8667754129693846e-05
5.122786237907932e-06   1.1729517384912076e-06   3.8667754129693846e-05
5.122786237907932e-06   1.1729517384912076e-06   3.8667754129693846e-05
5.122786237907932e-06   1.1729517384912076e-06   3.8667754129693846e-05
-8.149357883950684e-06   2.224197302712035e-06   1.7178261265128744e-05
-8.149357883950684e-06   2.224197302712035e-06   1.7178261265128744e-05
-8.149357883950684e-06   2.224197302712035e-06   1.7178261265128744e-05
-8.149357883950684e-06   2.224197302712035e-06   1.7178261265128744e-05
-8.759774297754388e-06   2.782106327523827e-07   3.879171621455732e-05
-8.759774297754388e-06   2.782106327523827e-07   3.879171621455732e-05
-8.759774297754388e-06   2.782106327523827e-07   3.879171621455732e-05
-8.759774297754388e-06   2.782106327523827e-07   3.879171621455732e-05
4.4276036819269334e-06   1.3298902060182756e-06   1.6181745171129337e-05
4.4276036819269334e-06   1.3298902060182756e-06   1.6181745171129337e-05
4.4276036819269334e-06   1.3298902060182756e-06   1.6181745171129337e-05
4.4276036819269334e-06   1.3298902060182756e-06   1.6181745171129337e-05
-1.9386313951865116e-06   1.162597826519056e-06   2.6892512394018965e-05
-1.9386313951865116e-06   1.162597826519056e-06   2.6892512394018965e-05
-1.9386313951865116e-06   1.162597826519056e-06   2.6892512394018965e-05
-1.9386313951865116e-06   1.162597826519056e-06   2.6892512394018965e-05
4.42760368192694e-06   2.782106327523827e-07   3.816070847059748e-05
4.42760368192694e-06   2.782106327523827e-07   3.816070847059748e-05
4.42760368192694e-06   2.782106327523827e-07   3.816070847059748e-05
4.42760368192694e-06   2.782106327523827e-07   3.816070847059748e-05
-8.759774297754388e-06   1.3298902060182756e-06   1.6812752915089163e-05
-8.759774297754388e-06   1.3298902060182756e-06   1.6812752915089163e-05
-8.759774297754388e-06   1.3298902060182756e-06   1.6812752915089163e-05
-8.759774297754388e-06   1.3298902060182756e-06   1.6812752915089163e-05
-9.387896037821466e-06   -4.546231900386284e-07   3.8546825358987515e-05
-9.387896037821466e-06   -4.546231900386284e-07   3.8546825358987515e-05
-9.387896037821466e-06   -4.546231900386284e-07   3.8546825358987515e-05
-9.387896037821466e-06   -4.546231900386284e-07   3.8546825358987515e-05
3.617935572946286e-06   5.712079072025134e-07   1.6254940682696997e-05
3.617935572946286e-06   5.712079072025134e-07   1.6254940682696997e-05
3.617935572946286e-06   5.712079072025134e-07   1.6254940682696997e-05
3.617935572946286e-06   5.712079072025134e-07   1.6254940682696997e-05
-2.58988545314348e-06   5.383891150045547e-07   2.6621000334832315e-05
-2.58988545314348e-06   5.383891150045547e-07   2.6621000334832315e-05
-2.58988545314348e-06   5.383891150045547e-07   2.6621000334832315e-05
-2.58988545314348e-06   5.383891150045547e-07   2.6621000334832315e-05
3.6179355729462997e-06   -4.546231900386284e-07   3.793132670064305e-05
3.6179355729462997e-06   -4.546231900386284e-07   3.793132670064305e-05
3.6179355729462997e-06   -4.546231900386284e-07   3.793132670064305e-05
3.6179355729462997e-06   -4.546231900386284e-07   3.793132670064305e-05
-9.387896037821466e-06   5.712079072025134e-07   1.687043934104162e-05
-9.387896037821466e-06   5.712079072025134e-07   1.687043934104162e-05
-9.387896037821466e-06   5.712079072025134e-07   1.687043934104162e-05
-9.387896037821466e-06   5.712079072025134e-07   1.687043934104162e-05
-1.0006510151856264e-05   -1.1776811830789026e-06   3.905830154337037e-05
-1.0006510151856264e-05   -1.1776811830789026e-06   3.905830154337037e-05
-1.0006510151856264e-05   -1.1776811830789026e-06   3.905830154337037e-05
-1.0006510151856264e-05   -1.1776811830789026e-06   3.905830154337037e-05
2.9166940086400975e-06   -2.0503443224034572e-07   1.693603989204018e-05
2.9166940086400975e-06   -2.0503443224034572e-07   1.693603989204018e-05
2.9166940086400975e-06   -2.0503443224034572e-07   1.693603989204018e-05
2.9166940086400975e-06   -2.0503443224034572e-07   1.693603989204018e-05
-3.1418626857475815e-06   -2.263038347168067e-08   2.692419195342603e-05
-3.1418626857475815e-06   -2.263038347168067e-08   2.692419195342603e-05
-3.1418626857475815e-06   -2.263038347168067e-08   2.692419195342603e-05
-3.1418626857475815e-06   -2.263038347168067e-08   2.692419195342603e-05
-8.149357883950684e-06   4.39461340761161e-06   4.289124003903485e-05
-8.149357883950684e-06   4.39461340761161e-06   4.289124003903485e-05
-8.149357883950684e-06   4.39461340761161e-06   4.289124003903485e-05
-8.149357883950684e-06   4.39461340761161e-06   4.289124003903485e-05
-2.119959977063161e-05   4.140265782250291e-06   2.0988228319349642e-05
-2.119959977063161e-05   4.140265782250291e-06   2.0988228319349642e-05
-2.119959977063161e-05   4.140265782250291e-06   2.0988228319349642e-05
-2.119959977063161e-05   4.140265782250291e-06   2.0988228319349642e-05
-2.178503184863161e-05   3.580790006701539e-06   4.2512311351581645e-05
-2.178503184863161e-05   3.580790006701539e-06   4.2512311351581645e-05
-2.178503184863161e-05   3.580790006701539e-06   4.2512311351581645e-05
-2.178503184863161e-05   3.580790006701539e-06   4.2512311351581645e-05
-8.75977429775436e-06   3.3150024575426783e-06   2.0963021296281994e-05
-8.75977429775436e-06   3.3150024575426783e-06   2.0963021296281994e-05
-8.75977429775436e-06   3.3150024575426783e-06   2.0963021296281994e-05
-8.75977429775436e-06   3.3150024575426783e-06   2.0963021296281994e-05
-1.5001133502841134e-05   3.766201791364533e-06   3.1094567037801436e-05
-1.5001133502841134e-05   3.766201791364533e-06   3.1094567037801436e-05
-1.5001133502841134e-05   3.766201791364533e-06   3.1094567037801436e-05
-1.5001133502841134e-05   3.766201791364533e-06   3.1094567037801436e-05
-8.759774297754388e-06   3.580790006701539e-06   4.2671783881077004e-05
-8.759774297754388e-06   3.580790006701539e-06   4.2671783881077004e-05
-8.759774297754388e-06   3.580790006701539e-06   4.2671783881077004e-05
-8.759774297754388e-06   3.580790006701539e-06   4.2671783881077004e-05
-2.1785031848631556e-05   3.3150024575426783e-06   2.080354876678669e-05
-2.1785031848631556e-05   3.3150024575426783e-06   2.080354876678669e-05
-2.1785031848631556e-05   3.3150024575426783e-06   2.080354876678669e-05
-2.1785031848631556e-05   3.3150024575426783e-06   2.080354876678669e-05
-2.2389757821015567e-05   2.776277368700397e-06   4.279722595468857e-05
-2.2389757821015567e-05   2.776277368700397e-06   4.279722595468857e-05
-2.2389757821015567e-05   2.776277368700397e-06   4.279722595468857e-05
-2.2389757821015567e-05   2.776277368700397e-06   4.279722595468857e-05
-9.387896037821438e-06   2.493941892506811e-06   2.1296857601747993e-05
-9.387896037821438e-06   2.493941892506811e-06   2.1296857601747993e-05
-9.387896037821438e-06   2.493941892506811e-06   2.1296857601747993e-05
-9.387896037821438e-06   2.493941892506811e-06   2.1296857601747993e-05
-1.5522585070111938e-05   3.138121556619123e-06   3.113483152376482e-05
-1.5522585070111938e-05   3.138121556619123e-06   3.113483152376482e-05
-1.5522585070111938e-05   3.138121556619123e-06   3.113483152376482e-05
-1.5522585070111938e-05   3.138121556619123e-06   3.113483152376482e-05
-9.387896037821466e-06   2.776277368700397e-06   4.296662724040455e-05
-9.387896037821466e-06   2.776277368700397e-06   4.296662724040455e-05
-9.387896037821466e-06   2.776277368700397e-06   4.296662724040455e-05
-9.387896037821466e-06   2.776277368700397e-06   4.296662724040455e-05
-2.2389757821015567e-05   2.493941892506811e-06   2.112745631603196e-05
-2.2389757821015567e-05   2.493941892506811e-06   2.112745631603196e-05
-2.2389757821015567e-05   2.493941892506811e-06   2.112745631603196e-05
-2.2389757821015567e-05   2.493941892506811e-06   2.112745631603196e-05
-2.2985106638486504e-05   2.0016353841148526e-06   4.349149806569166e-05
-2.2985106638486504e-05   2.0016353841148526e-06   4.349149806569166e-05
-2.2985106638486504e-05   2.0016353841148526e-06   4.349149806569166e-05
-2.2985106638486504e-05   2.0016353841148526e-06   4.349149806569166e-05
-1.0006510151856264e-05   1.7075479322686653e-06   2.2036956392415855e-05
-1.0006510151856264e-05   1.7075479322686653e-06   2.2036956392415855e-05
-1.0006510151856264e-05   1.7075479322686653e-06   2.2036956392415855e-05
-1.0006510151856264e-05   1.7075479322686653e-06   2.2036956392415855e-05
-1.6077122600843027e-05   2.5225189049502862e-06   3.166566122378531e-05
-1.6077122600843027e-05   2.5225189049502862e-06   3.166566122378531e-05
-1.6077122600843027e-05   2.5225189049502862e-06   3.166566122378531e-05
-1.6077122600843027e-05   2.5225189049502862e-06   3.166566122378531e-05
-2.119959977063161e-05   7.528164520970333e-06   3.777620517276788e-05
-2.119959977063161e-05   7.528164520970333e-06   3.777620517276788e-05
-2.119959977063161e-05   7.528164520970333e-06   3.777620517276788e-05
-2.119959977063161e-05   7.528164520970333e-06   3.777620517276788e-05
-3.400814609003447e-05   6.144607668129385e-06   1.559849386205891e-05
-3.400814609003447e-05   6.144607668129385e-06   1.559849386205891e-05
-3.400814609003447e-05   6.144607668129385e-06   1.559849386205891e-05
-3.400814609003447e-05   6.144607668129385e-06   1.559849386205891e-05
-3.464596647722874e-05   6.732586422984136e-06   3.7078251435798465e-05
-3.464596647722874e-05   6.732586422984136e-06   3.7078251435798465e-05
-3.464596647722874e-05   6.732586422984136e-06   3.7078251435798465e-05
-3.464596647722874e-05   6.732586422984136e-06   3.7078251435798465e-05
-2.1785031848631556e-05   5.311973930063798e-06   1.6495727883889173e-05
-2.1785031848631556e-05   5.311973930063798e-06   1.6495727883889173e-05
-2.1785031848631556e-05   5.311973930063798e-06   1.6495727883889173e-05
-2.1785031848631556e-05   5.311973930063798e-06   1.6495727883889173e-05
-2.7842501599174504e-05   6.325743122405358e-06   2.598324928605733e-05
-2.7842501599174504e-05   6.325743122405358e-06   2.598324928605733e-05
-2.7842501599174504e-05   6.325743122405358e-06   2.598324928605733e-05
-2.7842501599174504e-05   6.325743122405358e-06   2.598324928605733e-05
-2.178503184863161e-05   6.73258642298457e-06   3.79306189315508e-05
-2.178503184863161e-05   6.73258642298457e-06   3.79306189315508e-05
-2.178503184863161e-05   6.73258642298457e-06   3.79306189315508e-05
-2.178503184863161e-05   6.73258642298457e-06   3.79306189315508e-05
-3.464596647722868e-05   5.311973930064015e-06   1.564336038813684e-05
-3.464596647722868e-05   5.311973930064015e-06   1.564336038813684e-05
-3.464596647722868e-05   5.311973930064015e-06   1.564336038813684e-05
-3.464596647722868e-05   5.311973930064015e-06   1.564336038813684e-05
-3.540167271781804e-05   5.997045587012237e-06   3.829875617037868e-05
-3.540167271781804e-05   5.997045587012237e-06   3.829875617037868e-05
-3.540167271781804e-05   5.997045587012237e-06   3.829875617037868e-05
-3.540167271781804e-05   5.997045587012237e-06   3.829875617037868e-05
-2.2389757821015513e-05   4.555521302682499e-06   1.7477145912972686e-05
-2.2389757821015513e-05   4.555521302682499e-06   1.7477145912972686e-05
-2.2389757821015513e-05   4.555521302682499e-06   1.7477145912972686e-05
-2.2389757821015513e-05   4.555521302682499e-06   1.7477145912972686e-05
-2.8256730132056155e-05   5.736535506330794e-06   2.654682457585108e-05
-2.8256730132056155e-05   5.736535506330794e-06   2.654682457585108e-05
-2.8256730132056155e-05   5.736535506330794e-06   2.654682457585108e-05
-2.8256730132056155e-05   5.736535506330794e-06   2.654682457585108e-05
-2.2389757821015567e-05   5.997045587012237e-06   3.916367074097648e-05
-2.2389757821015567e-05   5.997045587012237e-06   3.916367074097648e-05
-2.2389757821015567e-05   5.997045587012237e-06   3.916367074097648e-05
-2.2389757821015567e-05   5.997045587012237e-06   3.916367074097648e-05
-3.5401672717817875e-05   4.555521302682499e-06   1.6612231342374778e-05
-3.5401672717817875e-05   4.555521302682499e-06   1.6612231342374778e-05
-3.5401672717817875e-05   4.555521302682499e-06   1.6612231342374778e-05
-3.5401672717817875e-05   4.555521302682499e-06   1.6612231342374778e-05
-3.6050600529656366e-05   5.1754032357087705e-06   3.947971092458833e-05
-3.6050600529656366e-05   5.1754032357087705e-06   3.947971092458833e-05
-3.6050600529656366e-05   5.1754032357087705e-06   3.947971092458833e-05
-3.6050600529656366e-05   5.1754032357087705e-06   3.947971092458833e-05
-2.298510663848645e-05   3.747712128360746e-06   1.8560502437047952e-05
-2.298510663848645e-05   3.747712128360746e-06   1.8560502437047952e-05
-2.298510663848645e-05   3.747712128360746e-06   1.8560502437047952e-05
-2.298510663848645e-05   3.747712128360746e-06   1.8560502437047952e-05
-2.8967285616919407e-05   5.147109124325946e-06   2.7691162536858257e-05
-2.8967285616919407e-05   5.147109124325946e-06   2.7691162536858257e-05
-2.8967285616919407e-05   5.147109124325946e-06   2.7691162536858257e-05
-2.8967285616919407e-05   5.147109124325946e-06   2.7691162536858257e-05
-3.400814609003458e-05   9.86577921579081e-06   1.763547377348941e-05
-3.400814609003458e-05   9.86577921579081e-06   1.763547377348941e-05
-3.400814609003458e-05   9.86577921579081e-06   1.763547377348941e-05
-3.400814609003458e-05   9.86577921579081e-06   1.763547377348941e-05
-4.554175935186705e-05   7.550680853634804e-06   -2.9762740135247812e-06
-4.554175935186705e-05   7.550680853634804e-06   -2.9762740135247812e-06
-4.554175935186705e-05   7.550680853634804e-06   -2.9762740135247812e-06
-4.554175935186705e-05   7.550680853634804e-06   -2.9762740135247812e-06
-4.717609366492771e-05   9.60897255093858e-06   2.1734590060579206e-05
-4.717609366492771e-05   9.60897255093858e-06   2.1734590060579206e-05
-4.717609366492771e-05   9.60897255093858e-06   2.1734590060579206e-05
-4.717609366492771e-05   9.60897255093858e-06   2.1734590060579206e-05
-3.464596647722863e-05   7.122925001747972e-06   2.342673277262405e-06
-3.464596647722863e-05   7.122925001747972e-06   2.342673277262405e-06
-3.464596647722863e-05   7.122925001747972e-06   2.342673277262405e-06
-3.464596647722863e-05   7.122925001747972e-06   2.342673277262405e-06
-3.887426902016454e-05   8.381498185617339e-06   8.634700271835079e-06
-3.887426902016454e-05   8.381498185617339e-06   8.634700271835079e-06
-3.887426902016454e-05   8.381498185617339e-06   8.634700271835079e-06
-3.887426902016454e-05   8.381498185617339e-06   8.634700271835079e-06
-3.464596647722863e-05   9.60897255093858e-06   2.322621859009383e-05
-3.464596647722863e-05   9.60897255093858e-06   2.322621859009383e-05
-3.464596647722863e-05   9.60897255093858e-06   2.322621859009383e-05
-3.464596647722863e-05   9.60897255093858e-06   2.322621859009383e-05
-4.717609366492793e-05   7.122925001747755e-06   8.510447477476715e-07
-4.717609366492793e-05   7.122925001747755e-06   8.510447477476715e-07
-4.717609366492793e-05   7.122925001747755e-06   8.510447477476715e-07
-4.717609366492793e-05   7.122925001747755e-06   8.510447477476715e-07
-4.858401063064638e-05   9.297288415200267e-06   2.5717197432329354e-05
-4.858401063064638e-05   9.297288415200267e-06   2.5717197432329354e-05
-4.858401063064638e-05   9.297288415200267e-06   2.5717197432329354e-05
-4.858401063064638e-05   9.297288415200267e-06   2.5717197432329354e-05
-3.5401672717817875e-05   6.7666680278774365e-06   5.265006476675815e-06
-3.5401672717817875e-05   6.7666680278774365e-06   5.265006476675815e-06
-3.5401672717817875e-05   6.7666680278774365e-06   5.265006476675815e-06
-3.5401672717817875e-05   6.7666680278774365e-06   5.265006476675815e-06
-4.0441712500754036e-05   8.269846037200785e-06   1.2763165975975964e-05
-4.0441712500754036e-05   8.269846037200785e-06   1.2763165975975964e-05
-4.0441712500754036e-05   8.269846037200785e-06   1.2763165975975964e-05
-4.0441712500754036e-05   8.269846037200785e-06   1.2763165975975964e-05
-3.540167271781793e-05   9.297288415200267e-06   2.7235569664722965e-05
-3.540167271781793e-05   9.297288415200267e-06   2.7235569664722965e-05
-3.540167271781793e-05   9.297288415200267e-06   2.7235569664722965e-05
-3.540167271781793e-05   9.297288415200267e-06   2.7235569664722965e-05
-4.858401063064671e-05   6.766668027877653e-06   3.746634244281878e-06
-4.858401063064671e-05   6.766668027877653e-06   3.746634244281878e-06
-4.858401063064671e-05   6.766668027877653e-06   3.746634244281878e-06
-4.858401063064671e-05   6.766668027877653e-06   3.746634244281878e-06
-5.02699258720492e-05   8.253082323056524e-06   3.276703061214081e-05
-5.02699258720492e-05   8.253082323056524e-06   3.276703061214081e-05
-5.02699258720492e-05   8.253082323056524e-06   3.276703061214081e-05
-5.02699258720492e-05   8.253082323056524e-06   3.276703061214081e-05
-3.605060052965626e-05   5.799545780677939e-06   1.0540276966913235e-05
-3.605060052965626e-05   5.799545780677939e-06   1.0540276966913235e-05
-3.605060052965626e-05   5.799545780677939e-06   1.0540276966913235e-05
-3.605060052965626e-05   5.799545780677939e-06   1.0540276966913235e-05
-4.083611730092669e-05   7.83006395306974e-06   1.729782734892981e-05
-4.083611730092669e-05   7.83006395306974e-06   1.729782734892981e-05
-4.083611730092669e-05   7.83006395306974e-06   1.729782734892981e-05
-4.083611730092669e-05   7.83006395306974e-06   1.729782734892981e-05
3.8363506832481825e-06   6.685239476084993e-08   2.090899307268337e-05
3.8363506832481825e-06   6.685239476084993e-08   2.090899307268337e-05
3.8363506832481825e-06   6.685239476084993e-08   2.090899307268337e-05
3.8363506832481825e-06   6.685239476084993e-08   2.090899307268337e-05
-4.464642151944368e-06   2.2965132809801576e-06   8.411801545760806e-06
-4.464642151944368e-06   2.2965132809801576e-06   8.411801545760806e-06
-4.464642151944368e-06   2.2965132809801576e-06   8.411801545760806e-06
-4.464642151944368e-06   2.2965132809801576e-06   8.411801545760806e-06
-4.955325619280111e-06   -7.236541889655852e-07   2.0637345973507112e-05
-4.955325619280111e-06   -7.236541889655852e-07   2.0637345973507112e-05
-4.955325619280111e-06   -7.236541889655852e-07   2.0637345973507112e-05
-4.955325619280111e-06   -7.236541889655852e-07   2.0637345973507112e-05
2.3416403252424786e-06   1.5591845686281115e-06   7.106032811413223e-06
2.3416403252424786e-06   1.5591845686281115e-06   7.106032811413223e-06
2.3416403252424786e-06   1.5591845686281115e-06   7.106032811413223e-06
2.3416403252424786e-06   1.5591845686281115e-06   7.106032811413223e-06
-1.0018109471707291e-06   6.739028512361273e-07   1.320962062920382e-05
-1.0018109471707291e-06   6.739028512361273e-07   1.320962062920382e-05
-1.0018109471707291e-06   6.739028512361273e-07   1.320962062920382e-05
-1.0018109471707291e-06   6.739028512361273e-07   1.320962062920382e-05
2.3416403252424786e-06   -7.236541889655852e-07   1.9267642718950873e-05
2.3416403252424786e-06   -7.236541889655852e-07   1.9267642718950873e-05
2.3416403252424786e-06   -7.236541889655852e-07   1.9267642718950873e-05
2.3416403252424786e-06   -7.236541889655852e-07   1.9267642718950873e-05
-4.955325619280111e-06   1.5591845686281115e-06   8.475736065969436e-06
-4.955325619280111e-06   1.5591845686281115e-06   8.475736065969436e-06
-4.955325619280111e-06   1.5591845686281115e-06   8.475736065969436e-06
-4.955325619280111e-06   1.5591845686281115e-06   8.475736065969436e-06
-5.561196980403888e-06   -1.0652628061444316e-06   2.0106478860862625e-05
-5.561196980403888e-06   -1.0652628061444316e-06   2.0106478860862625e-05
-5.561196980403888e-06   -1.0652628061444316e-06   2.0106478860862625e-05
-5.561196980403888e-06   -1.0652628061444316e-06   2.0106478860862625e-05
1.045344206946082e-06   1.1522003932967154e-06   7.76509896228134e-06
1.045344206946082e-06   1.1522003932967154e-06   7.76509896228134e-06
1.045344206946082e-06   1.1522003932967154e-06   7.76509896228134e-06
1.045344206946082e-06   1.1522003932967154e-06   7.76509896228134e-06
-1.80960298589133e-06   3.596401160121856e-07   1.2998880450047789e-05
-1.80960298589133e-06   3.596401160121856e-07   1.2998880450047789e-05
-1.80960298589133e-06   3.596401160121856e-07   1.2998880450047789e-05
-1.80960298589133e-06   3.596401160121856e-07   1.2998880450047789e-05
1.0453442069460956e-06   -1.0652628061444316e-06   1.8776000941197503e-05
1.0453442069460956e-06   -1.0652628061444316e-06   1.8776000941197503e-05
1.0453442069460956e-06   -1.0652628061444316e-06   1.8776000941197503e-05
1.0453442069460956e-06   -1.0652628061444316e-06   1.8776000941197503e-05
-5.5611969804038745e-06   1.1522003932967154e-06   9.095576881946055e-06
-5.5611969804038745e-06   1.1522003932967154e-06   9.095576881946055e-06
-5.5611969804038745e-06   1.1522003932967154e-06   9.095576881946055e-06
-5.5611969804038745e-06   1.1522003932967154e-06   9.095576881946055e-06
-6.0670871452481995e-06   -1.635751388679189e-06   1.993100675300272e-05
-6.0670871452481995e-06   -1.635751388679189e-06   1.993100675300272e-05
-6.0670871452481995e-06   -1.635751388679189e-06   1.993100675300272e-05
-6.0670871452481995e-06   -1.635751388679189e-06   1.993100675300272e-05
-5.803678344690856e-07   2.87927765794168e-07   9.632267075687228e-06
-5.803678344690856e-07   2.87927765794168e-07   9.632267075687228e-06
-5.803678344690856e-07   2.87927765794168e-07   9.632267075687228e-06
-5.803678344690856e-07   2.87927765794168e-07   9.632267075687228e-06
-2.675731044822968e-06   6.994101151448079e-08   1.3255331145511343e-05
-2.675731044822968e-06   6.994101151448079e-08   1.3255331145511343e-05
-2.675731044822968e-06   6.994101151448079e-08   1.3255331145511343e-05
-2.675731044822968e-06   6.994101151448079e-08   1.3255331145511343e-05
-4.464642151944368e-06   2.224197302711818e-06   3.360295423395984e-05
-4.464642151944368e-06   2.224197302711818e-06   3.360295423395984e-05
-4.464642151944368e-06   2.224197302711818e-06   3.360295423395984e-05
-4.464642151944368e-06   2.224197302711818e-06   3.360295423395984e-05
-1.1414879050994576e-05   2.661985200079443e-06   2.228189880729679e-05
-1.1414879050994576e-05   2.661985200079443e-06   2.228189880729679e-05
-1.1414879050994576e-05   2.661985200079443e-06   2.228189880729679e-05
-1.1414879050994576e-05   2.661985200079443e-06   2.228189880729679e-05
-1.17843426217688e-05   1.3298902060182756e-06   3.351359400161568e-05
-1.17843426217688e-05   1.3298902060182756e-06   3.351359400161568e-05
-1.17843426217688e-05   1.3298902060182756e-06   3.351359400161568e-05
-1.17843426217688e-05   1.3298902060182756e-06   3.351359400161568e-05
-4.955325619280111e-06   1.83797817595731e-06   2.1827046215504798e-05
-4.955325619280111e-06   1.83797817595731e-06   2.1827046215504798e-05
-4.955325619280111e-06   1.83797817595731e-06   2.1827046215504798e-05
-4.955325619280111e-06   1.83797817595731e-06   2.1827046215504798e-05
-8.202246681031224e-06   1.9185610445635135e-06   2.7190231597259507e-05
-8.202246681031224e-06   1.9185610445635135e-06   2.7190231597259507e-05
-8.202246681031224e-06   1.9185610445635135e-06   2.7190231597259507e-05
-8.202246681031224e-06   1.9185610445635135e-06   2.7190231597259507e-05
-4.955325619280118e-06   1.3298902060182756e-06   3.320874121965213e-05
-4.955325619280118e-06   1.3298902060182756e-06   3.320874121965213e-05
-4.955325619280118e-06   1.3298902060182756e-06   3.320874121965213e-05
-4.955325619280118e-06   1.3298902060182756e-06   3.320874121965213e-05
-1.17843426217688e-05   1.83797817595731e-06   2.2131898997468044e-05
-1.17843426217688e-05   1.83797817595731e-06   2.2131898997468044e-05
-1.17843426217688e-05   1.83797817595731e-06   2.2131898997468044e-05
-1.17843426217688e-05   1.83797817595731e-06   2.2131898997468044e-05
-1.2165339060524113e-05   5.712079072025134e-07   3.358380586222743e-05
-1.2165339060524113e-05   5.712079072025134e-07   3.358380586222743e-05
-1.2165339060524113e-05   5.712079072025134e-07   3.358380586222743e-05
-1.2165339060524113e-05   5.712079072025134e-07   3.358380586222743e-05
-5.5611969804038745e-06   1.0763243460624062e-06   2.2273832532044533e-05
-5.5611969804038745e-06   1.0763243460624062e-06   2.2273832532044533e-05
-5.5611969804038745e-06   1.0763243460624062e-06   2.2273832532044533e-05
-5.5611969804038745e-06   1.0763243460624062e-06   2.2273832532044533e-05
-8.579298430641558e-06   1.3157865108104697e-06   2.7160324316925614e-05
-8.579298430641558e-06   1.3157865108104697e-06   2.7160324316925614e-05
-8.579298430641558e-06   1.3157865108104697e-06   2.7160324316925614e-05
-8.579298430641558e-06   1.3157865108104697e-06   2.7160324316925614e-05
-5.561196980403888e-06   5.712079072025134e-07   3.3280735998911454e-05
-5.561196980403888e-06   5.712079072025134e-07   3.3280735998911454e-05
-5.561196980403888e-06   5.712079072025134e-07   3.3280735998911454e-05
-5.561196980403888e-06   5.712079072025134e-07   3.3280735998911454e-05
-1.2165339060524113e-05   1.0763243460624062e-06   2.257690239536043e-05
-1.2165339060524113e-05   1.0763243460624062e-06   2.257690239536043e-05
-1.2165339060524113e-05   1.0763243460624062e-06   2.257690239536043e-05
-1.2165339060524113e-05   1.0763243460624062e-06   2.257690239536043e-05
-1.2538853160055902e-05   -2.0503443224012888e-07   3.42403252349664e-05
-1.2538853160055902e-05   -2.0503443224012888e-07   3.42403252349664e-05
-1.2538853160055902e-05   -2.0503443224012888e-07   3.42403252349664e-05
-1.2538853160055902e-05   -2.0503443224012888e-07   3.42403252349664e-05
-6.067087145248193e-06   2.500794492005069e-07   2.318098021475575e-05
-6.067087145248193e-06   2.500794492005069e-07   2.318098021475575e-05
-6.067087145248193e-06   2.500794492005069e-07   2.318098021475575e-05
-6.067087145248193e-06   2.500794492005069e-07   2.318098021475575e-05
-8.956286741386816e-06   7.223601874071194e-07   2.771294443206277e-05
-8.956286741386816e-06   7.223601874071194e-07   2.771294443206277e-05
-8.956286741386816e-06   7.223601874071194e-07   2.771294443206277e-05
-8.956286741386816e-06   7.223601874071194e-07   2.771294443206277e-05
-1.1414879050994549e-05   4.140265782250291e-06   3.78282026018183e-05
-1.1414879050994549e-05   4.140265782250291e-06   3.78282026018183e-05
-1.1414879050994549e-05   4.140265782250291e-06   3.78282026018183e-05
-1.1414879050994549e-05   4.140265782250291e-06   3.78282026018183e-05
-1.8346988643618933e-05   3.1855126648523604e-06   2.570183474367234e-05
-1.8346988643618933e-05   3.1855126648523604e-06   2.570183474367234e-05
-1.8346988643618933e-05   3.1855126648523604e-06   2.570183474367234e-05
-1.8346988643618933e-05   3.1855126648523604e-06   2.570183474367234e-05
-1.8659294658823788e-05   3.315002457542895e-06   3.7127520754858586e-05
-1.8659294658823788e-05   3.315002457542895e-06   3.7127520754858586e-05
-1.8659294658823788e-05   3.315002457542895e-06   3.7127520754858586e-05
-1.8659294658823788e-05   3.315002457542895e-06   3.7127520754858586e-05
-1.17843426217688e-05   2.4210997442925333e-06   2.6205608987717145e-05
-1.17843426217688e-05   2.4210997442925333e-06   2.6205608987717145e-05
-1.17843426217688e-05   2.4210997442925333e-06   2.6205608987717145e-05
-1.17843426217688e-05   2.4210997442925333e-06   2.6205608987717145e-05
-1.5058533323557331e-05   3.2033061047860665e-06   3.1193269674402e-05
-1.5058533323557331e-05   3.2033061047860665e-06   3.1193269674402e-05
-1.5058533323557331e-05   3.2033061047860665e-06   3.1193269674402e-05
-1.5058533323557331e-05   3.2033061047860665e-06   3.1193269674402e-05
-1.17843426217688e-05   3.315002457542895e-06   3.766386238280867e-05
-1.17843426217688e-05   3.315002457542895e-06   3.766386238280867e-05
-1.17843426217688e-05   3.315002457542895e-06   3.766386238280867e-05
-1.17843426217688e-05   3.315002457542895e-06   3.766386238280867e-05
-1.8659294658823788e-05   2.4210997442925333e-06   2.5669267359766895e-05
-1.8659294658823788e-05   2.4210997442925333e-06   2.5669267359766895e-05
-1.8659294658823788e-05   2.4210997442925333e-06   2.5669267359766895e-05
-1.8659294658823788e-05   2.4210997442925333e-06   2.5669267359766895e-05
-1.899410189700612e-05   2.493941892507028e-06   3.7500322805447076e-05
-1.899410189700612e-05   2.493941892507028e-06   3.7500322805447076e-05
-1.899410189700612e-05   2.493941892507028e-06   3.7500322805447076e-05
-1.899410189700612e-05   2.493941892507028e-06   3.7500322805447076e-05
-1.2165339060524113e-05   1.6441063633619926e-06   2.6628952728797387e-05
-1.2165339060524113e-05   1.6441063633619926e-06   2.6628952728797387e-05
-1.2165339060524113e-05   1.6441063633619926e-06   2.6628952728797387e-05
-1.2165339060524113e-05   1.6441063633619926e-06   2.6628952728797387e-05
-1.5325343386272887e-05   2.5907478796831102e-06   3.132764169525259e-05
-1.5325343386272887e-05   2.5907478796831102e-06   3.132764169525259e-05
-1.5325343386272887e-05   2.5907478796831102e-06   3.132764169525259e-05
-1.5325343386272887e-05   2.5907478796831102e-06   3.132764169525259e-05
-1.2165339060524113e-05   2.493941892507028e-06   3.801022412293375e-05
-1.2165339060524113e-05   2.493941892507028e-06   3.801022412293375e-05
-1.2165339060524113e-05   2.493941892507028e-06   3.801022412293375e-05
-1.2165339060524113e-05   2.493941892507028e-06   3.801022412293375e-05
-1.8994101897006066e-05   1.6441063633622095e-06   2.6119051411310334e-05
-1.8994101897006066e-05   1.6441063633622095e-06   2.6119051411310334e-05
-1.8994101897006066e-05   1.6441063633622095e-06   2.6119051411310334e-05
-1.8994101897006066e-05   1.6441063633622095e-06   2.6119051411310334e-05
-1.9321986755513765e-05   1.7075479322686653e-06   3.827739337382177e-05
-1.9321986755513765e-05   1.7075479322686653e-06   3.827739337382177e-05
-1.9321986755513765e-05   1.7075479322686653e-06   3.827739337382177e-05
-1.9321986755513765e-05   1.7075479322686653e-06   3.827739337382177e-05
-1.2538853160055902e-05   9.071140805734079e-07   2.745243102574257e-05
-1.2538853160055902e-05   9.071140805734079e-07   2.745243102574257e-05
-1.2538853160055902e-05   9.071140805734079e-07   2.745243102574257e-05
-1.2538853160055902e-05   9.071140805734079e-07   2.745243102574257e-05
-1.5622651522426037e-05   1.987243217036307e-06   3.1944017481148315e-05
-1.5622651522426037e-05   1.987243217036307e-06   3.1944017481148315e-05
-1.5622651522426037e-05   1.987243217036307e-06   3.1944017481148315e-05
-1.5622651522426037e-05   1.987243217036307e-06   3.1944017481148315e-05
-1.8346988643618987e-05   6.144607668129602e-06   3.269575038579355e-05
-1.8346988643618987e-05   6.144607668129602e-06   3.269575038579355e-05
-1.8346988643618987e-05   6.144607668129602e-06   3.269575038579355e-05
-1.8346988643618987e-05   6.144607668129602e-06   3.269575038579355e-05
-2.516228836836246e-05   4.302137243370179e-06   2.0231435256365296e-05
-2.516228836836246e-05   4.302137243370179e-06   2.0231435256365296e-05
-2.516228836836246e-05   4.302137243370179e-06   2.0231435256365296e-05
-2.516228836836246e-05   4.302137243370179e-06   2.0231435256365296e-05
-2.5505310539745117e-05   5.311973930063798e-06   3.1731202762477935e-05
-2.5505310539745117e-05   5.311973930063798e-06   3.1731202762477935e-05
-2.5505310539745117e-05   5.311973930063798e-06   3.1731202762477935e-05
-2.5505310539745117e-05   5.311973930063798e-06   3.1731202762477935e-05
-1.8659294658823788e-05   3.497812080925167e-06   2.1409673403758982e-05
-1.8659294658823788e-05   3.497812080925167e-06   2.1409673403758982e-05
-1.8659294658823788e-05   3.497812080925167e-06   2.1409673403758982e-05
-1.8659294658823788e-05   3.497812080925167e-06   2.1409673403758982e-05
-2.1872062221523462e-05   4.774258418115823e-06   2.5998418205944326e-05
-2.1872062221523462e-05   4.774258418115823e-06   2.5998418205944326e-05
-2.1872062221523462e-05   4.774258418115823e-06   2.5998418205944326e-05
-2.1872062221523462e-05   4.774258418115823e-06   2.5998418205944326e-05
-1.8659294658823788e-05   5.311973930063798e-06   3.281969987196107e-05
-1.8659294658823788e-05   5.311973930063798e-06   3.281969987196107e-05
-1.8659294658823788e-05   5.311973930063798e-06   3.281969987196107e-05
-1.8659294658823788e-05   5.311973930063798e-06   3.281969987196107e-05
-2.550531053974501e-05   3.497812080925167e-06   2.0321176294275955e-05
-2.550531053974501e-05   3.497812080925167e-06   2.0321176294275955e-05
-2.550531053974501e-05   3.497812080925167e-06   2.0321176294275955e-05
-2.550531053974501e-05   3.497812080925167e-06   2.0321176294275955e-05
-2.5980134966481234e-05   4.555521302682282e-06   3.278630930272702e-05
-2.5980134966481234e-05   4.555521302682282e-06   3.278630930272702e-05
-2.5980134966481234e-05   4.555521302682282e-06   3.278630930272702e-05
-2.5980134966481234e-05   4.555521302682282e-06   3.278630930272702e-05
-1.899410189700612e-05   2.7826828032477546e-06   2.2206623953262522e-05
-1.899410189700612e-05   2.7826828032477546e-06   2.2206623953262522e-05
-1.899410189700612e-05   2.7826828032477546e-06   2.2206623953262522e-05
-1.899410189700612e-05   2.7826828032477546e-06   2.2206623953262522e-05
-2.2058582795586568e-05   4.180555427938781e-06   2.64753685427486e-05
-2.2058582795586568e-05   4.180555427938781e-06   2.64753685427486e-05
-2.2058582795586568e-05   4.180555427938781e-06   2.64753685427486e-05
-2.2058582795586568e-05   4.180555427938781e-06   2.64753685427486e-05
-1.899410189700612e-05   4.555521302682282e-06   3.385001240238726e-05
-1.899410189700612e-05   4.555521302682282e-06   3.385001240238726e-05
-1.899410189700612e-05   4.555521302682282e-06   3.385001240238726e-05
-1.899410189700612e-05   4.555521302682282e-06   3.385001240238726e-05
-2.5980134966481125e-05   2.7826828032477546e-06   2.114292085360174e-05
-2.5980134966481125e-05   2.7826828032477546e-06   2.114292085360174e-05
-2.5980134966481125e-05   2.7826828032477546e-06   2.114292085360174e-05
-2.5980134966481125e-05   2.7826828032477546e-06   2.114292085360174e-05
-2.6360970651257245e-05   3.747712128360529e-06   3.396154367994817e-05
-2.6360970651257245e-05   3.747712128360529e-06   3.396154367994817e-05
-2.6360970651257245e-05   3.747712128360529e-06   3.396154367994817e-05
-2.6360970651257245e-05   3.747712128360529e-06   3.396154367994817e-05
-1.9321986755513765e-05   2.054631779005228e-06   2.3245752063322505e-05
-1.9321986755513765e-05   2.054631779005228e-06   2.3245752063322505e-05
-1.9321986755513765e-05   2.054631779005228e-06   2.3245752063322505e-05
-1.9321986755513765e-05   2.054631779005228e-06   2.3245752063322505e-05
-2.2451432212898872e-05   3.6164926100646245e-06   2.752437799366243e-05
-2.2451432212898872e-05   3.6164926100646245e-06   2.752437799366243e-05
-2.2451432212898872e-05   3.6164926100646245e-06   2.752437799366243e-05
-2.2451432212898872e-05   3.6164926100646245e-06   2.752437799366243e-05
-2.516228836836246e-05   7.550680853634804e-06   1.4404559272647487e-05
-2.516228836836246e-05   7.550680853634804e-06   1.4404559272647487e-05
-2.516228836836246e-05   7.550680853634804e-06   1.4404559272647487e-05
-2.516228836836246e-05   7.550680853634804e-06   1.4404559272647487e-05
-3.0491927382187106e-05   5.075270102505901e-06   4.036581132262378e-06
-3.0491927382187106e-05   5.075270102505901e-06   4.036581132262378e-06
-3.0491927382187106e-05   5.075270102505901e-06   4.036581132262378e-06
-3.0491927382187106e-05   5.075270102505901e-06   4.036581132262378e-06
-3.179620417828794e-05   7.122925001747972e-06   1.6880721670371615e-05
-3.179620417828794e-05   7.122925001747972e-06   1.6880721670371615e-05
-3.179620417828794e-05   7.122925001747972e-06   1.6880721670371615e-05
-3.179620417828794e-05   7.122925001747972e-06   1.6880721670371615e-05
-2.5505310539745063e-05   4.53993503302802e-06   7.945692920698555e-06
-2.5505310539745063e-05   4.53993503302802e-06   7.945692920698555e-06
-2.5505310539745063e-05   4.53993503302802e-06   7.945692920698555e-06
-2.5505310539745063e-05   4.53993503302802e-06   7.945692920698555e-06
-2.7259652378941983e-05   6.012510774730138e-06   9.986050541005323e-06
-2.7259652378941983e-05   6.012510774730138e-06   9.986050541005323e-06
-2.7259652378941983e-05   6.012510774730138e-06   9.986050541005323e-06
-2.7259652378941983e-05   6.012510774730138e-06   9.986050541005323e-06
-2.5505310539745063e-05   7.122925001747755e-06   1.8430515651603066e-05
-2.5505310539745063e-05   7.122925001747755e-06   1.8430515651603066e-05
-2.5505310539745063e-05   7.122925001747755e-06   1.8430515651603066e-05
-2.5505310539745063e-05   7.122925001747755e-06   1.8430515651603066e-05
-3.179620417828805e-05   4.53993503302802e-06   6.395898939466504e-06
-3.179620417828805e-05   4.53993503302802e-06   6.395898939466504e-06
-3.179620417828805e-05   4.53993503302802e-06   6.395898939466504e-06
-3.179620417828805e-05   4.53993503302802e-06   6.395898939466504e-06
-3.2916574210253586e-05   6.7666680278774365e-06   1.9882712455690293e-05
-3.2916574210253586e-05   6.7666680278774365e-06   1.9882712455690293e-05
-3.2916574210253586e-05   6.7666680278774365e-06   1.9882712455690293e-05
-3.2916574210253586e-05   6.7666680278774365e-06   1.9882712455690293e-05
-2.5980134966481234e-05   4.17271472564866e-06   9.87835236407374e-06
-2.5980134966481234e-05   4.17271472564866e-06   9.87835236407374e-06
-2.5980134966481234e-05   4.17271472564866e-06   9.87835236407374e-06
-2.5980134966481234e-05   4.17271472564866e-06   9.87835236407374e-06
-2.8363771684380485e-05   5.801708599833481e-06   1.2873683902729096e-05
-2.8363771684380485e-05   5.801708599833481e-06   1.2873683902729096e-05
-2.8363771684380485e-05   5.801708599833481e-06   1.2873683902729096e-05
-2.8363771684380485e-05   5.801708599833481e-06   1.2873683902729096e-05
-2.5980134966481234e-05   6.766668027877653e-06   2.14390844370273e-05
-2.5980134966481234e-05   6.766668027877653e-06   2.14390844370273e-05
-2.5980134966481234e-05   6.766668027877653e-06   2.14390844370273e-05
-2.5980134966481234e-05   6.766668027877653e-06   2.14390844370273e-05
-3.2916574210253586e-05   4.172714725648877e-06   8.32198038273658e-06
-3.2916574210253586e-05   4.172714725648877e-06   8.32198038273658e-06
-3.2916574210253586e-05   4.172714725648877e-06   8.32198038273658e-06
-3.2916574210253586e-05   4.172714725648877e-06   8.32198038273658e-06
-3.4344490941751724e-05   5.7995457806781555e-06   2.5317168349217123e-05
-3.4344490941751724e-05   5.7995457806781555e-06   2.5317168349217123e-05
-3.4344490941751724e-05   5.7995457806781555e-06   2.5317168349217123e-05
-3.4344490941751724e-05   5.7995457806781555e-06   2.5317168349217123e-05
-2.6360970651257245e-05   3.331604905669038e-06   1.3492065723398443e-05
-2.6360970651257245e-05   3.331604905669038e-06   1.3492065723398443e-05
-2.6360970651257245e-05   3.331604905669038e-06   1.3492065723398443e-05
-2.6360970651257245e-05   3.331604905669038e-06   1.3492065723398443e-05
-2.868112467489182e-05   5.400431611033828e-06   1.611769307290371e-05
-2.868112467489182e-05   5.400431611033828e-06   1.611769307290371e-05
-2.868112467489182e-05   5.400431611033828e-06   1.611769307290371e-05
-2.868112467489182e-05   5.400431611033828e-06   1.611769307290371e-05
-1.2681481884952036e-05   2.2965132809801576e-06   1.4881041418572899e-05
-1.2681481884952036e-05   2.2965132809801576e-06   1.4881041418572899e-05
-1.2681481884952036e-05   2.2965132809801576e-06   1.4881041418572899e-05
-1.2681481884952036e-05   2.2965132809801576e-06   1.4881041418572899e-05
-1.3781593263345916e-05   4.321814382741529e-06   1.4262703115640058e-05
-1.3781593263345916e-05   4.321814382741529e-06   1.4262703115640058e-05
-1.3781593263345916e-05   4.321814382741529e-06   1.4262703115640058e-05
-1.3781593263345916e-05   4.321814382741529e-06   1.4262703115640058e-05
-1.4131668501432505e-05   1.5591845686281115e-06   1.600926790102221e-05
-1.4131668501432505e-05   1.5591845686281115e-06   1.600926790102221e-05
-1.4131668501432505e-05   1.5591845686281115e-06   1.600926790102221e-05
-1.4131668501432505e-05   1.5591845686281115e-06   1.600926790102221e-05
-1.4163323693460863e-05   3.3796407620969963e-06   1.4969752838321344e-05
-1.4163323693460863e-05   3.3796407620969963e-06   1.4969752838321344e-05
-1.4163323693460863e-05   3.3796407620969963e-06   1.4969752838321344e-05
-1.4163323693460863e-05   3.3796407620969963e-06   1.4969752838321344e-05
-1.3346885227012055e-05   2.702232198566624e-06   1.4015467199024944e-05
-1.3346885227012055e-05   2.702232198566624e-06   1.4015467199024944e-05
-1.3346885227012055e-05   2.702232198566624e-06   1.4015467199024944e-05
-1.3346885227012055e-05   2.702232198566624e-06   1.4015467199024944e-05
-1.4163323693460876e-05   1.5591845686278947e-06   1.4916994184940662e-05
-1.4163323693460876e-05   1.5591845686278947e-06   1.4916994184940662e-05
-1.4163323693460876e-05   1.5591845686278947e-06   1.4916994184940662e-05
-1.4163323693460876e-05   1.5591845686278947e-06   1.4916994184940662e-05
-1.4131668501432505e-05   3.3796407620969963e-06   1.606202655440273e-05
-1.4131668501432505e-05   3.3796407620969963e-06   1.606202655440273e-05
-1.4131668501432505e-05   3.3796407620969963e-06   1.606202655440273e-05
-1.4131668501432505e-05   3.3796407620969963e-06   1.606202655440273e-05
-1.458619903522994e-05   1.1522003932967154e-06   1.6529365638785136e-05
-1.458619903522994e-05   1.1522003932967154e-06   1.6529365638785136e-05
-1.458619903522994e-05   1.1522003932967154e-06   1.6529365638785136e-05
-1.458619903522994e-05   1.1522003932967154e-06   1.6529365638785136e-05
-1.560354499070013e-05   2.7270772210882506e-06   1.7280016134560292e-05
-1.560354499070013e-05   2.7270772210882506e-06   1.7280016134560292e-05
-1.560354499070013e-05   2.7270772210882506e-06   1.7280016134560292e-05
-1.560354499070013e-05   2.7270772210882506e-06   1.7280016134560292e-05
-1.422937364406974e-05   2.2954805806213365e-06   1.5248688541122596e-05
-1.422937364406974e-05   2.2954805806213365e-06   1.5248688541122596e-05
-1.422937364406974e-05   2.2954805806213365e-06   1.5248688541122596e-05
-1.422937364406974e-05   2.2954805806213365e-06   1.5248688541122596e-05
-1.5603544990700158e-05   1.1522003932967154e-06   1.558443954210976e-05
-1.5603544990700158e-05   1.1522003932967154e-06   1.558443954210976e-05
-1.5603544990700158e-05   1.1522003932967154e-06   1.558443954210976e-05
-1.5603544990700158e-05   1.1522003932967154e-06   1.558443954210976e-05
-1.458619903522994e-05   2.7270772210882506e-06   1.8224942231235153e-05
-1.458619903522994e-05   2.7270772210882506e-06   1.8224942231235153e-05
-1.458619903522994e-05   2.7270772210882506e-06   1.8224942231235153e-05
-1.458619903522994e-05   2.7270772210882506e-06   1.8224942231235153e-05
-1.487390919652949e-05   2.8792776579395114e-07   1.819086247328524e-05
-1.487390919652949e-05   2.8792776579395114e-07   1.819086247328524e-05
-1.487390919652949e-05   2.8792776579395114e-07   1.819086247328524e-05
-1.487390919652949e-05   2.8792776579395114e-07   1.819086247328524e-05
-1.7136347669758752e-05   1.1213511860932047e-06   2.1461539209820962e-05
-1.7136347669758752e-05   1.1213511860932047e-06   2.1461539209820962e-05
-1.7136347669758752e-05   1.1213511860932047e-06   2.1461539209820962e-05
-1.7136347669758752e-05   1.1213511860932047e-06   2.1461539209820962e-05
-1.4843675731001288e-05   1.7947182927085734e-06   1.7236399047922265e-05
-1.4843675731001288e-05   1.7947182927085734e-06   1.7236399047922265e-05
-1.4843675731001288e-05   1.7947182927085734e-06   1.7236399047922265e-05
-1.4843675731001288e-05   1.7947182927085734e-06   1.7236399047922265e-05
-1.3781593263345889e-05   2.661985200079443e-06   2.970364660274526e-05
-1.3781593263345889e-05   2.661985200079443e-06   2.970364660274526e-05
-1.3781593263345889e-05   2.661985200079443e-06   2.970364660274526e-05
-1.3781593263345889e-05   2.661985200079443e-06   2.970364660274526e-05
-1.391646635441157e-05   1.1178549587778424e-06   2.855237997285477e-05
-1.391646635441157e-05   1.1178549587778424e-06   2.855237997285477e-05
-1.391646635441157e-05   1.1178549587778424e-06   2.855237997285477e-05
-1.391646635441157e-05   1.1178549587778424e-06   2.855237997285477e-05
-1.4022335828880908e-05   1.83797817595731e-06   2.858066748873101e-05
-1.4022335828880908e-05   1.83797817595731e-06   2.858066748873101e-05
-1.4022335828880908e-05   1.83797817595731e-06   2.858066748873101e-05
-1.4022335828880908e-05   1.83797817595731e-06   2.858066748873101e-05
-1.4131668501432505e-05   5.381272395799976e-07   2.9542799171476686e-05
-1.4131668501432505e-05   5.381272395799976e-07   2.9542799171476686e-05
-1.4131668501432505e-05   5.381272395799976e-07   2.9542799171476686e-05
-1.4131668501432505e-05   5.381272395799976e-07   2.9542799171476686e-05
-1.3919108892007289e-05   1.361788942711795e-06   2.8694336133889067e-05
-1.3919108892007289e-05   1.361788942711795e-06   2.8694336133889067e-05
-1.3919108892007289e-05   1.361788942711795e-06   2.8694336133889067e-05
-1.3919108892007289e-05   1.361788942711795e-06   2.8694336133889067e-05
-1.4131668501432491e-05   1.83797817595731e-06   2.9360578050556833e-05
-1.4131668501432491e-05   1.83797817595731e-06   2.9360578050556833e-05
-1.4131668501432491e-05   1.83797817595731e-06   2.9360578050556833e-05
-1.4131668501432491e-05   1.83797817595731e-06   2.9360578050556833e-05
-1.4022335828880854e-05   5.381272395799976e-07   2.876288860965032e-05
-1.4022335828880854e-05   5.381272395799976e-07   2.876288860965032e-05
-1.4022335828880854e-05   5.381272395799976e-07   2.876288860965032e-05
-1.4022335828880854e-05   5.381272395799976e-07   2.876288860965032e-05
-1.4153969695424121e-05   1.0763243460624062e-06   2.8980192692063217e-05
-1.4153969695424121e-05   1.0763243460624062e-06   2.8980192692063217e-05
-1.4153969695424121e-05   1.0763243460624062e-06   2.8980192692063217e-05
-1.4153969695424121e-05   1.0763243460624062e-06   2.8980192692063217e-05
-1.458619903522994e-05   -1.3605664863844402e-07   3.042800352189305e-05
-1.458619903522994e-05   -1.3605664863844402e-07   3.042800352189305e-05
-1.458619903522994e-05   -1.3605664863844402e-07   3.042800352189305e-05
-1.458619903522994e-05   -1.3605664863844402e-07   3.042800352189305e-05
-1.404934772798352e-05   8.805207665839136e-07   2.892330489401529e-05
-1.404934772798352e-05   8.805207665839136e-07   2.892330489401529e-05
-1.404934772798352e-05   8.805207665839136e-07   2.892330489401529e-05
-1.404934772798352e-05   8.805207665839136e-07   2.892330489401529e-05
-1.458619903522994e-05   1.0763243460621894e-06   2.9707621288883098e-05
-1.458619903522994e-05   1.0763243460621894e-06   2.9707621288883098e-05
-1.458619903522994e-05   1.0763243460621894e-06   2.9707621288883098e-05
-1.458619903522994e-05   1.0763243460621894e-06   2.9707621288883098e-05
-1.4153969695424094e-05   -1.3605664863844402e-07   2.9700574925072573e-05
-1.4153969695424094e-05   -1.3605664863844402e-07   2.9700574925072573e-05
-1.4153969695424094e-05   -1.3605664863844402e-07   2.9700574925072573e-05
-1.4153969695424094e-05   -1.3605664863844402e-07   2.9700574925072573e-05
-1.424839901361573e-05   2.500794492005069e-07   2.982140664216349e-05
-1.424839901361573e-05   2.500794492005069e-07   2.982140664216349e-05
-1.424839901361573e-05   2.500794492005069e-07   2.982140664216349e-05
-1.424839901361573e-05   2.500794492005069e-07   2.982140664216349e-05
-1.4873909196529477e-05   -1.023189679976973e-06   3.162788509119253e-05
-1.4873909196529477e-05   -1.023189679976973e-06   3.162788509119253e-05
-1.4873909196529477e-05   -1.023189679976973e-06   3.162788509119253e-05
-1.4873909196529477e-05   -1.023189679976973e-06   3.162788509119253e-05
-1.4257372662923482e-05   3.13783132309918e-07   2.979814051447648e-05
-1.4257372662923482e-05   3.13783132309918e-07   2.979814051447648e-05
-1.4257372662923482e-05   3.13783132309918e-07   2.979814051447648e-05
-1.4257372662923482e-05   3.13783132309918e-07   2.979814051447648e-05
-1.3916466354411624e-05   3.1855126648525772e-06   3.276995626477872e-05
-1.3916466354411624e-05   3.1855126648525772e-06   3.276995626477872e-05
-1.3916466354411624e-05   3.1855126648525772e-06   3.276995626477872e-05
-1.3916466354411624e-05   3.1855126648525772e-06   3.276995626477872e-05
-1.4944063805174168e-05   3.098695186056497e-07   2.933190795909301e-05
-1.4944063805174168e-05   3.098695186056497e-07   2.933190795909301e-05
-1.4944063805174168e-05   3.098695186056497e-07   2.933190795909301e-05
-1.4944063805174168e-05   3.098695186056497e-07   2.933190795909301e-05
-1.4977233485949707e-05   2.4210997442925333e-06   3.109309587200288e-05
-1.4977233485949707e-05   2.4210997442925333e-06   3.109309587200288e-05
-1.4977233485949707e-05   2.4210997442925333e-06   3.109309587200288e-05
-1.4977233485949707e-05   2.4210997442925333e-06   3.109309587200288e-05
-1.4022335828880854e-05   -1.8103626733617043e-07   3.106288138386541e-05
-1.4022335828880854e-05   -1.8103626733617043e-07   3.106288138386541e-05
-1.4022335828880854e-05   -1.8103626733617043e-07   3.106288138386541e-05
-1.4022335828880854e-05   -1.8103626733617043e-07   3.106288138386541e-05
-1.443971761104413e-05   1.3861105741020969e-06   3.081822958260765e-05
-1.443971761104413e-05   1.3861105741020969e-06   3.081822958260765e-05
-1.443971761104413e-05   1.3861105741020969e-06   3.081822958260765e-05
-1.443971761104413e-05   1.3861105741020969e-06   3.081822958260765e-05
-1.4022335828880854e-05   2.4210997442925333e-06   3.265437747897984e-05
-1.4022335828880854e-05   2.4210997442925333e-06   3.265437747897984e-05
-1.4022335828880854e-05   2.4210997442925333e-06   3.265437747897984e-05
-1.4022335828880854e-05   2.4210997442925333e-06   3.265437747897984e-05
-1.4977233485949707e-05   -1.8103626733617043e-07   2.9501599776888095e-05
-1.4977233485949707e-05   -1.8103626733617043e-07   2.9501599776888095e-05
-1.4977233485949707e-05   -1.8103626733617043e-07   2.9501599776888095e-05
-1.4977233485949707e-05   -1.8103626733617043e-07   2.9501599776888095e-05
-1.5040299140325322e-05   1.6441063633619926e-06   3.1584396162795576e-05
-1.5040299140325322e-05   1.6441063633619926e-06   3.1584396162795576e-05
-1.5040299140325322e-05   1.6441063633619926e-06   3.1584396162795576e-05
-1.5040299140325322e-05   1.6441063633619926e-06   3.1584396162795576e-05
-1.4153969695424094e-05   -7.689717411453988e-07   3.155502728399766e-05
-1.4153969695424094e-05   -7.689717411453988e-07   3.155502728399766e-05
-1.4153969695424094e-05   -7.689717411453988e-07   3.155502728399766e-05
-1.4153969695424094e-05   -7.689717411453988e-07   3.155502728399766e-05
-1.4444344011202025e-05   8.993589753363875e-07   3.103798604707118e-05
-1.4444344011202025e-05   8.993589753363875e-07   3.103798604707118e-05
-1.4444344011202025e-05   8.993589753363875e-07   3.103798604707118e-05
-1.4444344011202025e-05   8.993589753363875e-07   3.103798604707118e-05
-1.4153969695424121e-05   1.6441063633619926e-06   3.3032243025499794e-05
-1.4153969695424121e-05   1.6441063633619926e-06   3.3032243025499794e-05
-1.4153969695424121e-05   1.6441063633619926e-06   3.3032243025499794e-05
-1.4153969695424121e-05   1.6441063633619926e-06   3.3032243025499794e-05
-1.5040299140325322e-05   -7.689717411455072e-07   3.0107180421293223e-05
-1.5040299140325322e-05   -7.689717411455072e-07   3.0107180421293223e-05
-1.5040299140325322e-05   -7.689717411455072e-07   3.0107180421293223e-05
-1.5040299140325322e-05   -7.689717411455072e-07   3.0107180421293223e-05
-1.507927009336725e-05   9.071140805734079e-07   3.245945648460151e-05
-1.507927009336725e-05   9.071140805734079e-07   3.245945648460151e-05
-1.507927009336725e-05   9.071140805734079e-07   3.245945648460151e-05
-1.507927009336725e-05   9.071140805734079e-07   3.245945648460151e-05
-1.4248399013615704e-05   -1.3601069855671616e-06   3.2435003991366465e-05
-1.4248399013615704e-05   -1.3601069855671616e-06   3.2435003991366465e-05
-1.4248399013615704e-05   -1.3601069855671616e-06   3.2435003991366465e-05
-1.4248399013615704e-05   -1.3601069855671616e-06   3.2435003991366465e-05
-1.4472793888290644e-05   3.987714209264647e-07   3.175366840526097e-05
-1.4472793888290644e-05   3.987714209264647e-07   3.175366840526097e-05
-1.4472793888290644e-05   3.987714209264647e-07   3.175366840526097e-05
-1.4472793888290644e-05   3.987714209264647e-07   3.175366840526097e-05
-1.4944063805174168e-05   4.302137243370179e-06   2.667965314457905e-05
-1.4944063805174168e-05   4.302137243370179e-06   2.667965314457905e-05
-1.4944063805174168e-05   4.302137243370179e-06   2.667965314457905e-05
-1.4944063805174168e-05   4.302137243370179e-06   2.667965314457905e-05
-1.6447563118444344e-05   1.4106618344361882e-06   2.243893571043506e-05
-1.6447563118444344e-05   1.4106618344361882e-06   2.243893571043506e-05
-1.6447563118444344e-05   1.4106618344361882e-06   2.243893571043506e-05
-1.6447563118444344e-05   1.4106618344361882e-06   2.243893571043506e-05
-1.6470983977023542e-05   3.497812080925167e-06   2.5193405241469248e-05
-1.6470983977023542e-05   3.497812080925167e-06   2.5193405241469248e-05
-1.6470983977023542e-05   3.497812080925167e-06   2.5193405241469248e-05
-1.6470983977023542e-05   3.497812080925167e-06   2.5193405241469248e-05
-1.4977233485949707e-05   7.643176233821259e-07   2.4343917764205257e-05
-1.4977233485949707e-05   7.643176233821259e-07   2.4343917764205257e-05
-1.4977233485949707e-05   7.643176233821259e-07   2.4343917764205257e-05
-1.4977233485949707e-05   7.643176233821259e-07   2.4343917764205257e-05
-1.5668794599029166e-05   2.5538533760291037e-06   2.4422798167749306e-05
-1.5668794599029166e-05   2.5538533760291037e-06   2.4422798167749306e-05
-1.5668794599029166e-05   2.5538533760291037e-06   2.4422798167749306e-05
-1.5668794599029166e-05   2.5538533760291037e-06   2.4422798167749306e-05
-1.4977233485949707e-05   3.497812080925167e-06   2.6833501915994747e-05
-1.4977233485949707e-05   3.497812080925167e-06   2.6833501915994747e-05
-1.4977233485949707e-05   3.497812080925167e-06   2.6833501915994747e-05
-1.4977233485949707e-05   3.497812080925167e-06   2.6833501915994747e-05
-1.6470983977023542e-05   7.643176233820175e-07   2.2703821089679405e-05
-1.6470983977023542e-05   7.643176233820175e-07   2.2703821089679405e-05
-1.6470983977023542e-05   7.643176233820175e-07   2.2703821089679405e-05
-1.6470983977023542e-05   7.643176233820175e-07   2.2703821089679405e-05
-1.6646671938214043e-05   2.7826828032477546e-06   2.6129021636039917e-05
-1.6646671938214043e-05   2.7826828032477546e-06   2.6129021636039917e-05
-1.6646671938214043e-05   2.7826828032477546e-06   2.6129021636039917e-05
-1.6646671938214043e-05   2.7826828032477546e-06   2.6129021636039917e-05
-1.5040299140325322e-05   2.1110435540145148e-07   2.4994680708266418e-05
-1.5040299140325322e-05   2.1110435540145148e-07   2.4994680708266418e-05
-1.5040299140325322e-05   2.1110435540145148e-07   2.4994680708266418e-05
-1.5040299140325322e-05   2.1110435540145148e-07   2.4994680708266418e-05
-1.5620829289292798e-05   2.022282145486623e-06   2.487552428249312e-05
-1.5620829289292798e-05   2.022282145486623e-06   2.487552428249312e-05
-1.5620829289292798e-05   2.022282145486623e-06   2.487552428249312e-05
-1.5620829289292798e-05   2.022282145486623e-06   2.487552428249312e-05
-1.5040299140325322e-05   2.7826828032477546e-06   2.7671968704747005e-05
-1.5040299140325322e-05   2.7826828032477546e-06   2.7671968704747005e-05
-1.5040299140325322e-05   2.7826828032477546e-06   2.7671968704747005e-05
-1.5040299140325322e-05   2.7826828032477546e-06   2.7671968704747005e-05
-1.6646671938214043e-05   2.1110435540145148e-07   2.345173363955846e-05
-1.6646671938214043e-05   2.1110435540145148e-07   2.345173363955846e-05
-1.6646671938214043e-05   2.1110435540145148e-07   2.345173363955846e-05
-1.6646671938214043e-05   2.1110435540145148e-07   2.345173363955846e-05
-1.675042772098385e-05   2.054631779005228e-06   2.7292410677951006e-05
-1.675042772098385e-05   2.054631779005228e-06   2.7292410677951006e-05
-1.675042772098385e-05   2.054631779005228e-06   2.7292410677951006e-05
-1.675042772098385e-05   2.054631779005228e-06   2.7292410677951006e-05
-1.5079270093367142e-05   -3.4641347974038224e-07   2.594777512050382e-05
-1.5079270093367142e-05   -3.4641347974038224e-07   2.594777512050382e-05
-1.5079270093367142e-05   -3.4641347974038224e-07   2.594777512050382e-05
-1.5079270093367142e-05   -3.4641347974038224e-07   2.594777512050382e-05
-1.5695734782555958e-05   1.5478349129662006e-06   2.5838667233527143e-05
-1.5695734782555958e-05   1.5478349129662006e-06   2.5838667233527143e-05
-1.5695734782555958e-05   1.5478349129662006e-06   2.5838667233527143e-05
-1.5695734782555958e-05   1.5478349129662006e-06   2.5838667233527143e-05
-1.644756311844429e-05   5.075270102505901e-06   1.0235160225793068e-05
-1.644756311844429e-05   5.075270102505901e-06   1.0235160225793068e-05
-1.644756311844429e-05   5.075270102505901e-06   1.0235160225793068e-05
-1.644756311844429e-05   5.075270102505901e-06   1.0235160225793068e-05
-1.6193667207194508e-05   2.319095869854782e-06   9.004615538285446e-06
-1.6193667207194508e-05   2.319095869854782e-06   9.004615538285446e-06
-1.6193667207194508e-05   2.319095869854782e-06   9.004615538285446e-06
-1.6193667207194508e-05   2.319095869854782e-06   9.004615538285446e-06
-1.7026130611651224e-05   4.53993503302802e-06   1.1211419044363782e-05
-1.7026130611651224e-05   4.53993503302802e-06   1.1211419044363782e-05
-1.7026130611651224e-05   4.53993503302802e-06   1.1211419044363782e-05
-1.7026130611651224e-05   4.53993503302802e-06   1.1211419044363782e-05
-1.6470983977023488e-05   1.8624303271483084e-06   1.1892677476845674e-05
-1.6470983977023488e-05   1.8624303271483084e-06   1.1892677476845674e-05
-1.6470983977023488e-05   1.8624303271483084e-06   1.1892677476845674e-05
-1.6470983977023488e-05   1.8624303271483084e-06   1.1892677476845674e-05
-1.59978802830236e-05   3.5684666331756935e-06   1.0080549536562724e-05
-1.59978802830236e-05   3.5684666331756935e-06   1.0080549536562724e-05
-1.59978802830236e-05   3.5684666331756935e-06   1.0080549536562724e-05
-1.59978802830236e-05   3.5684666331756935e-06   1.0080549536562724e-05
-1.6470983977023542e-05   4.53993503302802e-06   1.2817921867891305e-05
-1.6470983977023542e-05   4.53993503302802e-06   1.2817921867891305e-05
-1.6470983977023542e-05   4.53993503302802e-06   1.2817921867891305e-05
-1.6470983977023542e-05   4.53993503302802e-06   1.2817921867891305e-05
-1.7026130611651224e-05   1.8624303271483084e-06   1.0286174653317826e-05
-1.7026130611651224e-05   1.8624303271483084e-06   1.0286174653317826e-05
-1.7026130611651224e-05   1.8624303271483084e-06   1.0286174653317826e-05
-1.7026130611651224e-05   1.8624303271483084e-06   1.0286174653317826e-05
-1.7757489858215487e-05   4.17271472564866e-06   1.3299007541877315e-05
-1.7757489858215487e-05   4.17271472564866e-06   1.3299007541877315e-05
-1.7757489858215487e-05   4.17271472564866e-06   1.3299007541877315e-05
-1.7757489858215487e-05   4.17271472564866e-06   1.3299007541877315e-05
-1.664667193821399e-05   1.5636387179243606e-06   1.3013089946509095e-05
-1.664667193821399e-05   1.5636387179243606e-06   1.3013089946509095e-05
-1.664667193821399e-05   1.5636387179243606e-06   1.3013089946509095e-05
-1.664667193821399e-05   1.5636387179243606e-06   1.3013089946509095e-05
-1.658983902961533e-05   3.3005688076478187e-06   1.1876210378343292e-05
-1.658983902961533e-05   3.3005688076478187e-06   1.1876210378343292e-05
-1.658983902961533e-05   3.3005688076478187e-06   1.1876210378343292e-05
-1.658983902961533e-05   3.3005688076478187e-06   1.1876210378343292e-05
-1.664667193821399e-05   4.172714725648877e-06   1.4864453146511483e-05
-1.664667193821399e-05   4.172714725648877e-06   1.4864453146511483e-05
-1.664667193821399e-05   4.172714725648877e-06   1.4864453146511483e-05
-1.664667193821399e-05   4.172714725648877e-06   1.4864453146511483e-05
-1.7757489858215595e-05   1.563638717924469e-06   1.1447644341874548e-05
-1.7757489858215595e-05   1.563638717924469e-06   1.1447644341874548e-05
-1.7757489858215595e-05   1.563638717924469e-06   1.1447644341874548e-05
-1.7757489858215595e-05   1.563638717924469e-06   1.1447644341874548e-05
-1.8847971721843945e-05   3.331604905669038e-06   1.7134535161854097e-05
-1.8847971721843945e-05   3.331604905669038e-06   1.7134535161854097e-05
-1.8847971721843945e-05   3.331604905669038e-06   1.7134535161854097e-05
-1.8847971721843945e-05   3.331604905669038e-06   1.7134535161854097e-05
-1.6750427720983794e-05   9.648759293587762e-07   1.5058665879539635e-05
-1.6750427720983794e-05   9.648759293587762e-07   1.5058665879539635e-05
-1.6750427720983794e-05   9.648759293587762e-07   1.5058665879539635e-05
-1.6750427720983794e-05   9.648759293587762e-07   1.5058665879539635e-05
-1.6789674074165427e-05   2.9837621732663622e-06   1.3912744721829599e-05
-1.6789674074165427e-05   2.9837621732663622e-06   1.3912744721829599e-05
-1.6789674074165427e-05   2.9837621732663622e-06   1.3912744721829599e-05
-1.6789674074165427e-05   2.9837621732663622e-06   1.3912744721829599e-05
-3.264625115345445e-05   4.321814382741529e-06   1.2415059827766868e-05
-3.264625115345445e-05   4.321814382741529e-06   1.2415059827766868e-05
-3.264625115345445e-05   4.321814382741529e-06   1.2415059827766868e-05
-3.264625115345445e-05   4.321814382741529e-06   1.2415059827766868e-05
-2.199559045101814e-05   5.989796916998781e-06   3.116695051904835e-05
-2.199559045101814e-05   5.989796916998781e-06   3.116695051904835e-05
-2.199559045101814e-05   5.989796916998781e-06   3.116695051904835e-05
-2.199559045101814e-05   5.989796916998781e-06   3.116695051904835e-05
-2.1981948228989596e-05   3.3796407620969963e-06   1.4145137542177376e-05
-2.1981948228989596e-05   3.3796407620969963e-06   1.4145137542177376e-05
-2.1981948228989596e-05   3.3796407620969963e-06   1.4145137542177376e-05
-2.1981948228989596e-05   3.3796407620969963e-06   1.4145137542177376e-05
-3.5934876867327716e-05   2.4493135095165954e-06   3.795821495762271e-05
-3.5934876867327716e-05   2.4493135095165954e-06   3.795821495762271e-05
-3.5934876867327716e-05   2.4493135095165954e-06   3.795821495762271e-05
-3.5934876867327716e-05   2.4493135095165954e-06   3.795821495762271e-05
-2.6688526439830733e-05   3.5547555250081296e-06   2.1884365702499542e-05
-2.6688526439830733e-05   3.5547555250081296e-06   2.1884365702499542e-05
-2.6688526439830733e-05   3.5547555250081296e-06   2.1884365702499542e-05
-2.6688526439830733e-05   3.5547555250081296e-06   2.1884365702499542e-05
-3.593487686732777e-05   3.3796407620969963e-06   1.4703333893725627e-05
-3.593487686732777e-05   3.3796407620969963e-06   1.4703333893725627e-05
-3.593487686732777e-05   3.3796407620969963e-06   1.4703333893725627e-05
-3.593487686732777e-05   3.3796407620969963e-06   1.4703333893725627e-05
-2.1981948228989596e-05   2.4493135095165954e-06   3.7400018606074514e-05
-2.1981948228989596e-05   2.4493135095165954e-06   3.7400018606074514e-05
-2.1981948228989596e-05   2.4493135095165954e-06   3.7400018606074514e-05
-2.1981948228989596e-05   2.4493135095165954e-06   3.7400018606074514e-05
-2.227386658521336e-05   2.7270772210882506e-06   1.5841790957041725e-05
-2.227386658521336e-05   2.7270772210882506e-06   1.5841790957041725e-05
-2.227386658521336e-05   2.7270772210882506e-06   1.5841790957041725e-05
-2.227386658521336e-05   2.7270772210882506e-06   1.5841790957041725e-05
-3.605414537357923e-05   1.7656735328055182e-06   3.938576448395436e-05
-3.605414537357923e-05   1.7656735328055182e-06   3.938576448395436e-05
-3.605414537357923e-05   1.7656735328055182e-06   3.938576448395436e-05
-3.605414537357923e-05   1.7656735328055182e-06   3.938576448395436e-05
-2.8466138624273964e-05   2.2292034832536523e-06   2.6460968598176397e-05
-2.8466138624273964e-05   2.2292034832536523e-06   2.6460968598176397e-05
-2.8466138624273964e-05   2.2292034832536523e-06   2.6460968598176397e-05
-2.8466138624273964e-05   2.2292034832536523e-06   2.6460968598176397e-05
-3.605414537357928e-05   2.7270772210882506e-06   1.6418633170011353e-05
-3.605414537357928e-05   2.7270772210882506e-06   1.6418633170011353e-05
-3.605414537357928e-05   2.7270772210882506e-06   1.6418633170011353e-05
-3.605414537357928e-05   2.7270772210882506e-06   1.6418633170011353e-05
-2.2273866585213326e-05   1.7656735328055182e-06   3.8808922270984665e-05
-2.2273866585213326e-05   1.7656735328055182e-06   3.8808922270984665e-05
-2.2273866585213326e-05   1.7656735328055182e-06   3.8808922270984665e-05
-2.2273866585213326e-05   1.7656735328055182e-06   3.8808922270984665e-05
-2.202827213458681e-05   1.1213511860932047e-06   1.8810941533183468e-05
-2.202827213458681e-05   1.1213511860932047e-06   1.8810941533183468e-05
-2.202827213458681e-05   1.1213511860932047e-06   1.8810941533183468e-05
-2.202827213458681e-05   1.1213511860932047e-06   1.8810941533183468e-05
-3.64319232868341e-05   -1.1368060341703412e-06   4.417192111908688e-05
-3.64319232868341e-05   -1.1368060341703412e-06   4.417192111908688e-05
-3.64319232868341e-05   -1.1368060341703412e-06   4.417192111908688e-05
-3.64319232868341e-05   -1.1368060341703412e-06   4.417192111908688e-05
-2.8023611132589988e-05   1.0911444465312812e-06   2.882129724025918e-05
-2.8023611132589988e-05   1.0911444465312812e-06   2.882129724025918e-05
-2.8023611132589988e-05   1.0911444465312812e-06   2.882129724025918e-05
-2.8023611132589988e-05   1.0911444465312812e-06   2.882129724025918e-05
-2.199559045101818e-05   1.1178549587778424e-06   2.8632004350316988e-05
-2.199559045101818e-05   1.1178549587778424e-06   2.8632004350316988e-05
-2.199559045101818e-05   1.1178549587778424e-06   2.8632004350316988e-05
-2.199559045101818e-05   1.1178549587778424e-06   2.8632004350316988e-05
-1.347494570766024e-05   -6.690439499401667e-06   3.814810224767249e-05
-1.347494570766024e-05   -6.690439499401667e-06   3.814810224767249e-05
-1.347494570766024e-05   -6.690439499401667e-06   3.814810224767249e-05
-1.347494570766024e-05   -6.690439499401667e-06   3.814810224767249e-05
-1.349724228768282e-05   5.381272395799976e-07   2.401964904155283e-05
-1.349724228768282e-05   5.381272395799976e-07   2.401964904155283e-05
-1.349724228768282e-05   5.381272395799976e-07   2.401964904155283e-05
-1.349724228768282e-05   5.381272395799976e-07   2.401964904155283e-05
-2.1981948228989596e-05   -5.472307956584297e-06   4.1767086728096284e-05
-2.1981948228989596e-05   -5.472307956584297e-06   4.1767086728096284e-05
-2.1981948228989596e-05   -5.472307956584297e-06   4.1767086728096284e-05
-2.1981948228989596e-05   -5.472307956584297e-06   4.1767086728096284e-05
-1.76414578334357e-05   -3.307189813442986e-06   3.3233865182955117e-05
-1.76414578334357e-05   -3.307189813442986e-06   3.3233865182955117e-05
-1.76414578334357e-05   -3.307189813442986e-06   3.3233865182955117e-05
-1.76414578334357e-05   -3.307189813442986e-06   3.3233865182955117e-05
-2.198194822898961e-05   5.381272395799976e-07   2.7625910159251115e-05
-2.198194822898961e-05   5.381272395799976e-07   2.7625910159251115e-05
-2.198194822898961e-05   5.381272395799976e-07   2.7625910159251115e-05
-2.198194822898961e-05   5.381272395799976e-07   2.7625910159251115e-05
-1.3497242287682792e-05   -5.472307956584297e-06   3.81608256103977e-05
-1.3497242287682792e-05   -5.472307956584297e-06   3.81608256103977e-05
-1.3497242287682792e-05   -5.472307956584297e-06   3.81608256103977e-05
-1.3497242287682792e-05   -5.472307956584297e-06   3.81608256103977e-05
-1.3543161079363636e-05   -1.3605664863844402e-07   2.476743667465084e-05
-1.3543161079363636e-05   -1.3605664863844402e-07   2.476743667465084e-05
-1.3543161079363636e-05   -1.3605664863844402e-07   2.476743667465084e-05
-1.3543161079363636e-05   -1.3605664863844402e-07   2.476743667465084e-05
-2.2273866585213326e-05   -5.598415937053242e-06   4.259602809078233e-05
-2.2273866585213326e-05   -5.598415937053242e-06   4.259602809078233e-05
-2.2273866585213326e-05   -5.598415937053242e-06   4.259602809078233e-05
-2.2273866585213326e-05   -5.598415937053242e-06   4.259602809078233e-05
-1.7507634950104742e-05   -2.889136230785393e-06   3.3026740875173865e-05
-1.7507634950104742e-05   -2.889136230785393e-06   3.3026740875173865e-05
-1.7507634950104742e-05   -2.889136230785393e-06   3.3026740875173865e-05
-1.7507634950104742e-05   -2.889136230785393e-06   3.3026740875173865e-05
-2.227386658521336e-05   -1.3605664863844402e-07   2.8044852247699676e-05
-2.227386658521336e-05   -1.3605664863844402e-07   2.8044852247699676e-05
-2.227386658521336e-05   -1.3605664863844402e-07   2.8044852247699676e-05
-2.227386658521336e-05   -1.3605664863844402e-07   2.8044852247699676e-05
-1.3543161079363581e-05   -5.598415937053242e-06   3.931861251773349e-05
-1.3543161079363581e-05   -5.598415937053242e-06   3.931861251773349e-05
-1.3543161079363581e-05   -5.598415937053242e-06   3.931861251773349e-05
-1.3543161079363581e-05   -5.598415937053242e-06   3.931861251773349e-05
-1.3402447674807765e-05   -1.023189679976973e-06   2.569823282427548e-05
-1.3402447674807765e-05   -1.023189679976973e-06   2.569823282427548e-05
-1.3402447674807765e-05   -1.023189679976973e-06   2.569823282427548e-05
-1.3402447674807765e-05   -1.023189679976973e-06   2.569823282427548e-05
-2.202827213458675e-05   -5.654857243477115e-06   4.285360746200705e-05
-2.202827213458675e-05   -5.654857243477115e-06   4.285360746200705e-05
-2.202827213458675e-05   -5.654857243477115e-06   4.285360746200705e-05
-2.202827213458675e-05   -5.654857243477115e-06   4.285360746200705e-05
-1.7581590346957232e-05   -3.2478248589759952e-06   3.3998251718590615e-05
-1.7581590346957232e-05   -3.2478248589759952e-06   3.3998251718590615e-05
-1.7581590346957232e-05   -3.2478248589759952e-06   3.3998251718590615e-05
-1.7581590346957232e-05   -3.2478248589759952e-06   3.3998251718590615e-05
-1.347494570766024e-05   3.098695186056497e-07   2.645194154939545e-05
-1.347494570766024e-05   3.098695186056497e-07   2.645194154939545e-05
-1.347494570766024e-05   3.098695186056497e-07   2.645194154939545e-05
-1.347494570766024e-05   3.098695186056497e-07   2.645194154939545e-05
-9.891684684523044e-06   -5.225882392797968e-06   2.910259210778223e-05
-9.891684684523044e-06   -5.225882392797968e-06   2.910259210778223e-05
-9.891684684523044e-06   -5.225882392797968e-06   2.910259210778223e-05
-9.891684684523044e-06   -5.225882392797968e-06   2.910259210778223e-05
-9.797918017645816e-06   -1.8103626733617043e-07   2.3348824403409546e-05
-9.797918017645816e-06   -1.8103626733617043e-07   2.3348824403409546e-05
-9.797918017645816e-06   -1.8103626733617043e-07   2.3348824403409546e-05
-9.797918017645816e-06   -1.8103626733617043e-07   2.3348824403409546e-05
-1.3497242287682792e-05   -5.132398621266506e-06   3.2485182265829394e-05
-1.3497242287682792e-05   -5.132398621266506e-06   3.2485182265829394e-05
-1.3497242287682792e-05   -5.132398621266506e-06   3.2485182265829394e-05
-1.3497242287682792e-05   -5.132398621266506e-06   3.2485182265829394e-05
-1.1592949656669675e-05   -2.6422982348625525e-06   2.7817300982298948e-05
-1.1592949656669675e-05   -2.6422982348625525e-06   2.7817300982298948e-05
-1.1592949656669675e-05   -2.6422982348625525e-06   2.7817300982298948e-05
-1.1592949656669675e-05   -2.6422982348625525e-06   2.7817300982298948e-05
-1.3497242287682792e-05   -1.8103626733617043e-07   2.631964181576765e-05
-1.3497242287682792e-05   -1.8103626733617043e-07   2.631964181576765e-05
-1.3497242287682792e-05   -1.8103626733617043e-07   2.631964181576765e-05
-1.3497242287682792e-05   -1.8103626733617043e-07   2.631964181576765e-05
-9.79791801764587e-06   -5.132398621266506e-06   2.9514364853471365e-05
-9.79791801764587e-06   -5.132398621266506e-06   2.9514364853471365e-05
-9.79791801764587e-06   -5.132398621266506e-06   2.9514364853471365e-05
-9.79791801764587e-06   -5.132398621266506e-06   2.9514364853471365e-05
-9.715671579178483e-06   -7.689717411453988e-07   2.3909111292191843e-05
-9.715671579178483e-06   -7.689717411453988e-07   2.3909111292191843e-05
-9.715671579178483e-06   -7.689717411453988e-07   2.3909111292191843e-05
-9.715671579178483e-06   -7.689717411453988e-07   2.3909111292191843e-05
-1.3543161079363581e-05   -5.290267976785536e-06   3.300103820055096e-05
-1.3543161079363581e-05   -5.290267976785536e-06   3.300103820055096e-05
-1.3543161079363581e-05   -5.290267976785536e-06   3.300103820055096e-05
-1.3543161079363581e-05   -5.290267976785536e-06   3.300103820055096e-05
-1.1485199353945775e-05   -2.8206060502350113e-06   2.8089304835590277e-05
-1.1485199353945775e-05   -2.8206060502350113e-06   2.8089304835590277e-05
-1.1485199353945775e-05   -2.8206060502350113e-06   2.8089304835590277e-05
-1.1485199353945775e-05   -2.8206060502350113e-06   2.8089304835590277e-05
-1.3543161079363581e-05   -7.689717411455072e-07   2.6621889033575925e-05
-1.3543161079363581e-05   -7.689717411455072e-07   2.6621889033575925e-05
-1.3543161079363581e-05   -7.689717411455072e-07   2.6621889033575925e-05
-1.3543161079363581e-05   -7.689717411455072e-07   2.6621889033575925e-05
-9.715671579178483e-06   -5.29026797678559e-06   3.028826045916707e-05
-9.715671579178483e-06   -5.29026797678559e-06   3.028826045916707e-05
-9.715671579178483e-06   -5.29026797678559e-06   3.028826045916707e-05
-9.715671579178483e-06   -5.29026797678559e-06   3.028826045916707e-05
-9.517608234641808e-06   -1.36010698556727e-06   2.4775896584406428e-05
-9.517608234641808e-06   -1.36010698556727e-06   2.4775896584406428e-05
-9.517608234641808e-06   -1.36010698556727e-06   2.4775896584406428e-05
-9.517608234641808e-06   -1.36010698556727e-06   2.4775896584406428e-05
-1.3402447674807765e-05   -5.515801348149395e-06   3.374404560223216e-05
-1.3402447674807765e-05   -5.515801348149395e-06   3.374404560223216e-05
-1.3402447674807765e-05   -5.515801348149395e-06   3.374404560223216e-05
-1.3402447674807765e-05   -5.515801348149395e-06   3.374404560223216e-05
-1.1358829468322853e-05   -3.0794085951083927e-06   2.8876179606266057e-05
-1.1358829468322853e-05   -3.0794085951083927e-06   2.8876179606266057e-05
-1.1358829468322853e-05   -3.0794085951083927e-06   2.8876179606266057e-05
-1.1358829468322853e-05   -3.0794085951083927e-06   2.8876179606266057e-05
-9.89168468452299e-06   1.4106618344361882e-06   1.7972403399255728e-05
-9.89168468452299e-06   1.4106618344361882e-06   1.7972403399255728e-05
-9.89168468452299e-06   1.4106618344361882e-06   1.7972403399255728e-05
-9.89168468452299e-06   1.4106618344361882e-06   1.7972403399255728e-05
-8.22153881866784e-06   -2.1421594691558785e-06   1.8624287060192365e-05
-8.22153881866784e-06   -2.1421594691558785e-06   1.8624287060192365e-05
-8.22153881866784e-06   -2.1421594691558785e-06   1.8624287060192365e-05
-8.22153881866784e-06   -2.1421594691558785e-06   1.8624287060192365e-05
-8.038748236185067e-06   7.643176233821259e-07   1.622675687700751e-05
-8.038748236185067e-06   7.643176233821259e-07   1.622675687700751e-05
-8.038748236185067e-06   7.643176233821259e-07   1.622675687700751e-05
-8.038748236185067e-06   7.643176233821259e-07   1.622675687700751e-05
-9.797918017645816e-06   -2.509658232816166e-06   2.1123092026494776e-05
-9.797918017645816e-06   -2.509658232816166e-06   2.1123092026494776e-05
-9.797918017645816e-06   -2.509658232816166e-06   2.1123092026494776e-05
-9.797918017645816e-06   -2.509658232816166e-06   2.1123092026494776e-05
-8.92161275718625e-06   -4.883371039856622e-07   1.8449790581764143e-05
-8.92161275718625e-06   -4.883371039856622e-07   1.8449790581764143e-05
-8.92161275718625e-06   -4.883371039856622e-07   1.8449790581764143e-05
-8.92161275718625e-06   -4.883371039856622e-07   1.8449790581764143e-05
-9.797918017645816e-06   7.643176233821259e-07   1.8191142390726572e-05
-9.797918017645816e-06   7.643176233821259e-07   1.8191142390726572e-05
-9.797918017645816e-06   7.643176233821259e-07   1.8191142390726572e-05
-9.797918017645816e-06   7.643176233821259e-07   1.8191142390726572e-05
-8.038748236185067e-06   -2.509658232816166e-06   1.915870651277593e-05
-8.038748236185067e-06   -2.509658232816166e-06   1.915870651277593e-05
-8.038748236185067e-06   -2.509658232816166e-06   1.915870651277593e-05
-8.038748236185067e-06   -2.509658232816166e-06   1.915870651277593e-05
-7.952821996987493e-06   2.111043554015599e-07   1.6995662872047517e-05
-7.952821996987493e-06   2.111043554015599e-07   1.6995662872047517e-05
-7.952821996987493e-06   2.111043554015599e-07   1.6995662872047517e-05
-7.952821996987493e-06   2.111043554015599e-07   1.6995662872047517e-05
-9.715671579178429e-06   -2.7904768231276048e-06   2.1734694216149768e-05
-9.715671579178429e-06   -2.7904768231276048e-06   2.1734694216149768e-05
-9.715671579178429e-06   -2.7904768231276048e-06   2.1734694216149768e-05
-9.715671579178429e-06   -2.7904768231276048e-06   2.1734694216149768e-05
-8.740557737935075e-06   -8.830004689017439e-07   1.8965018668207624e-05
-8.740557737935075e-06   -8.830004689017439e-07   1.8965018668207624e-05
-8.740557737935075e-06   -8.830004689017439e-07   1.8965018668207624e-05
-8.740557737935075e-06   -8.830004689017439e-07   1.8965018668207624e-05
-9.715671579178429e-06   2.111043554015599e-07   1.8796611579164767e-05
-9.715671579178429e-06   2.111043554015599e-07   1.8796611579164767e-05
-9.715671579178429e-06   2.111043554015599e-07   1.8796611579164767e-05
-9.715671579178429e-06   2.111043554015599e-07   1.8796611579164767e-05
-7.952821996987493e-06   -2.7904768231276048e-06   1.99337455090323e-05
-7.952821996987493e-06   -2.7904768231276048e-06   1.99337455090323e-05
-7.952821996987493e-06   -2.7904768231276048e-06   1.99337455090323e-05
-7.952821996987493e-06   -2.7904768231276048e-06   1.99337455090323e-05
-7.814823329588836e-06   -3.4641347974038224e-07   1.7961274183578334e-05
-7.814823329588836e-06   -3.4641347974038224e-07   1.7961274183578334e-05
-7.814823329588836e-06   -3.4641347974038224e-07   1.7961274183578334e-05
-7.814823329588836e-06   -3.4641347974038224e-07   1.7961274183578334e-05
-9.517608234641808e-06   -3.159290429156664e-06   2.2486975194982765e-05
-9.517608234641808e-06   -3.159290429156664e-06   2.2486975194982765e-05
-9.517608234641808e-06   -3.159290429156664e-06   2.2486975194982765e-05
-9.517608234641808e-06   -3.159290429156664e-06   2.2486975194982765e-05
-8.598011221148998e-06   -1.2283141508095691e-06   1.9795727738820454e-05
-8.598011221148998e-06   -1.2283141508095691e-06   1.9795727738820454e-05
-8.598011221148998e-06   -1.2283141508095691e-06   1.9795727738820454e-05
-8.598011221148998e-06   -1.2283141508095691e-06   1.9795727738820454e-05
-8.22153881866784e-06   2.3190958698546737e-06   4.060094984541457e-06
-8.22153881866784e-06   2.3190958698546737e-06   4.060094984541457e-06
-8.22153881866784e-06   2.3190958698546737e-06   4.060094984541457e-06
-8.22153881866784e-06   2.3190958698546737e-06   4.060094984541457e-06
-4.715205096842258e-06   -2.4331248663403936e-07   8.366539507024444e-06
-4.715205096842258e-06   -2.4331248663403936e-07   8.366539507024444e-06
-4.715205096842258e-06   -2.4331248663403936e-07   8.366539507024444e-06
-4.715205096842258e-06   -2.4331248663403936e-07   8.366539507024444e-06
-4.97815619125686e-06   1.8624303271483084e-06   4.095516950406277e-06
-4.97815619125686e-06   1.8624303271483084e-06   4.095516950406277e-06
-4.97815619125686e-06   1.8624303271483084e-06   4.095516950406277e-06
-4.97815619125686e-06   1.8624303271483084e-06   4.095516950406277e-06
-8.038748236185067e-06   -3.3773019579786323e-07   1.0516600005721342e-05
-8.038748236185067e-06   -3.3773019579786323e-07   1.0516600005721342e-05
-8.038748236185067e-06   -3.3773019579786323e-07   1.0516600005721342e-05
-8.038748236185067e-06   -3.3773019579786323e-07   1.0516600005721342e-05
-6.265402195876953e-06   1.1912666559298632e-06   6.643625160838431e-06
-6.265402195876953e-06   1.1912666559298632e-06   6.643625160838431e-06
-6.265402195876953e-06   1.1912666559298632e-06   6.643625160838431e-06
-6.265402195876953e-06   1.1912666559298632e-06   6.643625160838431e-06
-8.038748236185067e-06   1.8624303271483084e-06   5.4156132641736436e-06
-8.038748236185067e-06   1.8624303271483084e-06   5.4156132641736436e-06
-8.038748236185067e-06   1.8624303271483084e-06   5.4156132641736436e-06
-8.038748236185067e-06   1.8624303271483084e-06   5.4156132641736436e-06
-4.978156191256752e-06   -3.37730195797809e-07   9.196503691953758e-06
-4.978156191256752e-06   -3.37730195797809e-07   9.196503691953758e-06
-4.978156191256752e-06   -3.37730195797809e-07   9.196503691953758e-06
-4.978156191256752e-06   -3.37730195797809e-07   9.196503691953758e-06
-5.193181332949215e-06   1.5636387179243606e-06   5.339207260263677e-06
-5.193181332949215e-06   1.5636387179243606e-06   5.339207260263677e-06
-5.193181332949215e-06   1.5636387179243606e-06   5.339207260263677e-06
-5.193181332949215e-06   1.5636387179243606e-06   5.339207260263677e-06
-7.952821996987493e-06   -4.660478132995083e-07   1.1156420285728325e-05
-7.952821996987493e-06   -4.660478132995083e-07   1.1156420285728325e-05
-7.952821996987493e-06   -4.660478132995083e-07   1.1156420285728325e-05
-7.952821996987493e-06   -4.660478132995083e-07   1.1156420285728325e-05
-6.3694025392499725e-06   9.644677267300677e-07   7.659078532147611e-06
-6.3694025392499725e-06   9.644677267300677e-07   7.659078532147611e-06
-6.3694025392499725e-06   9.644677267300677e-07   7.659078532147611e-06
-6.3694025392499725e-06   9.644677267300677e-07   7.659078532147611e-06
-7.952821996987493e-06   1.5636387179243606e-06   6.55701917899815e-06
-7.952821996987493e-06   1.5636387179243606e-06   6.55701917899815e-06
-7.952821996987493e-06   1.5636387179243606e-06   6.55701917899815e-06
-7.952821996987493e-06   1.5636387179243606e-06   6.55701917899815e-06
-5.193181332949215e-06   -4.660478132995083e-07   9.938608366994069e-06
-5.193181332949215e-06   -4.660478132995083e-07   9.938608366994069e-06
-5.193181332949215e-06   -4.660478132995083e-07   9.938608366994069e-06
-5.193181332949215e-06   -4.660478132995083e-07   9.938608366994069e-06
-5.73293490023258e-06   9.648759293587762e-07   7.561830348033717e-06
-5.73293490023258e-06   9.648759293587762e-07   7.561830348033717e-06
-5.73293490023258e-06   9.648759293587762e-07   7.561830348033717e-06
-5.73293490023258e-06   9.648759293587762e-07   7.561830348033717e-06
-7.814823329588836e-06   -6.200603203544556e-07   1.1982606146788478e-05
-7.814823329588836e-06   -6.200603203544556e-07   1.1982606146788478e-05
-7.814823329588836e-06   -6.200603203544556e-07   1.1982606146788478e-05
-7.814823329588836e-06   -6.200603203544556e-07   1.1982606146788478e-05
-6.378593733175769e-06   8.119201994093769e-07   8.729701840908379e-06
-6.378593733175769e-06   8.119201994093769e-07   8.729701840908379e-06
-6.378593733175769e-06   8.119201994093769e-07   8.729701840908379e-06
-6.378593733175769e-06   8.119201994093769e-07   8.729701840908379e-06
-7.622240425449445e-05   5.989796916998781e-06   3.235896580788323e-05
-7.622240425449445e-05   5.989796916998781e-06   3.235896580788323e-05
-7.622240425449445e-05   5.989796916998781e-06   3.235896580788323e-05
-7.622240425449445e-05   5.989796916998781e-06   3.235896580788323e-05
-1.7954142484368825e-05   -3.687292303256445e-05   0.00010375510345502136
-1.7954142484368825e-05   -3.687292303256445e-05   0.00010375510345502136
-1.7954142484368825e-05   -3.687292303256445e-05   0.00010375510345502136
-1.7954142484368825e-05   -3.687292303256445e-05   0.00010375510345502136
-2.1049585189883443e-05   2.4493135095165954e-06   1.7793491528754897e-05
-2.1049585189883443e-05   2.4493135095165954e-06   1.7793491528754897e-05
-2.1049585189883443e-05   2.4493135095165954e-06   1.7793491528754897e-05
-2.1049585189883443e-05   2.4493135095165954e-06   1.7793491528754897e-05
-6.951679165299978e-05   -2.860305797721776e-05   0.00011720359185932253
-6.951679165299978e-05   -2.860305797721776e-05   0.00011720359185932253
-6.951679165299978e-05   -2.860305797721776e-05   0.00011720359185932253
-6.951679165299978e-05   -2.860305797721776e-05   0.00011720359185932253
-4.635928750284664e-05   -1.424252673974449e-05   6.999143286658336e-05
-4.635928750284664e-05   -1.424252673974449e-05   6.999143286658336e-05
-4.635928750284664e-05   -1.424252673974449e-05   6.999143286658336e-05
-4.635928750284664e-05   -1.424252673974449e-05   6.999143286658336e-05
-6.951679165299965e-05   2.4493135095165954e-06   3.6424914420795474e-05
-6.951679165299965e-05   2.4493135095165954e-06   3.6424914420795474e-05
-6.951679165299965e-05   2.4493135095165954e-06   3.6424914420795474e-05
-6.951679165299965e-05   2.4493135095165954e-06   3.6424914420795474e-05
-2.1049585189883484e-05   -2.860305797721776e-05   9.857216896728196e-05
-2.1049585189883484e-05   -2.860305797721776e-05   9.857216896728196e-05
-2.1049585189883484e-05   -2.860305797721776e-05   9.857216896728196e-05
-2.1049585189883484e-05   -2.860305797721776e-05   9.857216896728196e-05
-2.1513564833416335e-05   1.7656735328055182e-06   1.955079241869204e-05
-2.1513564833416335e-05   1.7656735328055182e-06   1.955079241869204e-05
-2.1513564833416335e-05   1.7656735328055182e-06   1.955079241869204e-05
-2.1513564833416335e-05   1.7656735328055182e-06   1.955079241869204e-05
-6.558837394788883e-05   -2.4610656216498593e-05   0.00010883460545906183
-6.558837394788883e-05   -2.4610656216498593e-05   0.00010883460545906183
-6.558837394788883e-05   -2.4610656216498593e-05   0.00010883460545906183
-6.558837394788883e-05   -2.4610656216498593e-05   0.00010883460545906183
-4.4963270066197503e-05   -1.3487353083398742e-05   6.778545044304976e-05
-4.4963270066197503e-05   -1.3487353083398742e-05   6.778545044304976e-05
-4.4963270066197503e-05   -1.3487353083398742e-05   6.778545044304976e-05
-4.4963270066197503e-05   -1.3487353083398742e-05   6.778545044304976e-05
-6.558837394788872e-05   1.7656735328055182e-06   3.537659026827441e-05
-6.558837394788872e-05   1.7656735328055182e-06   3.537659026827441e-05
-6.558837394788872e-05   1.7656735328055182e-06   3.537659026827441e-05
-6.558837394788872e-05   1.7656735328055182e-06   3.537659026827441e-05
-2.1513564833416362e-05   -2.4610656216498593e-05   9.300880760947939e-05
-2.1513564833416362e-05   -2.4610656216498593e-05   9.300880760947939e-05
-2.1513564833416362e-05   -2.4610656216498593e-05   9.300880760947939e-05
-2.1513564833416362e-05   -2.4610656216498593e-05   9.300880760947939e-05
-2.3541244147796283e-05   -1.1368060341703412e-06   2.4493361046113305e-05
-2.3541244147796283e-05   -1.1368060341703412e-06   2.4493361046113305e-05
-2.3541244147796283e-05   -1.1368060341703412e-06   2.4493361046113305e-05
-2.3541244147796283e-05   -1.1368060341703412e-06   2.4493361046113305e-05
-6.055678871941904e-05   -1.9313597777291096e-05   9.709201037802351e-05
-6.055678871941904e-05   -1.9313597777291096e-05   9.709201037802351e-05
-6.055678871941904e-05   -1.9313597777291096e-05   9.709201037802351e-05
-6.055678871941904e-05   -1.9313597777291096e-05   9.709201037802351e-05
-4.323552524440873e-05   -1.2447378945355006e-05   6.410350662051136e-05
-4.323552524440873e-05   -1.2447378945355006e-05   6.410350662051136e-05
-4.323552524440873e-05   -1.2447378945355006e-05   6.410350662051136e-05
-4.323552524440873e-05   -1.2447378945355006e-05   6.410350662051136e-05
-1.7954142484368797e-05   -6.690439499401667e-06   1.8307462241677077e-05
-1.7954142484368797e-05   -6.690439499401667e-06   1.8307462241677077e-05
-1.7954142484368797e-05   -6.690439499401667e-06   1.8307462241677077e-05
-1.7954142484368797e-05   -6.690439499401667e-06   1.8307462241677077e-05
-6.264428852319833e-06   -1.1327389614071103e-05   3.500814822629047e-05
-6.264428852319833e-06   -1.1327389614071103e-05   3.500814822629047e-05
-6.264428852319833e-06   -1.1327389614071103e-05   3.500814822629047e-05
-6.264428852319833e-06   -1.1327389614071103e-05   3.500814822629047e-05
-6.983904119748399e-06   -5.472307956584297e-06   1.6407179799985468e-05
-6.983904119748399e-06   -5.472307956584297e-06   1.6407179799985468e-05
-6.983904119748399e-06   -5.472307956584297e-06   1.6407179799985468e-05
-6.983904119748399e-06   -5.472307956584297e-06   1.6407179799985468e-05
-2.1049585189883484e-05   -1.5061274374569689e-05   4.560336143433495e-05
-2.1049585189883484e-05   -1.5061274374569689e-05   4.560336143433495e-05
-2.1049585189883484e-05   -1.5061274374569689e-05   4.560336143433495e-05
-2.1049585189883484e-05   -1.5061274374569689e-05   4.560336143433495e-05
-1.2382034167169363e-05   -7.906578915206262e-06   2.686462578752665e-05
-1.2382034167169363e-05   -7.906578915206262e-06   2.686462578752665e-05
-1.2382034167169363e-05   -7.906578915206262e-06   2.686462578752665e-05
-1.2382034167169363e-05   -7.906578915206262e-06   2.686462578752665e-05
-2.104958518988343e-05   -5.472307956584297e-06   2.2160559650776423e-05
-2.104958518988343e-05   -5.472307956584297e-06   2.2160559650776423e-05
-2.104958518988343e-05   -5.472307956584297e-06   2.2160559650776423e-05
-2.104958518988343e-05   -5.472307956584297e-06   2.2160559650776423e-05
-6.983904119748399e-06   -1.5061274374569689e-05   3.9849981583543726e-05
-6.983904119748399e-06   -1.5061274374569689e-05   3.9849981583543726e-05
-6.983904119748399e-06   -1.5061274374569689e-05   3.9849981583543726e-05
-6.983904119748399e-06   -1.5061274374569689e-05   3.9849981583543726e-05
-7.599232080116524e-06   -5.598415937053188e-06   1.844650700216148e-05
-7.599232080116524e-06   -5.598415937053188e-06   1.844650700216148e-05
-7.599232080116524e-06   -5.598415937053188e-06   1.844650700216148e-05
-7.599232080116524e-06   -5.598415937053188e-06   1.844650700216148e-05
-2.1513564833416362e-05   -1.3750734664266873e-05   4.652845282732262e-05
-2.1513564833416362e-05   -1.3750734664266873e-05   4.652845282732262e-05
-2.1513564833416362e-05   -1.3750734664266873e-05   4.652845282732262e-05
-2.1513564833416362e-05   -1.3750734664266873e-05   4.652845282732262e-05
-1.3946489148656636e-05   -9.680182171618233e-06   3.147432852380075e-05
-1.3946489148656636e-05   -9.680182171618233e-06   3.147432852380075e-05
-1.3946489148656636e-05   -9.680182171618233e-06   3.147432852380075e-05
-1.3946489148656636e-05   -9.680182171618233e-06   3.147432852380075e-05
-2.1513564833416335e-05   -5.598415937053188e-06   2.333789823848973e-05
-2.1513564833416335e-05   -5.598415937053188e-06   2.333789823848973e-05
-2.1513564833416335e-05   -5.598415937053188e-06   2.333789823848973e-05
-2.1513564833416335e-05   -5.598415937053188e-06   2.333789823848973e-05
-7.599232080116551e-06   -1.3750734664266873e-05   4.163706159099441e-05
-7.599232080116551e-06   -1.3750734664266873e-05   4.163706159099441e-05
-7.599232080116551e-06   -1.3750734664266873e-05   4.163706159099441e-05
-7.599232080116551e-06   -1.3750734664266873e-05   4.163706159099441e-05
-8.597808681100002e-06   -5.654857243477115e-06   2.0166853886072753e-05
-8.597808681100002e-06   -5.654857243477115e-06   2.0166853886072753e-05
-8.597808681100002e-06   -5.654857243477115e-06   2.0166853886072753e-05
-8.597808681100002e-06   -5.654857243477115e-06   2.0166853886072753e-05
-2.354124414779631e-05   -1.2926670302008727e-05   4.943566749901872e-05
-2.354124414779631e-05   -1.2926670302008727e-05   4.943566749901872e-05
-2.354124414779631e-05   -1.2926670302008727e-05   4.943566749901872e-05
-2.354124414779631e-05   -1.2926670302008727e-05   4.943566749901872e-05
-1.4851560497240164e-05   -8.836190939551518e-06   3.249857379728421e-05
-1.4851560497240164e-05   -8.836190939551518e-06   3.249857379728421e-05
-1.4851560497240164e-05   -8.836190939551518e-06   3.249857379728421e-05
-1.4851560497240164e-05   -8.836190939551518e-06   3.249857379728421e-05
-6.264428852319833e-06   -5.225882392797913e-06   9.80123317982721e-06
-6.264428852319833e-06   -5.225882392797913e-06   9.80123317982721e-06
-6.264428852319833e-06   -5.225882392797913e-06   9.80123317982721e-06
-6.264428852319833e-06   -5.225882392797913e-06   9.80123317982721e-06
-3.4887347729253967e-06   -3.1063396755879436e-06   1.5699115609143935e-05
-3.4887347729253967e-06   -3.1063396755879436e-06   1.5699115609143935e-05
-3.4887347729253967e-06   -3.1063396755879436e-06   1.5699115609143935e-05
-3.4887347729253967e-06   -3.1063396755879436e-06   1.5699115609143935e-05
-3.346097599549419e-06   -5.132398621266506e-06   1.1359840222332747e-05
-3.346097599549419e-06   -5.132398621266506e-06   1.1359840222332747e-05
-3.346097599549419e-06   -5.132398621266506e-06   1.1359840222332747e-05
-3.346097599549419e-06   -5.132398621266506e-06   1.1359840222332747e-05
-6.983904119748399e-06   -4.085225676407485e-06   1.6794547322415406e-05
-6.983904119748399e-06   -4.085225676407485e-06   1.6794547322415406e-05
-6.983904119748399e-06   -4.085225676407485e-06   1.6794547322415406e-05
-6.983904119748399e-06   -4.085225676407485e-06   1.6794547322415406e-05
-4.703749396501396e-06   -4.162284164481271e-06   1.3040524543181105e-05
-4.703749396501396e-06   -4.162284164481271e-06   1.3040524543181105e-05
-4.703749396501396e-06   -4.162284164481271e-06   1.3040524543181105e-05
-4.703749396501396e-06   -4.162284164481271e-06   1.3040524543181105e-05
-6.983904119748372e-06   -5.132398621266506e-06   1.0731536455417295e-05
-6.983904119748372e-06   -5.132398621266506e-06   1.0731536455417295e-05
-6.983904119748372e-06   -5.132398621266506e-06   1.0731536455417295e-05
-6.983904119748372e-06   -5.132398621266506e-06   1.0731536455417295e-05
-3.346097599549473e-06   -4.085225676407485e-06   1.7422851089330803e-05
-3.346097599549473e-06   -4.085225676407485e-06   1.7422851089330803e-05
-3.346097599549473e-06   -4.085225676407485e-06   1.7422851089330803e-05
-3.346097599549473e-06   -4.085225676407485e-06   1.7422851089330803e-05
-3.34479860029886e-06   -5.29026797678559e-06   1.2141341397493084e-05
-3.34479860029886e-06   -5.29026797678559e-06   1.2141341397493084e-05
-3.34479860029886e-06   -5.29026797678559e-06   1.2141341397493084e-05
-3.34479860029886e-06   -5.29026797678559e-06   1.2141341397493084e-05
-7.599232080116551e-06   -5.269586789262389e-06   1.9219655151341605e-05
-7.599232080116551e-06   -5.269586789262389e-06   1.9219655151341605e-05
-7.599232080116551e-06   -5.269586789262389e-06   1.9219655151341605e-05
-7.599232080116551e-06   -5.269586789262389e-06   1.9219655151341605e-05
-4.979011165464652e-06   -4.551329721071238e-06   1.4421666052673874e-05
-4.979011165464652e-06   -4.551329721071238e-06   1.4421666052673874e-05
-4.979011165464652e-06   -4.551329721071238e-06   1.4421666052673874e-05
-4.979011165464652e-06   -4.551329721071238e-06   1.4421666052673874e-05
-7.599232080116497e-06   -5.290267976785536e-06   1.2128932684979084e-05
-7.599232080116497e-06   -5.290267976785536e-06   1.2128932684979084e-05
-7.599232080116497e-06   -5.290267976785536e-06   1.2128932684979084e-05
-7.599232080116497e-06   -5.290267976785536e-06   1.2128932684979084e-05
-3.34479860029886e-06   -5.269586789262389e-06   1.923206386385555e-05
-3.34479860029886e-06   -5.269586789262389e-06   1.923206386385555e-05
-3.34479860029886e-06   -5.269586789262389e-06   1.923206386385555e-05
-3.34479860029886e-06   -5.269586789262389e-06   1.923206386385555e-05
-3.3831209051154326e-06   -5.515801348149395e-06   1.330804568651573e-05
-3.3831209051154326e-06   -5.515801348149395e-06   1.330804568651573e-05
-3.3831209051154326e-06   -5.515801348149395e-06   1.330804568651573e-05
-3.3831209051154326e-06   -5.515801348149395e-06   1.330804568651573e-05
-8.597808681100002e-06   -6.396212811286257e-06   2.2527438857705326e-05
-8.597808681100002e-06   -6.396212811286257e-06   2.2527438857705326e-05
-8.597808681100002e-06   -6.396212811286257e-06   2.2527438857705326e-05
-8.597808681100002e-06   -6.396212811286257e-06   2.2527438857705326e-05
-5.2909463339456935e-06   -4.976635379715436e-06   1.616425515350579e-05
-5.2909463339456935e-06   -4.976635379715436e-06   1.616425515350579e-05
-5.2909463339456935e-06   -4.976635379715436e-06   1.616425515350579e-05
-5.2909463339456935e-06   -4.976635379715436e-06   1.616425515350579e-05
-3.4887347729253967e-06   -2.1421594691558785e-06   2.7263465447186896e-06
-3.4887347729253967e-06   -2.1421594691558785e-06   2.7263465447186896e-06
-3.4887347729253967e-06   -2.1421594691558785e-06   2.7263465447186896e-06
-3.4887347729253967e-06   -2.1421594691558785e-06   2.7263465447186896e-06
-2.5774324178017873e-06   6.011249000016942e-07   5.8911544247528804e-06
-2.5774324178017873e-06   6.011249000016942e-07   5.8911544247528804e-06
-2.5774324178017873e-06   6.011249000016942e-07   5.8911544247528804e-06
-2.5774324178017873e-06   6.011249000016942e-07   5.8911544247528804e-06
-2.080025849021932e-06   -2.509658232816166e-06   4.627602649146835e-06
-2.080025849021932e-06   -2.509658232816166e-06   4.627602649146835e-06
-2.080025849021932e-06   -2.509658232816166e-06   4.627602649146835e-06
-2.080025849021932e-06   -2.509658232816166e-06   4.627602649146835e-06
-3.346097599549473e-06   2.554005235015888e-07   5.078686979568549e-06
-3.346097599549473e-06   2.554005235015888e-07   5.078686979568549e-06
-3.346097599549473e-06   2.554005235015888e-07   5.078686979568549e-06
-3.346097599549473e-06   2.554005235015888e-07   5.078686979568549e-06
-2.696264650003087e-06   -9.86294488881218e-07   4.7406490710872815e-06
-2.696264650003087e-06   -9.86294488881218e-07   4.7406490710872815e-06
-2.696264650003087e-06   -9.86294488881218e-07   4.7406490710872815e-06
-2.696264650003087e-06   -9.86294488881218e-07   4.7406490710872815e-06
-3.346097599549473e-06   -2.509658232816166e-06   2.9685673953561793e-06
-3.346097599549473e-06   -2.509658232816166e-06   2.9685673953561793e-06
-3.346097599549473e-06   -2.509658232816166e-06   2.9685673953561793e-06
-3.346097599549473e-06   -2.509658232816166e-06   2.9685673953561793e-06
-2.080025849021932e-06   2.554005235015888e-07   6.737722233359205e-06
-2.080025849021932e-06   2.554005235015888e-07   6.737722233359205e-06
-2.080025849021932e-06   2.554005235015888e-07   6.737722233359205e-06
-2.080025849021932e-06   2.554005235015888e-07   6.737722233359205e-06
-1.8047500006840604e-06   -2.7904768231276048e-06   5.083047744407188e-06
-1.8047500006840604e-06   -2.7904768231276048e-06   5.083047744407188e-06
-1.8047500006840604e-06   -2.7904768231276048e-06   5.083047744407188e-06
-1.8047500006840604e-06   -2.7904768231276048e-06   5.083047744407188e-06
-3.34479860029886e-06   -2.983558399083776e-07   6.154522820500186e-06
-3.34479860029886e-06   -2.983558399083776e-07   6.154522820500186e-06
-3.34479860029886e-06   -2.983558399083776e-07   6.154522820500186e-06
-3.34479860029886e-06   -2.983558399083776e-07   6.154522820500186e-06
-2.438771630369985e-06   -1.2675899308369279e-06   5.226018325176114e-06
-2.438771630369985e-06   -1.2675899308369279e-06   5.226018325176114e-06
-2.438771630369985e-06   -1.2675899308369279e-06   5.226018325176114e-06
-2.438771630369985e-06   -1.2675899308369279e-06   5.226018325176114e-06
-3.34479860029886e-06   -2.7904768231276048e-06   3.5877751544753753e-06
-3.34479860029886e-06   -2.7904768231276048e-06   3.5877751544753753e-06
-3.34479860029886e-06   -2.7904768231276048e-06   3.5877751544753753e-06
-3.34479860029886e-06   -2.7904768231276048e-06   3.5877751544753753e-06
-1.8047500006840604e-06   -2.983558399083776e-07   7.649795410431728e-06
-1.8047500006840604e-06   -2.983558399083776e-07   7.649795410431728e-06
-1.8047500006840604e-06   -2.983558399083776e-07   7.649795410431728e-06
-1.8047500006840604e-06   -2.983558399083776e-07   7.649795410431728e-06
-1.3821727769988386e-06   -3.1592904291567183e-06   5.574267353198226e-06
-1.3821727769988386e-06   -3.1592904291567183e-06   5.574267353198226e-06
-1.3821727769988386e-06   -3.1592904291567183e-06   5.574267353198226e-06
-1.3821727769988386e-06   -3.1592904291567183e-06   5.574267353198226e-06
-3.3831209051154326e-06   -1.442831335185822e-06   7.879305443676669e-06
-3.3831209051154326e-06   -1.442831335185822e-06   7.879305443676669e-06
-3.3831209051154326e-06   -1.442831335185822e-06   7.879305443676669e-06
-3.3831209051154326e-06   -1.442831335185822e-06   7.879305443676669e-06
-2.2262817939831966e-06   -1.700595390166247e-06   6.105898691444785e-06
-2.2262817939831966e-06   -1.700595390166247e-06   6.105898691444785e-06
-2.2262817939831966e-06   -1.700595390166247e-06   6.105898691444785e-06
-2.2262817939831966e-06   -1.700595390166247e-06   6.105898691444785e-06
-2.5774324178017873e-06   -2.4331248663398515e-07   -4.347985373061606e-06
-2.5774324178017873e-06   -2.4331248663398515e-07   -4.347985373061606e-06
-2.5774324178017873e-06   -2.4331248663398515e-07   -4.347985373061606e-06
-2.5774324178017873e-06   -2.4331248663398515e-07   -4.347985373061606e-06
-4.653734241217601e-07   3.747091715378256e-07   -4.570740553587818e-07
-4.653734241217601e-07   3.747091715378256e-07   -4.570740553587818e-07
-4.653734241217601e-07   3.747091715378256e-07   -4.570740553587818e-07
-4.653734241217601e-07   3.747091715378256e-07   -4.570740553587818e-07
2.3585510126314033e-08   -3.37730195797809e-07   -3.4215698423256495e-06
2.3585510126314033e-08   -3.37730195797809e-07   -3.4215698423256495e-06
2.3585510126314033e-08   -3.37730195797809e-07   -3.4215698423256495e-06
2.3585510126314033e-08   -3.37730195797809e-07   -3.4215698423256495e-06
-2.080025849021932e-06   6.504931635054506e-07   -5.084849259939751e-07
-2.080025849021932e-06   6.504931635054506e-07   -5.084849259939751e-07
-2.080025849021932e-06   6.504931635054506e-07   -5.084849259939751e-07
-2.080025849021932e-06   6.504931635054506e-07   -5.084849259939751e-07
-1.165348983200973e-06   1.7156251596174392e-07   -1.7455879805033069e-06
-1.165348983200973e-06   1.7156251596174392e-07   -1.7455879805033069e-06
-1.165348983200973e-06   1.7156251596174392e-07   -1.7455879805033069e-06
-1.165348983200973e-06   1.7156251596174392e-07   -1.7455879805033069e-06
-2.080025849021932e-06   -3.3773019579786323e-07   -4.014503857907809e-06
-2.080025849021932e-06   -3.3773019579786323e-07   -4.014503857907809e-06
-2.080025849021932e-06   -3.3773019579786323e-07   -4.014503857907809e-06
-2.080025849021932e-06   -3.3773019579786323e-07   -4.014503857907809e-06
2.3585510126314033e-08   6.504931635054506e-07   8.444908958802136e-08
2.3585510126314033e-08   6.504931635054506e-07   8.444908958802136e-08
2.3585510126314033e-08   6.504931635054506e-07   8.444908958802136e-08
2.3585510126314033e-08   6.504931635054506e-07   8.444908958802136e-08
2.8215154963264714e-07   -4.660478132995083e-07   -3.0769120882994955e-06
2.8215154963264714e-07   -4.660478132995083e-07   -3.0769120882994955e-06
2.8215154963264714e-07   -4.660478132995083e-07   -3.0769120882994955e-06
2.8215154963264714e-07   -4.660478132995083e-07   -3.0769120882994955e-06
-1.8047500006840604e-06   5.628945043624324e-07   -2.161082283689067e-07
-1.8047500006840604e-06   5.628945043624324e-07   -2.161082283689067e-07
-1.8047500006840604e-06   5.628945043624324e-07   -2.161082283689067e-07
-1.8047500006840604e-06   5.628945043624324e-07   -2.161082283689067e-07
-8.028505948224382e-07   1.1253037325830708e-07   -1.615722092808674e-06
-8.028505948224382e-07   1.1253037325830708e-07   -1.615722092808674e-06
-8.028505948224382e-07   1.1253037325830708e-07   -1.615722092808674e-06
-8.028505948224382e-07   1.1253037325830708e-07   -1.615722092808674e-06
-1.8047500006840604e-06   -4.660478132995083e-07   -3.694277478896626e-06
-1.8047500006840604e-06   -4.660478132995083e-07   -3.694277478896626e-06
-1.8047500006840604e-06   -4.660478132995083e-07   -3.694277478896626e-06
-1.8047500006840604e-06   -4.660478132995083e-07   -3.694277478896626e-06
2.8215154963264714e-07   5.628945043624324e-07   4.0125716222827804e-07
2.8215154963264714e-07   5.628945043624324e-07   4.0125716222827804e-07
2.8215154963264714e-07   5.628945043624324e-07   4.0125716222827804e-07
2.8215154963264714e-07   5.628945043624324e-07   4.0125716222827804e-07
6.055125315884442e-07   -6.200603203544556e-07   -2.573906853492328e-06
6.055125315884442e-07   -6.200603203544556e-07   -2.573906853492328e-06
6.055125315884442e-07   -6.200603203544556e-07   -2.573906853492328e-06
6.055125315884442e-07   -6.200603203544556e-07   -2.573906853492328e-06
-1.3821727769988386e-06   4.940541327352942e-07   7.043332229895918e-08
-1.3821727769988386e-06   4.940541327352942e-07   7.043332229895918e-08
-1.3821727769988386e-06   4.940541327352942e-07   7.043332229895918e-08
-1.3821727769988386e-06   4.940541327352942e-07   7.043332229895918e-08
-4.7421013645455173e-07   4.223090408416678e-08   -1.1717438080840331e-06
-4.7421013645455173e-07   4.223090408416678e-08   -1.1717438080840331e-06
-4.7421013645455173e-07   4.223090408416678e-08   -1.1717438080840331e-06
-4.7421013645455173e-07   4.223090408416678e-08   -1.1717438080840331e-06
              </DataArray>   
             <DataArray type="Float64" NumberOfComponents="3" Name="Stress" format="ascii">   
-3.9515062736340294   -0.9878765684085073   -0.9878765684085073
-3.9515062736340294   -0.9878765684085073   -0.9878765684085073
-3.9515062736340294   -0.9878765684085073   -0.9878765684085073
-3.9515062736340294   -0.9878765684085073   -0.9878765684085073
-2.2868135569839914   -0.072213996568534   -0.04575624221108471
-2.2868135569839914   -0.072213996568534   -0.04575624221108471
-2.2868135569839914   -0.072213996568534   -0.04575624221108471
-2.2868135569839914   -0.072213996568534   -0.04575624221108471
-2.465148803784583   -0.6162872009461458   -0.6162872009461458
-2.465148803784583   -0.6162872009461458   -0.6162872009461458
-2.465148803784583   -0.6162872009461458   -0.6162872009461458
-2.465148803784583   -0.6162872009461458   -0.6162872009461458
-3.8085198077229556   -0.31257430116953333   -0.11947907127348925
-3.8085198077229556   -0.31257430116953333   -0.11947907127348925
-3.8085198077229556   -0.31257430116953333   -0.11947907127348925
-3.8085198077229556   -0.31257430116953333   -0.11947907127348925
-2.9870618471899055   -0.4896000930226878   -0.008235218734987455
-2.9870618471899055   -0.4896000930226878   -0.008235218734987455
-2.9870618471899055   -0.4896000930226878   -0.008235218734987455
-2.9870618471899055   -0.4896000930226878   -0.008235218734987455
-4.135676814704842   -1.0339192036762106   -1.0339192036762106
-4.135676814704842   -1.0339192036762106   -1.0339192036762106
-4.135676814704842   -1.0339192036762106   -1.0339192036762106
-4.135676814704842   -1.0339192036762106   -1.0339192036762106
-2.215558464718968   0.027491033644266527   -0.012113740208481577
-2.215558464718968   0.027491033644266527   -0.012113740208481577
-2.215558464718968   0.027491033644266527   -0.012113740208481577
-2.215558464718968   0.027491033644266527   -0.012113740208481577
-2.472309502117708   -0.618077375529427   -0.618077375529427
-2.472309502117708   -0.618077375529427   -0.618077375529427
-2.472309502117708   -0.618077375529427   -0.618077375529427
-2.472309502117708   -0.618077375529427   -0.618077375529427
-3.936751087592386   -0.3156379790748348   -0.17510572403193556
-3.936751087592386   -0.3156379790748348   -0.17510572403193556
-3.936751087592386   -0.3156379790748348   -0.17510572403193556
-3.936751087592386   -0.3156379790748348   -0.17510572403193556
-3.0986961720989017   -0.4610413169018934   -0.16447033074190306
-3.0986961720989017   -0.4610413169018934   -0.16447033074190306
-3.0986961720989017   -0.4610413169018934   -0.16447033074190306
-3.0986961720989017   -0.4610413169018934   -0.16447033074190306
-4.265113718856708   -1.066278429714177   -1.066278429714177
-4.265113718856708   -1.066278429714177   -1.066278429714177
-4.265113718856708   -1.066278429714177   -1.066278429714177
-4.265113718856708   -1.066278429714177   -1.066278429714177
-2.2093134473559997   0.06719649860730581   0.011629024142381678
-2.2093134473559997   0.06719649860730581   0.011629024142381678
-2.2093134473559997   0.06719649860730581   0.011629024142381678
-2.2093134473559997   0.06719649860730581   0.011629024142381678
-2.4712450872650495   -0.6178112718162624   -0.6178112718162624
-2.4712450872650495   -0.6178112718162624   -0.6178112718162624
-2.4712450872650495   -0.6178112718162624   -0.6178112718162624
-2.4712450872650495   -0.6178112718162624   -0.6178112718162624
-4.165763784856323   -0.27700027177778264   -0.10494584091726505
-4.165763784856323   -0.27700027177778264   -0.10494584091726505
-4.165763784856323   -0.27700027177778264   -0.10494584091726505
-4.165763784856323   -0.27700027177778264   -0.10494584091726505
-3.181605557901465   -0.4539305779222159   -0.2972898978111749
-3.181605557901465   -0.4539305779222159   -0.2972898978111749
-3.181605557901465   -0.4539305779222159   -0.2972898978111749
-3.181605557901465   -0.4539305779222159   -0.2972898978111749
-2.514688343586746   -0.6286720858966865   -0.6286720858966865
-2.514688343586746   -0.6286720858966865   -0.6286720858966865
-2.514688343586746   -0.6286720858966865   -0.6286720858966865
-2.514688343586746   -0.6286720858966865   -0.6286720858966865
-1.0489220313704133   -0.06963737933499858   -0.022646001066384064
-1.0489220313704133   -0.06963737933499858   -0.022646001066384064
-1.0489220313704133   -0.06963737933499858   -0.022646001066384064
-1.0489220313704133   -0.06963737933499858   -0.022646001066384064
-1.1014110317996058   -0.27535275794990144   -0.27535275794990144
-1.1014110317996058   -0.27535275794990144   -0.27535275794990144
-1.1014110317996058   -0.27535275794990144   -0.27535275794990144
-1.1014110317996058   -0.27535275794990144   -0.27535275794990144
-2.289616392520684   -0.2691986129734001   -0.08571373259939563
-2.289616392520684   -0.2691986129734001   -0.08571373259939563
-2.289616392520684   -0.2691986129734001   -0.08571373259939563
-2.289616392520684   -0.2691986129734001   -0.08571373259939563
-1.6885636026230373   -0.31982379972619285   0.013229381230283182
-1.6885636026230373   -0.31982379972619285   0.013229381230283182
-1.6885636026230373   -0.31982379972619285   0.013229381230283182
-1.6885636026230373   -0.31982379972619285   0.013229381230283182
-2.465148803784581   -0.6162872009461452   -0.6162872009461452
-2.465148803784581   -0.6162872009461452   -0.6162872009461452
-2.465148803784581   -0.6162872009461452   -0.6162872009461452
-2.465148803784581   -0.6162872009461452   -0.6162872009461452
-0.9898149761714261   0.007799474387124694   -0.0005247121460292339
-0.9898149761714261   0.007799474387124694   -0.0005247121460292339
-0.9898149761714261   0.007799474387124694   -0.0005247121460292339
-0.9898149761714261   0.007799474387124694   -0.0005247121460292339
-1.0770369915768765   -0.2692592478942191   -0.2692592478942191
-1.0770369915768765   -0.2692592478942191   -0.2692592478942191
-1.0770369915768765   -0.2692592478942191   -0.2692592478942191
-1.0770369915768765   -0.2692592478942191   -0.2692592478942191
-2.2840605076654135   -0.2196645193922977   -0.07524525940508356
-2.2840605076654135   -0.2196645193922977   -0.07524525940508356
-2.2840605076654135   -0.2196645193922977   -0.07524525940508356
-2.2840605076654135   -0.2196645193922977   -0.07524525940508356
-1.665259846314581   -0.26929220358546113   -0.08708898842417402
-1.665259846314581   -0.26929220358546113   -0.08708898842417402
-1.665259846314581   -0.26929220358546113   -0.08708898842417402
-1.665259846314581   -0.26929220358546113   -0.08708898842417402
-2.472309502117708   -0.618077375529427   -0.618077375529427
-2.472309502117708   -0.618077375529427   -0.618077375529427
-2.472309502117708   -0.618077375529427   -0.618077375529427
-2.472309502117708   -0.618077375529427   -0.618077375529427
-0.9507132982520295   0.06722830711546252   0.025871663720333782
-0.9507132982520295   0.06722830711546252   0.025871663720333782
-0.9507132982520295   0.06722830711546252   0.025871663720333782
-0.9507132982520295   0.06722830711546252   0.025871663720333782
-1.0548769688252766   -0.26371924220631915   -0.26371924220631915
-1.0548769688252766   -0.26371924220631915   -0.26371924220631915
-1.0548769688252766   -0.26371924220631915   -0.26371924220631915
-1.0548769688252766   -0.26371924220631915   -0.26371924220631915
-2.2675039450067325   -0.16955704769311708   -0.047359784647850414
-2.2675039450067325   -0.16955704769311708   -0.047359784647850414
-2.2675039450067325   -0.16955704769311708   -0.047359784647850414
-2.2675039450067325   -0.16955704769311708   -0.047359784647850414
-1.6737194715157622   -0.23836648598364593   -0.19406131197345222
-1.6737194715157622   -0.23836648598364593   -0.19406131197345222
-1.6737194715157622   -0.23836648598364593   -0.19406131197345222
-1.6737194715157622   -0.23836648598364593   -0.19406131197345222
-1.1449615058779319   -0.28624037646948297   -0.28624037646948297
-1.1449615058779319   -0.28624037646948297   -0.28624037646948297
-1.1449615058779319   -0.28624037646948297   -0.28624037646948297
-1.1449615058779319   -0.28624037646948297   -0.28624037646948297
0.13644242056766906   0.009022211417238225   0.0011091667793035115
0.13644242056766906   0.009022211417238225   0.0011091667793035115
0.13644242056766906   0.009022211417238225   0.0011091667793035115
0.13644242056766906   0.009022211417238225   0.0011091667793035115
0.17705279682298952   0.04426319920574738   0.04426319920574738
0.17705279682298952   0.04426319920574738   0.04426319920574738
0.17705279682298952   0.04426319920574738   0.04426319920574738
0.17705279682298952   0.04426319920574738   0.04426319920574738
-1.0354269796483357   -0.17897145024041056   -0.0418138049030506
-1.0354269796483357   -0.17897145024041056   -0.0418138049030506
-1.0354269796483357   -0.17897145024041056   -0.0418138049030506
-1.0354269796483357   -0.17897145024041056   -0.0418138049030506
-0.4429684802090719   -0.11238331072087776   0.07533550504912946
-0.4429684802090719   -0.11238331072087776   0.07533550504912946
-0.4429684802090719   -0.11238331072087776   0.07533550504912946
-0.4429684802090719   -0.11238331072087776   0.07533550504912946
-1.1014110317996058   -0.27535275794990144   -0.27535275794990144
-1.1014110317996058   -0.27535275794990144   -0.27535275794990144
-1.1014110317996058   -0.27535275794990144   -0.27535275794990144
-1.1014110317996058   -0.27535275794990144   -0.27535275794990144
0.18017882390024806   0.07778648184122794   0.026370051956558067
0.18017882390024806   0.07778648184122794   0.026370051956558067
0.18017882390024806   0.07778648184122794   0.026370051956558067
0.18017882390024806   0.07778648184122794   0.026370051956558067
0.19888903207554517   0.049722258018886294   0.049722258018886294
0.19888903207554517   0.049722258018886294   0.049722258018886294
0.19888903207554517   0.049722258018886294   0.049722258018886294
0.19888903207554517   0.049722258018886294   0.049722258018886294
-0.9990528349380607   -0.12055461151466101   -0.028043101079713854
-0.9990528349380607   -0.12055461151466101   -0.028043101079713854
-0.9990528349380607   -0.12055461151466101   -0.028043101079713854
-0.9990528349380607   -0.12055461151466101   -0.028043101079713854
-0.42516723228332626   -0.06949136140227985   -0.025670300635219256
-0.42516723228332626   -0.06949136140227985   -0.025670300635219256
-0.42516723228332626   -0.06949136140227985   -0.025670300635219256
-0.42516723228332626   -0.06949136140227985   -0.025670300635219256
-1.0770369915768765   -0.2692592478942191   -0.2692592478942191
-1.0770369915768765   -0.2692592478942191   -0.2692592478942191
-1.0770369915768765   -0.2692592478942191   -0.2692592478942191
-1.0770369915768765   -0.2692592478942191   -0.2692592478942191
0.21527984617372486   0.136833551857811   0.044565034670858636
0.21527984617372486   0.136833551857811   0.044565034670858636
0.21527984617372486   0.136833551857811   0.044565034670858636
0.21527984617372486   0.136833551857811   0.044565034670858636
0.22833901788735067   0.05708475447183767   0.05708475447183767
0.22833901788735067   0.05708475447183767   0.05708475447183767
0.22833901788735067   0.05708475447183767   0.05708475447183767
0.22833901788735067   0.05708475447183767   0.05708475447183767
-0.9594631128800211   -0.050871036715012086   0.0005018320286400146
-0.9594631128800211   -0.050871036715012086   0.0005018320286400146
-0.9594631128800211   -0.050871036715012086   0.0005018320286400146
-0.9594631128800211   -0.050871036715012086   0.0005018320286400146
-0.41269749657818133   -0.028142453585502603   -0.1257745885039744
-0.41269749657818133   -0.028142453585502603   -0.1257745885039744
-0.41269749657818133   -0.028142453585502603   -0.1257745885039744
-0.41269749657818133   -0.028142453585502603   -0.1257745885039744
0.14935127214262323   0.037337818035655806   0.037337818035655806
0.14935127214262323   0.037337818035655806   0.037337818035655806
0.14935127214262323   0.037337818035655806   0.037337818035655806
0.14935127214262323   0.037337818035655806   0.037337818035655806
1.4338406583698686   0.13153064264405276   0.044084112483395825
1.4338406583698686   0.13153064264405276   0.044084112483395825
1.4338406583698686   0.13153064264405276   0.044084112483395825
1.4338406583698686   0.13153064264405276   0.044084112483395825
1.5566085718300073   0.38915214295750183   0.38915214295750183
1.5566085718300073   0.38915214295750183   0.38915214295750183
1.5566085718300073   0.38915214295750183   0.38915214295750183
1.5566085718300073   0.38915214295750183   0.38915214295750183
0.13491060107217595   -0.10098578411611106   -0.021198796226464776
0.13491060107217595   -0.10098578411611106   -0.021198796226464776
0.13491060107217595   -0.10098578411611106   -0.021198796226464776
0.13491060107217595   -0.10098578411611106   -0.021198796226464776
0.8177635405272375   0.10179798636630266   0.14861006733146645
0.8177635405272375   0.10179798636630266   0.14861006733146645
0.8177635405272375   0.10179798636630266   0.14861006733146645
0.8177635405272375   0.10179798636630266   0.14861006733146645
0.17705279682299013   0.04426319920574753   0.04426319920574753
0.17705279682299013   0.04426319920574753   0.04426319920574753
0.17705279682299013   0.04426319920574753   0.04426319920574753
0.17705279682299013   0.04426319920574753   0.04426319920574753
1.4505786002268528   0.18001538378330287   0.06813904411592794
1.4505786002268528   0.18001538378330287   0.06813904411592794
1.4505786002268528   0.18001538378330287   0.06813904411592794
1.4505786002268528   0.18001538378330287   0.06813904411592794
1.5496956148975642   0.38742390372439106   0.38742390372439106
1.5496956148975642   0.38742390372439106   0.38742390372439106
1.5496956148975642   0.38742390372439106   0.38742390372439106
1.5496956148975642   0.38742390372439106   0.38742390372439106
0.17023544970687984   -0.0438728971293285   4.950132377293942e-05
0.17023544970687984   -0.0438728971293285   4.950132377293942e-05
0.17023544970687984   -0.0438728971293285   4.950132377293942e-05
0.17023544970687984   -0.0438728971293285   4.950132377293942e-05
0.8114777096373085   0.13350776205773945   0.03869685975755521
0.8114777096373085   0.13350776205773945   0.03869685975755521
0.8114777096373085   0.13350776205773945   0.03869685975755521
0.8114777096373085   0.13350776205773945   0.03869685975755521
0.1988890320755453   0.04972225801888633   0.04972225801888633
0.1988890320755453   0.04972225801888633   0.04972225801888633
0.1988890320755453   0.04972225801888633   0.04972225801888633
0.1988890320755453   0.04972225801888633   0.04972225801888633
1.457766842591703   0.23055355863898042   0.08465038728049462
1.457766842591703   0.23055355863898042   0.08465038728049462
1.457766842591703   0.23055355863898042   0.08465038728049462
1.457766842591703   0.23055355863898042   0.08465038728049462
1.5794719632863994   0.39486799082159985   0.39486799082159985
1.5794719632863994   0.39486799082159985   0.39486799082159985
1.5794719632863994   0.39486799082159985   0.39486799082159985
1.5794719632863994   0.39486799082159985   0.39486799082159985
0.21660807470205595   0.03170901917686443   0.023805773840335546
0.21660807470205595   0.03170901917686443   0.023805773840335546
0.21660807470205595   0.03170901917686443   0.023805773840335546
0.21660807470205595   0.03170901917686443   0.023805773840335546
0.8238297265288237   0.18105502020199032   -0.06321862712224434
0.8238297265288237   0.18105502020199032   -0.06321862712224434
0.8238297265288237   0.18105502020199032   -0.06321862712224434
0.8238297265288237   0.18105502020199032   -0.06321862712224434
1.5541307859381988   0.3885326964845497   0.3885326964845497
1.5541307859381988   0.3885326964845497   0.3885326964845497
1.5541307859381988   0.3885326964845497   0.3885326964845497
1.5541307859381988   0.3885326964845497   0.3885326964845497
3.2223391211898806   0.24554808361857855   0.08392094219235131
3.2223391211898806   0.24554808361857855   0.08392094219235131
3.2223391211898806   0.24554808361857855   0.08392094219235131
3.2223391211898806   0.24554808361857855   0.08392094219235131
3.2934194640245726   0.8233548660061432   0.8233548660061432
3.2934194640245726   0.8233548660061432   0.8233548660061432
3.2934194640245726   0.8233548660061432   0.8233548660061432
3.2934194640245726   0.8233548660061432   0.8233548660061432
1.3836019438831175   -0.07871591239723397   -0.008012941422211955
1.3836019438831175   -0.07871591239723397   -0.008012941422211955
1.3836019438831175   -0.07871591239723397   -0.008012941422211955
1.3836019438831175   -0.07871591239723397   -0.008012941422211955
2.2983482462265705   0.3252115392514928   0.2595416294651238
2.2983482462265705   0.3252115392514928   0.2595416294651238
2.2983482462265705   0.3252115392514928   0.2595416294651238
2.2983482462265705   0.3252115392514928   0.2595416294651238
1.5566085718300062   0.38915214295750156   0.38915214295750156
1.5566085718300062   0.38915214295750156   0.38915214295750156
1.5566085718300062   0.38915214295750156   0.38915214295750156
1.5566085718300062   0.38915214295750156   0.38915214295750156
3.0519408233256597   0.28701479789939416   0.15230173061837865
3.0519408233256597   0.28701479789939416   0.15230173061837865
3.0519408233256597   0.28701479789939416   0.15230173061837865
3.0519408233256597   0.28701479789939416   0.15230173061837865
3.194743263491446   0.7986858158728615   0.7986858158728615
3.194743263491446   0.7986858158728615   0.7986858158728615
3.194743263491446   0.7986858158728615   0.7986858158728615
3.194743263491446   0.7986858158728615   0.7986858158728615
1.3882088682600189   -0.04353995558737139   0.01095402984842632
1.3882088682600189   -0.04353995558737139   0.01095402984842632
1.3882088682600189   -0.04353995558737139   0.01095402984842632
1.3882088682600189   -0.04353995558737139   0.01095402984842632
2.229906668364267   0.33452527438277574   0.12446643796529722
2.229906668364267   0.33452527438277574   0.12446643796529722
2.229906668364267   0.33452527438277574   0.12446643796529722
2.229906668364267   0.33452527438277574   0.12446643796529722
1.5496956148975642   0.38742390372439106   0.38742390372439106
1.5496956148975642   0.38742390372439106   0.38742390372439106
1.5496956148975642   0.38742390372439106   0.38742390372439106
1.5496956148975642   0.38742390372439106   0.38742390372439106
2.9534224864667054   0.2878879261739129   0.10287982044815758
2.9534224864667054   0.2878879261739129   0.10287982044815758
2.9534224864667054   0.2878879261739129   0.10287982044815758
2.9534224864667054   0.2878879261739129   0.10287982044815758
3.0480142561547257   0.7620035640386814   0.7620035640386814
3.0480142561547257   0.7620035640386814   0.7620035640386814
3.0480142561547257   0.7620035640386814   0.7620035640386814
3.0480142561547257   0.7620035640386814   0.7620035640386814
1.4393313350005015   0.04515022181604372   0.04388261839766662
1.4393313350005015   0.04515022181604372   0.04388261839766662
1.4393313350005015   0.04515022181604372   0.04388261839766662
1.4393313350005015   0.04515022181604372   0.04388261839766662
2.1349744506026935   0.3626261319219235   -0.0326010887761205
2.1349744506026935   0.3626261319219235   -0.0326010887761205
2.1349744506026935   0.3626261319219235   -0.0326010887761205
2.1349744506026935   0.3626261319219235   -0.0326010887761205
-3.1252127200465387   -0.22375327024967528   0.03494655244576381
-3.1252127200465387   -0.22375327024967528   0.03494655244576381
-3.1252127200465387   -0.22375327024967528   0.03494655244576381
-3.1252127200465387   -0.22375327024967528   0.03494655244576381
-1.9890134777285633   -0.04566221640072299   -0.012780718532777693
-1.9890134777285633   -0.04566221640072299   -0.012780718532777693
-1.9890134777285633   -0.04566221640072299   -0.012780718532777693
-1.9890134777285633   -0.04566221640072299   -0.012780718532777693
-2.0026835476748497   0.08082424675799471   0.04167740831604935
-2.0026835476748497   0.08082424675799471   0.04167740831604935
-2.0026835476748497   0.08082424675799471   0.04167740831604935
-2.0026835476748497   0.08082424675799471   0.04167740831604935
-3.1718401239772858   -0.21624185428372428   -0.03745415878450338
-3.1718401239772858   -0.21624185428372428   -0.03745415878450338
-3.1718401239772858   -0.21624185428372428   -0.03745415878450338
-3.1718401239772858   -0.21624185428372428   -0.03745415878450338
-2.4709456551091327   -0.08431372013937283   -0.009674099431923669
-2.4709456551091327   -0.08431372013937283   -0.009674099431923669
-2.4709456551091327   -0.08431372013937283   -0.009674099431923669
-2.4709456551091327   -0.08431372013937283   -0.009674099431923669
-3.1488905893120274   -0.15378525931753162   0.014836919575595603
-3.1488905893120274   -0.15378525931753162   0.014836919575595603
-3.1488905893120274   -0.15378525931753162   0.014836919575595603
-3.1488905893120274   -0.15378525931753162   0.014836919575595603
-2.02897252707102   0.015028207060899135   -0.023971448967667716
-2.02897252707102   0.015028207060899135   -0.023971448967667716
-2.02897252707102   0.015028207060899135   -0.023971448967667716
-2.02897252707102   0.015028207060899135   -0.023971448967667716
-2.0052065551442175   0.11519141585073744   0.04749671814776146
-2.0052065551442175   0.11519141585073744   0.04749671814776146
-2.0052065551442175   0.11519141585073744   0.04749671814776146
-2.0052065551442175   0.11519141585073744   0.04749671814776146
-3.1912583382718123   -0.1905216348948826   -0.04945715383441013
-3.1912583382718123   -0.1905216348948826   -0.04945715383441013
-3.1912583382718123   -0.1905216348948826   -0.04945715383441013
-3.1912583382718123   -0.1905216348948826   -0.04945715383441013
-2.540504875972284   -0.056499070493640446   -0.02403401419103493
-2.540504875972284   -0.056499070493640446   -0.02403401419103493
-2.540504875972284   -0.056499070493640446   -0.02403401419103493
-2.540504875972284   -0.056499070493640446   -0.02403401419103493
-3.1340861023456132   -0.09242279919896623   0.13830519010063896
-3.1340861023456132   -0.09242279919896623   0.13830519010063896
-3.1340861023456132   -0.09242279919896623   0.13830519010063896
-3.1340861023456132   -0.09242279919896623   0.13830519010063896
-2.0385328232288087   0.04093854799642627   -0.0448817544208695
-2.0385328232288087   0.04093854799642627   -0.0448817544208695
-2.0385328232288087   0.04093854799642627   -0.0448817544208695
-2.0385328232288087   0.04093854799642627   -0.0448817544208695
-1.9688858755862413   0.20064533959860525   0.08640430669459193
-1.9688858755862413   0.20064533959860525   0.08640430669459193
-1.9688858755862413   0.20064533959860525   0.08640430669459193
-1.9688858755862413   0.20064533959860525   0.08640430669459193
-3.1033489094647377   -0.15384555273478218   -0.08096410309055996
-3.1033489094647377   -0.15384555273478218   -0.08096410309055996
-3.1033489094647377   -0.15384555273478218   -0.08096410309055996
-3.1033489094647377   -0.15384555273478218   -0.08096410309055996
-2.4435592071652597   0.022663983360518225   0.054110472456089964
-2.4435592071652597   0.022663983360518225   0.054110472456089964
-2.4435592071652597   0.022663983360518225   0.054110472456089964
-2.4435592071652597   0.022663983360518225   0.054110472456089964
-2.0384927964765756   -0.270158531564722   -0.03568099710883915
-2.0384927964765756   -0.270158531564722   -0.03568099710883915
-2.0384927964765756   -0.270158531564722   -0.03568099710883915
-2.0384927964765756   -0.270158531564722   -0.03568099710883915
-0.9388230081263438   -0.020722197381619373   0.010000182813512608
-0.9388230081263438   -0.020722197381619373   0.010000182813512608
-0.9388230081263438   -0.020722197381619373   0.010000182813512608
-0.9388230081263438   -0.020722197381619373   0.010000182813512608
-0.9527111823887855   0.018156150512756403   0.014154874699492483
-0.9527111823887855   0.018156150512756403   0.014154874699492483
-0.9527111823887855   0.018156150512756403   0.014154874699492483
-0.9527111823887855   0.018156150512756403   0.014154874699492483
-2.078977913781035   -0.19777417749479537   -0.06119599796208647
-2.078977913781035   -0.19777417749479537   -0.06119599796208647
-2.078977913781035   -0.19777417749479537   -0.06119599796208647
-2.078977913781035   -0.19777417749479537   -0.06119599796208647
-1.5021985460522174   -0.12189703214091571   -0.03437460480877765
-1.5021985460522174   -0.12189703214091571   -0.03437460480877765
-1.5021985460522174   -0.12189703214091571   -0.03437460480877765
-1.5021985460522174   -0.12189703214091571   -0.03437460480877765
-2.077046765750432   -0.21617069013353882   -0.03314374517033674
-2.077046765750432   -0.21617069013353882   -0.03314374517033674
-2.077046765750432   -0.21617069013353882   -0.03314374517033674
-2.077046765750432   -0.21617069013353882   -0.03314374517033674
-0.9509345480242601   0.04026044554662786   0.0009337514882548636
-0.9509345480242601   0.04026044554662786   0.0009337514882548636
-0.9509345480242601   0.04026044554662786   0.0009337514882548636
-0.9509345480242601   0.04026044554662786   0.0009337514882548636
-0.9492469748682909   0.06620108093289209   0.019269209423750724
-0.9492469748682909   0.06620108093289209   0.019269209423750724
-0.9492469748682909   0.06620108093289209   0.019269209423750724
-0.9492469748682909   0.06620108093289209   0.019269209423750724
-2.079979994105347   -0.1450003975170282   -0.06617866329011979
-2.079979994105347   -0.1450003975170282   -0.06617866329011979
-2.079979994105347   -0.1450003975170282   -0.06617866329011979
-2.079979994105347   -0.1450003975170282   -0.06617866329011979
-1.4994127463696987   -0.06786715366091584   -0.016337460865043632
-1.4994127463696987   -0.06786715366091584   -0.016337460865043632
-1.4994127463696987   -0.06786715366091584   -0.016337460865043632
-1.4994127463696987   -0.06786715366091584   -0.016337460865043632
-2.0718687999615972   -0.16358478665683274   -0.007038303431566875
-2.0718687999615972   -0.16358478665683274   -0.007038303431566875
-2.0718687999615972   -0.16358478665683274   -0.007038303431566875
-2.0718687999615972   -0.16358478665683274   -0.007038303431566875
-0.9504749619125892   0.09166867717215102   -0.012338322036981514
-0.9504749619125892   0.09166867717215102   -0.012338322036981514
-0.9504749619125892   0.09166867717215102   -0.012338322036981514
-0.9504749619125892   0.09166867717215102   -0.012338322036981514
-0.9334699882664158   0.11447565983686275   0.03876979626173603
-0.9334699882664158   0.11447565983686275   0.03876979626173603
-0.9334699882664158   0.11447565983686275   0.03876979626173603
-0.9334699882664158   0.11447565983686275   0.03876979626173603
-2.0578486394400852   -0.08402628809468504   -0.07373788488134753
-2.0578486394400852   -0.08402628809468504   -0.07373788488134753
-2.0578486394400852   -0.08402628809468504   -0.07373788488134753
-2.0578486394400852   -0.08402628809468504   -0.07373788488134753
-1.493286149854309   -0.016740646181884478   0.007502932712859622
-1.493286149854309   -0.016740646181884478   0.007502932712859622
-1.493286149854309   -0.016740646181884478   0.007502932712859622
-1.493286149854309   -0.016740646181884478   0.007502932712859622
-0.9900379571745389   -0.22487920787406832   -0.041917551935023147
-0.9900379571745389   -0.22487920787406832   -0.041917551935023147
-0.9900379571745389   -0.22487920787406832   -0.041917551935023147
-0.9900379571745389   -0.22487920787406832   -0.041917551935023147
0.10327062977797073   0.02348114879644917   0.038569560415071306
0.10327062977797073   0.02348114879644917   0.038569560415071306
0.10327062977797073   0.02348114879644917   0.038569560415071306
0.10327062977797073   0.02348114879644917   0.038569560415071306
0.0984742711057254   0.05678518730385885   0.0030681320642390944
0.0984742711057254   0.05678518730385885   0.0030681320642390944
0.0984742711057254   0.05678518730385885   0.0030681320642390944
0.0984742711057254   0.05678518730385885   0.0030681320642390944
-0.9943299098207048   -0.14902154491525954   -0.02676106703208761
-0.9943299098207048   -0.14902154491525954   -0.02676106703208761
-0.9943299098207048   -0.14902154491525954   -0.02676106703208761
-0.9943299098207048   -0.14902154491525954   -0.02676106703208761
-0.4499635545618837   -0.07451646573983284   -0.014203675972640288
-0.4499635545618837   -0.07451646573983284   -0.014203675972640288
-0.4499635545618837   -0.07451646573983284   -0.014203675972640288
-0.4499635545618837   -0.07451646573983284   -0.014203675972640288
-1.0012051263456234   -0.17149671459470545   -0.038661979977235514
-1.0012051263456234   -0.17149671459470545   -0.038661979977235514
-1.0012051263456234   -0.17149671459470545   -0.038661979977235514
-1.0012051263456234   -0.17149671459470545   -0.038661979977235514
0.10917870979501466   0.08308957914767559   0.030285933666868724
0.10917870979501466   0.08308957914767559   0.030285933666868724
0.10917870979501466   0.08308957914767559   0.030285933666868724
0.10917870979501466   0.08308957914767559   0.030285933666868724
0.1061323252997683   0.10967888741926171   0.017939233352068866
0.1061323252997683   0.10967888741926171   0.017939233352068866
0.1061323252997683   0.10967888741926171   0.017939233352068866
0.1061323252997683   0.10967888741926171   0.017939233352068866
-0.9912213157826226   -0.09102143586856107   -0.03337997834645544
-0.9912213157826226   -0.09102143586856107   -0.03337997834645544
-0.9912213157826226   -0.09102143586856107   -0.03337997834645544
-0.9912213157826226   -0.09102143586856107   -0.03337997834645544
-0.4430195723256751   -0.018297581874655716   0.005321497143503787
-0.4430195723256751   -0.018297581874655716   0.005321497143503787
-0.4430195723256751   -0.018297581874655716   0.005321497143503787
-0.4430195723256751   -0.018297581874655716   0.005321497143503787
-0.9938696928116492   -0.11786501895455435   -0.019778280405594064
-0.9938696928116492   -0.11786501895455435   -0.019778280405594064
-0.9938696928116492   -0.11786501895455435   -0.019778280405594064
-0.9938696928116492   -0.11786501895455435   -0.019778280405594064
0.11289993816829866   0.14064170634475884   0.020814478769222707
0.11289993816829866   0.14064170634475884   0.020814478769222707
0.11289993816829866   0.14064170634475884   0.020814478769222707
0.11289993816829866   0.14064170634475884   0.020814478769222707
0.1084997107763529   0.16853085526510242   0.029548468272842524
0.1084997107763529   0.16853085526510242   0.029548468272842524
0.1084997107763529   0.16853085526510242   0.029548468272842524
0.1084997107763529   0.16853085526510242   0.029548468272842524
-0.9783299976819311   -0.02900960529474536   -0.04204498568422958
-0.9783299976819311   -0.02900960529474536   -0.04204498568422958
-0.9783299976819311   -0.02900960529474536   -0.04204498568422958
-0.9783299976819311   -0.02900960529474536   -0.04204498568422958
-0.43200983973847185   0.040494805876943346   0.026696545722371443
-0.43200983973847185   0.040494805876943346   0.026696545722371443
-0.43200983973847185   0.040494805876943346   0.026696545722371443
-0.43200983973847185   0.040494805876943346   0.026696545722371443
0.047612189055108015   -0.16481681049678068   -0.05142468390601247
0.047612189055108015   -0.16481681049678068   -0.05142468390601247
0.047612189055108015   -0.16481681049678068   -0.05142468390601247
0.047612189055108015   -0.16481681049678068   -0.05142468390601247
1.1802150547807515   0.08151971901245075   0.0707515931508154
1.1802150547807515   0.08151971901245075   0.0707515931508154
1.1802150547807515   0.08151971901245075   0.0707515931508154
1.1802150547807515   0.08151971901245075   0.0707515931508154
1.1787219334940335   0.10975738480149735   -0.011294284060282073
1.1787219334940335   0.10975738480149735   -0.011294284060282073
1.1787219334940335   0.10975738480149735   -0.011294284060282073
1.1787219334940335   0.10975738480149735   -0.011294284060282073
0.06809241479799108   -0.09907804152529928   0.007022079354725687
0.06809241479799108   -0.09907804152529928   0.007022079354725687
0.06809241479799108   -0.09907804152529928   0.007022079354725687
0.06809241479799108   -0.09907804152529928   0.007022079354725687
0.6110429002711363   -0.014081910123764307   0.0013253205500543264
0.6110429002711363   -0.014081910123764307   0.0013253205500543264
0.6110429002711363   -0.014081910123764307   0.0013253205500543264
0.6110429002711363   -0.014081910123764307   0.0013253205500543264
0.05473979851428693   -0.12045332841684492   -0.03836571517224873
0.05473979851428693   -0.12045332841684492   -0.03836571517224873
0.05473979851428693   -0.12045332841684492   -0.03836571517224873
0.05473979851428693   -0.12045332841684492   -0.03836571517224873
1.198950923285915   0.13800904520122081   0.061599004499394344
1.198950923285915   0.13800904520122081   0.061599004499394344
1.198950923285915   0.13800904520122081   0.061599004499394344
1.198950923285915   0.13800904520122081   0.061599004499394344
1.1879539724696073   0.162065745333361   0.012024190874490907
1.1879539724696073   0.162065745333361   0.012024190874490907
1.1879539724696073   0.162065745333361   0.012024190874490907
1.1879539724696073   0.162065745333361   0.012024190874490907
0.07045409710559677   -0.04724676291581426   -0.0035262572837128255
0.07045409710559677   -0.04724676291581426   -0.0035262572837128255
0.07045409710559677   -0.04724676291581426   -0.0035262572837128255
0.07045409710559677   -0.04724676291581426   -0.0035262572837128255
0.6191312266470964   0.035921661947209846   0.02532117255415676
0.6191312266470964   0.035921661947209846   0.02532117255415676
0.6191312266470964   0.035921661947209846   0.02532117255415676
0.6191312266470964   0.035921661947209846   0.02532117255415676
0.06073535341975027   -0.07138013698105074   -0.02798660164770863
0.06073535341975027   -0.07138013698105074   -0.02798660164770863
0.06073535341975027   -0.07138013698105074   -0.02798660164770863
0.06073535341975027   -0.07138013698105074   -0.02798660164770863
1.2026477967115923   0.19117419995473248   0.05638485746302533
1.2026477967115923   0.19117419995473248   0.05638485746302533
1.2026477967115923   0.19117419995473248   0.05638485746302533
1.2026477967115923   0.19117419995473248   0.05638485746302533
1.1688269550651387   0.2224395625946785   0.025239610566321378
1.1688269550651387   0.2224395625946785   0.025239610566321378
1.1688269550651387   0.2224395625946785   0.025239610566321378
1.1688269550651387   0.2224395625946785   0.025239610566321378
0.06976618146555774   0.01696024235353867   -0.012548565369569508
0.06976618146555774   0.01696024235353867   -0.012548565369569508
0.06976618146555774   0.01696024235353867   -0.012548565369569508
0.06976618146555774   0.01696024235353867   -0.012548565369569508
0.6282204708347835   0.09309054202183416   0.047527942407661006
0.6282204708347835   0.09309054202183416   0.047527942407661006
0.6282204708347835   0.09309054202183416   0.047527942407661006
0.6282204708347835   0.09309054202183416   0.047527942407661006
1.0873191923930938   -0.21723474211187815   -0.09497325766314478
1.0873191923930938   -0.21723474211187815   -0.09497325766314478
1.0873191923930938   -0.21723474211187815   -0.09497325766314478
1.0873191923930938   -0.21723474211187815   -0.09497325766314478
2.2384406781966266   0.1478473567839903   0.0688276376382078
2.2384406781966266   0.1478473567839903   0.0688276376382078
2.2384406781966266   0.1478473567839903   0.0688276376382078
2.2384406781966266   0.1478473567839903   0.0688276376382078
2.2636834859780697   0.07033231665776385   -0.14285333824217508
2.2636834859780697   0.07033231665776385   -0.14285333824217508
2.2636834859780697   0.07033231665776385   -0.14285333824217508
2.2636834859780697   0.07033231665776385   -0.14285333824217508
1.158311020187074   -0.044715256852658536   0.04112379105905768
1.158311020187074   -0.044715256852658536   0.04112379105905768
1.158311020187074   -0.044715256852658536   0.04112379105905768
1.158311020187074   -0.044715256852658536   0.04112379105905768
1.6030923241298107   -0.027893583374971   -0.040021488313061626
1.6030923241298107   -0.027893583374971   -0.040021488313061626
1.6030923241298107   -0.027893583374971   -0.040021488313061626
1.6030923241298107   -0.027893583374971   -0.040021488313061626
1.117862163279902   -0.14285702524943655   -0.06297872508000948
1.117862163279902   -0.14285702524943655   -0.06297872508000948
1.117862163279902   -0.14285702524943655   -0.06297872508000948
1.117862163279902   -0.14285702524943655   -0.06297872508000948
2.324665356849877   0.18900709901917995   0.04338123375544671
2.324665356849877   0.18900709901917995   0.04338123375544671
2.324665356849877   0.18900709901917995   0.04338123375544671
2.324665356849877   0.18900709901917995   0.04338123375544671
2.288498901633887   0.12788471089348596   -0.03221267112115844
2.288498901633887   0.12788471089348596   -0.03221267112115844
2.288498901633887   0.12788471089348596   -0.03221267112115844
2.288498901633887   0.12788471089348596   -0.03221267112115844
1.1535892404890458   -0.018882152162292276   0.021148428467317487
1.1535892404890458   -0.018882152162292276   0.021148428467317487
1.1535892404890458   -0.018882152162292276   0.021148428467317487
1.1535892404890458   -0.018882152162292276   0.021148428467317487
1.6868685724368424   0.042128116302526386   0.02769752642019435
1.6868685724368424   0.042128116302526386   0.02769752642019435
1.6868685724368424   0.042128116302526386   0.02769752642019435
1.6868685724368424   0.042128116302526386   0.02769752642019435
1.1211549202048485   -0.10926884682606702   -0.05063647828988538
1.1211549202048485   -0.10926884682606702   -0.05063647828988538
1.1211549202048485   -0.10926884682606702   -0.05063647828988538
1.1211549202048485   -0.10926884682606702   -0.05063647828988538
2.3182034750281293   0.21554165866730723   0.02865324807623193
2.3182034750281293   0.21554165866730723   0.02865324807623193
2.3182034750281293   0.21554165866730723   0.02865324807623193
2.3182034750281293   0.21554165866730723   0.02865324807623193
2.2845319395202344   0.1955402543804926   -0.04936782329982191
2.2845319395202344   0.1955402543804926   -0.04936782329982191
2.2845319395202344   0.1955402543804926   -0.04936782329982191
2.2845319395202344   0.1955402543804926   -0.04936782329982191
1.1297737736259956   0.040698377591922796   0.01171488837334407
1.1297737736259956   0.040698377591922796   0.01171488837334407
1.1297737736259956   0.040698377591922796   0.01171488837334407
1.1297737736259956   0.040698377591922796   0.01171488837334407
1.643638843360956   0.07377938159526565   0.020468289261649522
1.643638843360956   0.07377938159526565   0.020468289261649522
1.643638843360956   0.07377938159526565   0.020468289261649522
1.643638843360956   0.07377938159526565   0.020468289261649522
-2.458007490346793   -0.11165909110223465   0.1262289205778932
-2.458007490346793   -0.11165909110223465   0.1262289205778932
-2.458007490346793   -0.11165909110223465   0.1262289205778932
-2.458007490346793   -0.11165909110223465   0.1262289205778932
-1.6319293904954075   -0.061802422903702525   -0.032845388870271
-1.6319293904954075   -0.061802422903702525   -0.032845388870271
-1.6319293904954075   -0.061802422903702525   -0.032845388870271
-1.6319293904954075   -0.061802422903702525   -0.032845388870271
-1.5732524482343626   0.1321534361989607   0.10593461788599844
-1.5732524482343626   0.1321534361989607   0.10593461788599844
-1.5732524482343626   0.1321534361989607   0.10593461788599844
-1.5732524482343626   0.1321534361989607   0.10593461788599844
-2.4693862340552304   -0.17622699360838873   -0.05148500283182712
-2.4693862340552304   -0.17622699360838873   -0.05148500283182712
-2.4693862340552304   -0.17622699360838873   -0.05148500283182712
-2.4693862340552304   -0.17622699360838873   -0.05148500283182712
-1.950555671976235   -0.03016357425428201   -0.003460071683097546
-1.950555671976235   -0.03016357425428201   -0.003460071683097546
-1.950555671976235   -0.03016357425428201   -0.003460071683097546
-1.950555671976235   -0.03016357425428201   -0.003460071683097546
-2.400794304444774   -0.02624360691492339   0.14149125852698935
-2.400794304444774   -0.02624360691492339   0.14149125852698935
-2.400794304444774   -0.02624360691492339   0.14149125852698935
-2.400794304444774   -0.02624360691492339   0.14149125852698935
-1.631038080368295   -0.007023653017978082   -0.04381645356672435
-1.631038080368295   -0.007023653017978082   -0.04381645356672435
-1.631038080368295   -0.007023653017978082   -0.04381645356672435
-1.631038080368295   -0.007023653017978082   -0.04381645356672435
-1.5668837146629542   0.1638883906397125   0.09821835022970732
-1.5668837146629542   0.1638883906397125   0.09821835022970732
-1.5668837146629542   0.1638883906397125   0.09821835022970732
-1.5668837146629542   0.1638883906397125   0.09821835022970732
-2.4312586676914547   -0.1474659068695095   -0.07051339062424176
-2.4312586676914547   -0.1474659068695095   -0.07051339062424176
-2.4312586676914547   -0.1474659068695095   -0.07051339062424176
-2.4312586676914547   -0.1474659068695095   -0.07051339062424176
-1.9548049549211453   0.0071237454212701445   0.02259887112077197
-1.9548049549211453   0.0071237454212701445   0.02259887112077197
-1.9548049549211453   0.0071237454212701445   0.02259887112077197
-1.9548049549211453   0.0071237454212701445   0.02259887112077197
-2.3673763833041983   0.003693843128357188   0.09773828131417478
-2.3673763833041983   0.003693843128357188   0.09773828131417478
-2.3673763833041983   0.003693843128357188   0.09773828131417478
-2.3673763833041983   0.003693843128357188   0.09773828131417478
-1.6272038275026786   0.016290812189379833   -0.0557846355185712
-1.6272038275026786   0.016290812189379833   -0.0557846355185712
-1.6272038275026786   0.016290812189379833   -0.0557846355185712
-1.6272038275026786   0.016290812189379833   -0.0557846355185712
-1.5684430152851314   0.1849147356593407   0.077931444700448
-1.5684430152851314   0.1849147356593407   0.077931444700448
-1.5684430152851314   0.1849147356593407   0.077931444700448
-1.5684430152851314   0.1849147356593407   0.077931444700448
-2.3817358203094323   -0.11693589881485428   -0.08993866450648193
-2.3817358203094323   -0.11693589881485428   -0.08993866450648193
-2.3817358203094323   -0.11693589881485428   -0.08993866450648193
-2.3817358203094323   -0.11693589881485428   -0.08993866450648193
-1.8987048647643898   0.04049988936086446   0.046906026725603844
-1.8987048647643898   0.04049988936086446   0.046906026725603844
-1.8987048647643898   0.04049988936086446   0.046906026725603844
-1.8987048647643898   0.04049988936086446   0.046906026725603844
-1.636889590163451   -0.15518776031215015   0.035738950197958586
-1.636889590163451   -0.15518776031215015   0.035738950197958586
-1.636889590163451   -0.15518776031215015   0.035738950197958586
-1.636889590163451   -0.15518776031215015   0.035738950197958586
-0.8262003314364127   -0.02976255149951257   0.0016050049131925079
-0.8262003314364127   -0.02976255149951257   0.0016050049131925079
-0.8262003314364127   -0.02976255149951257   0.0016050049131925079
-0.8262003314364127   -0.02976255149951257   0.0016050049131925079
-0.8028384090805747   0.08120961610157507   0.05758346531930533
-0.8028384090805747   0.08120961610157507   0.05758346531930533
-0.8028384090805747   0.08120961610157507   0.05758346531930533
-0.8028384090805747   0.08120961610157507   0.05758346531930533
-1.662937755342556   -0.15304325349754908   -0.05729522795847077
-1.662937755342556   -0.15304325349754908   -0.05729522795847077
-1.662937755342556   -0.15304325349754908   -0.05729522795847077
-1.662937755342556   -0.15304325349754908   -0.05729522795847077
-1.2278243309407746   -0.06025010948734014   -0.024814527897693554
-1.2278243309407746   -0.06025010948734014   -0.024814527897693554
-1.2278243309407746   -0.06025010948734014   -0.024814527897693554
-1.2278243309407746   -0.06025010948734014   -0.024814527897693554
-1.631778393421453   -0.08916950683380065   0.03462783498330496
-1.631778393421453   -0.08916950683380065   0.03462783498330496
-1.631778393421453   -0.08916950683380065   0.03462783498330496
-1.631778393421453   -0.08916950683380065   0.03462783498330496
-0.8276782696291138   0.023655370810393067   -0.009061592132202555
-0.8276782696291138   0.023655370810393067   -0.009061592132202555
-0.8276782696291138   0.023655370810393067   -0.009061592132202555
-0.8276782696291138   0.023655370810393067   -0.009061592132202555
-0.8003293858523255   0.1341312455773575   0.04982894392878734
-0.8003293858523255   0.1341312455773575   0.04982894392878734
-0.8003293858523255   0.1341312455773575   0.04982894392878734
-0.8003293858523255   0.1341312455773575   0.04982894392878734
-1.6535613359828345   -0.10363749303662212   -0.06764387269336035
-1.6535613359828345   -0.10363749303662212   -0.06764387269336035
-1.6535613359828345   -0.10363749303662212   -0.06764387269336035
-1.6535613359828345   -0.10363749303662212   -0.06764387269336035
-1.2144574938191977   -0.006689610078151942   -5.3958120920169494e-05
-1.2144574938191977   -0.006689610078151942   -5.3958120920169494e-05
-1.2144574938191977   -0.006689610078151942   -5.3958120920169494e-05
-1.2144574938191977   -0.006689610078151942   -5.3958120920169494e-05
-1.621764393544356   -0.03548406287860317   0.02318740934101432
-1.621764393544356   -0.03548406287860317   0.02318740934101432
-1.621764393544356   -0.03548406287860317   0.02318740934101432
-1.621764393544356   -0.03548406287860317   0.02318740934101432
-0.8269801378327528   0.07112400587739476   -0.020417576273373067
-0.8269801378327528   0.07112400587739476   -0.020417576273373067
-0.8269801378327528   0.07112400587739476   -0.020417576273373067
-0.8269801378327528   0.07112400587739476   -0.020417576273373067
-0.8001250104424681   0.18973500129753165   0.03734493308211881
-0.8001250104424681   0.18973500129753165   0.03734493308211881
-0.8001250104424681   0.18973500129753165   0.03734493308211881
-0.8001250104424681   0.18973500129753165   0.03734493308211881
-1.6456392129186064   -0.05033744397329731   -0.072797363834293
-1.6456392129186064   -0.05033744397329731   -0.072797363834293
-1.6456392129186064   -0.05033744397329731   -0.072797363834293
-1.6456392129186064   -0.05033744397329731   -0.072797363834293
-1.2152879959853018   0.042412587930708456   0.018863523872126822
-1.2152879959853018   0.042412587930708456   0.018863523872126822
-1.2152879959853018   0.042412587930708456   0.018863523872126822
-1.2152879959853018   0.042412587930708456   0.018863523872126822
-0.8570147093899008   -0.17727976532574413   -0.004949671028023738
-0.8570147093899008   -0.17727976532574413   -0.004949671028023738
-0.8570147093899008   -0.17727976532574413   -0.004949671028023738
-0.8570147093899008   -0.17727976532574413   -0.004949671028023738
-0.027965534790119703   0.008913656899425143   0.036602632201991815
-0.027965534790119703   0.008913656899425143   0.036602632201991815
-0.027965534790119703   0.008913656899425143   0.036602632201991815
-0.027965534790119703   0.008913656899425143   0.036602632201991815
-0.031132150332742276   0.05246747428695649   0.017486269491030174
-0.031132150332742276   0.05246747428695649   0.017486269491030174
-0.031132150332742276   0.05246747428695649   0.017486269491030174
-0.031132150332742276   0.05246747428695649   0.017486269491030174
-0.8576235886759315   -0.11367140026757931   -0.021461416288324594
-0.8576235886759315   -0.11367140026757931   -0.021461416288324594
-0.8576235886759315   -0.11367140026757931   -0.021461416288324594
-0.8576235886759315   -0.11367140026757931   -0.021461416288324594
-0.4447911041213891   -0.05553494098157351   -0.01387589424863048
-0.4447911041213891   -0.05553494098157351   -0.01387589424863048
-0.4447911041213891   -0.05553494098157351   -0.01387589424863048
-0.4447911041213891   -0.05553494098157351   -0.01387589424863048
-0.8567007997277563   -0.11853940321104825   -0.011979468603979582
-0.8567007997277563   -0.11853940321104825   -0.011979468603979582
-0.8567007997277563   -0.11853940321104825   -0.011979468603979582
-0.8567007997277563   -0.11853940321104825   -0.011979468603979582
-0.027342942711902952   0.06204747379944259   0.026852308082741073
-0.027342942711902952   0.06204747379944259   0.026852308082741073
-0.027342942711902952   0.06204747379944259   0.026852308082741073
-0.027342942711902952   0.06204747379944259   0.026852308082741073
-0.02725711324529389   0.11012871974380226   0.008406597178032348
-0.02725711324529389   0.11012871974380226   0.008406597178032348
-0.02725711324529389   0.11012871974380226   0.008406597178032348
-0.02725711324529389   0.11012871974380226   0.008406597178032348
-0.8555008165970754   -0.06044982377476904   -0.03144714044282729
-0.8555008165970754   -0.06044982377476904   -0.03144714044282729
-0.8555008165970754   -0.06044982377476904   -0.03144714044282729
-0.8555008165970754   -0.06044982377476904   -0.03144714044282729
-0.44050292075100617   -0.0022114254887911633   0.006128039348227553
-0.44050292075100617   -0.0022114254887911633   0.006128039348227553
-0.44050292075100617   -0.0022114254887911633   0.006128039348227553
-0.44050292075100617   -0.0022114254887911633   0.006128039348227553
-0.85421220476274   -0.06169533250373116   -0.023758572542188536
-0.85421220476274   -0.06169533250373116   -0.023758572542188536
-0.85421220476274   -0.06169533250373116   -0.023758572542188536
-0.85421220476274   -0.06169533250373116   -0.023758572542188536
-0.024654562073392804   0.11526539147900089   0.01628268130233973
-0.024654562073392804   0.11526539147900089   0.01628268130233973
-0.024654562073392804   0.11526539147900089   0.01628268130233973
-0.024654562073392804   0.11526539147900089   0.01628268130233973
-0.026459887944230348   0.16951692525541012   -0.0012824426711528364
-0.026459887944230348   0.16951692525541012   -0.0012824426711528364
-0.026459887944230348   0.16951692525541012   -0.0012824426711528364
-0.026459887944230348   0.16951692525541012   -0.0012824426711528364
-0.855111417533865   -0.0063195564068859456   -0.04153254467045164
-0.855111417533865   -0.0063195564068859456   -0.04153254467045164
-0.855111417533865   -0.0063195564068859456   -0.04153254467045164
-0.855111417533865   -0.0063195564068859456   -0.04153254467045164
-0.43718024134974565   0.05116247040874357   0.024471447819212386
-0.43718024134974565   0.05116247040874357   0.024471447819212386
-0.43718024134974565   0.05116247040874357   0.024471447819212386
-0.43718024134974565   0.05116247040874357   0.024471447819212386
-0.08436932675424663   -0.19404000839046284   -0.042462662328754563
-0.08436932675424663   -0.19404000839046284   -0.042462662328754563
-0.08436932675424663   -0.19404000839046284   -0.042462662328754563
-0.08436932675424663   -0.19404000839046284   -0.042462662328754563
0.7673348995347123   0.05420114137579385   0.06957923785253711
0.7673348995347123   0.05420114137579385   0.06957923785253711
0.7673348995347123   0.05420114137579385   0.06957923785253711
0.7673348995347123   0.05420114137579385   0.06957923785253711
0.7422483462573376   0.02887457335870136   -0.02737077768461764
0.7422483462573376   0.02887457335870136   -0.02737077768461764
0.7422483462573376   0.02887457335870136   -0.02737077768461764
0.7422483462573376   0.02887457335870136   -0.02737077768461764
-0.05636169023462122   -0.07111218788717846   0.014918232155770799
-0.05636169023462122   -0.07111218788717846   0.014918232155770799
-0.05636169023462122   -0.07111218788717846   0.014918232155770799
-0.05636169023462122   -0.07111218788717846   0.014918232155770799
0.3373723171449613   -0.044830144786881895   -0.007815347747482753
0.3373723171449613   -0.044830144786881895   -0.007815347747482753
0.3373723171449613   -0.044830144786881895   -0.007815347747482753
0.3373723171449613   -0.044830144786881895   -0.007815347747482753
-0.0841000724530192   -0.14158177350927037   -0.05330409331412724
-0.0841000724530192   -0.14158177350927037   -0.05330409331412724
-0.0841000724530192   -0.14158177350927037   -0.05330409331412724
-0.0841000724530192   -0.14158177350927037   -0.05330409331412724
0.7753454822148046   0.10470291271986355   0.06228656274155511
0.7753454822148046   0.10470291271986355   0.06228656274155511
0.7753454822148046   0.10470291271986355   0.06228656274155511
0.7753454822148046   0.10470291271986355   0.06228656274155511
0.7541781796745386   0.0825123275021788   -0.03845488776268934
0.7541781796745386   0.0825123275021788   -0.03845488776268934
0.7541781796745386   0.0825123275021788   -0.03845488776268934
0.7541781796745386   0.0825123275021788   -0.03845488776268934
-0.054797007555328375   -0.023430129152086924   0.004265974523750086
-0.054797007555328375   -0.023430129152086924   0.004265974523750086
-0.054797007555328375   -0.023430129152086924   0.004265974523750086
-0.054797007555328375   -0.023430129152086924   0.004265974523750086
0.3402758548033945   0.003395320369533855   0.012056209545810468
0.3402758548033945   0.003395320369533855   0.012056209545810468
0.3402758548033945   0.003395320369533855   0.012056209545810468
0.3402758548033945   0.003395320369533855   0.012056209545810468
-0.08177302431450648   -0.08982981952328163   -0.06421441890094642
-0.08177302431450648   -0.08982981952328163   -0.06421441890094642
-0.08177302431450648   -0.08982981952328163   -0.06421441890094642
-0.08177302431450648   -0.08982981952328163   -0.06421441890094642
0.7869935476296681   0.15475136906932224   0.05338291044581478
0.7869935476296681   0.15475136906932224   0.05338291044581478
0.7869935476296681   0.15475136906932224   0.05338291044581478
0.7869935476296681   0.15475136906932224   0.05338291044581478
0.7615092987935157   0.14979483590701917   -0.040118714930132686
0.7615092987935157   0.14979483590701917   -0.040118714930132686
0.7615092987935157   0.14979483590701917   -0.040118714930132686
0.7615092987935157   0.14979483590701917   -0.040118714930132686
-0.05491592923067631   0.03231412214745433   -0.006359845995426281
-0.05491592923067631   0.03231412214745433   -0.006359845995426281
-0.05491592923067631   0.03231412214745433   -0.006359845995426281
-0.05491592923067631   0.03231412214745433   -0.006359845995426281
0.35196393293557293   0.05719586250267602   0.03566476575158839
0.35196393293557293   0.05719586250267602   0.03566476575158839
0.35196393293557293   0.05719586250267602   0.03566476575158839
0.35196393293557293   0.05719586250267602   0.03566476575158839
0.687531562990383   -0.192622712069635   -0.08261359142367507
0.687531562990383   -0.192622712069635   -0.08261359142367507
0.687531562990383   -0.192622712069635   -0.08261359142367507
0.687531562990383   -0.192622712069635   -0.08261359142367507
1.5109202855743273   0.11224667939561367   0.07728138080050924
1.5109202855743273   0.11224667939561367   0.07728138080050924
1.5109202855743273   0.11224667939561367   0.07728138080050924
1.5109202855743273   0.11224667939561367   0.07728138080050924
1.499123029031432   -0.0067694645895041705   -0.10995925646952855
1.499123029031432   -0.0067694645895041705   -0.10995925646952855
1.499123029031432   -0.0067694645895041705   -0.10995925646952855
1.499123029031432   -0.0067694645895041705   -0.10995925646952855
0.7490718193729234   -0.01622102691083352   0.051842188162853846
0.7490718193729234   -0.01622102691083352   0.051842188162853846
0.7490718193729234   -0.01622102691083352   0.051842188162853846
0.7490718193729234   -0.01622102691083352   0.051842188162853846
1.0577052238286493   -0.037492220706917045   -0.034639863172675506
1.0577052238286493   -0.037492220706917045   -0.034639863172675506
1.0577052238286493   -0.037492220706917045   -0.034639863172675506
1.0577052238286493   -0.037492220706917045   -0.034639863172675506
0.6881653167194883   -0.1672928551341815   -0.10161849688097145
0.6881653167194883   -0.1672928551341815   -0.10161849688097145
0.6881653167194883   -0.1672928551341815   -0.10161849688097145
0.6881653167194883   -0.1672928551341815   -0.10161849688097145
1.564407489427136   0.14868032137611323   0.06101325954337478
1.564407489427136   0.14868032137611323   0.06101325954337478
1.564407489427136   0.14868032137611323   0.06101325954337478
1.564407489427136   0.14868032137611323   0.06101325954337478
1.5357170641864688   0.023824747882827846   -0.14744489500450464
1.5357170641864688   0.023824747882827846   -0.14744489500450464
1.5357170641864688   0.023824747882827846   -0.14744489500450464
1.5357170641864688   0.023824747882827846   -0.14744489500450464
0.754510043425418   0.007114888378495998   0.0386018701154043
0.754510043425418   0.007114888378495998   0.0386018701154043
0.754510043425418   0.007114888378495998   0.0386018701154043
0.754510043425418   0.007114888378495998   0.0386018701154043
1.1054287806912868   -0.004432871090166879   -0.010602957940712192
1.1054287806912868   -0.004432871090166879   -0.010602957940712192
1.1054287806912868   -0.004432871090166879   -0.010602957940712192
1.1054287806912868   -0.004432871090166879   -0.010602957940712192
0.6959048719674316   -0.13675877609940557   -0.11055032269663445
0.6959048719674316   -0.13675877609940557   -0.11055032269663445
0.6959048719674316   -0.13675877609940557   -0.11055032269663445
0.6959048719674316   -0.13675877609940557   -0.11055032269663445
1.6039900500656348   0.17736622678190767   0.04037855549226127
1.6039900500656348   0.17736622678190767   0.04037855549226127
1.6039900500656348   0.17736622678190767   0.04037855549226127
1.6039900500656348   0.17736622678190767   0.04037855549226127
1.593832233616409   0.10343877659106476   -0.13864157662135973
1.593832233616409   0.10343877659106476   -0.13864157662135973
1.593832233616409   0.10343877659106476   -0.13864157662135973
1.593832233616409   0.10343877659106476   -0.13864157662135973
0.7569533003410696   0.05872628461703268   0.028169844097637165
0.7569533003410696   0.05872628461703268   0.028169844097637165
0.7569533003410696   0.05872628461703268   0.028169844097637165
0.7569533003410696   0.05872628461703268   0.028169844097637165
1.1134540596354983   0.03339444676122835   0.015969627376536975
1.1134540596354983   0.03339444676122835   0.015969627376536975
1.1134540596354983   0.03339444676122835   0.015969627376536975
1.1134540596354983   0.03339444676122835   0.015969627376536975
-1.7582985486347975   -0.05761623975285296   0.11445468502336664
-1.7582985486347975   -0.05761623975285296   0.11445468502336664
-1.7582985486347975   -0.05761623975285296   0.11445468502336664
-1.7582985486347975   -0.05761623975285296   0.11445468502336664
-1.229545139479347   -0.08195734419328288   -0.04326954814397253
-1.229545139479347   -0.08195734419328288   -0.04326954814397253
-1.229545139479347   -0.08195734419328288   -0.04326954814397253
-1.229545139479347   -0.08195734419328288   -0.04326954814397253
-1.1574025920226483   0.11599044421405968   0.09761854424783327
-1.1574025920226483   0.11599044421405968   0.09761854424783327
-1.1574025920226483   0.11599044421405968   0.09761854424783327
-1.1574025920226483   0.11599044421405968   0.09761854424783327
-1.7584432726828   -0.14470282886206676   -0.06328431913221683
-1.7584432726828   -0.14470282886206676   -0.06328431913221683
-1.7584432726828   -0.14470282886206676   -0.06328431913221683
-1.7584432726828   -0.14470282886206676   -0.06328431913221683
-1.4154199823025237   -0.022597792248981452   -0.0029799940795394303
-1.4154199823025237   -0.022597792248981452   -0.0029799940795394303
-1.4154199823025237   -0.022597792248981452   -0.0029799940795394303
-1.4154199823025237   -0.022597792248981452   -0.0029799940795394303
-1.6928346095218887   0.011159637855582993   0.10889652995468994
-1.6928346095218887   0.011159637855582993   0.10889652995468994
-1.6928346095218887   0.011159637855582993   0.10889652995468994
-1.6928346095218887   0.011159637855582993   0.10889652995468994
-1.2176766642531722   -0.034537431573205934   -0.05322394111750971
-1.2176766642531722   -0.034537431573205934   -0.05322394111750971
-1.2176766642531722   -0.034537431573205934   -0.05322394111750971
-1.2176766642531722   -0.034537431573205934   -0.05322394111750971
-1.1465088363123987   0.1400891278132918   0.08251195141070884
-1.1465088363123987   0.1400891278132918   0.08251195141070884
-1.1465088363123987   0.1400891278132918   0.08251195141070884
-1.1465088363123987   0.1400891278132918   0.08251195141070884
-1.7169157066076508   -0.11784420715276728   -0.0800236802257104
-1.7169157066076508   -0.11784420715276728   -0.0800236802257104
-1.7169157066076508   -0.11784420715276728   -0.0800236802257104
-1.7169157066076508   -0.11784420715276728   -0.0800236802257104
-1.405591777176868   0.009196755155046865   0.014946820101103028
-1.405591777176868   0.009196755155046865   0.014946820101103028
-1.405591777176868   0.009196755155046865   0.014946820101103028
-1.405591777176868   0.009196755155046865   0.014946820101103028
-1.6518567590043935   0.04000210260026077   0.08742474803754809
-1.6518567590043935   0.04000210260026077   0.08742474803754809
-1.6518567590043935   0.04000210260026077   0.08742474803754809
-1.6518567590043935   0.04000210260026077   0.08742474803754809
-1.2067420543274257   -0.01293145235150367   -0.06563355849961756
-1.2067420543274257   -0.01293145235150367   -0.06563355849961756
-1.2067420543274257   -0.01293145235150367   -0.06563355849961756
-1.2067420543274257   -0.01293145235150367   -0.06563355849961756
-1.1404738660680076   0.16350506645919188   0.07100420762232461
-1.1404738660680076   0.16350506645919188   0.07100420762232461
-1.1404738660680076   0.16350506645919188   0.07100420762232461
-1.1404738660680076   0.16350506645919188   0.07100420762232461
-1.6612690783356996   -0.08235768882974315   -0.09582441466493771
-1.6612690783356996   -0.08235768882974315   -0.09582441466493771
-1.6612690783356996   -0.08235768882974315   -0.09582441466493771
-1.6612690783356996   -0.08235768882974315   -0.09582441466493771
-1.3528939050999276   0.03896421375012332   0.04012619949432532
-1.3528939050999276   0.03896421375012332   0.04012619949432532
-1.3528939050999276   0.03896421375012332   0.04012619949432532
-1.3528939050999276   0.03896421375012332   0.04012619949432532
-1.2158170990091366   -0.09943686999494913   0.04285018000873383
-1.2158170990091366   -0.09943686999494913   0.04285018000873383
-1.2158170990091366   -0.09943686999494913   0.04285018000873383
-1.2158170990091366   -0.09943686999494913   0.04285018000873383
-0.7043901522775974   -0.0531112622755362   -0.006980982594751689
-0.7043901522775974   -0.0531112622755362   -0.006980982594751689
-0.7043901522775974   -0.0531112622755362   -0.006980982594751689
-0.7043901522775974   -0.0531112622755362   -0.006980982594751689
-0.6686148424241035   0.06780760133432298   0.05263613328242145
-0.6686148424241035   0.06780760133432298   0.05263613328242145
-0.6686148424241035   0.06780760133432298   0.05263613328242145
-0.6686148424241035   0.06780760133432298   0.05263613328242145
-1.2340709509537484   -0.11829130382784198   -0.05144150236576543
-1.2340709509537484   -0.11829130382784198   -0.05144150236576543
-1.2340709509537484   -0.11829130382784198   -0.05144150236576543
-1.2340709509537484   -0.11829130382784198   -0.05144150236576543
-0.9518599324392912   -0.046457209225943985   -0.019374262679555845
-0.9518599324392912   -0.046457209225943985   -0.019374262679555845
-0.9518599324392912   -0.046457209225943985   -0.019374262679555845
-0.9518599324392912   -0.046457209225943985   -0.019374262679555845
-1.201582867385253   -0.04230975665384934   0.03501736830270974
-1.201582867385253   -0.04230975665384934   0.03501736830270974
-1.201582867385253   -0.04230975665384934   0.03501736830270974
-1.201582867385253   -0.04230975665384934   0.03501736830270974
-0.6969367077042193   -0.00400772755129164   -0.0171578642325428
-0.6969367077042193   -0.00400772755129164   -0.0171578642325428
-0.6969367077042193   -0.00400772755129164   -0.0171578642325428
-0.6969367077042193   -0.00400772755129164   -0.0171578642325428
-0.6601083247832571   0.11721473778848285   0.043164270232586746
-0.6601083247832571   0.11721473778848285   0.043164270232586746
-0.6601083247832571   0.11721473778848285   0.043164270232586746
-0.6601083247832571   0.11721473778848285   0.043164270232586746
-1.2174789995113773   -0.07164401243031826   -0.06060572434057318
-1.2174789995113773   -0.07164401243031826   -0.06060572434057318
-1.2174789995113773   -0.07164401243031826   -0.06060572434057318
-1.2174789995113773   -0.07164401243031826   -0.06060572434057318
-0.9335864807701385   0.002130420316626608   0.0014971464818681404
-0.9335864807701385   0.002130420316626608   0.0014971464818681404
-0.9335864807701385   0.002130420316626608   0.0014971464818681404
-0.9335864807701385   0.002130420316626608   0.0014971464818681404
-1.1825318589961364   0.0104953083837101   0.03199065742160247
-1.1825318589961364   0.0104953083837101   0.03199065742160247
-1.1825318589961364   0.0104953083837101   0.03199065742160247
-1.1825318589961364   0.0104953083837101   0.03199065742160247
-0.6898816597821695   0.04024922249078422   -0.028736889464268722
-0.6898816597821695   0.04024922249078422   -0.028736889464268722
-0.6898816597821695   0.04024922249078422   -0.028736889464268722
-0.6898816597821695   0.04024922249078422   -0.028736889464268722
-0.6518902075667076   0.16984057456751314   0.03434372351786044
-0.6518902075667076   0.16984057456751314   0.03434372351786044
-0.6518902075667076   0.16984057456751314   0.03434372351786044
-0.6518902075667076   0.16984057456751314   0.03434372351786044
-1.2050523885224642   -0.021395002768697935   -0.06698833542206412
-1.2050523885224642   -0.021395002768697935   -0.06698833542206412
-1.2050523885224642   -0.021395002768697935   -0.06698833542206412
-1.2050523885224642   -0.021395002768697935   -0.06698833542206412
-0.926517163136845   0.04782384228863645   0.02136254433232311
-0.926517163136845   0.04782384228863645   0.02136254433232311
-0.926517163136845   0.04782384228863645   0.02136254433232311
-0.926517163136845   0.04782384228863645   0.02136254433232311
-0.7193063873046461   -0.13634143670415505   0.0016680166986173211
-0.7193063873046461   -0.13634143670415505   0.0016680166986173211
-0.7193063873046461   -0.13634143670415505   0.0016680166986173211
-0.7193063873046461   -0.13634143670415505   0.0016680166986173211
-0.1847141464360068   -0.015770374299691307   0.029341253226197104
-0.1847141464360068   -0.015770374299691307   0.029341253226197104
-0.1847141464360068   -0.015770374299691307   0.029341253226197104
-0.1847141464360068   -0.015770374299691307   0.029341253226197104
-0.18015223943274267   0.028116317518166456   0.01000582339721549
-0.18015223943274267   0.028116317518166456   0.01000582339721549
-0.18015223943274267   0.028116317518166456   0.01000582339721549
-0.18015223943274267   0.028116317518166456   0.01000582339721549
-0.7114135329441792   -0.07982192642556683   -0.013727791558074163
-0.7114135329441792   -0.07982192642556683   -0.013727791558074163
-0.7114135329441792   -0.07982192642556683   -0.013727791558074163
-0.7114135329441792   -0.07982192642556683   -0.013727791558074163
-0.4496589237905004   -0.04878144265679371   -0.013762108558456755
-0.4496589237905004   -0.04878144265679371   -0.013762108558456755
-0.4496589237905004   -0.04878144265679371   -0.013762108558456755
-0.4496589237905004   -0.04878144265679371   -0.013762108558456755
-0.7102571580647196   -0.08121616633745048   -0.006551677248892409
-0.7102571580647196   -0.08121616633745048   -0.006551677248892409
-0.7102571580647196   -0.08121616633745048   -0.006551677248892409
-0.7102571580647196   -0.08121616633745048   -0.006551677248892409
-0.17713201914218313   0.03368715260006926   0.019536089768110314
-0.17713201914218313   0.03368715260006926   0.019536089768110314
-0.17713201914218313   0.03368715260006926   0.019536089768110314
-0.17713201914218313   0.03368715260006926   0.019536089768110314
-0.16988194682127303   0.08348997996786729   0.0026330084945519992
-0.16988194682127303   0.08348997996786729   0.0026330084945519992
-0.16988194682127303   0.08348997996786729   0.0026330084945519992
-0.16988194682127303   0.08348997996786729   0.0026330084945519992
-0.7028993676861737   -0.030022796479031943   -0.02355341001448174
-0.7028993676861737   -0.030022796479031943   -0.02355341001448174
-0.7028993676861737   -0.030022796479031943   -0.02355341001448174
-0.7028993676861737   -0.030022796479031943   -0.02355341001448174
-0.4386903224425084   0.0009903011680596485   0.00590383178214679
-0.4386903224425084   0.0009903011680596485   0.00590383178214679
-0.4386903224425084   0.0009903011680596485   0.00590383178214679
-0.4386903224425084   0.0009903011680596485   0.00590383178214679
-0.700289746610826   -0.026019834926924   -0.01450826618985146
-0.700289746610826   -0.026019834926924   -0.01450826618985146
-0.700289746610826   -0.026019834926924   -0.01450826618985146
-0.700289746610826   -0.026019834926924   -0.01450826618985146
-0.1686354368590698   0.08334314945330538   0.009012388820131605
-0.1686354368590698   0.08334314945330538   0.009012388820131605
-0.1686354368590698   0.08334314945330538   0.009012388820131605
-0.1686354368590698   0.08334314945330538   0.009012388820131605
-0.1606722151796822   0.13966667445322634   -0.006040592724073063
-0.1606722151796822   0.13966667445322634   -0.006040592724073063
-0.1606722151796822   0.13966667445322634   -0.006040592724073063
-0.1606722151796822   0.13966667445322634   -0.006040592724073063
-0.6954206133684928   0.020355661463444807   -0.033823392387001265
-0.6954206133684928   0.020355661463444807   -0.033823392387001265
-0.6954206133684928   0.020355661463444807   -0.033823392387001265
-0.6954206133684928   0.020355661463444807   -0.033823392387001265
-0.42867514352550734   0.05100043671827523   0.024849930543185343
-0.42867514352550734   0.05100043671827523   0.024849930543185343
-0.42867514352550734   0.05100043671827523   0.024849930543185343
-0.42867514352550734   0.05100043671827523   0.024849930543185343
-0.2284672131129878   -0.1665950163466114   -0.038599438111789106
-0.2284672131129878   -0.1665950163466114   -0.038599438111789106
-0.2284672131129878   -0.1665950163466114   -0.038599438111789106
-0.2284672131129878   -0.1665950163466114   -0.038599438111789106
0.328220708154558   0.026115209220146894   0.06363537106006509
0.328220708154558   0.026115209220146894   0.06363537106006509
0.328220708154558   0.026115209220146894   0.06363537106006509
0.328220708154558   0.026115209220146894   0.06363537106006509
0.3055001607710485   -0.008801095575277598   -0.03538815729040995
0.3055001607710485   -0.008801095575277598   -0.03538815729040995
0.3055001607710485   -0.008801095575277598   -0.03538815729040995
0.3055001607710485   -0.008801095575277598   -0.03538815729040995
-0.19081595114343358   -0.0387261539856016   0.023529736347528918
-0.19081595114343358   -0.0387261539856016   0.023529736347528918
-0.19081595114343358   -0.0387261539856016   0.023529736347528918
-0.19081595114343358   -0.0387261539856016   0.023529736347528918
0.0515303328448331   -0.045699446486612255   -0.009790378853827213
0.0515303328448331   -0.045699446486612255   -0.009790378853827213
0.0515303328448331   -0.045699446486612255   -0.009790378853827213
0.0515303328448331   -0.045699446486612255   -0.009790378853827213
-0.22056076801929206   -0.11643312523228316   -0.0474873767850819
-0.22056076801929206   -0.11643312523228316   -0.0474873767850819
-0.22056076801929206   -0.11643312523228316   -0.0474873767850819
-0.22056076801929206   -0.11643312523228316   -0.0474873767850819
0.3402161264669782   0.07387702449147192   0.05551355112248479
0.3402161264669782   0.07387702449147192   0.05551355112248479
0.3402161264669782   0.07387702449147192   0.05551355112248479
0.3402161264669782   0.07387702449147192   0.05551355112248479
0.324596269513321   0.04357766550869799   -0.04008832924097472
0.324596269513321   0.04357766550869799   -0.04008832924097472
0.324596269513321   0.04357766550869799   -0.04008832924097472
0.324596269513321   0.04357766550869799   -0.04008832924097472
-0.18340339711942455   0.005809461099179139   0.012706275872484005
-0.18340339711942455   0.005809461099179139   0.012706275872484005
-0.18340339711942455   0.005809461099179139   0.012706275872484005
-0.18340339711942455   0.005809461099179139   0.012706275872484005
0.06167988781078339   -0.0005846706152275623   0.010210555189767826
0.06167988781078339   -0.0005846706152275623   0.010210555189767826
0.06167988781078339   -0.0005846706152275623   0.010210555189767826
0.06167988781078339   -0.0005846706152275623   0.010210555189767826
-0.2121082181054392   -0.0672893664654511   -0.057719001492959957
-0.2121082181054392   -0.0672893664654511   -0.057719001492959957
-0.2121082181054392   -0.0672893664654511   -0.057719001492959957
-0.2121082181054392   -0.0672893664654511   -0.057719001492959957
0.35761180633800216   0.12098720891199392   0.047579811479131165
0.35761180633800216   0.12098720891199392   0.047579811479131165
0.35761180633800216   0.12098720891199392   0.047579811479131165
0.35761180633800216   0.12098720891199392   0.047579811479131165
0.3399685044370987   0.10330052466540099   -0.04631226707348335
0.3399685044370987   0.10330052466540099   -0.04631226707348335
0.3399685044370987   0.10330052466540099   -0.04631226707348335
0.3399685044370987   0.10330052466540099   -0.04631226707348335
-0.1754799374242   0.0571771764084319   0.002410294098130865
-0.1754799374242   0.0571771764084319   0.002410294098130865
-0.1754799374242   0.0571771764084319   0.002410294098130865
-0.1754799374242   0.0571771764084319   0.002410294098130865
0.07738539019696498   0.04852419451089848   0.03093271720182672
0.07738539019696498   0.04852419451089848   0.03093271720182672
0.07738539019696498   0.04852419451089848   0.03093271720182672
0.07738539019696498   0.04852419451089848   0.03093271720182672
0.261377984495872   -0.16834222048568795   -0.07612081752752808
0.261377984495872   -0.16834222048568795   -0.07612081752752808
0.261377984495872   -0.16834222048568795   -0.07612081752752808
0.261377984495872   -0.16834222048568795   -0.07612081752752808
0.7846006807478041   0.07727056131369013   0.08232184758899135
0.7846006807478041   0.07727056131369013   0.08232184758899135
0.7846006807478041   0.07727056131369013   0.08232184758899135
0.7846006807478041   0.07727056131369013   0.08232184758899135
0.7768378311876868   -0.04107619934546164   -0.1001996858250347
0.7768378311876868   -0.04107619934546164   -0.1001996858250347
0.7768378311876868   -0.04107619934546164   -0.1001996858250347
0.7768378311876868   -0.04107619934546164   -0.1001996858250347
0.329392025485842   0.013852898354988458   0.061417172353289445
0.329392025485842   0.013852898354988458   0.061417172353289445
0.329392025485842   0.013852898354988458   0.061417172353289445
0.329392025485842   0.013852898354988458   0.061417172353289445
0.5100150150919754   -0.034727729757795506   -0.02685874696186459
0.5100150150919754   -0.034727729757795506   -0.02685874696186459
0.5100150150919754   -0.034727729757795506   -0.02685874696186459
0.5100150150919754   -0.034727729757795506   -0.02685874696186459
0.2686736390870493   -0.14027789404809654   -0.08804396723758723
0.2686736390870493   -0.14027789404809654   -0.08804396723758723
0.2686736390870493   -0.14027789404809654   -0.08804396723758723
0.2686736390870493   -0.14027789404809654   -0.08804396723758723
0.8426247059866817   0.11812308145782528   0.06953540736666466
0.8426247059866817   0.11812308145782528   0.06953540736666466
0.8426247059866817   0.11812308145782528   0.06953540736666466
0.8426247059866817   0.11812308145782528   0.06953540736666466
0.8190452496239435   -0.011726557232687618   -0.12014056413902388
0.8190452496239435   -0.011726557232687618   -0.12014056413902388
0.8190452496239435   -0.011726557232687618   -0.12014056413902388
0.8190452496239435   -0.011726557232687618   -0.12014056413902388
0.3405430296770285   0.03534967518338011   0.04787346190287649
0.3405430296770285   0.03534967518338011   0.04787346190287649
0.3405430296770285   0.03534967518338011   0.04787346190287649
0.3405430296770285   0.03534967518338011   0.04787346190287649
0.5527106203950441   -0.00514906697020337   -0.003280614223361865
0.5527106203950441   -0.00514906697020337   -0.003280614223361865
0.5527106203950441   -0.00514906697020337   -0.003280614223361865
0.5527106203950441   -0.00514906697020337   -0.003280614223361865
0.2803111227265145   -0.11586045776469242   -0.10207593990161888
0.2803111227265145   -0.11586045776469242   -0.10207593990161888
0.2803111227265145   -0.11586045776469242   -0.10207593990161888
0.2803111227265145   -0.11586045776469242   -0.10207593990161888
0.8845558775008436   0.14476229664177337   0.05092372137102749
0.8845558775008436   0.14476229664177337   0.05092372137102749
0.8845558775008436   0.14476229664177337   0.05092372137102749
0.8845558775008436   0.14476229664177337   0.05092372137102749
0.8838213577962334   0.05275025169264365   -0.1285783779794718
0.8838213577962334   0.05275025169264365   -0.1285783779794718
0.8838213577962334   0.05275025169264365   -0.1285783779794718
0.8838213577962334   0.05275025169264365   -0.1285783779794718
0.35195677842752   0.07889855285782157   0.038031074686200254
0.35195677842752   0.07889855285782157   0.038031074686200254
0.35195677842752   0.07889855285782157   0.038031074686200254
0.35195677842752   0.07889855285782157   0.038031074686200254
0.5739090060869564   0.027477241381172537   0.01698602225279591
0.5739090060869564   0.027477241381172537   0.01698602225279591
0.5739090060869564   0.027477241381172537   0.01698602225279591
0.5739090060869564   0.027477241381172537   0.01698602225279591
-1.0552749541843804   -0.017907724414088944   0.10270836545706108
-1.0552749541843804   -0.017907724414088944   0.10270836545706108
-1.0552749541843804   -0.017907724414088944   0.10270836545706108
-1.0552749541843804   -0.017907724414088944   0.10270836545706108
-0.8221963232729705   -0.10420159889446903   -0.05088659148012142
-0.8221963232729705   -0.10420159889446903   -0.05088659148012142
-0.8221963232729705   -0.10420159889446903   -0.05088659148012142
-0.8221963232729705   -0.10420159889446903   -0.05088659148012142
-0.7442709615679137   0.08835817546119681   0.08784839136921466
-0.7442709615679137   0.08835817546119681   0.08784839136921466
-0.7442709615679137   0.08835817546119681   0.08784839136921466
-0.7442709615679137   0.08835817546119681   0.08784839136921466
-1.0507712553542756   -0.11442698903821   -0.0692333380109448
-1.0507712553542756   -0.11442698903821   -0.0692333380109448
-1.0507712553542756   -0.11442698903821   -0.0692333380109448
-1.0507712553542756   -0.11442698903821   -0.0692333380109448
-0.8829450718460763   -0.02434961541181166   -0.012849235556625323
-0.8829450718460763   -0.02434961541181166   -0.012849235556625323
-0.8829450718460763   -0.02434961541181166   -0.012849235556625323
-0.8829450718460763   -0.02434961541181166   -0.012849235556625323
-0.9859960465973525   0.042072186273798606   0.09814353046166246
-0.9859960465973525   0.042072186273798606   0.09814353046166246
-0.9859960465973525   0.042072186273798606   0.09814353046166246
-0.9859960465973525   0.042072186273798606   0.09814353046166246
-0.8045543143646784   -0.06364914389065202   -0.06156105326275219
-0.8045543143646784   -0.06364914389065202   -0.06156105326275219
-0.8045543143646784   -0.06364914389065202   -0.06156105326275219
-0.8045543143646784   -0.06364914389065202   -0.06156105326275219
-0.7257556431736598   0.11125634527268813   0.07431901846757545
-0.7257556431736598   0.11125634527268813   0.07431901846757545
-0.7257556431736598   0.11125634527268813   0.07431901846757545
-0.7257556431736598   0.11125634527268813   0.07431901846757545
-1.0025934624592427   -0.08848142380817015   -0.08652687077400749
-1.0025934624592427   -0.08848142380817015   -0.08652687077400749
-1.0025934624592427   -0.08848142380817015   -0.08652687077400749
-1.0025934624592427   -0.08848142380817015   -0.08652687077400749
-0.8577614727826626   0.005634013923661668   0.006269550851442783
-0.8577614727826626   0.005634013923661668   0.006269550851442783
-0.8577614727826626   0.005634013923661668   0.006269550851442783
-0.8577614727826626   0.005634013923661668   0.006269550851442783
-0.9377562792192115   0.06985661557804626   0.0793210060399178
-0.9377562792192115   0.06985661557804626   0.0793210060399178
-0.9377562792192115   0.06985661557804626   0.0793210060399178
-0.9377562792192115   0.06985661557804626   0.0793210060399178
-0.7863377433502663   -0.04282661105010596   -0.07450852609266305
-0.7863377433502663   -0.04282661105010596   -0.07450852609266305
-0.7863377433502663   -0.04282661105010596   -0.07450852609266305
-0.7863377433502663   -0.04282661105010596   -0.07450852609266305
-0.7107428960887847   0.13973223257948358   0.06409901013431192
-0.7107428960887847   0.13973223257948358   0.06409901013431192
-0.7107428960887847   0.13973223257948358   0.06409901013431192
-0.7107428960887847   0.13973223257948358   0.06409901013431192
-0.9378606555437156   -0.04695201312191488   -0.100145113433949
-0.9378606555437156   -0.04695201312191488   -0.100145113433949
-0.9378606555437156   -0.04695201312191488   -0.100145113433949
-0.9378606555437156   -0.04695201312191488   -0.100145113433949
-0.8068947538432377   0.035174186758430676   0.030010078720442528
-0.8068947538432377   0.035174186758430676   0.030010078720442528
-0.8068947538432377   0.035174186758430676   0.030010078720442528
-0.8068947538432377   0.035174186758430676   0.030010078720442528
-0.7934780076396453   -0.05985996605882349   0.048363353850859686
-0.7934780076396453   -0.05985996605882349   0.048363353850859686
-0.7934780076396453   -0.05985996605882349   0.048363353850859686
-0.7934780076396453   -0.05985996605882349   0.048363353850859686
-0.5816989117240882   -0.07901585139524653   -0.015071359190369072
-0.5816989117240882   -0.07901585139524653   -0.015071359190369072
-0.5816989117240882   -0.07901585139524653   -0.015071359190369072
-0.5816989117240882   -0.07901585139524653   -0.015071359190369072
-0.5382108661938153   0.04015045730491679   0.04490721853809533
-0.5382108661938153   0.04015045730491679   0.04490721853809533
-0.5382108661938153   0.04015045730491679   0.04490721853809533
-0.5382108661938153   0.04015045730491679   0.04490721853809533
-0.8051180607505174   -0.08449859157155243   -0.04353033751104747
-0.8051180607505174   -0.08449859157155243   -0.04353033751104747
-0.8051180607505174   -0.08449859157155243   -0.04353033751104747
-0.8051180607505174   -0.08449859157155243   -0.04353033751104747
-0.6777287561015937   -0.04220911401061693   -0.018203992351639272
-0.6777287561015937   -0.04220911401061693   -0.018203992351639272
-0.6777287561015937   -0.04220911401061693   -0.018203992351639272
-0.6777287561015937   -0.04220911401061693   -0.018203992351639272
-0.7727830652367106   -0.00751351376166326   0.041159562248090434
-0.7727830652367106   -0.00751351376166326   0.041159562248090434
-0.7727830652367106   -0.00751351376166326   0.041159562248090434
-0.7727830652367106   -0.00751351376166326   0.041159562248090434
-0.5669227045190814   -0.03321146331643293   -0.02529005246688594
-0.5669227045190814   -0.03321146331643293   -0.02529005246688594
-0.5669227045190814   -0.03321146331643293   -0.02529005246688594
-0.5669227045190814   -0.03321146331643293   -0.02529005246688594
-0.5222393888274898   0.08671008706790229   0.0359251624666419
-0.5222393888274898   0.08671008706790229   0.0359251624666419
-0.5222393888274898   0.08671008706790229   0.0359251624666419
-0.5222393888274898   0.08671008706790229   0.0359251624666419
-0.7812340402184632   -0.03970787652363908   -0.05210874496010659
-0.7812340402184632   -0.03970787652363908   -0.05210874496010659
-0.7812340402184632   -0.03970787652363908   -0.05210874496010659
-0.7812340402184632   -0.03970787652363908   -0.05210874496010659
-0.6546598122714083   0.002710656288018337   0.0019154334134959122
-0.6546598122714083   0.002710656288018337   0.0019154334134959122
-0.6546598122714083   0.002710656288018337   0.0019154334134959122
-0.6546598122714083   0.002710656288018337   0.0019154334134959122
-0.7470024412529472   0.04203393229853977   0.03730744104528683
-0.7470024412529472   0.04203393229853977   0.03730744104528683
-0.7470024412529472   0.04203393229853977   0.03730744104528683
-0.7470024412529472   0.04203393229853977   0.03730744104528683
-0.5522880766535119   0.009151189385215447   -0.03675937898078552
-0.5522880766535119   0.009151189385215447   -0.03675937898078552
-0.5522880766535119   0.009151189385215447   -0.03675937898078552
-0.5522880766535119   0.009151189385215447   -0.03675937898078552
-0.506319780200137   0.1372232441364339   0.02737029078126771
-0.506319780200137   0.1372232441364339   0.02737029078126771
-0.506319780200137   0.1372232441364339   0.02737029078126771
-0.506319780200137   0.1372232441364339   0.02737029078126771
-0.7614989587793632   0.009188646857815314   -0.05913771759689741
-0.7614989587793632   0.009188646857815314   -0.05913771759689741
-0.7614989587793632   0.009188646857815314   -0.05913771759689741
-0.7614989587793632   0.009188646857815314   -0.05913771759689741
-0.6379689489263793   0.04671677698443766   0.02158407027286998
-0.6379689489263793   0.04671677698443766   0.02158407027286998
-0.6379689489263793   0.04671677698443766   0.02158407027286998
-0.6379689489263793   0.04671677698443766   0.02158407027286998
-0.5810284371582507   -0.0992070422005504   0.00847220444411482
-0.5810284371582507   -0.0992070422005504   0.00847220444411482
-0.5810284371582507   -0.0992070422005504   0.00847220444411482
-0.5810284371582507   -0.0992070422005504   0.00847220444411482
-0.3445109354060618   -0.04156772419832806   0.021371530967298
-0.3445109354060618   -0.04156772419832806   0.021371530967298
-0.3445109354060618   -0.04156772419832806   0.021371530967298
-0.3445109354060618   -0.04156772419832806   0.021371530967298
-0.3326015750741869   -0.0007608417377642507   0.0027656740109465
-0.3326015750741869   -0.0007608417377642507   0.0027656740109465
-0.3326015750741869   -0.0007608417377642507   0.0027656740109465
-0.3326015750741869   -0.0007608417377642507   0.0027656740109465
-0.5652914040996374   -0.0452986052497243   -0.005046408436374487
-0.5652914040996374   -0.0452986052497243   -0.005046408436374487
-0.5652914040996374   -0.0452986052497243   -0.005046408436374487
-0.5652914040996374   -0.0452986052497243   -0.005046408436374487
-0.4565814414487443   -0.044526787282897363   -0.013249103305998515
-0.4565814414487443   -0.044526787282897363   -0.013249103305998515
-0.4565814414487443   -0.044526787282897363   -0.013249103305998515
-0.4565814414487443   -0.044526787282897363   -0.013249103305998515
-0.5646256233767294   -0.047601673512311954   0.0005855634407503883
-0.5646256233767294   -0.047601673512311954   0.0005855634407503883
-0.5646256233767294   -0.047601673512311954   0.0005855634407503883
-0.5646256233767294   -0.047601673512311954   0.0005855634407503883
-0.32966487703109304   0.00514470529082478   0.011543617197826546
-0.32966487703109304   0.00514470529082478   0.011543617197826546
-0.32966487703109304   0.00514470529082478   0.011543617197826546
-0.32966487703109304   0.00514470529082478   0.011543617197826546
-0.3152605841932148   0.0513023244479523   -0.004566588872519414
-0.3152605841932148   0.0513023244479523   -0.004566588872519414
-0.3152605841932148   0.0513023244479523   -0.004566588872519414
-0.3152605841932148   0.0513023244479523   -0.004566588872519414
-0.5492916888192367   0.002079421866196446   -0.01470567229039111
-0.5492916888192367   0.002079421866196446   -0.01470567229039111
-0.5492916888192367   0.002079421866196446   -0.01470567229039111
-0.5492916888192367   0.002079421866196446   -0.01470567229039111
-0.43829392530978556   0.002292705104348536   0.006256760178044527
-0.43829392530978556   0.002292705104348536   0.006256760178044527
-0.43829392530978556   0.002292705104348536   0.006256760178044527
-0.43829392530978556   0.002292705104348536   0.006256760178044527
-0.5473912216340233   0.004303943195551163   -0.007427857693686091
-0.5473912216340233   0.004303943195551163   -0.007427857693686091
-0.5473912216340233   0.004303943195551163   -0.007427857693686091
-0.5473912216340233   0.004303943195551163   -0.007427857693686091
-0.31390355116800583   0.052335303329014204   0.0011855973724667554
-0.31390355116800583   0.052335303329014204   0.0011855973724667554
-0.31390355116800583   0.052335303329014204   0.0011855973724667554
-0.31390355116800583   0.052335303329014204   0.0011855973724667554
-0.2988826031575703   0.10384042408019127   -0.012937589514191328
-0.2988826031575703   0.10384042408019127   -0.012937589514191328
-0.2988826031575703   0.10384042408019127   -0.012937589514191328
-0.2988826031575703   0.10384042408019127   -0.012937589514191328
-0.5342783516169437   0.04982362473682256   -0.025022946903150475
-0.5342783516169437   0.04982362473682256   -0.025022946903150475
-0.5342783516169437   0.04982362473682256   -0.025022946903150475
-0.5342783516169437   0.04982362473682256   -0.025022946903150475
-0.4209915817579444   0.04927998385170246   0.024978185016644873
-0.4209915817579444   0.04927998385170246   0.024978185016644873
-0.4209915817579444   0.04927998385170246   0.024978185016644873
-0.4209915817579444   0.04927998385170246   0.024978185016644873
-0.37352906563579424   -0.13334932385489687   -0.0319375205248015
-0.37352906563579424   -0.13334932385489687   -0.0319375205248015
-0.37352906563579424   -0.13334932385489687   -0.0319375205248015
-0.37352906563579424   -0.13334932385489687   -0.0319375205248015
-0.11382320877072405   -0.0018030657288213448   0.05604753496954013
-0.11382320877072405   -0.0018030657288213448   0.05604753496954013
-0.11382320877072405   -0.0018030657288213448   0.05604753496954013
-0.11382320877072405   -0.0018030657288213448   0.05604753496954013
-0.1296197448684351   -0.03940001278939628   -0.04103576394644292
-0.1296197448684351   -0.03940001278939628   -0.04103576394644292
-0.1296197448684351   -0.03940001278939628   -0.04103576394644292
-0.1296197448684351   -0.03940001278939628   -0.04103576394644292
-0.3276128658794178   -0.005096926221055835   0.03204530446808048
-0.3276128658794178   -0.005096926221055835   0.03204530446808048
-0.3276128658794178   -0.005096926221055835   0.03204530446808048
-0.3276128658794178   -0.005096926221055835   0.03204530446808048
-0.2361226792421629   -0.042950036513736745   -0.009559322352136267
-0.2361226792421629   -0.042950036513736745   -0.009559322352136267
-0.2361226792421629   -0.042950036513736745   -0.009559322352136267
-0.2361226792421629   -0.042950036513736745   -0.009559322352136267
-0.35807055946254895   -0.08495920071054772   -0.04038088895808625
-0.35807055946254895   -0.08495920071054772   -0.04038088895808625
-0.35807055946254895   -0.08495920071054772   -0.04038088895808625
-0.35807055946254895   -0.08495920071054772   -0.04038088895808625
-0.09512446350813647   0.04449984947726261   0.04754078058839139
-0.09512446350813647   0.04449984947726261   0.04754078058839139
-0.09512446350813647   0.04449984947726261   0.04754078058839139
-0.09512446350813647   0.04449984947726261   0.04754078058839139
-0.10429533106074253   0.009851031333493888   -0.04619393901465496
-0.10429533106074253   0.009851031333493888   -0.04619393901465496
-0.10429533106074253   0.009851031333493888   -0.04619393901465496
-0.10429533106074253   0.009851031333493888   -0.04619393901465496
-0.3128450393090006   0.03744568026035319   0.021367779736150724
-0.3128450393090006   0.03744568026035319   0.021367779736150724
-0.3128450393090006   0.03744568026035319   0.021367779736150724
-0.3128450393090006   0.03744568026035319   0.021367779736150724
-0.21668386190011749   0.000644103592934285   0.01031492713650736
-0.21668386190011749   0.000644103592934285   0.01031492713650736
-0.21668386190011749   0.000644103592934285   0.01031492713650736
-0.21668386190011749   0.000644103592934285   0.01031492713650736
-0.3423364426620401   -0.03853926211464516   -0.05010429465405257
-0.3423364426620401   -0.03853926211464516   -0.05010429465405257
-0.3423364426620401   -0.03853926211464516   -0.05010429465405257
-0.3423364426620401   -0.03853926211464516   -0.05010429465405257
-0.07104574791118588   0.08959415350500866   0.04031085456161339
-0.07104574791118588   0.08959415350500866   0.04031085456161339
-0.07104574791118588   0.08959415350500866   0.04031085456161339
-0.07104574791118588   0.08959415350500866   0.04031085456161339
-0.08287110109425883   0.06486879426755209   -0.0517404529362094
-0.08287110109425883   0.06486879426755209   -0.0517404529362094
-0.08287110109425883   0.06486879426755209   -0.0517404529362094
-0.08287110109425883   0.06486879426755209   -0.0517404529362094
-0.29772716423507656   0.08560517923768265   0.0110748499407863
-0.29772716423507656   0.08560517923768265   0.0110748499407863
-0.29772716423507656   0.08560517923768265   0.0110748499407863
-0.29772716423507656   0.08560517923768265   0.0110748499407863
-0.1965455723293462   0.04611440801924807   0.030201369569653552
-0.1965455723293462   0.04611440801924807   0.030201369569653552
-0.1965455723293462   0.04611440801924807   0.030201369569653552
-0.1965455723293462   0.04611440801924807   0.030201369569653552
-0.16723171312333693   -0.14343324790233855   -0.06936480462001098
-0.16723171312333693   -0.14343324790233855   -0.06936480462001098
-0.16723171312333693   -0.14343324790233855   -0.06936480462001098
-0.16723171312333693   -0.14343324790233855   -0.06936480462001098
0.060983516249344644   0.04267729476161992   0.08537347347587783
0.060983516249344644   0.04267729476161992   0.08537347347587783
0.060983516249344644   0.04267729476161992   0.08537347347587783
0.060983516249344644   0.04267729476161992   0.08537347347587783
0.06149521129358837   -0.07037559444483155   -0.09182847745355689
0.06149521129358837   -0.07037559444483155   -0.09182847745355689
0.06149521129358837   -0.07037559444483155   -0.09182847745355689
0.06149521129358837   -0.07037559444483155   -0.09182847745355689
-0.09071680280701462   0.04420792021934741   0.06987101335191577
-0.09071680280701462   0.04420792021934741   0.06987101335191577
-0.09071680280701462   0.04420792021934741   0.06987101335191577
-0.09071680280701462   0.04420792021934741   0.06987101335191577
-0.035878104179251954   -0.030359616784591027   -0.016301738148561933
-0.035878104179251954   -0.030359616784591027   -0.016301738148561933
-0.035878104179251954   -0.030359616784591027   -0.016301738148561933
-0.035878104179251954   -0.030359616784591027   -0.016301738148561933
-0.15159566065753113   -0.11057595373383997   -0.07973940194747946
-0.15159566065753113   -0.11057595373383997   -0.07973940194747946
-0.15159566065753113   -0.11057595373383997   -0.07973940194747946
-0.15159566065753113   -0.11057595373383997   -0.07973940194747946
0.1266920024126967   0.08872621277694766   0.07505367092020564
0.1266920024126967   0.08872621277694766   0.07505367092020564
0.1266920024126967   0.08872621277694766   0.07505367092020564
0.1266920024126967   0.08872621277694766   0.07505367092020564
0.10992776331810868   -0.042160197875737784   -0.10906063703376255
0.10992776331810868   -0.042160197875737784   -0.10906063703376255
0.10992776331810868   -0.042160197875737784   -0.10906063703376255
0.10992776331810868   -0.042160197875737784   -0.10906063703376255
-0.07288569704304979   0.06468058201778862   0.05602468038951392
-0.07288569704304979   0.06468058201778862   0.05602468038951392
-0.07288569704304979   0.06468058201778862   0.05602468038951392
-0.07288569704304979   0.06468058201778862   0.05602468038951392
0.0040020138793502155   -0.0013425235154372215   0.005249984000453776
0.0040020138793502155   -0.0013425235154372215   0.005249984000453776
0.0040020138793502155   -0.0013425235154372215   0.005249984000453776
0.0040020138793502155   -0.0013425235154372215   0.005249984000453776
-0.13293905911153228   -0.08736145378494622   -0.09220009415016377
-0.13293905911153228   -0.08736145378494622   -0.09220009415016377
-0.13293905911153228   -0.08736145378494622   -0.09220009415016377
-0.13293905911153228   -0.08736145378494622   -0.09220009415016377
0.17430079826576542   0.11420151080617258   0.0564428290226185
0.17430079826576542   0.11420151080617258   0.0564428290226185
0.17430079826576542   0.11420151080617258   0.0564428290226185
0.17430079826576542   0.11420151080617258   0.0564428290226185
0.17774669309159324   0.013096047797465319   -0.11677136527968499
0.17774669309159324   0.013096047797465319   -0.11677136527968499
0.17774669309159324   0.013096047797465319   -0.11677136527968499
0.17774669309159324   0.013096047797465319   -0.11677136527968499
-0.05622318564442598   0.10084281855545282   0.0455251000250542
-0.05622318564442598   0.10084281855545282   0.0455251000250542
-0.05622318564442598   0.10084281855545282   0.0455251000250542
-0.05622318564442598   0.10084281855545282   0.0455251000250542
0.03984205757337452   0.029169093187402906   0.02629572726234414
0.03984205757337452   0.029169093187402906   0.02629572726234414
0.03984205757337452   0.029169093187402906   0.02629572726234414
0.03984205757337452   0.029169093187402906   0.02629572726234414
-0.35110607706321734   0.01969873722342464   0.09752484289959376
-0.35110607706321734   0.01969873722342464   0.09752484289959376
-0.35110607706321734   0.01969873722342464   0.09752484289959376
-0.35110607706321734   0.01969873722342464   0.09752484289959376
-0.41557503905923154   -0.1272295414556469   -0.057561836227642105
-0.41557503905923154   -0.1272295414556469   -0.057561836227642105
-0.41557503905923154   -0.1272295414556469   -0.057561836227642105
-0.41557503905923154   -0.1272295414556469   -0.057561836227642105
-0.33178263327018626   0.05919239191735698   0.07987494468280065
-0.33178263327018626   0.05919239191735698   0.07987494468280065
-0.33178263327018626   0.05919239191735698   0.07987494468280065
-0.33178263327018626   0.05919239191735698   0.07987494468280065
-0.3408983958555679   -0.08391218647576587   -0.07413717187293413
-0.3408983958555679   -0.08391218647576587   -0.07413717187293413
-0.3408983958555679   -0.08391218647576587   -0.07413717187293413
-0.3408983958555679   -0.08391218647576587   -0.07413717187293413
-0.35068526079707896   -0.026984629658715273   -0.026592619725888215
-0.35068526079707896   -0.026984629658715273   -0.026592619725888215
-0.35068526079707896   -0.026984629658715273   -0.026592619725888215
-0.35068526079707896   -0.026984629658715273   -0.026592619725888215
-0.2766366835080564   0.07241536134249522   0.09084384204636209
-0.2766366835080564   0.07241536134249522   0.09084384204636209
-0.2766366835080564   0.07241536134249522   0.09084384204636209
-0.2766366835080564   0.07241536134249522   0.09084384204636209
-0.3920297526846331   -0.09312056296783948   -0.06904769750423702
-0.3920297526846331   -0.09312056296783948   -0.06904769750423702
-0.3920297526846331   -0.09312056296783948   -0.06904769750423702
-0.3920297526846331   -0.09312056296783948   -0.06904769750423702
-0.30584305093622627   0.08162108155358569   0.06723524451178575
-0.30584305093622627   0.08162108155358569   0.06723524451178575
-0.30584305093622627   0.08162108155358569   0.06723524451178575
-0.30584305093622627   0.08162108155358569   0.06723524451178575
-0.2854765087226862   -0.058564855144714364   -0.09238119993937624
-0.2854765087226862   -0.058564855144714364   -0.09238119993937624
-0.2854765087226862   -0.058564855144714364   -0.09238119993937624
-0.2854765087226862   -0.058564855144714364   -0.09238119993937624
-0.30979570888684965   0.0016840041938074174   -0.00545471529382148
-0.30979570888684965   0.0016840041938074174   -0.00545471529382148
-0.30979570888684965   0.0016840041938074174   -0.00545471529382148
-0.30979570888684965   0.0016840041938074174   -0.00545471529382148
-0.2208303132460613   0.09969463720755695   0.072590285091477
-0.2208303132460613   0.09969463720755695   0.072590285091477
-0.2208303132460613   0.09969463720755695   0.072590285091477
-0.2208303132460613   0.09969463720755695   0.072590285091477
-0.3666993429642386   -0.07284850735007055   -0.08257662672460467
-0.3666993429642386   -0.07284850735007055   -0.08257662672460467
-0.3666993429642386   -0.07284850735007055   -0.08257662672460467
-0.3666993429642386   -0.07284850735007055   -0.08257662672460467
-0.28209879847328245   0.11584406041406897   0.058073397175567955
-0.28209879847328245   0.11584406041406897   0.058073397175567955
-0.28209879847328245   0.11584406041406897   0.058073397175567955
-0.28209879847328245   0.11584406041406897   0.058073397175567955
-0.21150496930414045   -0.010379779495327146   -0.10407921342387554
-0.21150496930414045   -0.010379779495327146   -0.10407921342387554
-0.21150496930414045   -0.010379779495327146   -0.10407921342387554
-0.21150496930414045   -0.010379779495327146   -0.10407921342387554
-0.2605990651423946   0.03161431168027394   0.0171925011598711
-0.2605990651423946   0.03161431168027394   0.0171925011598711
-0.2605990651423946   0.03161431168027394   0.0171925011598711
-0.2605990651423946   0.03161431168027394   0.0171925011598711
-0.3721488495414642   -0.023019710949611527   0.05535928085515136
-0.3721488495414642   -0.023019710949611527   0.05535928085515136
-0.3721488495414642   -0.023019710949611527   0.05535928085515136
-0.3721488495414642   -0.023019710949611527   0.05535928085515136
-0.4607463122612458   -0.10377172806676113   -0.022492074058040427
-0.4607463122612458   -0.10377172806676113   -0.022492074058040427
-0.4607463122612458   -0.10377172806676113   -0.022492074058040427
-0.4607463122612458   -0.10377172806676113   -0.022492074058040427
-0.41058714113896055   0.010525513431357755   0.03705926789197729
-0.41058714113896055   0.010525513431357755   0.03705926789197729
-0.41058714113896055   0.010525513431357755   0.03705926789197729
-0.41058714113896055   0.010525513431357755   0.03705926789197729
-0.37625776816108414   -0.04921322008120769   -0.034095117773124003
-0.37625776816108414   -0.04921322008120769   -0.034095117773124003
-0.37625776816108414   -0.04921322008120769   -0.034095117773124003
-0.37625776816108414   -0.04921322008120769   -0.034095117773124003
-0.4052037081203684   -0.03820992662369981   -0.018760148869329134
-0.4052037081203684   -0.03820992662369981   -0.018760148869329134
-0.4052037081203684   -0.03820992662369981   -0.018760148869329134
-0.4052037081203684   -0.03820992662369981   -0.018760148869329134
-0.34474268774772127   0.025946636144754245   0.04832042806772047
-0.34474268774772127   0.025946636144754245   0.04832042806772047
-0.34474268774772127   0.025946636144754245   0.04832042806772047
-0.34474268774772127   0.025946636144754245   0.04832042806772047
-0.43895931414877004   -0.06149143539104187   -0.032784648334670353
-0.43895931414877004   -0.06149143539104187   -0.032784648334670353
-0.43895931414877004   -0.06149143539104187   -0.032784648334670353
-0.43895931414877004   -0.06149143539104187   -0.032784648334670353
-0.3874176314593581   0.05513313039778368   0.02827988088790205
-0.3874176314593581   0.05513313039778368   0.02827988088790205
-0.3874176314593581   0.05513313039778368   0.02827988088790205
-0.3874176314593581   0.05513313039778368   0.02827988088790205
-0.34531578250348666   -0.006188784080396248   -0.042318547690519084
-0.34531578250348666   -0.006188784080396248   -0.042318547690519084
-0.34531578250348666   -0.006188784080396248   -0.042318547690519084
-0.34531578250348666   -0.006188784080396248   -0.042318547690519084
-0.37754634844189433   0.003442424740032049   0.0007590266654996722
-0.37754634844189433   0.003442424740032049   0.0007590266654996722
-0.37754634844189433   0.003442424740032049   0.0007590266654996722
-0.37754634844189433   0.003442424740032049   0.0007590266654996722
-0.312270066471588   0.07320909741289157   0.04351215097567136
-0.312270066471588   0.07320909741289157   0.04351215097567136
-0.312270066471588   0.07320909741289157   0.04351215097567136
-0.312270066471588   0.07320909741289157   0.04351215097567136
-0.417113790488764   -0.020915194093015205   -0.04415258976833649
-0.417113790488764   -0.020915194093015205   -0.04415258976833649
-0.417113790488764   -0.020915194093015205   -0.04415258976833649
-0.417113790488764   -0.020915194093015205   -0.04415258976833649
-0.3641378969550597   0.10447550683170206   0.019935520448202217
-0.3641378969550597   0.10447550683170206   0.019935520448202217
-0.3641378969550597   0.10447550683170206   0.019935520448202217
-0.3641378969550597   0.10447550683170206   0.019935520448202217
-0.31859169171720175   0.04153198864602023   -0.0500789972759799
-0.31859169171720175   0.04153198864602023   -0.0500789972759799
-0.31859169171720175   0.04153198864602023   -0.0500789972759799
-0.31859169171720175   0.04153198864602023   -0.0500789972759799
-0.35140111543481023   0.04642359314813656   0.020613509553015552
-0.35140111543481023   0.04642359314813656   0.020613509553015552
-0.35140111543481023   0.04642359314813656   0.020613509553015552
-0.35140111543481023   0.04642359314813656   0.020613509553015552
-0.4449562381172817   -0.06282814767919112   0.015514716274202527
-0.4449562381172817   -0.06282814767919112   0.015514716274202527
-0.4449562381172817   -0.06282814767919112   0.015514716274202527
-0.4449562381172817   -0.06282814767919112   0.015514716274202527
-0.5058376096096482   -0.06537297021992651   0.013621306259234304
-0.5058376096096482   -0.06537297021992651   0.013621306259234304
-0.5058376096096482   -0.06537297021992651   0.013621306259234304
-0.5058376096096482   -0.06537297021992651   0.013621306259234304
-0.4872434213206486   -0.02963751175191931   -0.004788923726338372
-0.4872434213206486   -0.02963751175191931   -0.004788923726338372
-0.4872434213206486   -0.02963751175191931   -0.004788923726338372
-0.4872434213206486   -0.02963751175191931   -0.004788923726338372
-0.42100737196876936   -0.008938693699595962   0.00442232087388713
-0.42100737196876936   -0.008938693699595962   0.00442232087388713
-0.42100737196876936   -0.008938693699595962   0.00442232087388713
-0.42100737196876936   -0.008938693699595962   0.00442232087388713
-0.4654578855742596   -0.03932986887409953   -0.012434272494853807
-0.4654578855742596   -0.03932986887409953   -0.012434272494853807
-0.4654578855742596   -0.03932986887409953   -0.012434272494853807
-0.4654578855742596   -0.03932986887409953   -0.012434272494853807
-0.421364069793559   -0.01396985757597155   0.0076699956263108285
-0.421364069793559   -0.01396985757597155   0.0076699956263108285
-0.421364069793559   -0.01396985757597155   0.0076699956263108285
-0.421364069793559   -0.01396985757597155   0.0076699956263108285
-0.4839252768953359   -0.021644901275020556   0.00380918792333073
-0.4839252768953359   -0.021644901275020556   0.00380918792333073
-0.4839252768953359   -0.021644901275020556   0.00380918792333073
-0.4839252768953359   -0.021644901275020556   0.00380918792333073
-0.4629127723432311   0.0198639156613777   -0.01216211979049047
-0.4629127723432311   0.0198639156613777   -0.01216211979049047
-0.4629127723432311   0.0198639156613777   -0.01216211979049047
-0.4629127723432311   0.0198639156613777   -0.01216211979049047
-0.39791623955256356   0.03599809763073203   -0.005078126811073502
-0.39791623955256356   0.03599809763073203   -0.005078126811073502
-0.39791623955256356   0.03599809763073203   -0.005078126811073502
-0.39791623955256356   0.03599809763073203   -0.005078126811073502
-0.44004557059388827   0.004930910291198257   0.006830950215222172
-0.44004557059388827   0.004930910291198257   0.006830950215222172
-0.44004557059388827   0.004930910291198257   0.006830950215222172
-0.44004557059388827   0.004930910291198257   0.006830950215222172
-0.3971261228624942   0.03535648364135224   -0.0004859293713546445
-0.3971261228624942   0.03535648364135224   -0.0004859293713546445
-0.3971261228624942   0.03535648364135224   -0.0004859293713546445
-0.3971261228624942   0.03535648364135224   -0.0004859293713546445
-0.4611208453845697   0.023087573299486935   -0.006426142635292814
-0.4611208453845697   0.023087573299486935   -0.006426142635292814
-0.4611208453845697   0.023087573299486935   -0.006426142635292814
-0.4611208453845697   0.023087573299486935   -0.006426142635292814
-0.43961648037141493   0.06966226931224459   -0.02049159527156899
-0.43961648037141493   0.06966226931224459   -0.02049159527156899
-0.43961648037141493   0.06966226931224459   -0.02049159527156899
-0.43961648037141493   0.06966226931224459   -0.02049159527156899
-0.37589681300844774   0.0811188353888619   -0.015502388375897819
-0.37589681300844774   0.0811188353888619   -0.015502388375897819
-0.37589681300844774   0.0811188353888619   -0.015502388375897819
-0.37589681300844774   0.0811188353888619   -0.015502388375897819
-0.41580213748206557   0.04927152742570676   0.025195438832201038
-0.41580213748206557   0.04927152742570676   0.025195438832201038
-0.41580213748206557   0.04927152742570676   0.025195438832201038
-0.41580213748206557   0.04927152742570676   0.025195438832201038
-0.5204471598195669   -0.09941437161213065   -0.025385043398163536
-0.5204471598195669   -0.09941437161213065   -0.025385043398163536
-0.5204471598195669   -0.09941437161213065   -0.025385043398163536
-0.5204471598195669   -0.09941437161213065   -0.025385043398163536
-0.5546901373706872   -0.02777103843891092   0.048149421729138824
-0.5546901373706872   -0.02777103843891092   0.048149421729138824
-0.5546901373706872   -0.02777103843891092   0.048149421729138824
-0.5546901373706872   -0.02777103843891092   0.048149421729138824
-0.5635300189359145   -0.06812089636408125   -0.04715739319054995
-0.5635300189359145   -0.06812089636408125   -0.04715739319054995
-0.5635300189359145   -0.06812089636408125   -0.04715739319054995
-0.5635300189359145   -0.06812089636408125   -0.04715739319054995
-0.4662758412196734   0.029836009204503078   0.04057545582211518
-0.4662758412196734   0.029836009204503078   0.04057545582211518
-0.4662758412196734   0.029836009204503078   0.04057545582211518
-0.4662758412196734   0.029836009204503078   0.04057545582211518
-0.5240622746656645   -0.03868117394898686   -0.007808677797375093
-0.5240622746656645   -0.03868117394898686   -0.007808677797375093
-0.5240622746656645   -0.03868117394898686   -0.007808677797375093
-0.5240622746656645   -0.03868117394898686   -0.007808677797375093
-0.497491194248026   -0.05217892734285282   -0.03348637277229632
-0.497491194248026   -0.05217892734285282   -0.03348637277229632
-0.497491194248026   -0.05217892734285282   -0.03348637277229632
-0.497491194248026   -0.05217892734285282   -0.03348637277229632
-0.529209099866227   0.01699960622461913   0.03932669956918764
-0.529209099866227   0.01699960622461913   0.03932669956918764
-0.529209099866227   0.01699960622461913   0.03932669956918764
-0.529209099866227   0.01699960622461913   0.03932669956918764
-0.5316862746576425   -0.021177534441657972   -0.05290705842529393
-0.5316862746576425   -0.021177534441657972   -0.05290705842529393
-0.5316862746576425   -0.021177534441657972   -0.05290705842529393
-0.5316862746576425   -0.021177534441657972   -0.05290705842529393
-0.4443540968577319   0.07036897426043674   0.030126199037942225
-0.4443540968577319   0.07036897426043674   0.030126199037942225
-0.4443540968577319   0.07036897426043674   0.030126199037942225
-0.4443540968577319   0.07036897426043674   0.030126199037942225
-0.4952183837048518   0.003931659454993311   0.01207268594997819
-0.4952183837048518   0.003931659454993311   0.01207268594997819
-0.4952183837048518   0.003931659454993311   0.01207268594997819
-0.4952183837048518   0.003931659454993311   0.01207268594997819
-0.47460337415400905   -0.0077748210770624965   -0.04297639210595
-0.47460337415400905   -0.0077748210770624965   -0.04297639210595
-0.47460337415400905   -0.0077748210770624965   -0.04297639210595
-0.47460337415400905   -0.0077748210770624965   -0.04297639210595
-0.4982983617141349   0.06010489654306106   0.032750075307528166
-0.4982983617141349   0.06010489654306106   0.032750075307528166
-0.4982983617141349   0.06010489654306106   0.032750075307528166
-0.4982983617141349   0.06010489654306106   0.032750075307528166
-0.5038142374823679   0.03056297894723145   -0.058049078264178454
-0.5038142374823679   0.03056297894723145   -0.058049078264178454
-0.5038142374823679   0.03056297894723145   -0.058049078264178454
-0.5038142374823679   0.03056297894723145   -0.058049078264178454
-0.42237153417841955   0.11557433338301072   0.019821071622641982
-0.42237153417841955   0.11557433338301072   0.019821071622641982
-0.42237153417841955   0.11557433338301072   0.019821071622641982
-0.42237153417841955   0.11557433338301072   0.019821071622641982
-0.4706807158299088   0.04624766844988526   0.03109296548896512
-0.4706807158299088   0.04624766844988526   0.03109296548896512
-0.4706807158299088   0.04624766844988526   0.03109296548896512
-0.4706807158299088   0.04624766844988526   0.03109296548896512
-0.5951346026191392   -0.11832484358138365   -0.06351909937065611
-0.5951346026191392   -0.11832484358138365   -0.06351909937065611
-0.5951346026191392   -0.11832484358138365   -0.06351909937065611
-0.5951346026191392   -0.11832484358138365   -0.06351909937065611
-0.656918497754743   0.009427831191275049   0.0865060800395078
-0.656918497754743   0.009427831191275049   0.0865060800395078
-0.656918497754743   0.009427831191275049   0.0865060800395078
-0.656918497754743   0.009427831191275049   0.0865060800395078
-0.6478857171268438   -0.09811169973472733   -0.08455817209862856
-0.6478857171268438   -0.09811169973472733   -0.08455817209862856
-0.6478857171268438   -0.09811169973472733   -0.08455817209862856
-0.6478857171268438   -0.09811169973472733   -0.08455817209862856
-0.5100531729661787   0.07456243166351834   0.07754350863052561
-0.5100531729661787   0.07456243166351834   0.07754350863052561
-0.5100531729661787   0.07456243166351834   0.07754350863052561
-0.5100531729661787   0.07456243166351834   0.07754350863052561
-0.5783817778583445   -0.025318194550604342   -0.003965704104301974
-0.5783817778583445   -0.025318194550604342   -0.003965704104301974
-0.5783817778583445   -0.025318194550604342   -0.003965704104301974
-0.5783817778583445   -0.025318194550604342   -0.003965704104301974
-0.5710707396097251   -0.08036120699693086   -0.07262068592676504
-0.5710707396097251   -0.08036120699693086   -0.07262068592676504
-0.5710707396097251   -0.08036120699693086   -0.07262068592676504
-0.5710707396097251   -0.08036120699693086   -0.07262068592676504
-0.5835846464508454   0.06009544295816255   0.07874003858847473
-0.5835846464508454   0.06009544295816255   0.07874003858847473
-0.5835846464508454   0.06009544295816255   0.07874003858847473
-0.5835846464508454   0.06009544295816255   0.07874003858847473
-0.5929756363632839   -0.07069516854399685   -0.10076413309917939
-0.5929756363632839   -0.07069516854399685   -0.10076413309917939
-0.5929756363632839   -0.07069516854399685   -0.10076413309917939
-0.5929756363632839   -0.07069516854399685   -0.10076413309917939
-0.485402289945612   0.09387265865401159   0.06346267203918912
-0.485402289945612   0.09387265865401159   0.06346267203918912
-0.485402289945612   0.09387265865401159   0.06346267203918912
-0.485402289945612   0.09387265865401159   0.06346267203918912
-0.5411242004728232   0.003320970169824161   0.015123951575305411
-0.5411242004728232   0.003320970169824161   0.015123951575305411
-0.5411242004728232   0.003320970169824161   0.015123951575305411
-0.5411242004728232   0.003320970169824161   0.015123951575305411
-0.5452287404293498   -0.05779362256872747   -0.0840032991567666
-0.5452287404293498   -0.05779362256872747   -0.0840032991567666
-0.5452287404293498   -0.05779362256872747   -0.0840032991567666
-0.5452287404293498   -0.05779362256872747   -0.0840032991567666
-0.5297091531083201   0.0844111454499774   0.06046196918166502
-0.5297091531083201   0.0844111454499774   0.06046196918166502
-0.5297091531083201   0.0844111454499774   0.06046196918166502
-0.5297091531083201   0.0844111454499774   0.06046196918166502
-0.5209695367055077   -0.02323102050869634   -0.1100977442346099
-0.5209695367055077   -0.02323102050869634   -0.1100977442346099
-0.5209695367055077   -0.02323102050869634   -0.1100977442346099
-0.5209695367055077   -0.02323102050869634   -0.1100977442346099
-0.4633147345125349   0.12273799507748001   0.052273420454731975
-0.4633147345125349   0.12273799507748001   0.052273420454731975
-0.4633147345125349   0.12273799507748001   0.052273420454731975
-0.4633147345125349   0.12273799507748001   0.052273420454731975
-0.4903427580074939   0.031961157895208106   0.03720033660164666
-0.4903427580074939   0.031961157895208106   0.03720033660164666
-0.4903427580074939   0.031961157895208106   0.03720033660164666
-0.4903427580074939   0.031961157895208106   0.03720033660164666
0.35989450891068026   0.05826823401974749   0.09445749317941819
0.35989450891068026   0.05826823401974749   0.09445749317941819
0.35989450891068026   0.05826823401974749   0.09445749317941819
0.35989450891068026   0.05826823401974749   0.09445749317941819
-0.00925442175053777   -0.15188673527255897   -0.06245575467325594
-0.00925442175053777   -0.15188673527255897   -0.06245575467325594
-0.00925442175053777   -0.15188673527255897   -0.06245575467325594
-0.00925442175053777   -0.15188673527255897   -0.06245575467325594
0.08025311630508257   0.029745303081480285   0.07299876375264616
0.08025311630508257   0.029745303081480285   0.07299876375264616
0.08025311630508257   0.029745303081480285   0.07299876375264616
0.08025311630508257   0.029745303081480285   0.07299876375264616
0.3757263734259505   -0.05348939553423343   -0.07813199435465186
0.3757263734259505   -0.05348939553423343   -0.07813199435465186
0.3757263734259505   -0.05348939553423343   -0.07813199435465186
0.3757263734259505   -0.05348939553423343   -0.07813199435465186
0.18359811832517528   -0.029616579637344105   -0.04494115942975328
0.18359811832517528   -0.029616579637344105   -0.04494115942975328
0.18359811832517528   -0.029616579637344105   -0.04494115942975328
0.18359811832517528   -0.029616579637344105   -0.04494115942975328
0.4399235015330413   0.10412706458821379   0.0852371860583549
0.4399235015330413   0.10412706458821379   0.0852371860583549
0.4399235015330413   0.10412706458821379   0.0852371860583549
0.4399235015330413   0.10412706458821379   0.0852371860583549
0.01999015577460364   -0.12393698946436528   -0.07463374635390296
0.01999015577460364   -0.12393698946436528   -0.07463374635390296
0.01999015577460364   -0.12393698946436528   -0.07463374635390296
0.01999015577460364   -0.12393698946436528   -0.07463374635390296
0.11299709166675798   0.051794230951012016   0.0609406301498115
0.11299709166675798   0.051794230951012016   0.0609406301498115
0.11299709166675798   0.051794230951012016   0.0609406301498115
0.11299709166675798   0.051794230951012016   0.0609406301498115
0.4382630190798381   -0.028577520510701393   -0.09778809009476952
0.4382630190798381   -0.028577520510701393   -0.09778809009476952
0.4382630190798381   -0.028577520510701393   -0.09778809009476952
0.4382630190798381   -0.028577520510701393   -0.09778809009476952
0.24001375336910624   -0.0021088398588837917   -0.02107498282736757
0.24001375336910624   -0.0021088398588837917   -0.02107498282736757
0.24001375336910624   -0.0021088398588837917   -0.02107498282736757
0.24001375336910624   -0.0021088398588837917   -0.02107498282736757
0.5031802743687365   0.1310723955243734   0.06714827031463996
0.5031802743687365   0.1310723955243734   0.06714827031463996
0.5031802743687365   0.1310723955243734   0.06714827031463996
0.5031802743687365   0.1310723955243734   0.06714827031463996
0.051934705006755476   -0.1040008164551669   -0.08857625574401443
0.051934705006755476   -0.1040008164551669   -0.08857625574401443
0.051934705006755476   -0.1040008164551669   -0.08857625574401443
0.051934705006755476   -0.1040008164551669   -0.08857625574401443
0.14478176694545616   0.09224090602587184   0.05273747793252277
0.14478176694545616   0.09224090602587184   0.05273747793252277
0.14478176694545616   0.09224090602587184   0.05273747793252277
0.14478176694545616   0.09224090602587184   0.05273747793252277
0.5212593863393212   0.027191486355667656   -0.1078582029397439
0.5212593863393212   0.027191486355667656   -0.1078582029397439
0.5212593863393212   0.027191486355667656   -0.1078582029397439
0.5212593863393212   0.027191486355667656   -0.1078582029397439
0.2874557191178287   0.028693747295263562   0.001512691285218996
0.2874557191178287   0.028693747295263562   0.001512691285218996
0.2874557191178287   0.028693747295263562   0.001512691285218996
0.2874557191178287   0.028693747295263562   0.001512691285218996
0.049536481674147384   0.01558804247287314   0.06402398470473769
0.049536481674147384   0.01558804247287314   0.06402398470473769
0.049536481674147384   0.01558804247287314   0.06402398470473769
0.049536481674147384   0.01558804247287314   0.06402398470473769
-0.34343272880862186   -0.1289124653841192   -0.028643459879714343
-0.34343272880862186   -0.1289124653841192   -0.028643459879714343
-0.34343272880862186   -0.1289124653841192   -0.028643459879714343
-0.34343272880862186   -0.1289124653841192   -0.028643459879714343
-0.28688797367651364   -0.018659843515851197   0.029301970569087996
-0.28688797367651364   -0.018659843515851197   0.029301970569087996
-0.28688797367651364   -0.018659843515851197   0.029301970569087996
-0.28688797367651364   -0.018659843515851197   0.029301970569087996
0.0521411801987271   -0.015013605390633789   -0.022802008307017167
0.0521411801987271   -0.015013605390633789   -0.022802008307017167
0.0521411801987271   -0.015013605390633789   -0.022802008307017167
0.0521411801987271   -0.015013605390633789   -0.022802008307017167
-0.13498107968840894   -0.03344758136395102   -0.021627675914199417
-0.13498107968840894   -0.03344758136395102   -0.021627675914199417
-0.13498107968840894   -0.03344758136395102   -0.021627675914199417
-0.13498107968840894   -0.03344758136395102   -0.021627675914199417
0.08323803735692238   0.06086558249640292   0.05680308959692257
0.08323803735692238   0.06086558249640292   0.05680308959692257
0.08323803735692238   0.06086558249640292   0.05680308959692257
0.08323803735692238   0.06086558249640292   0.05680308959692257
-0.31512543498187706   -0.09167963555005605   -0.03886554392352429
-0.31512543498187706   -0.09167963555005605   -0.03886554392352429
-0.31512543498187706   -0.09167963555005605   -0.03886554392352429
-0.31512543498187706   -0.09167963555005605   -0.03886554392352429
-0.2570228184942441   0.024076776910879935   0.020716293256619202
-0.2570228184942441   0.024076776910879935   0.020716293256619202
-0.2570228184942441   0.024076776910879935   0.020716293256619202
-0.2570228184942441   0.024076776910879935   0.020716293256619202
0.08939619819385983   0.025579611427926176   -0.030849217691593434
0.08939619819385983   0.025579611427926176   -0.030849217691593434
0.08939619819385983   0.025579611427926176   -0.030849217691593434
0.08939619819385983   0.025579611427926176   -0.030849217691593434
-0.10333084264001013   0.0042808085024777995   -0.002605037996136537
-0.10333084264001013   0.0042808085024777995   -0.002605037996136537
-0.10333084264001013   0.0042808085024777995   -0.002605037996136537
-0.10333084264001013   0.0042808085024777995   -0.002605037996136537
0.12179763974528757   0.10587094183846392   0.050866659655007467
0.12179763974528757   0.10587094183846392   0.050866659655007467
0.12179763974528757   0.10587094183846392   0.050866659655007467
0.12179763974528757   0.10587094183846392   0.050866659655007467
-0.28667441344160516   -0.05346470689559118   -0.05000019767371519
-0.28667441344160516   -0.05346470689559118   -0.05000019767371519
-0.28667441344160516   -0.05346470689559118   -0.05000019767371519
-0.28667441344160516   -0.05346470689559118   -0.05000019767371519
-0.22698381897890996   0.0723756784576399   0.012531579043765333
-0.22698381897890996   0.0723756784576399   0.012531579043765333
-0.22698381897890996   0.0723756784576399   0.012531579043765333
-0.22698381897890996   0.0723756784576399   0.012531579043765333
0.12222064556799928   0.07157640117654186   -0.039403624105423925
0.12222064556799928   0.07157640117654186   -0.039403624105423925
0.12222064556799928   0.07157640117654186   -0.039403624105423925
0.12222064556799928   0.07157640117654186   -0.039403624105423925
-0.06836149349074179   0.04590365559432223   0.01766312513940594
-0.06836149349074179   0.04590365559432223   0.01766312513940594
-0.06836149349074179   0.04590365559432223   0.01766312513940594
-0.06836149349074179   0.04590365559432223   0.01766312513940594
-0.31227898626825196   -0.02478579109657518   0.022998578534594766
-0.31227898626825196   -0.02478579109657518   0.022998578534594766
-0.31227898626825196   -0.02478579109657518   0.022998578534594766
-0.31227898626825196   -0.02478579109657518   0.022998578534594766
-0.6715814139508326   -0.09142662880134   0.005982330784449347
-0.6715814139508326   -0.09142662880134   0.005982330784449347
-0.6715814139508326   -0.09142662880134   0.005982330784449347
-0.6715814139508326   -0.09142662880134   0.005982330784449347
-0.6453999027353914   -0.057234349679253727   -0.012663428257779767
-0.6453999027353914   -0.057234349679253727   -0.012663428257779767
-0.6453999027353914   -0.057234349679253727   -0.012663428257779767
-0.6453999027353914   -0.057234349679253727   -0.012663428257779767
-0.2813878418171138   0.023828979795686822   0.014313806554549249
-0.2813878418171138   0.023828979795686822   0.014313806554549249
-0.2813878418171138   0.023828979795686822   0.014313806554549249
-0.2813878418171138   0.023828979795686822   0.014313806554549249
-0.4783612177078328   -0.034335001609516774   -0.012569508720539413
-0.4783612177078328   -0.034335001609516774   -0.012569508720539413
-0.4783612177078328   -0.034335001609516774   -0.012569508720539413
-0.4783612177078328   -0.034335001609516774   -0.012569508720539413
-0.28177271618221406   0.021056213489903823   0.015162201034830756
-0.28177271618221406   0.021056213489903823   0.015162201034830756
-0.28177271618221406   0.021056213489903823   0.015162201034830756
-0.28177271618221406   0.021056213489903823   0.015162201034830756
-0.6425664739297738   -0.052013028932953606   -0.00371760497599272
-0.6425664739297738   -0.052013028932953606   -0.00371760497599272
-0.6425664739297738   -0.052013028932953606   -0.00371760497599272
-0.6425664739297738   -0.052013028932953606   -0.00371760497599272
-0.6140038666715676   -0.010186783735663063   -0.01991490652404486
-0.6140038666715676   -0.010186783735663063   -0.01991490652404486
-0.6140038666715676   -0.010186783735663063   -0.01991490652404486
-0.6140038666715676   -0.010186783735663063   -0.01991490652404486
-0.25181696873492365   0.06557520210685684   0.005247116857248206
-0.25181696873492365   0.06557520210685684   0.005247116857248206
-0.25181696873492365   0.06557520210685684   0.005247116857248206
-0.25181696873492365   0.06557520210685684   0.005247116857248206
-0.4459512080943175   0.007000567417092388   0.006587005000416316
-0.4459512080943175   0.007000567417092388   0.006587005000416316
-0.4459512080943175   0.007000567417092388   0.006587005000416316
-0.4459512080943175   0.007000567417092388   0.006587005000416316
-0.2510765422387499   0.06773879395392013   0.006785657491053386
-0.2510765422387499   0.06773879395392013   0.006785657491053386
-0.2510765422387499   0.06773879395392013   0.006785657491053386
-0.2510765422387499   0.06773879395392013   0.006785657491053386
-0.6127906293821299   -0.010396711797115987   -0.013638792015409587
-0.6127906293821299   -0.010396711797115987   -0.013638792015409587
-0.6127906293821299   -0.010396711797115987   -0.013638792015409587
-0.6127906293821299   -0.010396711797115987   -0.013638792015409587
-0.5838768535319916   0.03698368038999772   -0.02819812284667502
-0.5838768535319916   0.03698368038999772   -0.02819812284667502
-0.5838768535319916   0.03698368038999772   -0.02819812284667502
-0.5838768535319916   0.03698368038999772   -0.02819812284667502
-0.22351361409353307   0.10744448196106272   -0.005186200032769227
-0.22351361409353307   0.10744448196106272   -0.005186200032769227
-0.22351361409353307   0.10744448196106272   -0.005186200032769227
-0.22351361409353307   0.10744448196106272   -0.005186200032769227
-0.41522412667808795   0.048219605636111204   0.024492823741564064
-0.41522412667808795   0.048219605636111204   0.024492823741564064
-0.41522412667808795   0.048219605636111204   0.024492823741564064
-0.41522412667808795   0.048219605636111204   0.024492823741564064
-0.6712693584653538   -0.06457797593464185   -0.01930604465484912
-0.6712693584653538   -0.06457797593464185   -0.01930604465484912
-0.6712693584653538   -0.06457797593464185   -0.01930604465484912
-0.6712693584653538   -0.06457797593464185   -0.01930604465484912
-0.9960913199709646   -0.05620376866438542   0.03999722778334794
-0.9960913199709646   -0.05620376866438542   0.03999722778334794
-0.9960913199709646   -0.05620376866438542   0.03999722778334794
-0.9960913199709646   -0.05620376866438542   0.03999722778334794
-0.996215503950675   -0.09498677425618304   -0.05359879875031391
-0.996215503950675   -0.09498677425618304   -0.05359879875031391
-0.996215503950675   -0.09498677425618304   -0.05359879875031391
-0.996215503950675   -0.09498677425618304   -0.05359879875031391
-0.6094824532203721   0.06083501745604472   0.04885445218201763
-0.6094824532203721   0.06083501745604472   0.04885445218201763
-0.6094824532203721   0.06083501745604472   0.04885445218201763
-0.6094824532203721   0.06083501745604472   0.04885445218201763
-0.8136987291232289   -0.034730350194063786   -0.0052742852323712786
-0.8136987291232289   -0.034730350194063786   -0.0052742852323712786
-0.8136987291232289   -0.034730350194063786   -0.0052742852323712786
-0.8136987291232289   -0.034730350194063786   -0.0052742852323712786
-0.6404950218751431   -0.018497994015132385   -0.026875379620653832
-0.6404950218751431   -0.018497994015132385   -0.026875379620653832
-0.6404950218751431   -0.018497994015132385   -0.026875379620653832
-0.6404950218751431   -0.018497994015132385   -0.026875379620653832
-0.9631842936147276   -0.01363512110382692   0.030205599777076306
-0.9631842936147276   -0.01363512110382692   0.030205599777076306
-0.9631842936147276   -0.01363512110382692   0.030205599777076306
-0.9631842936147276   -0.01363512110382692   0.030205599777076306
-0.9569238542965187   -0.05009734536175023   -0.05963564163414458
-0.9569238542965187   -0.05009734536175023   -0.05963564163414458
-0.9569238542965187   -0.05009734536175023   -0.05963564163414458
-0.9569238542965187   -0.05009734536175023   -0.05963564163414458
-0.5804408755270142   0.0988359541432573   0.03887731131980139
-0.5804408755270142   0.0988359541432573   0.03887731131980139
-0.5804408755270142   0.0988359541432573   0.03887731131980139
-0.5804408755270142   0.0988359541432573   0.03887731131980139
-0.7748768729715597   0.00693122230488194   0.014455955523875554
-0.7748768729715597   0.00693122230488194   0.014455955523875554
-0.7748768729715597   0.00693122230488194   0.014455955523875554
-0.7748768729715597   0.00693122230488194   0.014455955523875554
-0.6104275135756655   0.023904221794341096   -0.03612414657454114
-0.6104275135756655   0.023904221794341096   -0.03612414657454114
-0.6104275135756655   0.023904221794341096   -0.03612414657454114
-0.6104275135756655   0.023904221794341096   -0.03612414657454114
-0.9246657895701993   0.027105813664843936   0.024451522970858237
-0.9246657895701993   0.027105813664843936   0.024451522970858237
-0.9246657895701993   0.027105813664843936   0.024451522970858237
-0.9246657895701993   0.027105813664843936   0.024451522970858237
-0.9217668744050231   -0.0011061148903028506   -0.06418582951732224
-0.9217668744050231   -0.0011061148903028506   -0.06418582951732224
-0.9217668744050231   -0.0011061148903028506   -0.06418582951732224
-0.9217668744050231   -0.0011061148903028506   -0.06418582951732224
-0.5516997585787041   0.14084358983755063   0.028827442472208906
-0.5516997585787041   0.14084358983755063   0.028827442472208906
-0.5516997585787041   0.14084358983755063   0.028827442472208906
-0.5516997585787041   0.14084358983755063   0.028827442472208906
-0.7457409880448338   0.045819936662076455   0.03214944340045518
-0.7457409880448338   0.045819936662076455   0.03214944340045518
-0.7457409880448338   0.045819936662076455   0.03214944340045518
-0.7457409880448338   0.045819936662076455   0.03214944340045518
-1.023124465431569   -0.09282419332400288   -0.05854807486005589
-1.023124465431569   -0.09282419332400288   -0.05854807486005589
-1.023124465431569   -0.09282419332400288   -0.05854807486005589
-1.023124465431569   -0.09282419332400288   -0.05854807486005589
-1.3657904428109966   -0.02377023113731569   0.08644990575487159
-1.3657904428109966   -0.02377023113731569   0.08644990575487159
-1.3657904428109966   -0.02377023113731569   0.08644990575487159
-1.3657904428109966   -0.02377023113731569   0.08644990575487159
-1.3464746642016006   -0.12384240854927822   -0.07805920119797363
-1.3464746642016006   -0.12384240854927822   -0.07805920119797363
-1.3464746642016006   -0.12384240854927822   -0.07805920119797363
-1.3464746642016006   -0.12384240854927822   -0.07805920119797363
-0.9289051818351383   0.10274235702316303   0.08522368054802289
-0.9289051818351383   0.10274235702316303   0.08522368054802289
-0.9289051818351383   0.10274235702316303   0.08522368054802289
-0.9289051818351383   0.10274235702316303   0.08522368054802289
-1.1158266950470985   -0.019767923968920964   0.009171221922792655
-1.1158266950470985   -0.019767923968920964   0.009171221922792655
-1.1158266950470985   -0.019767923968920964   0.009171221922792655
-1.1158266950470985   -0.019767923968920964   0.009171221922792655
-0.9897668318248222   -0.05013120359147791   -0.06621100878575079
-0.9897668318248222   -0.05013120359147791   -0.06621100878575079
-0.9897668318248222   -0.05013120359147791   -0.06621100878575079
-0.9897668318248222   -0.05013120359147791   -0.06621100878575079
-1.283784875271139   0.030859291006137768   0.08068804389889701
-1.283784875271139   0.030859291006137768   0.08068804389889701
-1.283784875271139   0.030859291006137768   0.08068804389889701
-1.283784875271139   0.030859291006137768   0.08068804389889701
-1.2844089936065113   -0.09719791705506678   -0.09288350284530356
-1.2844089936065113   -0.09719791705506678   -0.09288350284530356
-1.2844089936065113   -0.09719791705506678   -0.09288350284530356
-1.2844089936065113   -0.09719791705506678   -0.09288350284530356
-0.8968764345380038   0.12025826331957185   0.07024584847710004
-0.8968764345380038   0.12025826331957185   0.07024584847710004
-0.8968764345380038   0.12025826331957185   0.07024584847710004
-0.8968764345380038   0.12025826331957185   0.07024584847710004
-1.0804888197636706   0.008178161460584754   0.02511866415877255
-1.0804888197636706   0.008178161460584754   0.02511866415877255
-1.0804888197636706   0.008178161460584754   0.02511866415877255
-1.0804888197636706   0.008178161460584754   0.02511866415877255
-0.9559054658367555   -0.028207266559558936   -0.07643377813751995
-0.9559054658367555   -0.028207266559558936   -0.07643377813751995
-0.9559054658367555   -0.028207266559558936   -0.07643377813751995
-0.9559054658367555   -0.028207266559558936   -0.07643377813751995
-1.2231401939338233   0.05350738119799936   0.06275519726505731
-1.2231401939338233   0.05350738119799936   0.06275519726505731
-1.2231401939338233   0.05350738119799936   0.06275519726505731
-1.2231401939338233   0.05350738119799936   0.06275519726505731
-1.2080126076752928   -0.057367139385807536   -0.10355437869888648
-1.2080126076752928   -0.057367139385807536   -0.10355437869888648
-1.2080126076752928   -0.057367139385807536   -0.10355437869888648
-1.2080126076752928   -0.057367139385807536   -0.10355437869888648
-0.8687094898663462   0.1414777984225826   0.058517179863176574
-0.8687094898663462   0.1414777984225826   0.058517179863176574
-0.8687094898663462   0.1414777984225826   0.058517179863176574
-0.8687094898663462   0.1414777984225826   0.058517179863176574
-1.014690906349532   0.034382061182709256   0.04755060985910883
-1.014690906349532   0.034382061182709256   0.04755060985910883
-1.014690906349532   0.034382061182709256   0.04755060985910883
-1.014690906349532   0.034382061182709256   0.04755060985910883
1.0866986945466437   0.09869490491332816   0.09449932995899835
1.0866986945466437   0.09869490491332816   0.09449932995899835
1.0866986945466437   0.09869490491332816   0.09449932995899835
1.0866986945466437   0.09869490491332816   0.09449932995899835
0.3982796624658337   -0.18111341901874045   -0.06221460371485424
0.3982796624658337   -0.18111341901874045   -0.06221460371485424
0.3982796624658337   -0.18111341901874045   -0.06221460371485424
0.3982796624658337   -0.18111341901874045   -0.06221460371485424
0.49218707332111367   -0.0009675816720473573   0.06801637506117666
0.49218707332111367   -0.0009675816720473573   0.06801637506117666
0.49218707332111367   -0.0009675816720473573   0.06801637506117666
0.49218707332111367   -0.0009675816720473573   0.06801637506117666
1.1066392834793317   -0.025474549048113804   -0.0794118157088881
1.1066392834793317   -0.025474549048113804   -0.0794118157088881
1.1066392834793317   -0.025474549048113804   -0.0794118157088881
1.1066392834793317   -0.025474549048113804   -0.0794118157088881
0.7235263425217858   -0.03288185445962688   -0.06996585005718965
0.7235263425217858   -0.03288185445962688   -0.06996585005718965
0.7235263425217858   -0.03288185445962688   -0.06996585005718965
0.7235263425217858   -0.03288185445962688   -0.06996585005718965
1.1715924346016215   0.1377384114522546   0.08214097940217838
1.1715924346016215   0.1377384114522546   0.08214097940217838
1.1715924346016215   0.1377384114522546   0.08214097940217838
1.1715924346016215   0.1377384114522546   0.08214097940217838
0.4318213957308426   -0.15959306864039807   -0.07518652592182033
0.4318213957308426   -0.15959306864039807   -0.07518652592182033
0.4318213957308426   -0.15959306864039807   -0.07518652592182033
0.4318213957308426   -0.15959306864039807   -0.07518652592182033
0.52933594648067   0.020415880129653993   0.05610598570611415
0.52933594648067   0.020415880129653993   0.05610598570611415
0.52933594648067   0.020415880129653993   0.05610598570611415
0.52933594648067   0.020415880129653993   0.05610598570611415
1.174234567910556   -0.0011630426396539162   -0.10008574053963123
1.174234567910556   -0.0011630426396539162   -0.10008574053963123
1.174234567910556   -0.0011630426396539162   -0.10008574053963123
1.174234567910556   -0.0011630426396539162   -0.10008574053963123
0.7940634777134425   -0.0066081793399282995   -0.042346235637288274
0.7940634777134425   -0.0066081793399282995   -0.042346235637288274
0.7940634777134425   -0.0066081793399282995   -0.042346235637288274
0.7940634777134425   -0.0066081793399282995   -0.042346235637288274
1.2399212262220038   0.16395720051023938   0.06322730786770699
1.2399212262220038   0.16395720051023938   0.06322730786770699
1.2399212262220038   0.16395720051023938   0.06322730786770699
1.2399212262220038   0.16395720051023938   0.06322730786770699
0.4685393779027611   -0.13981427328670148   -0.08764670376707417
0.4685393779027611   -0.13981427328670148   -0.08764670376707417
0.4685393779027611   -0.13981427328670148   -0.08764670376707417
0.4685393779027611   -0.13981427328670148   -0.08764670376707417
0.5664310812483734   0.06752302342134933   0.04862778747961239
0.5664310812483734   0.06752302342134933   0.04862778747961239
0.5664310812483734   0.06752302342134933   0.04862778747961239
0.5664310812483734   0.06752302342134933   0.04862778747961239
1.262973511884061   0.06224766299421558   -0.1079811574398328
1.262973511884061   0.06224766299421558   -0.1079811574398328
1.262973511884061   0.06224766299421558   -0.1079811574398328
1.262973511884061   0.06224766299421558   -0.1079811574398328
0.8377166457286582   0.025330741667390883   -0.018425656312413663
0.8377166457286582   0.025330741667390883   -0.018425656312413663
0.8377166457286582   0.025330741667390883   -0.018425656312413663
0.8377166457286582   0.025330741667390883   -0.018425656312413663
0.47307119920419716   0.055202453655016415   0.07542720730320611
0.47307119920419716   0.055202453655016415   0.07542720730320611
0.47307119920419716   0.055202453655016415   0.07542720730320611
0.47307119920419716   0.055202453655016415   0.07542720730320611
-0.22997447517695394   -0.16896913561710897   -0.03257341827492046
-0.22997447517695394   -0.16896913561710897   -0.03257341827492046
-0.22997447517695394   -0.16896913561710897   -0.03257341827492046
-0.22997447517695394   -0.16896913561710897   -0.03257341827492046
-0.16532527127094124   -0.04936915529399453   0.022886693645847483
-0.16532527127094124   -0.04936915529399453   0.022886693645847483
-0.16532527127094124   -0.04936915529399453   0.022886693645847483
-0.16532527127094124   -0.04936915529399453   0.022886693645847483
0.4769799934618111   0.0010543731704455994   -0.010040979077821543
0.4769799934618111   0.0010543731704455994   -0.010040979077821543
0.4769799934618111   0.0010543731704455994   -0.010040979077821543
0.4769799934618111   0.0010543731704455994   -0.010040979077821543
0.13246756543711916   -0.03581807354779146   -0.029848280324816876
0.13246756543711916   -0.03581807354779146   -0.029848280324816876
0.13246756543711916   -0.03581807354779146   -0.029848280324816876
0.13246756543711916   -0.03581807354779146   -0.029848280324816876
0.5112176219967292   0.09483532665317612   0.06736621011403042
0.5112176219967292   0.09483532665317612   0.06736621011403042
0.5112176219967292   0.09483532665317612   0.06736621011403042
0.5112176219967292   0.09483532665317612   0.06736621011403042
-0.19680770446616241   -0.14039491343703014   -0.04349971418722669
-0.19680770446616241   -0.14039491343703014   -0.04349971418722669
-0.19680770446616241   -0.14039491343703014   -0.04349971418722669
-0.19680770446616241   -0.14039491343703014   -0.04349971418722669
-0.1307102661501491   -0.009376202616656693   0.014478176429501168
-0.1307102661501491   -0.009376202616656693   0.014478176429501168
-0.1307102661501491   -0.009376202616656693   0.014478176429501168
-0.1307102661501491   -0.009376202616656693   0.014478176429501168
0.5176822973114756   0.03695779322284201   -0.018704173233045733
0.5176822973114756   0.03695779322284201   -0.018704173233045733
0.5176822973114756   0.03695779322284201   -0.018704173233045733
0.5176822973114756   0.03695779322284201   -0.018704173233045733
0.16592446214022535   -0.004205086964279896   -0.011874952056043222
0.16592446214022535   -0.004205086964279896   -0.011874952056043222
0.16592446214022535   -0.004205086964279896   -0.011874952056043222
0.16592446214022535   -0.004205086964279896   -0.011874952056043222
0.5532870764242238   0.13648594476918768   0.059791570784350156
0.5532870764242238   0.13648594476918768   0.059791570784350156
0.5532870764242238   0.13648594476918768   0.059791570784350156
0.5532870764242238   0.13648594476918768   0.059791570784350156
-0.16355229216437303   -0.10614160106447798   -0.05296655519379711
-0.16355229216437303   -0.10614160106447798   -0.05296655519379711
-0.16355229216437303   -0.10614160106447798   -0.05296655519379711
-0.16355229216437303   -0.10614160106447798   -0.05296655519379711
-0.09653642664618609   0.03692685392466112   0.006105711849419087
-0.09653642664618609   0.03692685392466112   0.006105711849419087
-0.09653642664618609   0.03692685392466112   0.006105711849419087
-0.09653642664618609   0.03692685392466112   0.006105711849419087
0.5537987488211514   0.0796842697424233   -0.026695120977571155
0.5537987488211514   0.0796842697424233   -0.026695120977571155
0.5537987488211514   0.0796842697424233   -0.026695120977571155
0.5537987488211514   0.0796842697424233   -0.026695120977571155
0.2071952456841369   0.03453946605748377   0.009101070834435737
0.2071952456841369   0.03453946605748377   0.009101070834435737
0.2071952456841369   0.03453946605748377   0.009101070834435737
0.2071952456841369   0.03453946605748377   0.009101070834435737
-0.1808736363342838   0.011925657191120126   0.03203598313020113
-0.1808736363342838   0.011925657191120126   0.03203598313020113
-0.1808736363342838   0.011925657191120126   0.03203598313020113
-0.1808736363342838   0.011925657191120126   0.03203598313020113
-0.8457452736307444   -0.14913382910649242   -0.004265877207215472
-0.8457452736307444   -0.14913382910649242   -0.004265877207215472
-0.8457452736307444   -0.14913382910649242   -0.004265877207215472
-0.8457452736307444   -0.14913382910649242   -0.004265877207215472
-0.8046731504209026   -0.08766768894359642   -0.01988422853801669
-0.8046731504209026   -0.08766768894359642   -0.01988422853801669
-0.8046731504209026   -0.08766768894359642   -0.01988422853801669
-0.8046731504209026   -0.08766768894359642   -0.01988422853801669
-0.15137384713713964   0.021945103803660743   0.021329555217196337
-0.15137384713713964   0.021945103803660743   0.021329555217196337
-0.15137384713713964   0.021945103803660743   0.021329555217196337
-0.15137384713713964   0.021945103803660743   0.021329555217196337
-0.49654170871666004   -0.04588141923875569   -0.01862610141415999
-0.49654170871666004   -0.04588141923875569   -0.01862610141415999
-0.49654170871666004   -0.04588141923875569   -0.01862610141415999
-0.49654170871666004   -0.04588141923875569   -0.01862610141415999
-0.1445488496483848   0.053178288509541496   0.024221357955093666
-0.1445488496483848   0.053178288509541496   0.024221357955093666
-0.1445488496483848   0.053178288509541496   0.024221357955093666
-0.1445488496483848   0.053178288509541496   0.024221357955093666
-0.8096654457415658   -0.11706817148137466   -0.015445222603554506
-0.8096654457415658   -0.11706817148137466   -0.015445222603554506
-0.8096654457415658   -0.11706817148137466   -0.015445222603554506
-0.8096654457415658   -0.11706817148137466   -0.015445222603554506
-0.7665272891833107   -0.0437892893773876   -0.02686502011558689
-0.7665272891833107   -0.0437892893773876   -0.02686502011558689
-0.7665272891833107   -0.0437892893773876   -0.02686502011558689
-0.7665272891833107   -0.0437892893773876   -0.02686502011558689
-0.11767919626638088   0.058210294242955776   0.01204702898872604
-0.11767919626638088   0.058210294242955776   0.01204702898872604
-0.11767919626638088   0.058210294242955776   0.01204702898872604
-0.11767919626638088   0.058210294242955776   0.01204702898872604
-0.4580715221807595   -0.009165429401907621   -0.0002900022370503144
-0.4580715221807595   -0.009165429401907621   -0.0002900022370503144
-0.4580715221807595   -0.009165429401907621   -0.0002900022370503144
-0.4580715221807595   -0.009165429401907621   -0.0002900022370503144
-0.1094460679929867   0.09607045983627092   0.015352504762381688
-0.1094460679929867   0.09607045983627092   0.015352504762381688
-0.1094460679929867   0.09607045983627092   0.015352504762381688
-0.1094460679929867   0.09607045983627092   0.015352504762381688
-0.7730565461509653   -0.07994558366497341   -0.02335501066627409
-0.7730565461509653   -0.07994558366497341   -0.02335501066627409
-0.7730565461509653   -0.07994558366497341   -0.02335501066627409
-0.7730565461509653   -0.07994558366497341   -0.02335501066627409
-0.7310224024092152   -6.374640395909181e-05   -0.035218553542196045
-0.7310224024092152   -6.374640395909181e-05   -0.035218553542196045
-0.7310224024092152   -6.374640395909181e-05   -0.035218553542196045
-0.7310224024092152   -6.374640395909181e-05   -0.035218553542196045
-0.08550736499811341   0.09525593630174367   0.002921937712699909
-0.08550736499811341   0.09525593630174367   0.002921937712699909
-0.08550736499811341   0.09525593630174367   0.002921937712699909
-0.08550736499811341   0.09525593630174367   0.002921937712699909
-0.42272610695101326   0.02741075296511869   0.017161285632641153
-0.42272610695101326   0.02741075296511869   0.017161285632641153
-0.42272610695101326   0.02741075296511869   0.017161285632641153
-0.42272610695101326   0.02741075296511869   0.017161285632641153
-0.8240728723233319   -0.032339220539046865   -0.012698479237591903
-0.8240728723233319   -0.032339220539046865   -0.012698479237591903
-0.8240728723233319   -0.032339220539046865   -0.012698479237591903
-0.8240728723233319   -0.032339220539046865   -0.012698479237591903
-1.4472181072908672   -0.12072089316729939   0.028095652839405266
-1.4472181072908672   -0.12072089316729939   0.028095652839405266
-1.4472181072908672   -0.12072089316729939   0.028095652839405266
-1.4472181072908672   -0.12072089316729939   0.028095652839405266
-1.4271089190087882   -0.12443153520448957   -0.05985184533223763
-1.4271089190087882   -0.12443153520448957   -0.05985184533223763
-1.4271089190087882   -0.12443153520448957   -0.05985184533223763
-1.4271089190087882   -0.12443153520448957   -0.05985184533223763
-0.761227886678331   0.05600836268890533   0.05366603854234677
-0.761227886678331   0.05600836268890533   0.05366603854234677
-0.761227886678331   0.05600836268890533   0.05366603854234677
-0.761227886678331   0.05600836268890533   0.05366603854234677
-1.1071926724072154   -0.048371547341647336   -0.006484763687945504
-1.1071926724072154   -0.048371547341647336   -0.006484763687945504
-1.1071926724072154   -0.048371547341647336   -0.006484763687945504
-1.1071926724072154   -0.048371547341647336   -0.006484763687945504
-0.7845811540105749   0.012188333146328889   -0.019280268576297208
-0.7845811540105749   0.012188333146328889   -0.019280268576297208
-0.7845811540105749   0.012188333146328889   -0.019280268576297208
-0.7845811540105749   0.012188333146328889   -0.019280268576297208
-1.4036832275584135   -0.08053908154379033   0.013384158258950778
-1.4036832275584135   -0.08053908154379033   0.013384158258950778
-1.4036832275584135   -0.08053908154379033   0.013384158258950778
-1.4036832275584135   -0.08053908154379033   0.013384158258950778
-1.3772911949368722   -0.08154929505832503   -0.06619861527825226
-1.3772911949368722   -0.08154929505832503   -0.06619861527825226
-1.3772911949368722   -0.08154929505832503   -0.06619861527825226
-1.3772911949368722   -0.08154929505832503   -0.06619861527825226
-0.7257000602401347   0.09060028869158879   0.04288154653132441
-0.7257000602401347   0.09060028869158879   0.04288154653132441
-0.7257000602401347   0.09060028869158879   0.04288154653132441
-0.7257000602401347   0.09060028869158879   0.04288154653132441
-1.0565433615082984   -0.0077824013874268905   0.011893291095329273
-1.0565433615082984   -0.0077824013874268905   0.011893291095329273
-1.0565433615082984   -0.0077824013874268905   0.011893291095329273
-1.0565433615082984   -0.0077824013874268905   0.011893291095329273
-0.7476217683149241   0.051999143576256235   -0.028125848727293984
-0.7476217683149241   0.051999143576256235   -0.028125848727293984
-0.7476217683149241   0.051999143576256235   -0.028125848727293984
-0.7476217683149241   0.051999143576256235   -0.028125848727293984
-1.3542320749987076   -0.041810738079617826   0.009358427433864128
-1.3542320749987076   -0.041810738079617826   0.009358427433864128
-1.3542320749987076   -0.041810738079617826   0.009358427433864128
-1.3542320749987076   -0.041810738079617826   0.009358427433864128
-1.3327422191432998   -0.03504934990120462   -0.06959479565697158
-1.3327422191432998   -0.03504934990120462   -0.06959479565697158
-1.3327422191432998   -0.03504934990120462   -0.06959479565697158
-1.3327422191432998   -0.03504934990120462   -0.06959479565697158
-0.6912898935929468   0.12866067296405728   0.03471957117113576
-0.6912898935929468   0.12866067296405728   0.03471957117113576
-0.6912898935929468   0.12866067296405728   0.03471957117113576
-0.6912898935929468   0.12866067296405728   0.03471957117113576
-1.0221961190985058   0.026936376692737934   0.02775383654739512
-1.0221961190985058   0.026936376692737934   0.02775383654739512
-1.0221961190985058   0.026936376692737934   0.02775383654739512
-1.0221961190985058   0.026936376692737934   0.02775383654739512
-1.4533939208657838   -0.06940147461645241   -0.054102833586024704
-1.4533939208657838   -0.06940147461645241   -0.054102833586024704
-1.4533939208657838   -0.06940147461645241   -0.054102833586024704
-1.4533939208657838   -0.06940147461645241   -0.054102833586024704
-2.0709467104191703   -0.07460754864669894   0.09378590958138236
-2.0709467104191703   -0.07460754864669894   0.09378590958138236
-2.0709467104191703   -0.07460754864669894   0.09378590958138236
-2.0709467104191703   -0.07460754864669894   0.09378590958138236
-2.030787629391429   -0.14899788090046873   -0.07159506151384547
-2.030787629391429   -0.14899788090046873   -0.07159506151384547
-2.030787629391429   -0.14899788090046873   -0.07159506151384547
-2.030787629391429   -0.14899788090046873   -0.07159506151384547
-1.3479930019864776   0.11600946003423573   0.09528674454059022
-1.3479930019864776   0.11600946003423573   0.09528674454059022
-1.3479930019864776   0.11600946003423573   0.09528674454059022
-1.3479930019864776   0.11600946003423573   0.09528674454059022
-1.6492555549727392   -0.02039543226812851   0.018997763218698963
-1.6492555549727392   -0.02039543226812851   0.018997763218698963
-1.6492555549727392   -0.02039543226812851   0.018997763218698963
-1.6492555549727392   -0.02039543226812851   0.018997763218698963
-1.4066557865567741   -0.021880036405071912   -0.06013768187157739
-1.4066557865567741   -0.021880036405071912   -0.06013768187157739
-1.4066557865567741   -0.021880036405071912   -0.06013768187157739
-1.4066557865567741   -0.021880036405071912   -0.06013768187157739
-1.9711757609699794   -0.010159300609999145   0.08762570030291711
-1.9711757609699794   -0.010159300609999145   0.08762570030291711
-1.9711757609699794   -0.010159300609999145   0.08762570030291711
-1.9711757609699794   -0.010159300609999145   0.08762570030291711
-1.9554925900962754   -0.12237417598016842   -0.08430019246339078
-1.9554925900962754   -0.12237417598016842   -0.08430019246339078
-1.9554925900962754   -0.12237417598016842   -0.08430019246339078
-1.9554925900962754   -0.12237417598016842   -0.08430019246339078
-1.3061581597475218   0.1324335645669067   0.07548370104326849
-1.3061581597475218   0.1324335645669067   0.07548370104326849
-1.3061581597475218   0.1324335645669067   0.07548370104326849
-1.3061581597475218   0.1324335645669067   0.07548370104326849
-1.6102212995642606   0.008656896107606782   0.03432343090760617
-1.6102212995642606   0.008656896107606782   0.03432343090760617
-1.6102212995642606   0.008656896107606782   0.03432343090760617
-1.6102212995642606   0.008656896107606782   0.03432343090760617
-1.3615051535540357   -0.0004001590529342791   -0.06841754436946008
-1.3615051535540357   -0.0004001590529342791   -0.06841754436946008
-1.3615051535540357   -0.0004001590529342791   -0.06841754436946008
-1.3615051535540357   -0.0004001590529342791   -0.06841754436946008
-1.8992035567678511   0.011401587161577076   0.0633692110369499
-1.8992035567678511   0.011401587161577076   0.0633692110369499
-1.8992035567678511   0.011401587161577076   0.0633692110369499
-1.8992035567678511   0.011401587161577076   0.0633692110369499
-1.8732510285680415   -0.09034128590694668   -0.09603670308277469
-1.8732510285680415   -0.09034128590694668   -0.09603670308277469
-1.8732510285680415   -0.09034128590694668   -0.09603670308277469
-1.8732510285680415   -0.09034128590694668   -0.09603670308277469
-1.269365035607561   0.14795649099375024   0.06428528112676705
-1.269365035607561   0.14795649099375024   0.06428528112676705
-1.269365035607561   0.14795649099375024   0.06428528112676705
-1.269365035607561   0.14795649099375024   0.06428528112676705
-1.5273325706402698   0.03283208516843539   0.0574318856439934
-1.5273325706402698   0.03283208516843539   0.0574318856439934
-1.5273325706402698   0.03283208516843539   0.0574318856439934
-1.5273325706402698   0.03283208516843539   0.0574318856439934
1.8268639485066434   0.13644996286836625   0.09701801967986948
1.8268639485066434   0.13644996286836625   0.09701801967986948
1.8268639485066434   0.13644996286836625   0.09701801967986948
1.8268639485066434   0.13644996286836625   0.09701801967986948
0.8062454788658487   -0.215596487057656   -0.0444816395615502
0.8062454788658487   -0.215596487057656   -0.0444816395615502
0.8062454788658487   -0.215596487057656   -0.0444816395615502
0.8062454788658487   -0.215596487057656   -0.0444816395615502
0.8993416130345069   -0.03771627703622443   0.06667721479538362
0.8993416130345069   -0.03771627703622443   0.06667721479538362
0.8993416130345069   -0.03771627703622443   0.06667721479538362
0.8993416130345069   -0.03771627703622443   0.06667721479538362
1.8472205349519437   -0.00384072248684042   -0.06979038096147658
1.8472205349519437   -0.00384072248684042   -0.06979038096147658
1.8472205349519437   -0.00384072248684042   -0.06979038096147658
1.8472205349519437   -0.00384072248684042   -0.06979038096147658
1.2661221493460662   -0.038568701888245516   -0.0991948535981235
1.2661221493460662   -0.038568701888245516   -0.0991948535981235
1.2661221493460662   -0.038568701888245516   -0.0991948535981235
1.2661221493460662   -0.038568701888245516   -0.0991948535981235
1.9117130373251185   0.16765737212194126   0.08117403629560029
1.9117130373251185   0.16765737212194126   0.08117403629560029
1.9117130373251185   0.16765737212194126   0.08117403629560029
1.9117130373251185   0.16765737212194126   0.08117403629560029
0.8410382352434445   -0.20302524706289432   -0.05953070413324704
0.8410382352434445   -0.20302524706289432   -0.05953070413324704
0.8410382352434445   -0.20302524706289432   -0.05953070413324704
0.8410382352434445   -0.20302524706289432   -0.05953070413324704
0.9358259907469162   -0.018042717294347005   0.053924463350604586
0.9358259907469162   -0.018042717294347005   0.053924463350604586
0.9358259907469162   -0.018042717294347005   0.053924463350604586
0.9358259907469162   -0.018042717294347005   0.053924463350604586
1.9108609864390673   0.017860148725332425   -0.08725069889653796
1.9108609864390673   0.017860148725332425   -0.08725069889653796
1.9108609864390673   0.017860148725332425   -0.08725069889653796
1.9108609864390673   0.017860148725332425   -0.08725069889653796
1.3459609572983966   -0.015359153865980468   -0.06744475815540409
1.3459609572983966   -0.015359153865980468   -0.06744475815540409
1.3459609572983966   -0.015359153865980468   -0.06744475815540409
1.3459609572983966   -0.015359153865980468   -0.06744475815540409
1.9749828292677485   0.19103957544511566   0.060179088527085485
1.9749828292677485   0.19103957544511566   0.060179088527085485
1.9749828292677485   0.19103957544511566   0.060179088527085485
1.9749828292677485   0.19103957544511566   0.060179088527085485
0.8771255176233841   -0.185800774308981   -0.07181984525242187
0.8771255176233841   -0.185800774308981   -0.07181984525242187
0.8771255176233841   -0.185800774308981   -0.07181984525242187
0.8771255176233841   -0.185800774308981   -0.07181984525242187
0.968866294180595   0.034477872677779076   0.04727710868138946
0.968866294180595   0.034477872677779076   0.04727710868138946
0.968866294180595   0.034477872677779076   0.04727710868138946
0.968866294180595   0.034477872677779076   0.04727710868138946
1.989120110107116   0.08133968022972604   -0.091386682101673
1.989120110107116   0.08133968022972604   -0.091386682101673
1.989120110107116   0.08133968022972604   -0.091386682101673
1.989120110107116   0.08133968022972604   -0.091386682101673
1.3759703888915498   0.015858209187754047   -0.04544093375675788
1.3759703888915498   0.015858209187754047   -0.04544093375675788
1.3759703888915498   0.015858209187754047   -0.04544093375675788
1.3759703888915498   0.015858209187754047   -0.04544093375675788
0.8919269465077115   0.07965972891068973   0.08866948267940739
0.8919269465077115   0.07965972891068973   0.08866948267940739
0.8919269465077115   0.07965972891068973   0.08866948267940739
0.8919269465077115   0.07965972891068973   0.08866948267940739
-0.10948310540778727   -0.2658247483293957   -0.025303142668968756
-0.10948310540778727   -0.2658247483293957   -0.025303142668968756
-0.10948310540778727   -0.2658247483293957   -0.025303142668968756
-0.10948310540778727   -0.2658247483293957   -0.025303142668968756
-0.029220886194458274   -0.09364935585024109   0.022641255474953013
-0.029220886194458274   -0.09364935585024109   0.022641255474953013
-0.029220886194458274   -0.09364935585024109   0.022641255474953013
-0.029220886194458274   -0.09364935585024109   0.022641255474953013
0.8844710021249483   -0.04972906607536237   0.004336949286728453
0.8844710021249483   -0.04972906607536237   0.004336949286728453
0.8844710021249483   -0.04972906607536237   0.004336949286728453
0.8844710021249483   -0.04972906607536237   0.004336949286728453
0.3983334694184479   -0.07430044645164237   -0.04736260707820564
0.3983334694184479   -0.07430044645164237   -0.04736260707820564
0.3983334694184479   -0.07430044645164237   -0.04736260707820564
0.3983334694184479   -0.07430044645164237   -0.04736260707820564
0.9311755780234562   0.10960653203261206   0.07852423067130439
0.9311755780234562   0.10960653203261206   0.07852423067130439
0.9311755780234562   0.10960653203261206   0.07852423067130439
0.9311755780234562   0.10960653203261206   0.07852423067130439
-0.07267227558429361   -0.24973176744954118   -0.03853327987492361
-0.07267227558429361   -0.24973176744954118   -0.03853327987492361
-0.07267227558429361   -0.24973176744954118   -0.03853327987492361
-0.07267227558429361   -0.24973176744954118   -0.03853327987492361
0.007987598141961212   -0.05847150641676151   0.013844027738450997
0.007987598141961212   -0.05847150641676151   0.013844027738450997
0.007987598141961212   -0.05847150641676151   0.013844027738450997
0.007987598141961212   -0.05847150641676151   0.013844027738450997
0.9225552509891476   -0.023208084300880533   -0.007263868431704436
0.9225552509891476   -0.023208084300880533   -0.007263868431704436
0.9225552509891476   -0.023208084300880533   -0.007263868431704436
0.9225552509891476   -0.023208084300880533   -0.007263868431704436
0.43068481820634363   -0.05270921570439707   -0.03071835545556207
0.43068481820634363   -0.05270921570439707   -0.03071835545556207
0.43068481820634363   -0.05270921570439707   -0.03071835545556207
0.43068481820634363   -0.05270921570439707   -0.03071835545556207
0.9717691694054279   0.1455296084650144   0.07006803088380237
0.9717691694054279   0.1455296084650144   0.07006803088380237
0.9717691694054279   0.1455296084650144   0.07006803088380237
0.9717691694054279   0.1455296084650144   0.07006803088380237
-0.03929863450754773   -0.22528151341587546   -0.05577712850998361
-0.03929863450754773   -0.22528151341587546   -0.05577712850998361
-0.03929863450754773   -0.22528151341587546   -0.05577712850998361
-0.03929863450754773   -0.22528151341587546   -0.05577712850998361
0.037190223211074555   -0.0173087057971251   0.004948526934763749
0.037190223211074555   -0.0173087057971251   0.004948526934763749
0.037190223211074555   -0.0173087057971251   0.004948526934763749
0.037190223211074555   -0.0173087057971251   0.004948526934763749
0.951084459989185   0.010594760266307263   -0.01774894986420402
0.951084459989185   0.010594760266307263   -0.01774894986420402
0.951084459989185   0.010594760266307263   -0.01774894986420402
0.951084459989185   0.010594760266307263   -0.01774894986420402
0.4702254961662953   -0.020428145220123442   -0.012884171386536535
0.4702254961662953   -0.020428145220123442   -0.012884171386536535
0.4702254961662953   -0.020428145220123442   -0.012884171386536535
0.4702254961662953   -0.020428145220123442   -0.012884171386536535
-0.038040667746521505   0.02206427247781321   0.04402002483015123
-0.038040667746521505   0.02206427247781321   0.04402002483015123
-0.038040667746521505   0.02206427247781321   0.04402002483015123
-0.038040667746521505   0.02206427247781321   0.04402002483015123
-1.018178984106257   -0.33380221705825164   -0.02040051611385941
-1.018178984106257   -0.33380221705825164   -0.02040051611385941
-1.018178984106257   -0.33380221705825164   -0.02040051611385941
-1.018178984106257   -0.33380221705825164   -0.02040051611385941
-0.936887769883798   -0.14370532699626637   -0.02140867603578099
-0.936887769883798   -0.14370532699626637   -0.02140867603578099
-0.936887769883798   -0.14370532699626637   -0.02140867603578099
-0.936887769883798   -0.14370532699626637   -0.02140867603578099
-0.03417183793136081   -0.11557243295999639   0.019809573900195637
-0.03417183793136081   -0.11557243295999639   0.019809573900195637
-0.03417183793136081   -0.11557243295999639   0.019809573900195637
-0.03417183793136081   -0.11557243295999639   0.019809573900195637
-0.509142049349821   -0.13510500525121447   -0.04233325562703759
-0.509142049349821   -0.13510500525121447   -0.04233325562703759
-0.509142049349821   -0.13510500525121447   -0.04233325562703759
-0.509142049349821   -0.13510500525121447   -0.04233325562703759
0.003282696417627389   0.05576038667350244   0.03574942601163779
0.003282696417627389   0.05576038667350244   0.03574942601163779
0.003282696417627389   0.05576038667350244   0.03574942601163779
0.003282696417627389   0.05576038667350244   0.03574942601163779
-0.9719961699677614   -0.3126920123647405   -0.027963991087124135
-0.9719961699677614   -0.3126920123647405   -0.027963991087124135
-0.9719961699677614   -0.3126920123647405   -0.027963991087124135
-0.9719961699677614   -0.3126920123647405   -0.027963991087124135
-0.8907444924664805   -0.10464755242216052   -0.02917690813669459
-0.8907444924664805   -0.10464755242216052   -0.02917690813669459
-0.8907444924664805   -0.10464755242216052   -0.02917690813669459
-0.8907444924664805   -0.10464755242216052   -0.02917690813669459
0.0005003799779836268   -0.09009264518803527   0.00802907568983302
0.0005003799779836268   -0.09009264518803527   0.00802907568983302
0.0005003799779836268   -0.09009264518803527   0.00802907568983302
0.0005003799779836268   -0.09009264518803527   0.00802907568983302
-0.464348326405983   -0.10703782321838566   -0.02353803295465967
-0.464348326405983   -0.10703782321838566   -0.02353803295465967
-0.464348326405983   -0.10703782321838566   -0.02353803295465967
-0.464348326405983   -0.10703782321838566   -0.02353803295465967
0.04110036851692886   0.09312006336763752   0.027816309828886367
0.04110036851692886   0.09312006336763752   0.027816309828886367
0.04110036851692886   0.09312006336763752   0.027816309828886367
0.04110036851692886   0.09312006336763752   0.027816309828886367
-0.9313774227204306   -0.2878932026928373   -0.049095909135763005
-0.9313774227204306   -0.2878932026928373   -0.049095909135763005
-0.9313774227204306   -0.2878932026928373   -0.049095909135763005
-0.9313774227204306   -0.2878932026928373   -0.049095909135763005
-0.85814092435588   -0.06742887190333569   -0.03786854395493022
-0.85814092435588   -0.06742887190333569   -0.03786854395493022
-0.85814092435588   -0.06742887190333569   -0.03786854395493022
-0.85814092435588   -0.06742887190333569   -0.03786854395493022
0.0232781335537146   -0.06976262911217088   -0.012157998036990234
0.0232781335537146   -0.06976262911217088   -0.012157998036990234
0.0232781335537146   -0.06976262911217088   -0.012157998036990234
0.0232781335537146   -0.06976262911217088   -0.012157998036990234
-0.43148891204335443   -0.08087637982189191   -0.01179315648984222
-0.43148891204335443   -0.08087637982189191   -0.01179315648984222
-0.43148891204335443   -0.08087637982189191   -0.01179315648984222
-0.43148891204335443   -0.08087637982189191   -0.01179315648984222
-0.9532056135622526   -0.027837250899897137   -0.0014986295521980664
-0.9532056135622526   -0.027837250899897137   -0.0014986295521980664
-0.9532056135622526   -0.027837250899897137   -0.0014986295521980664
-0.9532056135622526   -0.027837250899897137   -0.0014986295521980664
-1.9308929361457958   -0.35887740984760386   -0.016455134421834012
-1.9308929361457958   -0.35887740984760386   -0.016455134421834012
-1.9308929361457958   -0.35887740984760386   -0.016455134421834012
-1.9308929361457958   -0.35887740984760386   -0.016455134421834012
-1.8434921993422102   -0.18393823431231324   -0.06380263379986684
-1.8434921993422102   -0.18393823431231324   -0.06380263379986684
-1.8434921993422102   -0.18393823431231324   -0.06380263379986684
-1.8434921993422102   -0.18393823431231324   -0.06380263379986684
-0.9194530725005158   -0.12003802144548625   0.042097505329841904
-0.9194530725005158   -0.12003802144548625   0.042097505329841904
-0.9194530725005158   -0.12003802144548625   0.042097505329841904
-0.9194530725005158   -0.12003802144548625   0.042097505329841904
-1.3993689033231382   -0.16231948104360078   -0.029851391961264448
-1.3993689033231382   -0.16231948104360078   -0.029851391961264448
-1.3993689033231382   -0.16231948104360078   -0.029851391961264448
-1.3993689033231382   -0.16231948104360078   -0.029851391961264448
-0.90223267887567   0.015588739118904266   -0.007427287110319543
-0.90223267887567   0.015588739118904266   -0.007427287110319543
-0.90223267887567   0.015588739118904266   -0.007427287110319543
-0.90223267887567   0.015588739118904266   -0.007427287110319543
-1.861485557646638   -0.3203379595562833   -0.017369700078020862
-1.861485557646638   -0.3203379595562833   -0.017369700078020862
-1.861485557646638   -0.3203379595562833   -0.017369700078020862
-1.861485557646638   -0.3203379595562833   -0.017369700078020862
-1.7775599072252288   -0.14312985654669347   -0.07390933267499293
-1.7775599072252288   -0.14312985654669347   -0.07390933267499293
-1.7775599072252288   -0.14312985654669347   -0.07390933267499293
-1.7775599072252288   -0.14312985654669347   -0.07390933267499293
-0.8746207811166378   -0.08937949413807104   0.036173590328434466
-0.8746207811166378   -0.08937949413807104   0.036173590328434466
-0.8746207811166378   -0.08937949413807104   0.036173590328434466
-0.8746207811166378   -0.08937949413807104   0.036173590328434466
-1.3316576481126872   -0.12316920083338251   -0.009870421300372148
-1.3316576481126872   -0.12316920083338251   -0.009870421300372148
-1.3316576481126872   -0.12316920083338251   -0.009870421300372148
-1.3316576481126872   -0.12316920083338251   -0.009870421300372148
-0.8559747207468249   0.05331160574322458   -0.013287207703806411
-0.8559747207468249   0.05331160574322458   -0.013287207703806411
-0.8559747207468249   0.05331160574322458   -0.013287207703806411
-0.8559747207468249   0.05331160574322458   -0.013287207703806411
-1.7994080393515046   -0.2890230281844512   -0.03725682166859938
-1.7994080393515046   -0.2890230281844512   -0.03725682166859938
-1.7994080393515046   -0.2890230281844512   -0.03725682166859938
-1.7994080393515046   -0.2890230281844512   -0.03725682166859938
-1.7240194597628489   -0.10007972383830294   -0.07625284667070192
-1.7240194597628489   -0.10007972383830294   -0.07625284667070192
-1.7240194597628489   -0.10007972383830294   -0.07625284667070192
-1.7240194597628489   -0.10007972383830294   -0.07625284667070192
-0.8488573294338602   -0.06988849275689786   0.01100905150873897
-0.8488573294338602   -0.06988849275689786   0.01100905150873897
-0.8488573294338602   -0.06988849275689786   0.01100905150873897
-0.8488573294338602   -0.06988849275689786   0.01100905150873897
-1.2941777891151318   -0.09929276794303893   -0.003362892084423502
-1.2941777891151318   -0.09929276794303893   -0.003362892084423502
-1.2941777891151318   -0.09929276794303893   -0.003362892084423502
-1.2941777891151318   -0.09929276794303893   -0.003362892084423502
-1.8779993457543684   -0.0641234800770627   -0.04674111223523844
-1.8779993457543684   -0.0641234800770627   -0.04674111223523844
-1.8779993457543684   -0.0641234800770627   -0.04674111223523844
-1.8779993457543684   -0.0641234800770627   -0.04674111223523844
-2.831687616129239   -0.24222043547497762   0.10753397936593015
-2.831687616129239   -0.24222043547497762   0.10753397936593015
-2.831687616129239   -0.24222043547497762   0.10753397936593015
-2.831687616129239   -0.24222043547497762   0.10753397936593015
-2.7339377761716905   -0.19272396091548832   -0.06243558602287867
-2.7339377761716905   -0.19272396091548832   -0.06243558602287867
-2.7339377761716905   -0.19272396091548832   -0.06243558602287867
-2.7339377761716905   -0.19272396091548832   -0.06243558602287867
-1.7641178043923544   0.05037977728225729   0.09875132935482497
-1.7641178043923544   0.05037977728225729   0.09875132935482497
-1.7641178043923544   0.05037977728225729   0.09875132935482497
-1.7641178043923544   0.05037977728225729   0.09875132935482497
-2.1989988832278735   -0.07613904399901977   0.010268905094851108
-2.1989988832278735   -0.07613904399901977   0.010268905094851108
-2.1989988832278735   -0.07613904399901977   0.010268905094851108
-2.1989988832278735   -0.07613904399901977   0.010268905094851108
-1.8052768809100803   -0.0048645998740896035   -0.05179967607743402
-1.8052768809100803   -0.0048645998740896035   -0.05179967607743402
-1.8052768809100803   -0.0048645998740896035   -0.05179967607743402
-1.8052768809100803   -0.0048645998740896035   -0.05179967607743402
-2.6861386211816143   -0.13083950528679744   0.114675733298811
-2.6861386211816143   -0.13083950528679744   0.114675733298811
-2.6861386211816143   -0.13083950528679744   0.114675733298811
-2.6861386211816143   -0.13083950528679744   0.114675733298811
-2.62910915714215   -0.16212416550268338   -0.0743539519100532
-2.62910915714215   -0.16212416550268338   -0.0743539519100532
-2.62910915714215   -0.16212416550268338   -0.0743539519100532
-2.62910915714215   -0.16212416550268338   -0.0743539519100532
-1.6988912178705415   0.08090624813607977   0.0953980094156703
-1.6988912178705415   0.08090624813607977   0.0953980094156703
-1.6988912178705415   0.08090624813607977   0.0953980094156703
-1.6988912178705415   0.08090624813607977   0.0953980094156703
-2.136888602018825   -0.030716527200994215   0.04372760594650693
-2.136888602018825   -0.030716527200994215   0.04372760594650693
-2.136888602018825   -0.030716527200994215   0.04372760594650693
-2.136888602018825   -0.030716527200994215   0.04372760594650693
-1.74152023087952   0.019080207194366927   -0.055921014687493664
-1.74152023087952   0.019080207194366927   -0.055921014687493664
-1.74152023087952   0.019080207194366927   -0.055921014687493664
-1.74152023087952   0.019080207194366927   -0.055921014687493664
-2.5851524530581083   -0.0989704334859085   0.08227583649335718
-2.5851524530581083   -0.0989704334859085   0.08227583649335718
-2.5851524530581083   -0.0989704334859085   0.08227583649335718
-2.5851524530581083   -0.0989704334859085   0.08227583649335718
-2.5207193676087876   -0.13313988056724885   -0.08984224467700254
-2.5207193676087876   -0.13313988056724885   -0.08984224467700254
-2.5207193676087876   -0.13313988056724885   -0.08984224467700254
-2.5207193676087876   -0.13313988056724885   -0.08984224467700254
-1.650470038156707   0.11756596109537959   0.07384857642632632
-1.650470038156707   0.11756596109537959   0.07384857642632632
-1.650470038156707   0.11756596109537959   0.07384857642632632
-1.650470038156707   0.11756596109537959   0.07384857642632632
-2.020474558903105   0.008141857756091941   0.0771719354961747
-2.020474558903105   0.008141857756091941   0.0771719354961747
-2.020474558903105   0.008141857756091941   0.0771719354961747
-2.020474558903105   0.008141857756091941   0.0771719354961747
2.4966024766136394   0.14952299039361505   0.0907587499469529
2.4966024766136394   0.14952299039361505   0.0907587499469529
2.4966024766136394   0.14952299039361505   0.0907587499469529
2.4966024766136394   0.14952299039361505   0.0907587499469529
1.1906447176011494   -0.22328594994363254   0.020564638033688798
1.1906447176011494   -0.22328594994363254   0.020564638033688798
1.1906447176011494   -0.22328594994363254   0.020564638033688798
1.1906447176011494   -0.22328594994363254   0.020564638033688798
1.2565780336512586   -0.09403157582632238   0.06989785364179851
1.2565780336512586   -0.09403157582632238   0.06989785364179851
1.2565780336512586   -0.09403157582632238   0.06989785364179851
1.2565780336512586   -0.09403157582632238   0.06989785364179851
2.5099018093079013   0.020812512878170986   -0.019978599243871936
2.5099018093079013   0.020812512878170986   -0.019978599243871936
2.5099018093079013   0.020812512878170986   -0.019978599243871936
2.5099018093079013   0.020812512878170986   -0.019978599243871936
1.7555582149197384   -0.04811197955961122   -0.11682886506437759
1.7555582149197384   -0.04811197955961122   -0.11682886506437759
1.7555582149197384   -0.04811197955961122   -0.11682886506437759
1.7555582149197384   -0.04811197955961122   -0.11682886506437759
2.557394007530504   0.16650919097552475   0.07178571377178869
2.557394007530504   0.16650919097552475   0.07178571377178869
2.557394007530504   0.16650919097552475   0.07178571377178869
2.557394007530504   0.16650919097552475   0.07178571377178869
1.2204986328379535   -0.22831545651437846   0.02378473026332839
1.2204986328379535   -0.22831545651437846   0.02378473026332839
1.2204986328379535   -0.22831545651437846   0.02378473026332839
1.2204986328379535   -0.22831545651437846   0.02378473026332839
1.281609920330964   -0.07989811276834752   0.05320905974316546
1.281609920330964   -0.07989811276834752   0.05320905974316546
1.281609920330964   -0.07989811276834752   0.05320905974316546
1.281609920330964   -0.07989811276834752   0.05320905974316546
2.554054664131317   0.03675662681451397   -0.005894439257264156
2.554054664131317   0.03675662681451397   -0.005894439257264156
2.554054664131317   0.03675662681451397   -0.005894439257264156
2.554054664131317   0.03675662681451397   -0.005894439257264156
1.8281496002740019   -0.03808427441761403   -0.07976201162838968
1.8281496002740019   -0.03808427441761403   -0.07976201162838968
1.8281496002740019   -0.03808427441761403   -0.07976201162838968
1.8281496002740019   -0.03808427441761403   -0.07976201162838968
2.5942189882020146   0.18193220869948085   0.049751599211257005
2.5942189882020146   0.18193220869948085   0.049751599211257005
2.5942189882020146   0.18193220869948085   0.049751599211257005
2.5942189882020146   0.18193220869948085   0.049751599211257005
1.2493851449049784   -0.21713414600860254   0.02932121585349215
1.2493851449049784   -0.21713414600860254   0.02932121585349215
1.2493851449049784   -0.21713414600860254   0.02932121585349215
1.2493851449049784   -0.21713414600860254   0.02932121585349215
1.318423355378457   -0.024794123816243074   0.04864105239714031
1.318423355378457   -0.024794123816243074   0.04864105239714031
1.318423355378457   -0.024794123816243074   0.04864105239714031
1.318423355378457   -0.024794123816243074   0.04864105239714031
2.5999355398690467   0.07319592922087653   -0.0007306320432107077
2.5999355398690467   0.07319592922087653   -0.0007306320432107077
2.5999355398690467   0.07319592922087653   -0.0007306320432107077
2.5999355398690467   0.07319592922087653   -0.0007306320432107077
1.8373214456161302   -0.01766704291047183   -0.05955300869805405
1.8373214456161302   -0.01766704291047183   -0.05955300869805405
1.8373214456161302   -0.01766704291047183   -0.05955300869805405
1.8373214456161302   -0.01766704291047183   -0.05955300869805405
1.2564658286931443   0.0314187631121588   0.0949654804378719
1.2564658286931443   0.0314187631121588   0.0949654804378719
1.2564658286931443   0.0314187631121588   0.0949654804378719
1.2564658286931443   0.0314187631121588   0.0949654804378719
0.06727986544031425   -0.4454178378687057   0.04596203214426059
0.06727986544031425   -0.4454178378687057   0.04596203214426059
0.06727986544031425   -0.4454178378687057   0.04596203214426059
0.06727986544031425   -0.4454178378687057   0.04596203214426059
0.15329695709138227   -0.18827885525008822   0.04276204844672665
0.15329695709138227   -0.18827885525008822   0.04276204844672665
0.15329695709138227   -0.18827885525008822   0.04276204844672665
0.15329695709138227   -0.18827885525008822   0.04276204844672665
1.224166629460755   -0.21509746127615792   0.02890671813910406
1.224166629460755   -0.21509746127615792   0.02890671813910406
1.224166629460755   -0.21509746127615792   0.02890671813910406
1.224166629460755   -0.21509746127615792   0.02890671813910406
0.6533360166740616   -0.20002661441988553   -0.07486720323347194
0.6533360166740616   -0.20002661441988553   -0.07486720323347194
0.6533360166740616   -0.20002661441988553   -0.07486720323347194
0.6533360166740616   -0.20002661441988553   -0.07486720323347194
1.2863875428404432   0.04564134746889281   0.07927247629250936
1.2863875428404432   0.04564134746889281   0.07927247629250936
1.2863875428404432   0.04564134746889281   0.07927247629250936
1.2863875428404432   0.04564134746889281   0.07927247629250936
0.10750035817366943   -0.4325933495331502   0.058093548141228274
0.10750035817366943   -0.4325933495331502   0.058093548141228274
0.10750035817366943   -0.4325933495331502   0.058093548141228274
0.10750035817366943   -0.4325933495331502   0.058093548141228274
0.18791386272895494   -0.16247659167817846   0.03103498294199864
0.18791386272895494   -0.16247659167817846   0.03103498294199864
0.18791386272895494   -0.16247659167817846   0.03103498294199864
0.18791386272895494   -0.16247659167817846   0.03103498294199864
1.2537818708372352   -0.2016114747165727   0.03578217422274671
1.2537818708372352   -0.2016114747165727   0.03578217422274671
1.2537818708372352   -0.2016114747165727   0.03578217422274671
1.2537818708372352   -0.2016114747165727   0.03578217422274671
0.682838039768279   -0.19017101793452196   -0.03743191328599833
0.682838039768279   -0.19017101793452196   -0.03743191328599833
0.682838039768279   -0.19017101793452196   -0.03743191328599833
0.682838039768279   -0.19017101793452196   -0.03743191328599833
1.3142888247267586   0.0699437482697837   0.06676172068400596
1.3142888247267586   0.0699437482697837   0.06676172068400596
1.3142888247267586   0.0699437482697837   0.06676172068400596
1.3142888247267586   0.0699437482697837   0.06676172068400596
0.1432111699821666   -0.4182275535218001   0.06327248105167857
0.1432111699821666   -0.4182275535218001   0.06327248105167857
0.1432111699821666   -0.4182275535218001   0.06327248105167857
0.1432111699821666   -0.4182275535218001   0.06327248105167857
0.24102378816786613   -0.12374880456610506   0.02059389779505324
0.24102378816786613   -0.12374880456610506   0.02059389779505324
0.24102378816786613   -0.12374880456610506   0.02059389779505324
0.24102378816786613   -0.12374880456610506   0.02059389779505324
1.2862128034157736   -0.1810995066582365   0.043893675425723616
1.2862128034157736   -0.1810995066582365   0.043893675425723616
1.2862128034157736   -0.1810995066582365   0.043893675425723616
1.2862128034157736   -0.1810995066582365   0.043893675425723616
0.7344470298750988   -0.16625973176755376   0.006119812025682292
0.7344470298750988   -0.16625973176755376   0.006119812025682292
0.7344470298750988   -0.16625973176755376   0.006119812025682292
0.7344470298750988   -0.16625973176755376   0.006119812025682292
0.1423211715014033   -0.08539328149812309   0.06114400607912312
0.1423211715014033   -0.08539328149812309   0.06114400607912312
0.1423211715014033   -0.08539328149812309   0.06114400607912312
0.1423211715014033   -0.08539328149812309   0.06114400607912312
-1.0655143796675273   -0.7655740975094314   0.06642106720977811
-1.0655143796675273   -0.7655740975094314   0.06642106720977811
-1.0655143796675273   -0.7655740975094314   0.06642106720977811
-1.0655143796675273   -0.7655740975094314   0.06642106720977811
-0.9294392145219491   -0.29767317376585695   0.004573246461481106
-0.9294392145219491   -0.29767317376585695   0.004573246461481106
-0.9294392145219491   -0.29767317376585695   0.004573246461481106
-0.9294392145219491   -0.29767317376585695   0.004573246461481106
0.07579127519939896   -0.5581609149442448   0.025115698680970494
0.07579127519939896   -0.5581609149442448   0.025115698680970494
0.07579127519939896   -0.5581609149442448   0.025115698680970494
0.07579127519939896   -0.5581609149442448   0.025115698680970494
-0.4582226142448095   -0.4297697867340734   -0.08984505140752982
-0.4582226142448095   -0.4297697867340734   -0.08984505140752982
-0.4582226142448095   -0.4297697867340734   -0.08984505140752982
-0.4582226142448095   -0.4297697867340734   -0.08984505140752982
0.17856911732952646   -0.06734779817532119   0.04819179256268441
0.17856911732952646   -0.06734779817532119   0.04819179256268441
0.17856911732952646   -0.06734779817532119   0.04819179256268441
0.17856911732952646   -0.06734779817532119   0.04819179256268441
-1.008474343578707   -0.7647435774614095   0.07646800487325228
-1.008474343578707   -0.7647435774614095   0.07646800487325228
-1.008474343578707   -0.7647435774614095   0.07646800487325228
-1.008474343578707   -0.7647435774614095   0.07646800487325228
-0.8769566649158076   -0.2671597987765806   0.00015035264089779954
-0.8769566649158076   -0.2671597987765806   0.00015035264089779954
-0.8769566649158076   -0.2671597987765806   0.00015035264089779954
-0.8769566649158076   -0.2671597987765806   0.00015035264089779954
0.11227601631645245   -0.5459984920625893   0.036367651263897044
0.11227601631645245   -0.5459984920625893   0.036367651263897044
0.11227601631645245   -0.5459984920625893   0.036367651263897044
0.11227601631645245   -0.5459984920625893   0.036367651263897044
-0.4050900200921679   -0.4152084819280966   -0.03356938808373845
-0.4050900200921679   -0.4152084819280966   -0.03356938808373845
-0.4050900200921679   -0.4152084819280966   -0.03356938808373845
-0.4050900200921679   -0.4152084819280966   -0.03356938808373845
0.21170808407162944   -0.043292516593195135   0.030822014570387885
0.21170808407162944   -0.043292516593195135   0.030822014570387885
0.21170808407162944   -0.043292516593195135   0.030822014570387885
0.21170808407162944   -0.043292516593195135   0.030822014570387885
-0.9549342808041421   -0.74841132237913   0.09151379680178828
-0.9549342808041421   -0.74841132237913   0.09151379680178828
-0.9549342808041421   -0.74841132237913   0.09151379680178828
-0.9549342808041421   -0.74841132237913   0.09151379680178828
-0.7903576057119671   -0.23200087333020586   -0.00971347986154477
-0.7903576057119671   -0.23200087333020586   -0.00971347986154477
-0.7903576057119671   -0.23200087333020586   -0.00971347986154477
-0.7903576057119671   -0.23200087333020586   -0.00971347986154477
0.16923601144489758   -0.5118472920287328   0.049753501642838205
0.16923601144489758   -0.5118472920287328   0.049753501642838205
0.16923601144489758   -0.5118472920287328   0.049753501642838205
0.16923601144489758   -0.5118472920287328   0.049753501642838205
-0.33611076799554174   -0.38243913757378045   0.025398344566771577
-0.33611076799554174   -0.38243913757378045   0.025398344566771577
-0.33611076799554174   -0.38243913757378045   0.025398344566771577
-0.33611076799554174   -0.38243913757378045   0.025398344566771577
-0.9505964350126155   -0.15369978678468454   0.029136479759582317
-0.9505964350126155   -0.15369978678468454   0.029136479759582317
-0.9505964350126155   -0.15369978678468454   0.029136479759582317
-0.9505964350126155   -0.15369978678468454   0.029136479759582317
-2.3728914668473773   -1.1923945726156377   -0.05663595387051981
-2.3728914668473773   -1.1923945726156377   -0.05663595387051981
-2.3728914668473773   -1.1923945726156377   -0.05663595387051981
-2.3728914668473773   -1.1923945726156377   -0.05663595387051981
-2.1482384386725344   -0.38733786076811516   -0.06561632511128396
-2.1482384386725344   -0.38733786076811516   -0.06561632511128396
-2.1482384386725344   -0.38733786076811516   -0.06561632511128396
-2.1482384386725344   -0.38733786076811516   -0.06561632511128396
-1.0664066925034785   -0.99774561779708   0.019808300585056615
-1.0664066925034785   -0.99774561779708   0.019808300585056615
-1.0664066925034785   -0.99774561779708   0.019808300585056615
-1.0664066925034785   -0.99774561779708   0.019808300585056615
-1.632669292017651   -0.7052448716858976   -0.09432799845414545
-1.632669292017651   -0.7052448716858976   -0.09432799845414545
-1.632669292017651   -0.7052448716858976   -0.09432799845414545
-1.632669292017651   -0.7052448716858976   -0.09432799845414545
-0.8885750496878532   -0.1166981154797512   0.027919012345854553
-0.8885750496878532   -0.1166981154797512   0.027919012345854553
-0.8885750496878532   -0.1166981154797512   0.027919012345854553
-0.8885750496878532   -0.1166981154797512   0.027919012345854553
-2.320778824503681   -1.2630941061009653   -0.05256200893416721
-2.320778824503681   -1.2630941061009653   -0.05256200893416721
-2.320778824503681   -1.2630941061009653   -0.05256200893416721
-2.320778824503681   -1.2630941061009653   -0.05256200893416721
-2.0784265519573792   -0.35074315393509264   -0.06683893781593174
-2.0784265519573792   -0.35074315393509264   -0.06683893781593174
-2.0784265519573792   -0.35074315393509264   -0.06683893781593174
-2.0784265519573792   -0.35074315393509264   -0.06683893781593174
-1.0155622597927283   -0.9900304647025092   0.029993044182227313
-1.0155622597927283   -0.9900304647025092   0.029993044182227313
-1.0155622597927283   -0.9900304647025092   0.029993044182227313
-1.0155622597927283   -0.9900304647025092   0.029993044182227313
-1.5594942258723592   -0.686323684276546   -0.06638448517115514
-1.5594942258723592   -0.686323684276546   -0.06638448517115514
-1.5594942258723592   -0.686323684276546   -0.06638448517115514
-1.5594942258723592   -0.686323684276546   -0.06638448517115514
-0.8392085952189519   -0.08765466212875091   0.009385564477349274
-0.8392085952189519   -0.08765466212875091   0.009385564477349274
-0.8392085952189519   -0.08765466212875091   0.009385564477349274
-0.8392085952189519   -0.08765466212875091   0.009385564477349274
-2.254752435136007   -1.2530911751136893   -0.04612033253045539
-2.254752435136007   -1.2530911751136893   -0.04612033253045539
-2.254752435136007   -1.2530911751136893   -0.04612033253045539
-2.254752435136007   -1.2530911751136893   -0.04612033253045539
-1.9695717376372424   -0.31138559983030584   -0.07576207565491862
-1.9695717376372424   -0.31138559983030584   -0.07576207565491862
-1.9695717376372424   -0.31138559983030584   -0.07576207565491862
-1.9695717376372424   -0.31138559983030584   -0.07576207565491862
-0.9055686940544553   -0.8906991446097765   0.07292934970559642
-0.9055686940544553   -0.8906991446097765   0.07292934970559642
-0.9055686940544553   -0.8906991446097765   0.07292934970559642
-0.9055686940544553   -0.8906991446097765   0.07292934970559642
-1.4777930106242498   -0.62236966638227   -0.037203432031409564
-1.4777930106242498   -0.62236966638227   -0.037203432031409564
-1.4777930106242498   -0.62236966638227   -0.037203432031409564
-1.4777930106242498   -0.62236966638227   -0.037203432031409564
-2.1522867276516813   -0.13087368312848974   -0.015133147379188278
-2.1522867276516813   -0.13087368312848974   -0.015133147379188278
-2.1522867276516813   -0.13087368312848974   -0.015133147379188278
-2.1522867276516813   -0.13087368312848974   -0.015133147379188278
-3.800375314729625   -0.7523267317232034   0.03874165611360736
-3.800375314729625   -0.7523267317232034   0.03874165611360736
-3.800375314729625   -0.7523267317232034   0.03874165611360736
-3.800375314729625   -0.7523267317232034   0.03874165611360736
-3.650438320966929   -0.3626968820884715   -0.08031145092430592
-3.650438320966929   -0.3626968820884715   -0.08031145092430592
-3.650438320966929   -0.3626968820884715   -0.08031145092430592
-3.650438320966929   -0.3626968820884715   -0.08031145092430592
-2.1039358755457003   -0.38922954096515794   0.1577881707199108
-2.1039358755457003   -0.38922954096515794   0.1577881707199108
-2.1039358755457003   -0.38922954096515794   0.1577881707199108
-2.1039358755457003   -0.38922954096515794   0.1577881707199108
-2.8081508458086955   -0.4365454969089282   0.040484708318919364
-2.8081508458086955   -0.4365454969089282   0.040484708318919364
-2.8081508458086955   -0.4365454969089282   0.040484708318919364
-2.8081508458086955   -0.4365454969089282   0.040484708318919364
-2.063372869537298   -0.029122308048607715   0.0004959678453822502
-2.063372869537298   -0.029122308048607715   0.0004959678453822502
-2.063372869537298   -0.029122308048607715   0.0004959678453822502
-2.063372869537298   -0.029122308048607715   0.0004959678453822502
-3.705338678960954   -0.7371414669906474   0.01963134400771671
-3.705338678960954   -0.7371414669906474   0.01963134400771671
-3.705338678960954   -0.7371414669906474   0.01963134400771671
-3.705338678960954   -0.7371414669906474   0.01963134400771671
-3.5676712816894542   -0.3323145271457459   -0.10192580317454523
-3.5676712816894542   -0.3323145271457459   -0.10192580317454523
-3.5676712816894542   -0.3323145271457459   -0.10192580317454523
-3.5676712816894542   -0.3323145271457459   -0.10192580317454523
-2.0320633214560972   -0.369638210116782   0.18387227087218705
-2.0320633214560972   -0.369638210116782   0.18387227087218705
-2.0320633214560972   -0.369638210116782   0.18387227087218705
-2.0320633214560972   -0.369638210116782   0.18387227087218705
-2.7643154716454714   -0.35945392996176284   0.038862862966869534
-2.7643154716454714   -0.35945392996176284   0.038862862966869534
-2.7643154716454714   -0.35945392996176284   0.038862862966869534
-2.7643154716454714   -0.35945392996176284   0.038862862966869534
-1.999335070211963   -0.002239217350102851   -0.019885465673821365
-1.999335070211963   -0.002239217350102851   -0.019885465673821365
-1.999335070211963   -0.002239217350102851   -0.019885465673821365
-1.999335070211963   -0.002239217350102851   -0.019885465673821365
-3.6057145945386893   -0.7050285815175312   0.08057168695103345
-3.6057145945386893   -0.7050285815175312   0.08057168695103345
-3.6057145945386893   -0.7050285815175312   0.08057168695103345
-3.6057145945386893   -0.7050285815175312   0.08057168695103345
-3.3958168000620335   -0.26904759980520837   -0.11387246617128709
-3.3958168000620335   -0.26904759980520837   -0.11387246617128709
-3.3958168000620335   -0.26904759980520837   -0.11387246617128709
-3.3958168000620335   -0.26904759980520837   -0.11387246617128709
-1.920311227955922   -0.34352605917242135   0.2026809320938152
-1.920311227955922   -0.34352605917242135   0.2026809320938152
-1.920311227955922   -0.34352605917242135   0.2026809320938152
-1.920311227955922   -0.34352605917242135   0.2026809320938152
-2.5983896454675297   -0.2747435333269423   0.0794229966402281
-2.5983896454675297   -0.2747435333269423   0.0794229966402281
-2.5983896454675297   -0.2747435333269423   0.0794229966402281
-2.5983896454675297   -0.2747435333269423   0.0794229966402281
2.7344928714692904   0.08908976598522111   0.038595063809815894
2.7344928714692904   0.08908976598522111   0.038595063809815894
2.7344928714692904   0.08908976598522111   0.038595063809815894
2.7344928714692904   0.08908976598522111   0.038595063809815894
1.3970187387849822   -0.07325623894170702   0.028614439113615928
1.3970187387849822   -0.07325623894170702   0.028614439113615928
1.3970187387849822   -0.07325623894170702   0.028614439113615928
1.3970187387849822   -0.07325623894170702   0.028614439113615928
1.3421840300824688   -0.19753060939000544   0.05602356864067809
1.3421840300824688   -0.19753060939000544   0.05602356864067809
1.3421840300824688   -0.19753060939000544   0.05602356864067809
1.3421840300824688   -0.19753060939000544   0.05602356864067809
2.71461062187629   0.1529864704895894   0.020786473758187665
2.71461062187629   0.1529864704895894   0.020786473758187665
2.71461062187629   0.1529864704895894   0.020786473758187665
2.71461062187629   0.1529864704895894   0.020786473758187665
1.9379703273832145   -0.0276576443430242   -0.071515980909678
1.9379703273832145   -0.0276576443430242   -0.071515980909678
1.9379703273832145   -0.0276576443430242   -0.071515980909678
1.9379703273832145   -0.0276576443430242   -0.071515980909678
2.699498695979409   0.06864189417826794   0.029571420585105063
2.699498695979409   0.06864189417826794   0.029571420585105063
2.699498695979409   0.06864189417826794   0.029571420585105063
2.699498695979409   0.06864189417826794   0.029571420585105063
1.3527949038710405   -0.11768708518699317   0.02923441338052414
1.3527949038710405   -0.11768708518699317   0.02923441338052414
1.3527949038710405   -0.11768708518699317   0.02923441338052414
1.3527949038710405   -0.11768708518699317   0.02923441338052414
1.307258474981707   -0.2021497553801711   0.0463698389189206
1.307258474981707   -0.2021497553801711   0.0463698389189206
1.307258474981707   -0.2021497553801711   0.0463698389189206
1.307258474981707   -0.2021497553801711   0.0463698389189206
2.6826596664757907   0.14629474103383194   0.03583439851132934
2.6826596664757907   0.14629474103383194   0.03583439851132934
2.6826596664757907   0.14629474103383194   0.03583439851132934
2.6826596664757907   0.14629474103383194   0.03583439851132934
1.9319951397512525   -0.038163268149151774   -0.08291403699225232
1.9319951397512525   -0.038163268149151774   -0.08291403699225232
1.9319951397512525   -0.038163268149151774   -0.08291403699225232
1.9319951397512525   -0.038163268149151774   -0.08291403699225232
2.6601952806237708   0.06093756668456396   0.008869643600471572
2.6601952806237708   0.06093756668456396   0.008869643600471572
2.6601952806237708   0.06093756668456396   0.008869643600471572
2.6601952806237708   0.06093756668456396   0.008869643600471572
1.3216568348009197   -0.12485860706370472   0.04107048969851716
1.3216568348009197   -0.12485860706370472   0.04107048969851716
1.3216568348009197   -0.12485860706370472   0.04107048969851716
1.3216568348009197   -0.12485860706370472   0.04107048969851716
1.2703867531234543   -0.1845604462289775   0.04003627745311154
1.2703867531234543   -0.1845604462289775   0.04003627745311154
1.2703867531234543   -0.1845604462289775   0.04003627745311154
1.2703867531234543   -0.1845604462289775   0.04003627745311154
2.6333946489708833   0.14776598823789167   0.05142328061866866
2.6333946489708833   0.14776598823789167   0.05142328061866866
2.6333946489708833   0.14776598823789167   0.05142328061866866
2.6333946489708833   0.14776598823789167   0.05142328061866866
1.8592153682393153   -0.03852690763200328   -0.11206156605027945
1.8592153682393153   -0.03852690763200328   -0.11206156605027945
1.8592153682393153   -0.03852690763200328   -0.11206156605027945
1.8592153682393153   -0.03852690763200328   -0.11206156605027945
1.384115295033046   -0.1775624684138049   0.06840344982603283
1.384115295033046   -0.1775624684138049   0.06840344982603283
1.384115295033046   -0.1775624684138049   0.06840344982603283
1.384115295033046   -0.1775624684138049   0.06840344982603283
0.27074107980580153   -0.16486407666316114   0.014883681057983905
0.27074107980580153   -0.16486407666316114   0.014883681057983905
0.27074107980580153   -0.16486407666316114   0.014883681057983905
0.27074107980580153   -0.16486407666316114   0.014883681057983905
0.17620178546806153   -0.41573518433104917   0.07368294685734134
0.17620178546806153   -0.41573518433104917   0.07368294685734134
0.17620178546806153   -0.41573518433104917   0.07368294685734134
0.17620178546806153   -0.41573518433104917   0.07368294685734134
1.3917571743678805   0.053454422215994224   0.052904258461735826
1.3917571743678805   0.053454422215994224   0.052904258461735826
1.3917571743678805   0.053454422215994224   0.052904258461735826
1.3917571743678805   0.053454422215994224   0.052904258461735826
0.7933292186541209   -0.1768787783477247   -0.003007847005428249
0.7933292186541209   -0.1768787783477247   -0.003007847005428249
0.7933292186541209   -0.1768787783477247   -0.003007847005428249
0.7933292186541209   -0.1768787783477247   -0.003007847005428249
1.3448826992032854   -0.18528194165376932   0.05726824650851661
1.3448826992032854   -0.18528194165376932   0.05726824650851661
1.3448826992032854   -0.18528194165376932   0.05726824650851661
1.3448826992032854   -0.18528194165376932   0.05726824650851661
0.2112421862415327   -0.18883289485241073   0.021982661246058785
0.2112421862415327   -0.18883289485241073   0.021982661246058785
0.2112421862415327   -0.18883289485241073   0.021982661246058785
0.2112421862415327   -0.18883289485241073   0.021982661246058785
0.13388859103387696   -0.4195506172893893   0.06597974116202196
0.13388859103387696   -0.4195506172893893   0.06597974116202196
0.13388859103387696   -0.4195506172893893   0.06597974116202196
0.13388859103387696   -0.4195506172893893   0.06597974116202196
1.3595449564483448   0.04294220828212891   0.06271028258980943
1.3595449564483448   0.04294220828212891   0.06271028258980943
1.3595449564483448   0.04294220828212891   0.06271028258980943
1.3595449564483448   0.04294220828212891   0.06271028258980943
0.7358915985619724   -0.18855381312732014   -0.03813171188380304
0.7358915985619724   -0.18855381312732014   -0.03813171188380304
0.7358915985619724   -0.18855381312732014   -0.03813171188380304
0.7358915985619724   -0.18855381312732014   -0.03813171188380304
1.3102790459559646   -0.18800323904615274   0.047326177456178564
1.3102790459559646   -0.18800323904615274   0.047326177456178564
1.3102790459559646   -0.18800323904615274   0.047326177456178564
1.3102790459559646   -0.18800323904615274   0.047326177456178564
0.1702975063662776   -0.20146216512109935   0.029935865655735375
0.1702975063662776   -0.20146216512109935   0.029935865655735375
0.1702975063662776   -0.20146216512109935   0.029935865655735375
0.1702975063662776   -0.20146216512109935   0.029935865655735375
0.08653236552718382   -0.4194769616125945   0.051686838542523095
0.08653236552718382   -0.4194769616125945   0.051686838542523095
0.08653236552718382   -0.4194769616125945   0.051686838542523095
0.08653236552718382   -0.4194769616125945   0.051686838542523095
1.3229876141679326   0.04347647455156156   0.07500366189497225
1.3229876141679326   0.04347647455156156   0.07500366189497225
1.3229876141679326   0.04347647455156156   0.07500366189497225
1.3229876141679326   0.04347647455156156   0.07500366189497225
0.7007498459660877   -0.187213069927641   -0.0680345050510065
0.7007498459660877   -0.187213069927641   -0.0680345050510065
0.7007498459660877   -0.187213069927641   -0.0680345050510065
0.7007498459660877   -0.187213069927641   -0.0680345050510065
0.2107730075887239   -0.5113041540318749   0.06148339734130945
0.2107730075887239   -0.5113041540318749   0.06148339734130945
0.2107730075887239   -0.5113041540318749   0.06148339734130945
0.2107730075887239   -0.5113041540318749   0.06148339734130945
-0.8118631130043995   -0.2561024121031555   0.00111669478024495
-0.8118631130043995   -0.2561024121031555   0.00111669478024495
-0.8118631130043995   -0.2561024121031555   0.00111669478024495
-0.8118631130043995   -0.2561024121031555   0.00111669478024495
-0.9829012333469962   -0.7580321387443373   0.08445208822690314
-0.9829012333469962   -0.7580321387443373   0.08445208822690314
-0.9829012333469962   -0.7580321387443373   0.08445208822690314
-0.9829012333469962   -0.7580321387443373   0.08445208822690314
0.24248015950787857   -0.04405389967138236   0.03339353239675583
0.24248015950787857   -0.04405389967138236   0.03339353239675583
0.24248015950787857   -0.04405389967138236   0.03339353239675583
0.24248015950787857   -0.04405389967138236   0.03339353239675583
-0.33085255858405094   -0.38685469041694154   0.014501653481954993
-0.33085255858405094   -0.38685469041694154   0.014501653481954993
-0.33085255858405094   -0.38685469041694154   0.014501653481954993
-0.33085255858405094   -0.38685469041694154   0.014501653481954993
0.1453385468177828   -0.540456905418152   0.044088474693050606
0.1453385468177828   -0.540456905418152   0.044088474693050606
0.1453385468177828   -0.540456905418152   0.044088474693050606
0.1453385468177828   -0.540456905418152   0.044088474693050606
-0.9023015531369271   -0.27817106547759496   0.00758941601049868
-0.9023015531369271   -0.27817106547759496   0.00758941601049868
-0.9023015531369271   -0.27817106547759496   0.00758941601049868
-0.9023015531369271   -0.27817106547759496   0.00758941601049868
-1.0418738290834257   -0.7703694028566941   0.06866294269325157
-1.0418738290834257   -0.7703694028566941   0.06866294269325157
-1.0418738290834257   -0.7703694028566941   0.06866294269325157
-1.0418738290834257   -0.7703694028566941   0.06866294269325157
0.20284183304274467   -0.055728196383176797   0.04692353030014797
0.20284183304274467   -0.055728196383176797   0.04692353030014797
0.20284183304274467   -0.055728196383176797   0.04692353030014797
0.20284183304274467   -0.055728196383176797   0.04692353030014797
-0.40452588454359173   -0.4104679095172611   -0.03473113399406541
-0.40452588454359173   -0.4104679095172611   -0.03473113399406541
-0.40452588454359173   -0.4104679095172611   -0.03473113399406541
-0.40452588454359173   -0.4104679095172611   -0.03473113399406541
0.10026655478287433   -0.5500084384154671   0.028327381033086713
0.10026655478287433   -0.5500084384154671   0.028327381033086713
0.10026655478287433   -0.5500084384154671   0.028327381033086713
0.10026655478287433   -0.5500084384154671   0.028327381033086713
-0.9589463104371373   -0.29573692043798694   0.00866805350597906
-0.9589463104371373   -0.29573692043798694   0.00866805350597906
-0.9589463104371373   -0.29573692043798694   0.00866805350597906
-0.9589463104371373   -0.29573692043798694   0.00866805350597906
-1.1057434160417905   -0.7651948239673136   0.05799526943662192
-1.1057434160417905   -0.7651948239673136   0.05799526943662192
-1.1057434160417905   -0.7651948239673136   0.05799526943662192
-1.1057434160417905   -0.7651948239673136   0.05799526943662192
0.1587291485779917   -0.06226736244860848   0.05546115463257636
0.1587291485779917   -0.06226736244860848   0.05546115463257636
0.1587291485779917   -0.06226736244860848   0.05546115463257636
0.1587291485779917   -0.06226736244860848   0.05546115463257636
-0.4642688574865668   -0.41948107892018127   -0.08384832976769487
-0.4642688574865668   -0.41948107892018127   -0.08384832976769487
-0.4642688574865668   -0.41948107892018127   -0.08384832976769487
-0.4642688574865668   -0.41948107892018127   -0.08384832976769487
-0.9214761677739344   -0.8761621002174672   0.07311110904688953
-0.9214761677739344   -0.8761621002174672   0.07311110904688953
-0.9214761677739344   -0.8761621002174672   0.07311110904688953
-0.9214761677739344   -0.8761621002174672   0.07311110904688953
-2.043708539399189   -0.3189357532848843   -0.047481678452197675
-2.043708539399189   -0.3189357532848843   -0.047481678452197675
-2.043708539399189   -0.3189357532848843   -0.047481678452197675
-2.043708539399189   -0.3189357532848843   -0.047481678452197675
-2.342524583362586   -1.270153738141666   -0.06611441027876722
-2.342524583362586   -1.270153738141666   -0.06611441027876722
-2.342524583362586   -1.270153738141666   -0.06611441027876722
-2.342524583362586   -1.270153738141666   -0.06611441027876722
-0.8568930723641693   -0.07239202577685765   0.02885278017355054
-0.8568930723641693   -0.07239202577685765   0.02885278017355054
-0.8568930723641693   -0.07239202577685765   0.02885278017355054
-0.8568930723641693   -0.07239202577685765   0.02885278017355054
-1.5264388858615947   -0.6099409141277747   -0.0528990937142335
-1.5264388858615947   -0.6099409141277747   -0.0528990937142335
-1.5264388858615947   -0.6099409141277747   -0.0528990937142335
-1.5264388858615947   -0.6099409141277747   -0.0528990937142335
-1.0416820120294885   -0.9918826088377269   0.02439866490783174
-1.0416820120294885   -0.9918826088377269   0.02439866490783174
-1.0416820120294885   -0.9918826088377269   0.02439866490783174
-1.0416820120294885   -0.9918826088377269   0.02439866490783174
-2.1529410757010448   -0.3458685870845844   -0.042482023028146035
-2.1529410757010448   -0.3458685870845844   -0.042482023028146035
-2.1529410757010448   -0.3458685870845844   -0.042482023028146035
-2.1529410757010448   -0.3458685870845844   -0.042482023028146035
-2.4126316420880354   -1.2907351044210134   -0.0764607721150477
-2.4126316420880354   -1.2907351044210134   -0.0764607721150477
-2.4126316420880354   -1.2907351044210134   -0.0764607721150477
-2.4126316420880354   -1.2907351044210134   -0.0764607721150477
-0.9112055650974229   -0.09150663912279525   0.04314149888935946
-0.9112055650974229   -0.09150663912279525   0.04314149888935946
-0.9112055650974229   -0.09150663912279525   0.04314149888935946
-0.9112055650974229   -0.09150663912279525   0.04314149888935946
-1.6120701004372173   -0.675618607303239   -0.0745306528712435
-1.6120701004372173   -0.675618607303239   -0.0745306528712435
-1.6120701004372173   -0.675618607303239   -0.0745306528712435
-1.6120701004372173   -0.675618607303239   -0.0745306528712435
-1.1019066256513634   -1.0113933627594252   0.009522919756283554
-1.1019066256513634   -1.0113933627594252   0.009522919756283554
-1.1019066256513634   -1.0113933627594252   0.009522919756283554
-1.1019066256513634   -1.0113933627594252   0.009522919756283554
-2.222126953359258   -0.3710447526095608   -0.04362768028263338
-2.222126953359258   -0.3710447526095608   -0.04362768028263338
-2.222126953359258   -0.3710447526095608   -0.04362768028263338
-2.222126953359258   -0.3710447526095608   -0.04362768028263338
-2.4724737327303936   -1.2359117642618775   -0.08622870987897033
-2.4724737327303936   -1.2359117642618775   -0.08622870987897033
-2.4724737327303936   -1.2359117642618775   -0.08622870987897033
-2.4724737327303936   -1.2359117642618775   -0.08622870987897033
-0.9800188275207036   -0.11848128841844965   0.039904676493173266
-0.9800188275207036   -0.11848128841844965   0.039904676493173266
-0.9800188275207036   -0.11848128841844965   0.039904676493173266
-0.9800188275207036   -0.11848128841844965   0.039904676493173266
-1.6908468073432803   -0.6980775618761028   -0.0951312544523256
-1.6908468073432803   -0.6980775618761028   -0.0951312544523256
-1.6908468073432803   -0.6980775618761028   -0.0951312544523256
-1.6908468073432803   -0.6980775618761028   -0.0951312544523256
-2.007021932829162   -0.36500105528602367   0.18201665639904374
-2.007021932829162   -0.36500105528602367   0.18201665639904374
-2.007021932829162   -0.36500105528602367   0.18201665639904374
-2.007021932829162   -0.36500105528602367   0.18201665639904374
-3.538052428172601   -0.2651969725975105   -0.0632567307703572
-3.538052428172601   -0.2651969725975105   -0.0632567307703572
-3.538052428172601   -0.2651969725975105   -0.0632567307703572
-3.538052428172601   -0.2651969725975105   -0.0632567307703572
-3.75532690803931   -0.7410646300506247   0.05000375778618604
-3.75532690803931   -0.7410646300506247   0.05000375778618604
-3.75532690803931   -0.7410646300506247   0.05000375778618604
-3.75532690803931   -0.7410646300506247   0.05000375778618604
-2.065837479893568   0.02940640401561212   0.017760964909025054
-2.065837479893568   0.02940640401561212   0.017760964909025054
-2.065837479893568   0.02940640401561212   0.017760964909025054
-2.065837479893568   0.02940640401561212   0.017760964909025054
-2.706228623719348   -0.2603494647899664   0.0544845004812841
-2.706228623719348   -0.2603494647899664   0.0544845004812841
-2.706228623719348   -0.2603494647899664   0.0544845004812841
-2.706228623719348   -0.2603494647899664   0.0544845004812841
-2.1213531215353365   -0.39196066013659203   0.16154982085237635
-2.1213531215353365   -0.39196066013659203   0.16154982085237635
-2.1213531215353365   -0.39196066013659203   0.16154982085237635
-2.1213531215353365   -0.39196066013659203   0.16154982085237635
-3.690229280358662   -0.31011557985953747   -0.05545715400162905
-3.690229280358662   -0.31011557985953747   -0.05545715400162905
-3.690229280358662   -0.31011557985953747   -0.05545715400162905
-3.690229280358662   -0.31011557985953747   -0.05545715400162905
-3.8477830764252174   -0.7727525663567133   -0.015979755358349168
-3.8477830764252174   -0.7727525663567133   -0.015979755358349168
-3.8477830764252174   -0.7727525663567133   -0.015979755358349168
-3.8477830764252174   -0.7727525663567133   -0.015979755358349168
-2.131054718094339   0.00801648126857607   0.03267226216382667
-2.131054718094339   0.00801648126857607   0.03267226216382667
-2.131054718094339   0.00801648126857607   0.03267226216382667
-2.131054718094339   0.00801648126857607   0.03267226216382667
-2.868740158740497   -0.34384351608514596   0.02253095808800945
-2.868740158740497   -0.34384351608514596   0.02253095808800945
-2.868740158740497   -0.34384351608514596   0.02253095808800945
-2.868740158740497   -0.34384351608514596   0.02253095808800945
-2.1948115215566095   -0.4121511325725935   0.13405585869364178
-2.1948115215566095   -0.4121511325725935   0.13405585869364178
-2.1948115215566095   -0.4121511325725935   0.13405585869364178
-2.1948115215566095   -0.4121511325725935   0.13405585869364178
-3.7648640151958412   -0.3334226947484276   -0.0407143208196893
-3.7648640151958412   -0.3334226947484276   -0.0407143208196893
-3.7648640151958412   -0.3334226947484276   -0.0407143208196893
-3.7648640151958412   -0.3334226947484276   -0.0407143208196893
-3.9284829815998648   -0.785720678282825   -0.00012040981426042485
-3.9284829815998648   -0.785720678282825   -0.00012040981426042485
-3.9284829815998648   -0.785720678282825   -0.00012040981426042485
-3.9284829815998648   -0.785720678282825   -0.00012040981426042485
-2.222582857253479   -0.08598015518059082   0.013294058424317273
-2.222582857253479   -0.08598015518059082   0.013294058424317273
-2.222582857253479   -0.08598015518059082   0.013294058424317273
-2.222582857253479   -0.08598015518059082   0.013294058424317273
-2.904099060303313   -0.41561085362476874   0.03559777424833559
-2.904099060303313   -0.41561085362476874   0.03559777424833559
-2.904099060303313   -0.41561085362476874   0.03559777424833559
-2.904099060303313   -0.41561085362476874   0.03559777424833559
2.392661038353927   0.10969706847970645   -0.052261323348261515
2.392661038353927   0.10969706847970645   -0.052261323348261515
2.392661038353927   0.10969706847970645   -0.052261323348261515
2.392661038353927   0.10969706847970645   -0.052261323348261515
1.2050113124748445   -0.02384187125171444   0.025837163314844397
1.2050113124748445   -0.02384187125171444   0.025837163314844397
1.2050113124748445   -0.02384187125171444   0.025837163314844397
1.2050113124748445   -0.02384187125171444   0.025837163314844397
1.1279750918723193   -0.17771514454058052   -0.04608607138869135
1.1279750918723193   -0.17771514454058052   -0.04608607138869135
1.1279750918723193   -0.17771514454058052   -0.04608607138869135
1.1279750918723193   -0.17771514454058052   -0.04608607138869135
2.3648524871195873   0.17291404256986048   0.03022925114455359
2.3648524871195873   0.17291404256986048   0.03022925114455359
2.3648524871195873   0.17291404256986048   0.03022925114455359
2.3648524871195873   0.17291404256986048   0.03022925114455359
1.679701568246198   0.004112031116308701   -0.06489468357528917
1.679701568246198   0.004112031116308701   -0.06489468357528917
1.679701568246198   0.004112031116308701   -0.06489468357528917
1.679701568246198   0.004112031116308701   -0.06489468357528917
2.3257905227441396   0.0605265418991337   -0.05269307006194056
2.3257905227441396   0.0605265418991337   -0.05269307006194056
2.3257905227441396   0.0605265418991337   -0.05269307006194056
2.3257905227441396   0.0605265418991337   -0.05269307006194056
1.1648570866554522   -0.067507613462167   0.028116371448551378
1.1648570866554522   -0.067507613462167   0.028116371448551378
1.1648570866554522   -0.067507613462167   0.028116371448551378
1.1648570866554522   -0.067507613462167   0.028116371448551378
1.0865116435431612   -0.1877069870671776   -0.03802621906108862
1.0865116435431612   -0.1877069870671776   -0.03802621906108862
1.0865116435431612   -0.1877069870671776   -0.03802621906108862
1.0865116435431612   -0.1877069870671776   -0.03802621906108862
2.3072220842839926   0.1587807200985094   0.04410810928267264
2.3072220842839926   0.1587807200985094   0.04410810928267264
2.3072220842839926   0.1587807200985094   0.04410810928267264
2.3072220842839926   0.1587807200985094   0.04410810928267264
1.6568879852809857   -0.016930347250860178   -0.07758982110792796
1.6568879852809857   -0.016930347250860178   -0.07758982110792796
1.6568879852809857   -0.016930347250860178   -0.07758982110792796
1.6568879852809857   -0.016930347250860178   -0.07758982110792796
2.267878987456763   0.04783866214730631   -0.04166531690227156
2.267878987456763   0.04783866214730631   -0.04166531690227156
2.267878987456763   0.04783866214730631   -0.04166531690227156
2.267878987456763   0.04783866214730631   -0.04166531690227156
1.1228427410687745   -0.07977692841759065   0.03569920991739073
1.1228427410687745   -0.07977692841759065   0.03569920991739073
1.1228427410687745   -0.07977692841759065   0.03569920991739073
1.1228427410687745   -0.07977692841759065   0.03569920991739073
1.046329005059025   -0.18514215378710996   -0.026051785594542798
1.046329005059025   -0.18514215378710996   -0.026051785594542798
1.046329005059025   -0.18514215378710996   -0.026051785594542798
1.046329005059025   -0.18514215378710996   -0.026051785594542798
2.235842156478461   0.14903397554985298   0.05731383683512413
2.235842156478461   0.14903397554985298   0.05731383683512413
2.235842156478461   0.14903397554985298   0.05731383683512413
2.235842156478461   0.14903397554985298   0.05731383683512413
1.5746403368227933   -0.029575746122138757   -0.1019900293167325
1.5746403368227933   -0.029575746122138757   -0.1019900293167325
1.5746403368227933   -0.029575746122138757   -0.1019900293167325
1.5746403368227933   -0.029575746122138757   -0.1019900293167325
1.211200535154979   0.02236613273986332   0.010575272723928636
1.211200535154979   0.02236613273986332   0.010575272723928636
1.211200535154979   0.02236613273986332   0.010575272723928636
1.211200535154979   0.02236613273986332   0.010575272723928636
0.11783779730143164   -0.07232383527338937   -0.0026081713075861435
0.11783779730143164   -0.07232383527338937   -0.0026081713075861435
0.11783779730143164   -0.07232383527338937   -0.0026081713075861435
0.11783779730143164   -0.07232383527338937   -0.0026081713075861435
0.04524955766260433   -0.23528782752605487   -0.04429937354323352
0.04524955766260433   -0.23528782752605487   -0.04429937354323352
0.04524955766260433   -0.23528782752605487   -0.04429937354323352
0.04524955766260433   -0.23528782752605487   -0.04429937354323352
1.2127119791021796   0.13978129110780657   0.06010192911221564
1.2127119791021796   0.13978129110780657   0.06010192911221564
1.2127119791021796   0.13978129110780657   0.06010192911221564
1.2127119791021796   0.13978129110780657   0.06010192911221564
0.6348785809126124   -0.033260768332721374   -0.025270682676742415
0.6348785809126124   -0.033260768332721374   -0.025270682676742415
0.6348785809126124   -0.033260768332721374   -0.025270682676742415
0.6348785809126124   -0.033260768332721374   -0.025270682676742415
1.177132312646245   0.003621313139492377   0.01836357480086212
1.177132312646245   0.003621313139492377   0.01836357480086212
1.177132312646245   0.003621313139492377   0.01836357480086212
1.177132312646245   0.003621313139492377   0.01836357480086212
0.08216935921489486   -0.09778771446138386   0.0027995211535481665
0.08216935921489486   -0.09778771446138386   0.0027995211535481665
0.08216935921489486   -0.09778771446138386   0.0027995211535481665
0.08216935921489486   -0.09778771446138386   0.0027995211535481665
0.005271153474569759   -0.24660791885205274   -0.030766550107262203
0.005271153474569759   -0.24660791885205274   -0.030766550107262203
0.005271153474569759   -0.24660791885205274   -0.030766550107262203
0.005271153474569759   -0.24660791885205274   -0.030766550107262203
1.1688180576475928   0.119490646712066   0.06630821768182613
1.1688180576475928   0.119490646712066   0.06630821768182613
1.1688180576475928   0.119490646712066   0.06630821768182613
1.1688180576475928   0.119490646712066   0.06630821768182613
0.5889164351386464   -0.05191612904651874   -0.03578194080085263
0.5889164351386464   -0.05191612904651874   -0.03578194080085263
0.5889164351386464   -0.05191612904651874   -0.03578194080085263
0.5889164351386464   -0.05191612904651874   -0.03578194080085263
1.1352319843613394   -0.009073952550589237   0.026942450513224192
1.1352319843613394   -0.009073952550589237   0.026942450513224192
1.1352319843613394   -0.009073952550589237   0.026942450513224192
1.1352319843613394   -0.009073952550589237   0.026942450513224192
0.03866158616090226   -0.11823896018930652   0.007816654661654113
0.03866158616090226   -0.11823896018930652   0.007816654661654113
0.03866158616090226   -0.11823896018930652   0.007816654661654113
0.03866158616090226   -0.11823896018930652   0.007816654661654113
-0.03766197303118172   -0.24784051531996168   -0.020931700263529723
-0.03766197303118172   -0.24784051531996168   -0.020931700263529723
-0.03766197303118172   -0.24784051531996168   -0.020931700263529723
-0.03766197303118172   -0.24784051531996168   -0.020931700263529723
1.1245344438453981   0.10653359866165224   0.07329965588856406
1.1245344438453981   0.10653359866165224   0.07329965588856406
1.1245344438453981   0.10653359866165224   0.07329965588856406
1.1245344438453981   0.10653359866165224   0.07329965588856406
0.5528724200832151   -0.05943003133449273   -0.0448456773493939
0.5528724200832151   -0.05943003133449273   -0.0448456773493939
0.5528724200832151   -0.05943003133449273   -0.0448456773493939
0.5528724200832151   -0.05943003133449273   -0.0448456773493939
0.11973665178934503   -0.06924445410728174   0.0038067199658692492
0.11973665178934503   -0.06924445410728174   0.0038067199658692492
0.11973665178934503   -0.06924445410728174   0.0038067199658692492
0.11973665178934503   -0.06924445410728174   0.0038067199658692492
-0.9328876739978746   -0.10790464373651093   -0.029377810102642607
-0.9328876739978746   -0.10790464373651093   -0.029377810102642607
-0.9328876739978746   -0.10790464373651093   -0.029377810102642607
-0.9328876739978746   -0.10790464373651093   -0.029377810102642607
-1.0135844678978836   -0.3120280733202605   -0.05041270844187289
-1.0135844678978836   -0.3120280733202605   -0.05041270844187289
-1.0135844678978836   -0.3120280733202605   -0.05041270844187289
-1.0135844678978836   -0.3120280733202605   -0.05041270844187289
0.12850508843269445   0.10225033233984829   0.034440120441313955
0.12850508843269445   0.10225033233984829   0.034440120441313955
0.12850508843269445   0.10225033233984829   0.034440120441313955
0.12850508843269445   0.10225033233984829   0.034440120441313955
-0.4258328640776408   -0.0920939600301708   -0.025114663495729272
-0.4258328640776408   -0.0920939600301708   -0.025114663495729272
-0.4258328640776408   -0.0920939600301708   -0.025114663495729272
-0.4258328640776408   -0.0920939600301708   -0.025114663495729272
0.0897055990060481   -0.07729076426792794   0.019983769915858422
0.0897055990060481   -0.07729076426792794   0.019983769915858422
0.0897055990060481   -0.07729076426792794   0.019983769915858422
0.0897055990060481   -0.07729076426792794   0.019983769915858422
-0.9718238825352487   -0.12952588077650595   -0.024111974172452925
-0.9718238825352487   -0.12952588077650595   -0.024111974172452925
-0.9718238825352487   -0.12952588077650595   -0.024111974172452925
-0.9718238825352487   -0.12952588077650595   -0.024111974172452925
-1.060479020835289   -0.3244369230266084   -0.033299249038976395
-1.060479020835289   -0.3244369230266084   -0.033299249038976395
-1.060479020835289   -0.3244369230266084   -0.033299249038976395
-1.060479020835289   -0.3244369230266084   -0.033299249038976395
0.08464171809831783   0.08052234861409657   0.03895600554532885
0.08464171809831783   0.08052234861409657   0.03895600554532885
0.08464171809831783   0.08052234861409657   0.03895600554532885
0.08464171809831783   0.08052234861409657   0.03895600554532885
-0.46461640901251283   -0.10506102430014012   -0.030134812651911987
-0.46461640901251283   -0.10506102430014012   -0.030134812651911987
-0.46461640901251283   -0.10506102430014012   -0.030134812651911987
-0.46461640901251283   -0.10506102430014012   -0.030134812651911987
0.048186588172409825   -0.0905028420927469   0.02770554662263231
0.048186588172409825   -0.0905028420927469   0.02770554662263231
0.048186588172409825   -0.0905028420927469   0.02770554662263231
0.048186588172409825   -0.0905028420927469   0.02770554662263231
-1.0234086312866313   -0.1527964726970159   -0.019587751625284366
-1.0234086312866313   -0.1527964726970159   -0.019587751625284366
-1.0234086312866313   -0.1527964726970159   -0.019587751625284366
-1.0234086312866313   -0.1527964726970159   -0.019587751625284366
-1.1125252749389212   -0.3335318220206898   -0.029606719710917474
-1.1125252749389212   -0.3335318220206898   -0.029606719710917474
-1.1125252749389212   -0.3335318220206898   -0.029606719710917474
-1.1125252749389212   -0.3335318220206898   -0.029606719710917474
0.03719867883342642   0.06196598208794086   0.04356506165160842
0.03719867883342642   0.06196598208794086   0.04356506165160842
0.03719867883342642   0.06196598208794086   0.04356506165160842
0.03719867883342642   0.06196598208794086   0.04356506165160842
-0.5150176970560829   -0.12058731451186411   -0.042212860982022926
-0.5150176970560829   -0.12058731451186411   -0.042212860982022926
-0.5150176970560829   -0.12058731451186411   -0.042212860982022926
-0.5150176970560829   -0.12058731451186411   -0.042212860982022926
-0.9188090674536151   -0.08153117285742037   0.014641751739548035
-0.9188090674536151   -0.08153117285742037   0.014641751739548035
-0.9188090674536151   -0.08153117285742037   0.014641751739548035
-0.9188090674536151   -0.08153117285742037   0.014641751739548035
-1.9579643579515016   -0.1262600850088706   -0.05186721044194598
-1.9579643579515016   -0.1262600850088706   -0.05186721044194598
-1.9579643579515016   -0.1262600850088706   -0.05186721044194598
-1.9579643579515016   -0.1262600850088706   -0.05186721044194598
-2.049734453776084   -0.326782083570907   -0.05025612738478123
-2.049734453776084   -0.326782083570907   -0.05025612738478123
-2.049734453776084   -0.326782083570907   -0.05025612738478123
-2.049734453776084   -0.326782083570907   -0.05025612738478123
-0.9235665321727323   0.07798462487826385   0.009664271985340048
-0.9235665321727323   0.07798462487826385   0.009664271985340048
-0.9235665321727323   0.07798462487826385   0.009664271985340048
-0.9235665321727323   0.07798462487826385   0.009664271985340048
-1.4504483831837907   -0.10885332891505672   -0.021164869238669864
-1.4504483831837907   -0.10885332891505672   -0.021164869238669864
-1.4504483831837907   -0.10885332891505672   -0.021164869238669864
-1.4504483831837907   -0.10885332891505672   -0.021164869238669864
-0.9520792427186567   -0.0901522892130658   0.03523763334705858
-0.9520792427186567   -0.0901522892130658   0.03523763334705858
-0.9520792427186567   -0.0901522892130658   0.03523763334705858
-0.9520792427186567   -0.0901522892130658   0.03523763334705858
-2.0154024916674365   -0.1528259179168751   -0.05255248249558943
-2.0154024916674365   -0.1528259179168751   -0.05255248249558943
-2.0154024916674365   -0.1528259179168751   -0.05255248249558943
-2.0154024916674365   -0.1528259179168751   -0.05255248249558943
-2.1146406595090466   -0.34786625235162266   -0.03522147284315398
-2.1146406595090466   -0.34786625235162266   -0.03522147284315398
-2.1146406595090466   -0.34786625235162266   -0.03522147284315398
-2.1146406595090466   -0.34786625235162266   -0.03522147284315398
-0.9757242124796606   0.0541872780988229   0.011850591613730463
-0.9757242124796606   0.0541872780988229   0.011850591613730463
-0.9757242124796606   0.0541872780988229   0.011850591613730463
-0.9757242124796606   0.0541872780988229   0.011850591613730463
-1.4915651420681042   -0.12057643974459589   -0.02125819036852817
-1.4915651420681042   -0.12057643974459589   -0.02125819036852817
-1.4915651420681042   -0.12057643974459589   -0.02125819036852817
-1.4915651420681042   -0.12057643974459589   -0.02125819036852817
-1.003893408858016   -0.11136177507386005   0.03655366289462868
-1.003893408858016   -0.11136177507386005   0.03655366289462868
-1.003893408858016   -0.11136177507386005   0.03655366289462868
-1.003893408858016   -0.11136177507386005   0.03655366289462868
-2.0825741632924193   -0.17841989934066943   -0.04433534477097213
-2.0825741632924193   -0.17841989934066943   -0.04433534477097213
-2.0825741632924193   -0.17841989934066943   -0.04433534477097213
-2.0825741632924193   -0.17841989934066943   -0.04433534477097213
-2.1881100912208225   -0.3756286957538695   -0.03774109648380718
-2.1881100912208225   -0.3756286957538695   -0.03774109648380718
-2.1881100912208225   -0.3756286957538695   -0.03774109648380718
-2.1881100912208225   -0.3756286957538695   -0.03774109648380718
-1.0320870017152814   0.024847462965155442   0.014205361421420648
-1.0320870017152814   0.024847462965155442   0.014205361421420648
-1.0320870017152814   0.024847462965155442   0.014205361421420648
-1.0320870017152814   0.024847462965155442   0.014205361421420648
-1.5643343655265727   -0.14898760970417008   -0.034479129343251286
-1.5643343655265727   -0.14898760970417008   -0.034479129343251286
-1.5643343655265727   -0.14898760970417008   -0.034479129343251286
-1.5643343655265727   -0.14898760970417008   -0.034479129343251286
-1.89145654338046   0.08971325499655619   0.06469852240783547
-1.89145654338046   0.08971325499655619   0.06469852240783547
-1.89145654338046   0.08971325499655619   0.06469852240783547
-1.89145654338046   0.08971325499655619   0.06469852240783547
-2.933113026366825   -0.1461724379021131   -0.03968412879276331
-2.933113026366825   -0.1461724379021131   -0.03968412879276331
-2.933113026366825   -0.1461724379021131   -0.03968412879276331
-2.933113026366825   -0.1461724379021131   -0.03968412879276331
-3.005707649259625   -0.14882239472193354   0.06648714058735343
-3.005707649259625   -0.14882239472193354   0.06648714058735343
-3.005707649259625   -0.14882239472193354   0.06648714058735343
-3.005707649259625   -0.14882239472193354   0.06648714058735343
-1.965393898974478   0.060638053914245205   -0.015973490861917322
-1.965393898974478   0.060638053914245205   -0.015973490861917322
-1.965393898974478   0.060638053914245205   -0.015973490861917322
-1.965393898974478   0.060638053914245205   -0.015973490861917322
-2.3348132280118525   0.0018746431181957401   0.059204511401915155
-2.3348132280118525   0.0018746431181957401   0.059204511401915155
-2.3348132280118525   0.0018746431181957401   0.059204511401915155
-2.3348132280118525   0.0018746431181957401   0.059204511401915155
-1.9447237860550715   0.06639997944282466   0.08161514820652983
-1.9447237860550715   0.06639997944282466   0.08161514820652983
-1.9447237860550715   0.06639997944282466   0.08161514820652983
-1.9447237860550715   0.06639997944282466   0.08161514820652983
-3.0250312971453033   -0.15323785521678646   -0.02571563834618834
-3.0250312971453033   -0.15323785521678646   -0.02571563834618834
-3.0250312971453033   -0.15323785521678646   -0.02571563834618834
-3.0250312971453033   -0.15323785521678646   -0.02571563834618834
-3.097399717518764   -0.17370895431399497   0.09039008367545821
-3.097399717518764   -0.17370895431399497   0.09039008367545821
-3.097399717518764   -0.17370895431399497   0.09039008367545821
-3.097399717518764   -0.17370895431399497   0.09039008367545821
-2.0326124173223663   0.0437356414848431   -0.016682155746231747
-2.0326124173223663   0.0437356414848431   -0.016682155746231747
-2.0326124173223663   0.0437356414848431   -0.016682155746231747
-2.0326124173223663   0.0437356414848431   -0.016682155746231747
-2.4528736387665124   -0.027276841077812586   0.03218576947248794
-2.4528736387665124   -0.027276841077812586   0.03218576947248794
-2.4528736387665124   -0.027276841077812586   0.03218576947248794
-2.4528736387665124   -0.027276841077812586   0.03218576947248794
-2.013720229031818   0.041043176738821296   0.08047125045253188
-2.013720229031818   0.041043176738821296   0.08047125045253188
-2.013720229031818   0.041043176738821296   0.08047125045253188
-2.013720229031818   0.041043176738821296   0.08047125045253188
-3.119849272465419   -0.1745738562240794   -0.0209927891477307
-3.119849272465419   -0.1745738562240794   -0.0209927891477307
-3.119849272465419   -0.1745738562240794   -0.0209927891477307
-3.119849272465419   -0.1745738562240794   -0.0209927891477307
-3.227692373182164   -0.2739374591090059   0.07861705471092736
-3.227692373182164   -0.2739374591090059   0.07861705471092736
-3.227692373182164   -0.2739374591090059   0.07861705471092736
-3.227692373182164   -0.2739374591090059   0.07861705471092736
-2.1101092392032923   -0.007672626720874098   -0.01569290542918915
-2.1101092392032923   -0.007672626720874098   -0.01569290542918915
-2.1101092392032923   -0.007672626720874098   -0.01569290542918915
-2.1101092392032923   -0.007672626720874098   -0.01569290542918915
-2.503499383682709   -0.06392044418892251   0.008328639886034495
-2.503499383682709   -0.06392044418892251   0.008328639886034495
-2.503499383682709   -0.06392044418892251   0.008328639886034495
-2.503499383682709   -0.06392044418892251   0.008328639886034495
1.9363314176628579   0.10337829465704834   -0.06938211232935518
1.9363314176628579   0.10337829465704834   -0.06938211232935518
1.9363314176628579   0.10337829465704834   -0.06938211232935518
1.9363314176628579   0.10337829465704834   -0.06938211232935518
0.9604828708423129   -0.000600642422013381   0.02523882289785915
0.9604828708423129   -0.000600642422013381   0.02523882289785915
0.9604828708423129   -0.000600642422013381   0.02523882289785915
0.9604828708423129   -0.000600642422013381   0.02523882289785915
0.8774618934045453   -0.14332374547065935   -0.06356909534300363
0.8774618934045453   -0.14332374547065935   -0.06356909534300363
0.8774618934045453   -0.14332374547065935   -0.06356909534300363
0.8774618934045453   -0.14332374547065935   -0.06356909534300363
1.899676366913929   0.15675534098473842   0.03164014741161275
1.899676366913929   0.15675534098473842   0.03164014741161275
1.899676366913929   0.15675534098473842   0.03164014741161275
1.899676366913929   0.15675534098473842   0.03164014741161275
1.3451542666354717   0.01189914393118835   -0.04425970525798341
1.3451542666354717   0.01189914393118835   -0.04425970525798341
1.3451542666354717   0.01189914393118835   -0.04425970525798341
1.3451542666354717   0.01189914393118835   -0.04425970525798341
1.8591095334060632   0.05235988814137715   -0.06679856728433899
1.8591095334060632   0.05235988814137715   -0.06679856728433899
1.8591095334060632   0.05235988814137715   -0.06679856728433899
1.8591095334060632   0.05235988814137715   -0.06679856728433899
0.9162826595688387   -0.04067435997087071   0.027885349978657353
0.9162826595688387   -0.04067435997087071   0.027885349978657353
0.9162826595688387   -0.04067435997087071   0.027885349978657353
0.9162826595688387   -0.04067435997087071   0.027885349978657353
0.8359347640736503   -0.1553454998699674   -0.05523567034936905
0.8359347640736503   -0.1553454998699674   -0.05523567034936905
0.8359347640736503   -0.1553454998699674   -0.05523567034936905
0.8359347640736503   -0.1553454998699674   -0.05523567034936905
1.8375499104478514   0.14024973525725382   0.043208519537971
1.8375499104478514   0.14024973525725382   0.043208519537971
1.8375499104478514   0.14024973525725382   0.043208519537971
1.8375499104478514   0.14024973525725382   0.043208519537971
1.3125301479209723   -0.009728009057434706   -0.05825288081703836
1.3125301479209723   -0.009728009057434706   -0.05825288081703836
1.3125301479209723   -0.009728009057434706   -0.05825288081703836
1.3125301479209723   -0.009728009057434706   -0.05825288081703836
1.797857313824955   0.03757099873860187   -0.05257572705782734
1.797857313824955   0.03757099873860187   -0.05257572705782734
1.797857313824955   0.03757099873860187   -0.05257572705782734
1.797857313824955   0.03757099873860187   -0.05257572705782734
0.8740673198836643   -0.05422680416419384   0.03430841299491977
0.8740673198836643   -0.05422680416419384   0.03430841299491977
0.8740673198836643   -0.05422680416419384   0.03430841299491977
0.8740673198836643   -0.05422680416419384   0.03430841299491977
0.7979989363739332   -0.1590211134434264   -0.045118388026744685
0.7979989363739332   -0.1590211134434264   -0.045118388026744685
0.7979989363739332   -0.1590211134434264   -0.045118388026744685
0.7979989363739332   -0.1590211134434264   -0.045118388026744685
1.7675117936553115   0.1256944740839553   0.053722931350327685
1.7675117936553115   0.1256944740839553   0.053722931350327685
1.7675117936553115   0.1256944740839553   0.053722931350327685
1.7675117936553115   0.1256944740839553   0.053722931350327685
1.2369151213043847   -0.02465753225423767   -0.0791698642428961
1.2369151213043847   -0.02465753225423767   -0.0791698642428961
1.2369151213043847   -0.02465753225423767   -0.0791698642428961
1.2369151213043847   -0.02465753225423767   -0.0791698642428961
0.9767929037740654   0.10102207442464672   0.005166270709960799
0.9767929037740654   0.10102207442464672   0.005166270709960799
0.9767929037740654   0.10102207442464672   0.005166270709960799
0.9767929037740654   0.10102207442464672   0.005166270709960799
0.03422115942483627   -0.031728760429154845   -0.0038828040478742377
0.03422115942483627   -0.031728760429154845   -0.0038828040478742377
0.03422115942483627   -0.031728760429154845   -0.0038828040478742377
0.03422115942483627   -0.031728760429154845   -0.0038828040478742377
-0.028351855348174113   -0.12909180058464675   -0.043199694899758764
-0.028351855348174113   -0.12909180058464675   -0.043199694899758764
-0.028351855348174113   -0.12909180058464675   -0.043199694899758764
-0.028351855348174113   -0.12909180058464675   -0.043199694899758764
0.9578579087404104   0.14187773075313664   0.053209505112508645
0.9578579087404104   0.14187773075313664   0.053209505112508645
0.9578579087404104   0.14187773075313664   0.053209505112508645
0.9578579087404104   0.14187773075313664   0.053209505112508645
0.47757525250159777   0.02020456501231961   -0.00550802012697801
0.47757525250159777   0.02020456501231961   -0.00550802012697801
0.47757525250159777   0.02020456501231961   -0.00550802012697801
0.47757525250159777   0.02020456501231961   -0.00550802012697801
0.9358963423733176   0.0745447156213569   0.010734688408829254
0.9358963423733176   0.0745447156213569   0.010734688408829254
0.9358963423733176   0.0745447156213569   0.010734688408829254
0.9358963423733176   0.0745447156213569   0.010734688408829254
-0.0060033186436834855   -0.06137181511547859   0.0008230031535262049
-0.0060033186436834855   -0.06137181511547859   0.0008230031535262049
-0.0060033186436834855   -0.06137181511547859   0.0008230031535262049
-0.0060033186436834855   -0.06137181511547859   0.0008230031535262049
-0.06769162219966848   -0.14853745754288425   -0.03732262374566381
-0.06769162219966848   -0.14853745754288425   -0.03732262374566381
-0.06769162219966848   -0.14853745754288425   -0.03732262374566381
-0.06769162219966848   -0.14853745754288425   -0.03732262374566381
0.913296621610672   0.11733758590380551   0.05889053156195928
0.913296621610672   0.11733758590380551   0.05889053156195928
0.913296621610672   0.11733758590380551   0.05889053156195928
0.913296621610672   0.11733758590380551   0.05889053156195928
0.42956122652961504   -0.003964878021771992   -0.019248167320868332
0.42956122652961504   -0.003964878021771992   -0.019248167320868332
0.42956122652961504   -0.003964878021771992   -0.019248167320868332
0.42956122652961504   -0.003964878021771992   -0.019248167320868332
0.8921542865287241   0.05416628113594457   0.016350160920087703
0.8921542865287241   0.05416628113594457   0.016350160920087703
0.8921542865287241   0.05416628113594457   0.016350160920087703
0.8921542865287241   0.05416628113594457   0.016350160920087703
-0.046510316405159985   -0.08532718206246155   0.005373629746455982
-0.046510316405159985   -0.08532718206246155   0.005373629746455982
-0.046510316405159985   -0.08532718206246155   0.005373629746455982
-0.046510316405159985   -0.08532718206246155   0.005373629746455982
-0.10663881521731815   -0.16029178233732244   -0.029653990043593155
-0.10663881521731815   -0.16029178233732244   -0.029653990043593155
-0.10663881521731815   -0.16029178233732244   -0.029653990043593155
-0.10663881521731815   -0.16029178233732244   -0.029653990043593155
0.8709162232144119   0.09660281519858618   0.06384411753362529
0.8709162232144119   0.09660281519858618   0.06384411753362529
0.8709162232144119   0.09660281519858618   0.06384411753362529
0.8709162232144119   0.09660281519858618   0.06384411753362529
0.3939969512491015   -0.0194782469174396   -0.029393548873492468
0.3939969512491015   -0.0194782469174396   -0.029393548873492468
0.3939969512491015   -0.0194782469174396   -0.029393548873492468
0.3939969512491015   -0.0194782469174396   -0.029393548873492468
0.0661698274031573   0.10217397803928267   0.021957797375293398
0.0661698274031573   0.10217397803928267   0.021957797375293398
0.0661698274031573   0.10217397803928267   0.021957797375293398
0.0661698274031573   0.10217397803928267   0.021957797375293398
-0.863192785890723   -0.055691880707474994   -0.029722940753982324
-0.863192785890723   -0.055691880707474994   -0.029722940753982324
-0.863192785890723   -0.055691880707474994   -0.029722940753982324
-0.863192785890723   -0.055691880707474994   -0.029722940753982324
-0.9120131548123028   -0.11819347489694941   -0.027260672497615938
-0.9120131548123028   -0.11819347489694941   -0.027260672497615938
-0.9120131548123028   -0.11819347489694941   -0.027260672497615938
-0.9120131548123028   -0.11819347489694941   -0.027260672497615938
0.03448785894797844   0.11615899004481009   0.025748085951547182
0.03448785894797844   0.11615899004481009   0.025748085951547182
0.03448785894797844   0.11615899004481009   0.025748085951547182
0.03448785894797844   0.11615899004481009   0.025748085951547182
-0.41811529458741137   0.013100271940660671   0.001565621133504825
-0.41811529458741137   0.013100271940660671   0.001565621133504825
-0.41811529458741137   0.013100271940660671   0.001565621133504825
-0.41811529458741137   0.013100271940660671   0.001565621133504825
0.027780627156307858   0.08074299950324731   0.027627917534757004
0.027780627156307858   0.08074299950324731   0.027627917534757004
0.027780627156307858   0.08074299950324731   0.027627917534757004
0.027780627156307858   0.08074299950324731   0.027627917534757004
-0.904234801928231   -0.08170636326298544   -0.024856019711220964
-0.904234801928231   -0.08170636326298544   -0.024856019711220964
-0.904234801928231   -0.08170636326298544   -0.024856019711220964
-0.904234801928231   -0.08170636326298544   -0.024856019711220964
-0.9542349342006742   -0.1395645673175156   -0.02260192181373996
-0.9542349342006742   -0.1395645673175156   -0.02260192181373996
-0.9542349342006742   -0.1395645673175156   -0.02260192181373996
-0.9542349342006742   -0.1395645673175156   -0.02260192181373996
-0.006084588635854423   0.09091164529361209   0.031263441236910154
-0.006084588635854423   0.09091164529361209   0.031263441236910154
-0.006084588635854423   0.09091164529361209   0.031263441236910154
-0.006084588635854423   0.09091164529361209   0.031263441236910154
-0.45856275182257566   -0.007791102833578714   -0.008774127302053746
-0.45856275182257566   -0.007791102833578714   -0.008774127302053746
-0.45856275182257566   -0.007791102833578714   -0.008774127302053746
-0.45856275182257566   -0.007791102833578714   -0.008774127302053746
-0.011817636226425916   0.060117705296345844   0.033392143281318946
-0.011817636226425916   0.060117705296345844   0.033392143281318946
-0.011817636226425916   0.060117705296345844   0.033392143281318946
-0.011817636226425916   0.060117705296345844   0.033392143281318946
-0.9475789252039251   -0.10784766591406975   -0.021038778233428423
-0.9475789252039251   -0.10784766591406975   -0.021038778233428423
-0.9475789252039251   -0.10784766591406975   -0.021038778233428423
-0.9475789252039251   -0.10784766591406975   -0.021038778233428423
-0.9961764040922612   -0.15639421787179125   -0.014860855221364629
-0.9961764040922612   -0.15639421787179125   -0.014860855221364629
-0.9961764040922612   -0.15639421787179125   -0.014860855221364629
-0.9961764040922612   -0.15639421787179125   -0.014860855221364629
-0.04811535983280023   0.06712787255688134   0.035543631984796514
-0.04811535983280023   0.06712787255688134   0.035543631984796514
-0.04811535983280023   0.06712787255688134   0.035543631984796514
-0.04811535983280023   0.06712787255688134   0.035543631984796514
-0.5020816431126366   -0.029039461347575624   -0.02006624673174087
-0.5020816431126366   -0.029039461347575624   -0.02006624673174087
-0.5020816431126366   -0.029039461347575624   -0.02006624673174087
-0.5020816431126366   -0.029039461347575624   -0.02006624673174087
-0.8138756678554646   0.12097104070142356   0.040199728013426306
-0.8138756678554646   0.12097104070142356   0.040199728013426306
-0.8138756678554646   0.12097104070142356   0.040199728013426306
-0.8138756678554646   0.12097104070142356   0.040199728013426306
-1.7304481468388806   -0.07665019526815886   -0.04875308257431295
-1.7304481468388806   -0.07665019526815886   -0.04875308257431295
-1.7304481468388806   -0.07665019526815886   -0.04875308257431295
-1.7304481468388806   -0.07665019526815886   -0.04875308257431295
-1.7685241788064971   -0.09446373996646196   -0.007619905604462643
-1.7685241788064971   -0.09446373996646196   -0.007619905604462643
-1.7685241788064971   -0.09446373996646196   -0.007619905604462643
-1.7685241788064971   -0.09446373996646196   -0.007619905604462643
-0.8656666273947156   0.08779818550555357   -0.0015196958121751203
-0.8656666273947156   0.08779818550555357   -0.0015196958121751203
-0.8656666273947156   0.08779818550555357   -0.0015196958121751203
-0.8656666273947156   0.08779818550555357   -0.0015196958121751203
-1.2852827997230323   0.013417652311631889   0.009347219048294969
-1.2852827997230323   0.013417652311631889   0.009347219048294969
-1.2852827997230323   0.013417652311631889   0.009347219048294969
-1.2852827997230323   0.013417652311631889   0.009347219048294969
-0.8541017349799825   0.09897110022761857   0.04513185153942521
-0.8541017349799825   0.09897110022761857   0.04513185153942521
-0.8541017349799825   0.09897110022761857   0.04513185153942521
-0.8541017349799825   0.09897110022761857   0.04513185153942521
-1.7786254984548329   -0.10417308192213343   -0.048417161890492666
-1.7786254984548329   -0.10417308192213343   -0.048417161890492666
-1.7786254984548329   -0.10417308192213343   -0.048417161890492666
-1.7786254984548329   -0.10417308192213343   -0.048417161890492666
-1.8205275360819686   -0.11848538177438434   -0.006709384149997735
-1.8205275360819686   -0.11848538177438434   -0.006709384149997735
-1.8205275360819686   -0.11848538177438434   -0.006709384149997735
-1.8205275360819686   -0.11848538177438434   -0.006709384149997735
-0.9083812205252634   0.06370509168653332   0.003396987559277087
-0.9083812205252634   0.06370509168653332   0.003396987559277087
-0.9083812205252634   0.06370509168653332   0.003396987559277087
-0.9083812205252634   0.06370509168653332   0.003396987559277087
-1.3217473130568453   -0.005724938664274648   0.000860229165857096
-1.3217473130568453   -0.005724938664274648   0.000860229165857096
-1.3217473130568453   -0.005724938664274648   0.000860229165857096
-1.3217473130568453   -0.005724938664274648   0.000860229165857096
-0.8957197983483977   0.07824990052364056   0.05215928960649442
-0.8957197983483977   0.07824990052364056   0.05215928960649442
-0.8957197983483977   0.07824990052364056   0.05215928960649442
-0.8957197983483977   0.07824990052364056   0.05215928960649442
-1.8302283496102216   -0.13006958196288193   -0.04362925160277964
-1.8302283496102216   -0.13006958196288193   -0.04362925160277964
-1.8302283496102216   -0.13006958196288193   -0.04362925160277964
-1.8302283496102216   -0.13006958196288193   -0.04362925160277964
-1.8684223025316915   -0.1441925708672388   0.005340493075859598
-1.8684223025316915   -0.1441925708672388   0.005340493075859598
-1.8684223025316915   -0.1441925708672388   0.005340493075859598
-1.8684223025316915   -0.1441925708672388   0.005340493075859598
-0.9536465145392624   0.03506428132461564   0.006330093347241203
-0.9536465145392624   0.03506428132461564   0.006330093347241203
-0.9536465145392624   0.03506428132461564   0.006330093347241203
-0.9536465145392624   0.03506428132461564   0.006330093347241203
-1.3785154539456732   -0.03251729976541601   -0.010522775664640868
-1.3785154539456732   -0.03251729976541601   -0.010522775664640868
-1.3785154539456732   -0.03251729976541601   -0.010522775664640868
-1.3785154539456732   -0.03251729976541601   -0.010522775664640868
-1.668918137167111   0.12587726649971204   0.05636950401664867
-1.668918137167111   0.12587726649971204   0.05636950401664867
-1.668918137167111   0.12587726649971204   0.05636950401664867
-1.668918137167111   0.12587726649971204   0.05636950401664867
-2.5540425668590037   -0.11808344307569324   -0.04512456662044963
-2.5540425668590037   -0.11808344307569324   -0.04512456662044963
-2.5540425668590037   -0.11808344307569324   -0.04512456662044963
-2.5540425668590037   -0.11808344307569324   -0.04512456662044963
-2.589367149363384   -0.051356240784891205   0.048028286031368495
-2.589367149363384   -0.051356240784891205   0.048028286031368495
-2.589367149363384   -0.051356240784891205   0.048028286031368495
-2.589367149363384   -0.051356240784891205   0.048028286031368495
-1.7427284585139253   0.05231171812302021   -0.02541676223108527
-1.7427284585139253   0.05231171812302021   -0.02541676223108527
-1.7427284585139253   0.05231171812302021   -0.02541676223108527
-1.7427284585139253   0.05231171812302021   -0.02541676223108527
-2.044296075750097   0.02630426077774417   0.046861967726817375
-2.044296075750097   0.02630426077774417   0.046861967726817375
-2.044296075750097   0.02630426077774417   0.046861967726817375
-2.044296075750097   0.02630426077774417   0.046861967726817375
-1.709562518740678   0.12795329923750381   0.06477135552063723
-1.709562518740678   0.12795329923750381   0.06477135552063723
-1.709562518740678   0.12795329923750381   0.06477135552063723
-1.709562518740678   0.12795329923750381   0.06477135552063723
-2.6205742872092337   -0.1250390199719742   -0.03432462401074918
-2.6205742872092337   -0.1250390199719742   -0.03432462401074918
-2.6205742872092337   -0.1250390199719742   -0.03432462401074918
-2.6205742872092337   -0.1250390199719742   -0.03432462401074918
-2.653946011855452   -0.06392171700157523   0.06636464635482345
-2.653946011855452   -0.06392171700157523   0.06636464635482345
-2.653946011855452   -0.06392171700157523   0.06636464635482345
-2.653946011855452   -0.06392171700157523   0.06636464635482345
-1.7923218407679047   0.03846293717884791   -0.022629226532909927
-1.7923218407679047   0.03846293717884791   -0.022629226532909927
-1.7923218407679047   0.03846293717884791   -0.022629226532909927
-1.7923218407679047   0.03846293717884791   -0.022629226532909927
-2.1329044720715813   0.012954431985052528   0.029996166173304445
-2.1329044720715813   0.012954431985052528   0.029996166173304445
-2.1329044720715813   0.012954431985052528   0.029996166173304445
-2.1329044720715813   0.012954431985052528   0.029996166173304445
-1.755693418815048   0.11854253034798756   0.08043329006223357
-1.755693418815048   0.11854253034798756   0.08043329006223357
-1.755693418815048   0.11854253034798756   0.08043329006223357
-1.755693418815048   0.11854253034798756   0.08043329006223357
-2.688687191445007   -0.14211406780740526   -0.02914890078707348
-2.688687191445007   -0.14211406780740526   -0.02914890078707348
-2.688687191445007   -0.14211406780740526   -0.02914890078707348
-2.688687191445007   -0.14211406780740526   -0.02914890078707348
-2.741528386682864   -0.11760483675024097   0.06606519190354794
-2.741528386682864   -0.11760483675024097   0.06606519190354794
-2.741528386682864   -0.11760483675024097   0.06606519190354794
-2.741528386682864   -0.11760483675024097   0.06606519190354794
-1.8454804114156937   -0.002897395533411451   -0.021245226677979193
-1.8454804114156937   -0.002897395533411451   -0.021245226677979193
-1.8454804114156937   -0.002897395533411451   -0.021245226677979193
-1.8454804114156937   -0.002897395533411451   -0.021245226677979193
-2.159018384483263   -0.006186608948257066   0.024342211758266688
-2.159018384483263   -0.006186608948257066   0.024342211758266688
-2.159018384483263   -0.006186608948257066   0.024342211758266688
-2.159018384483263   -0.006186608948257066   0.024342211758266688
1.4653041702270224   0.08124873005293079   -0.07033561411212966
1.4653041702270224   0.08124873005293079   -0.07033561411212966
1.4653041702270224   0.08124873005293079   -0.07033561411212966
1.4653041702270224   0.08124873005293079   -0.07033561411212966
0.6972007741525913   0.014341746089072627   0.026902255803016847
0.6972007741525913   0.014341746089072627   0.026902255803016847
0.6972007741525913   0.014341746089072627   0.026902255803016847
0.6972007741525913   0.014341746089072627   0.026902255803016847
0.6190152923063277   -0.11905397529592854   -0.06674535938412093
0.6190152923063277   -0.11905397529592854   -0.06674535938412093
0.6190152923063277   -0.11905397529592854   -0.06674535938412093
0.6190152923063277   -0.11905397529592854   -0.06674535938412093
1.4333434362695965   0.13487649731741988   0.03325372928731888
1.4333434362695965   0.13487649731741988   0.03325372928731888
1.4333434362695965   0.13487649731741988   0.03325372928731888
1.4333434362695965   0.13487649731741988   0.03325372928731888
0.9992962235334907   0.01352872113026779   -0.02954000371547589
0.9992962235334907   0.01352872113026779   -0.02954000371547589
0.9992962235334907   0.01352872113026779   -0.02954000371547589
0.9992962235334907   0.01352872113026779   -0.02954000371547589
1.3936139423086598   0.035926148284477655   -0.06644339148442213
1.3936139423086598   0.035926148284477655   -0.06644339148442213
1.3936139423086598   0.035926148284477655   -0.06644339148442213
1.3936139423086598   0.035926148284477655   -0.06644339148442213
0.6579591159272393   -0.02088929660301228   0.02980908002751536
0.6579591159272393   -0.02088929660301228   0.02980908002751536
0.6579591159272393   -0.02088929660301228   0.02980908002751536
0.6579591159272393   -0.02088929660301228   0.02980908002751536
0.5824724269426416   -0.13078732318944153   -0.056899289190295854
0.5824724269426416   -0.13078732318944153   -0.056899289190295854
0.5824724269426416   -0.13078732318944153   -0.056899289190295854
0.5824724269426416   -0.13078732318944153   -0.056899289190295854
1.3765276358087888   0.11811855295993104   0.04369039958041097
1.3765276358087888   0.11811855295993104   0.04369039958041097
1.3765276358087888   0.11811855295993104   0.04369039958041097
1.3765276358087888   0.11811855295993104   0.04369039958041097
0.9664669922956558   -0.006784929564826708   -0.041582786714108054
0.9664669922956558   -0.006784929564826708   -0.041582786714108054
0.9664669922956558   -0.006784929564826708   -0.041582786714108054
0.9664669922956558   -0.006784929564826708   -0.041582786714108054
1.3377341967403993   0.021011033373208587   -0.05316927617480294
1.3377341967403993   0.021011033373208587   -0.05316927617480294
1.3377341967403993   0.021011033373208587   -0.05316927617480294
1.3377341967403993   0.021011033373208587   -0.05316927617480294
0.6202808740037747   -0.03466479560997446   0.03602041853589744
0.6202808740037747   -0.03466479560997446   0.03602041853589744
0.6202808740037747   -0.03466479560997446   0.03602041853589744
0.6202808740037747   -0.03466479560997446   0.03602041853589744
0.5495218933096023   -0.1381241193256904   -0.04738013535219193
0.5495218933096023   -0.1381241193256904   -0.04738013535219193
0.5495218933096023   -0.1381241193256904   -0.04738013535219193
0.5495218933096023   -0.1381241193256904   -0.04738013535219193
1.3124729097624461   0.09989616146915495   0.05186331536810646
1.3124729097624461   0.09989616146915495   0.05186331536810646
1.3124729097624461   0.09989616146915495   0.05186331536810646
1.3124729097624461   0.09989616146915495   0.05186331536810646
0.9019324972730575   -0.02217335698739034   -0.059340356816199605
0.9019324972730575   -0.02217335698739034   -0.059340356816199605
0.9019324972730575   -0.02217335698739034   -0.059340356816199605
0.9019324972730575   -0.02217335698739034   -0.059340356816199605
0.7086871780016492   0.10306350693605049   -0.004387485798660454
0.7086871780016492   0.10306350693605049   -0.004387485798660454
0.7086871780016492   0.10306350693605049   -0.004387485798660454
0.7086871780016492   0.10306350693605049   -0.004387485798660454
-0.04591032467376324   -0.009793516465082702   -0.00026005270243520883
-0.04591032467376324   -0.009793516465082702   -0.00026005270243520883
-0.04591032467376324   -0.009793516465082702   -0.00026005270243520883
-0.04591032467376324   -0.009793516465082702   -0.00026005270243520883
-0.10098535255754908   -0.08900884729235523   -0.04238012381699138
-0.10098535255754908   -0.08900884729235523   -0.04238012381699138
-0.10098535255754908   -0.08900884729235523   -0.04238012381699138
-0.10098535255754908   -0.08900884729235523   -0.04238012381699138
0.6901085087500831   0.12254274502835119   0.04712400251037093
0.6901085087500831   0.12254274502835119   0.04712400251037093
0.6901085087500831   0.12254274502835119   0.04712400251037093
0.6901085087500831   0.12254274502835119   0.04712400251037093
0.3081575165624875   0.0302863577239176   0.0021703035884463057
0.3081575165624875   0.0302863577239176   0.0021703035884463057
0.3081575165624875   0.0302863577239176   0.0021703035884463057
0.3081575165624875   0.0302863577239176   0.0021703035884463057
0.6714246041697125   0.07433217811989239   0.0019150465169851145
0.6714246041697125   0.07433217811989239   0.0019150465169851145
0.6714246041697125   0.07433217811989239   0.0019150465169851145
0.6714246041697125   0.07433217811989239   0.0019150465169851145
-0.08197961203565701   -0.04047644444237357   0.004116175942487215
-0.08197961203565701   -0.04047644444237357   0.004116175942487215
-0.08197961203565701   -0.04047644444237357   0.004116175942487215
-0.08197961203565701   -0.04047644444237357   0.004116175942487215
-0.13540959806242794   -0.1111859815464914   -0.03502108601642524
-0.13540959806242794   -0.1111859815464914   -0.03502108601642524
-0.13540959806242794   -0.1111859815464914   -0.03502108601642524
-0.13540959806242794   -0.1111859815464914   -0.03502108601642524
0.6495335826395932   0.09609777784535539   0.05152138825965966
0.6495335826395932   0.09609777784535539   0.05152138825965966
0.6495335826395932   0.09609777784535539   0.05152138825965966
0.6495335826395932   0.09609777784535539   0.05152138825965966
0.2657670638557922   0.004148385854590854   -0.010956076632016329
0.2657670638557922   0.004148385854590854   -0.010956076632016329
0.2657670638557922   0.004148385854590854   -0.010956076632016329
0.2657670638557922   0.004148385854590854   -0.010956076632016329
0.6314665174429613   0.05054185565186993   0.006741984469991944
0.6314665174429613   0.05054185565186993   0.006741984469991944
0.6314665174429613   0.05054185565186993   0.006741984469991944
0.6314665174429613   0.05054185565186993   0.006741984469991944
-0.11760124497321711   -0.0658887714604259   0.008723469343563372
-0.11760124497321711   -0.0658887714604259   0.008723469343563372
-0.11760124497321711   -0.0658887714604259   0.008723469343563372
-0.11760124497321711   -0.0658887714604259   0.008723469343563372
-0.16938867630941978   -0.12984823893467287   -0.028106253608838234
-0.16938867630941978   -0.12984823893467287   -0.028106253608838234
-0.16938867630941978   -0.12984823893467287   -0.028106253608838234
-0.16938867630941978   -0.12984823893467287   -0.028106253608838234
0.6120720462471797   0.0716124149195241   0.05563409509047815
0.6120720462471797   0.0716124149195241   0.05563409509047815
0.6120720462471797   0.0716124149195241   0.05563409509047815
0.6120720462471797   0.0716124149195241   0.05563409509047815
0.23320070095690254   -0.015708492754596   -0.021906406726986714
0.23320070095690254   -0.015708492754596   -0.021906406726986714
0.23320070095690254   -0.015708492754596   -0.021906406726986714
0.23320070095690254   -0.015708492754596   -0.021906406726986714
-0.01585790627405448   0.12313448994404007   0.017074032886985828
-0.01585790627405448   0.12313448994404007   0.017074032886985828
-0.01585790627405448   0.12313448994404007   0.017074032886985828
-0.01585790627405448   0.12313448994404007   0.017074032886985828
-0.7731714357634961   -0.03331690576849605   -0.025647976764027032
-0.7731714357634961   -0.03331690576849605   -0.025647976764027032
-0.7731714357634961   -0.03331690576849605   -0.025647976764027032
-0.7731714357634961   -0.03331690576849605   -0.025647976764027032
-0.8086710819631392   -0.06162339593033006   -0.0200049030130358
-0.8086710819631392   -0.06162339593033006   -0.0200049030130358
-0.8086710819631392   -0.06162339593033006   -0.0200049030130358
-0.8086710819631392   -0.06162339593033006   -0.0200049030130358
-0.050810010712252704   0.09897418727854317   0.020513550838592073
-0.050810010712252704   0.09897418727854317   0.020513550838592073
-0.050810010712252704   0.09897418727854317   0.020513550838592073
-0.050810010712252704   0.09897418727854317   0.020513550838592073
-0.4111525427069615   0.032014176392609145   0.008069613996304952
-0.4111525427069615   0.032014176392609145   0.008069613996304952
-0.4111525427069615   0.032014176392609145   0.008069613996304952
-0.4111525427069615   0.032014176392609145   0.008069613996304952
-0.05011677843679317   0.09889935439702742   0.02405454509740547
-0.05011677843679317   0.09889935439702742   0.02405454509740547
-0.05011677843679317   0.09889935439702742   0.02405454509740547
-0.05011677843679317   0.09889935439702742   0.02405454509740547
-0.8086978294718001   -0.06088207828201571   -0.02087995820465483
-0.8086978294718001   -0.06088207828201571   -0.02087995820465483
-0.8086978294718001   -0.06088207828201571   -0.02087995820465483
-0.8086978294718001   -0.06088207828201571   -0.02087995820465483
-0.8439304239759827   -0.08562602532856058   -0.013579076533886323
-0.8439304239759827   -0.08562602532856058   -0.013579076533886323
-0.8439304239759827   -0.08562602532856058   -0.013579076533886323
-0.8439304239759827   -0.08562602532856058   -0.013579076533886323
-0.08669626793610931   0.07174287451484049   0.025616708553839955
-0.08669626793610931   0.07174287451484049   0.025616708553839955
-0.08669626793610931   0.07174287451484049   0.025616708553839955
-0.08669626793610931   0.07174287451484049   0.025616708553839955
-0.4467746226541314   0.00835079754796926   -0.002587805181819166
-0.4467746226541314   0.00835079754796926   -0.002587805181819166
-0.4467746226541314   0.00835079754796926   -0.002587805181819166
-0.4467746226541314   0.00835079754796926   -0.002587805181819166
-0.08529325944055564   0.07474345666214964   0.02963116888429909
-0.08529325944055564   0.07474345666214964   0.02963116888429909
-0.08529325944055564   0.07474345666214964   0.02963116888429909
-0.08529325944055564   0.07474345666214964   0.02963116888429909
-0.8451347954327189   -0.08842797043706258   -0.016798988709065626
-0.8451347954327189   -0.08842797043706258   -0.016798988709065626
-0.8451347954327189   -0.08842797043706258   -0.016798988709065626
-0.8451347954327189   -0.08842797043706258   -0.016798988709065626
-0.8787799530851179   -0.10755798189157512   -0.007221047005168041
-0.8787799530851179   -0.10755798189157512   -0.007221047005168041
-0.8787799530851179   -0.10755798189157512   -0.007221047005168041
-0.8787799530851179   -0.10755798189157512   -0.007221047005168041
-0.12272519967114427   0.04540538162650266   0.029957509021363654
-0.12272519967114427   0.04540538162650266   0.029957509021363654
-0.12272519967114427   0.04540538162650266   0.029957509021363654
-0.12272519967114427   0.04540538162650266   0.029957509021363654
-0.4840245246252251   -0.015514275313632184   -0.014453253478480348
-0.4840245246252251   -0.015514275313632184   -0.014453253478480348
-0.4840245246252251   -0.015514275313632184   -0.014453253478480348
-0.4840245246252251   -0.015514275313632184   -0.014453253478480348
-0.7256304982910627   0.14150992660182943   0.03722987822781061
-0.7256304982910627   0.14150992660182943   0.03722987822781061
-0.7256304982910627   0.14150992660182943   0.03722987822781061
-0.7256304982910627   0.14150992660182943   0.03722987822781061
-1.483539657720962   -0.05732856060033992   -0.04628816372522994
-1.483539657720962   -0.05732856060033992   -0.04628816372522994
-1.483539657720962   -0.05732856060033992   -0.04628816372522994
-1.483539657720962   -0.05732856060033992   -0.04628816372522994
-1.502951221899615   -0.038478672853705154   0.004380606896430883
-1.502951221899615   -0.038478672853705154   0.004380606896430883
-1.502951221899615   -0.038478672853705154   0.004380606896430883
-1.502951221899615   -0.038478672853705154   0.004380606896430883
-0.7793395762396268   0.07103954448312808   -0.00601031480892833
-0.7793395762396268   0.07103954448312808   -0.00601031480892833
-0.7793395762396268   0.07103954448312808   -0.00601031480892833
-0.7793395762396268   0.07103954448312808   -0.00601031480892833
-1.1155858051058303   0.030620077863466377   0.013680394985915598
-1.1155858051058303   0.030620077863466377   0.013680394985915598
-1.1155858051058303   0.030620077863466377   0.013680394985915598
-1.1155858051058303   0.030620077863466377   0.013680394985915598
-0.759948340339975   0.11803571992785641   0.043949689244598605
-0.759948340339975   0.11803571992785641   0.043949689244598605
-0.759948340339975   0.11803571992785641   0.043949689244598605
-0.759948340339975   0.11803571992785641   0.043949689244598605
-1.5221565146485845   -0.08528890514775178   -0.044835624554369596
-1.5221565146485845   -0.08528890514775178   -0.044835624554369596
-1.5221565146485845   -0.08528890514775178   -0.044835624554369596
-1.5221565146485845   -0.08528890514775178   -0.044835624554369596
-1.5440055184406687   -0.06274049511359336   0.0067933514740489975
-1.5440055184406687   -0.06274049511359336   0.0067933514740489975
-1.5440055184406687   -0.06274049511359336   0.0067933514740489975
-1.5440055184406687   -0.06274049511359336   0.0067933514740489975
-0.8150888571357453   0.04582040034982046   -0.0008176680110762446
-0.8150888571357453   0.04582040034982046   -0.0008176680110762446
-0.8150888571357453   0.04582040034982046   -0.0008176680110762446
-0.8150888571357453   0.04582040034982046   -0.0008176680110762446
-1.1457519206386462   0.009487885971590948   0.00375543117220363
-1.1457519206386462   0.009487885971590948   0.00375543117220363
-1.1457519206386462   0.009487885971590948   0.00375543117220363
-1.1457519206386462   0.009487885971590948   0.00375543117220363
-0.7948914267066867   0.09576802486266656   0.05022185962136652
-0.7948914267066867   0.09576802486266656   0.05022185962136652
-0.7948914267066867   0.09576802486266656   0.05022185962136652
-0.7948914267066867   0.09576802486266656   0.05022185962136652
-1.5631609529611425   -0.11164612371785548   -0.04007819252405853
-1.5631609529611425   -0.11164612371785548   -0.04007819252405853
-1.5631609529611425   -0.11164612371785548   -0.04007819252405853
-1.5631609529611425   -0.11164612371785548   -0.04007819252405853
-1.5812561987980893   -0.08884151583974292   0.014410791784275387
-1.5812561987980893   -0.08884151583974292   0.014410791784275387
-1.5812561987980893   -0.08884151583974292   0.014410791784275387
-1.5812561987980893   -0.08884151583974292   0.014410791784275387
-0.851837590930026   0.01698894633320175   0.0029438355455262133
-0.851837590930026   0.01698894633320175   0.0029438355455262133
-0.851837590930026   0.01698894633320175   0.0029438355455262133
-0.851837590930026   0.01698894633320175   0.0029438355455262133
-1.1915892497899938   -0.016967768654438414   -0.008827572947821029
-1.1915892497899938   -0.016967768654438414   -0.008827572947821029
-1.1915892497899938   -0.016967768654438414   -0.008827572947821029
-1.1915892497899938   -0.016967768654438414   -0.008827572947821029
-1.4269024116544722   0.1269028354088989   0.05266667059798029
-1.4269024116544722   0.1269028354088989   0.05266667059798029
-1.4269024116544722   0.1269028354088989   0.05266667059798029
-1.4269024116544722   0.1269028354088989   0.05266667059798029
-2.1585870779191363   -0.09953265363041325   -0.05114249935732265
-2.1585870779191363   -0.09953265363041325   -0.05114249935732265
-2.1585870779191363   -0.09953265363041325   -0.05114249935732265
-2.1585870779191363   -0.09953265363041325   -0.05114249935732265
-2.1827696189713026   -0.02089981167479643   0.048566749237269946
-2.1827696189713026   -0.02089981167479643   0.048566749237269946
-2.1827696189713026   -0.02089981167479643   0.048566749237269946
-2.1827696189713026   -0.02089981167479643   0.048566749237269946
-1.4950037078712894   0.03562897151631711   -0.029989467331963296
-1.4950037078712894   0.03562897151631711   -0.029989467331963296
-1.4950037078712894   0.03562897151631711   -0.029989467331963296
-1.4950037078712894   0.03562897151631711   -0.029989467331963296
-1.7355218485320583   0.028635236362022642   0.04242939005164924
-1.7355218485320583   0.028635236362022642   0.04242939005164924
-1.7355218485320583   0.028635236362022642   0.04242939005164924
-1.7355218485320583   0.028635236362022642   0.04242939005164924
-1.4584564217710327   0.12660388737911954   0.06177204730651878
-1.4584564217710327   0.12660388737911954   0.06177204730651878
-1.4584564217710327   0.12660388737911954   0.06177204730651878
-1.4584564217710327   0.12660388737911954   0.06177204730651878
-2.2186938024277003   -0.11125162489372703   -0.040702354825773515
-2.2186938024277003   -0.11125162489372703   -0.040702354825773515
-2.2186938024277003   -0.11125162489372703   -0.040702354825773515
-2.2186938024277003   -0.11125162489372703   -0.040702354825773515
-2.236498945384816   -0.033694779966911115   0.0607592923551447
-2.236498945384816   -0.033694779966911115   0.0607592923551447
-2.236498945384816   -0.033694779966911115   0.0607592923551447
-2.236498945384816   -0.033694779966911115   0.0607592923551447
-1.5335969688360256   0.02180128228831546   -0.025705677904644342
-1.5335969688360256   0.02180128228831546   -0.025705677904644342
-1.5335969688360256   0.02180128228831546   -0.025705677904644342
-1.5335969688360256   0.02180128228831546   -0.025705677904644342
-1.8104094332659049   0.014343891456200242   0.025715188882661236
-1.8104094332659049   0.014343891456200242   0.025715188882661236
-1.8104094332659049   0.014343891456200242   0.025715188882661236
-1.8104094332659049   0.014343891456200242   0.025715188882661236
-1.4948280204167186   0.11706301320975704   0.07287733327044955
-1.4948280204167186   0.11706301320975704   0.07287733327044955
-1.4948280204167186   0.11706301320975704   0.07287733327044955
-1.4948280204167186   0.11706301320975704   0.07287733327044955
-2.2742460334950083   -0.1279346505792459   -0.03373627758346881
-2.2742460334950083   -0.1279346505792459   -0.03373627758346881
-2.2742460334950083   -0.1279346505792459   -0.03373627758346881
-2.2742460334950083   -0.1279346505792459   -0.03373627758346881
-2.307407313739086   -0.07909140937434989   0.05971160644072036
-2.307407313739086   -0.07909140937434989   0.05971160644072036
-2.307407313739086   -0.07909140937434989   0.05971160644072036
-2.307407313739086   -0.07909140937434989   0.05971160644072036
-1.5743343926032567   -0.01653169781032826   -0.023289995270975902
-1.5743343926032567   -0.01653169781032826   -0.023289995270975902
-1.5743343926032567   -0.01653169781032826   -0.023289995270975902
-1.5743343926032567   -0.01653169781032826   -0.023289995270975902
-1.829938379190966   -0.0033932877310844933   0.020101312416609687
-1.829938379190966   -0.0033932877310844933   0.020101312416609687
-1.829938379190966   -0.0033932877310844933   0.020101312416609687
-1.829938379190966   -0.0033932877310844933   0.020101312416609687
1.0041480954565256   0.056706907834883497   -0.06821925677180185
1.0041480954565256   0.056706907834883497   -0.06821925677180185
1.0041480954565256   0.056706907834883497   -0.06821925677180185
1.0041480954565256   0.056706907834883497   -0.06821925677180185
0.42893304310952246   0.027745209260576442   0.029343436894248353
0.42893304310952246   0.027745209260576442   0.029343436894248353
0.42893304310952246   0.027745209260576442   0.029343436894248353
0.42893304310952246   0.027745209260576442   0.029343436894248353
0.3585687052494003   -0.09944551685746908   -0.06358161056692968
0.3585687052494003   -0.09944551685746908   -0.06358161056692968
0.3585687052494003   -0.09944551685746908   -0.06358161056692968
0.3585687052494003   -0.09944551685746908   -0.06358161056692968
0.9803988433067731   0.11431294916294517   0.035644028195171595
0.9803988433067731   0.11431294916294517   0.035644028195171595
0.9803988433067731   0.11431294916294517   0.035644028195171595
0.9803988433067731   0.11431294916294517   0.035644028195171595
0.656302970157237   0.014572144772846574   -0.017938022377744334
0.656302970157237   0.014572144772846574   -0.017938022377744334
0.656302970157237   0.014572144772846574   -0.017938022377744334
0.656302970157237   0.014572144772846574   -0.017938022377744334
0.9410966714925829   0.017054685134976988   -0.06360856684782067
0.9410966714925829   0.017054685134976988   -0.06360856684782067
0.9410966714925829   0.017054685134976988   -0.06360856684782067
0.9410966714925829   0.017054685134976988   -0.06360856684782067
0.3971330396660504   -0.0029250902270516604   0.03271963488591009
0.3971330396660504   -0.0029250902270516604   0.03271963488591009
0.3971330396660504   -0.0029250902270516604   0.03271963488591009
0.3971330396660504   -0.0029250902270516604   0.03271963488591009
0.3285784584128456   -0.11102833423572073   -0.0540948590019047
0.3285784584128456   -0.11102833423572073   -0.0540948590019047
0.3285784584128456   -0.11102833423572073   -0.0540948590019047
0.3285784584128456   -0.11102833423572073   -0.0540948590019047
0.9310689305404383   0.09788178113335726   0.04589999233755983
0.9310689305404383   0.09788178113335726   0.04589999233755983
0.9310689305404383   0.09788178113335726   0.04589999233755983
0.9310689305404383   0.09788178113335726   0.04589999233755983
0.6252129580946886   -0.004510980920455904   -0.029300757244482063
0.6252129580946886   -0.004510980920455904   -0.029300757244482063
0.6252129580946886   -0.004510980920455904   -0.029300757244482063
0.6252129580946886   -0.004510980920455904   -0.029300757244482063
0.8924207639969175   0.0022227390267797464   -0.05168179827347432
0.8924207639969175   0.0022227390267797464   -0.05168179827347432
0.8924207639969175   0.0022227390267797464   -0.05168179827347432
0.8924207639969175   0.0022227390267797464   -0.05168179827347432
0.3661419124636458   -0.016454004621864415   0.03914808163824392
0.3661419124636458   -0.016454004621864415   0.03914808163824392
0.3661419124636458   -0.016454004621864415   0.03914808163824392
0.3661419124636458   -0.016454004621864415   0.03914808163824392
0.30175906484920084   -0.12163486189762492   -0.04507795655254742
0.30175906484920084   -0.12163486189762492   -0.04507795655254742
0.30175906484920084   -0.12163486189762492   -0.04507795655254742
0.30175906484920084   -0.12163486189762492   -0.04507795655254742
0.8735030015218392   0.07622135490111125   0.05235781435889032
0.8735030015218392   0.07622135490111125   0.05235781435889032
0.8735030015218392   0.07622135490111125   0.05235781435889032
0.8735030015218392   0.07622135490111125   0.05235781435889032
0.5728643579633178   -0.02020187350708376   -0.044861138274980075
0.5728643579633178   -0.02020187350708376   -0.044861138274980075
0.5728643579633178   -0.02020187350708376   -0.044861138274980075
0.5728643579633178   -0.02020187350708376   -0.044861138274980075
0.4316932128552993   0.08329758379829763   -0.012408088914596162
0.4316932128552993   0.08329758379829763   -0.012408088914596162
0.4316932128552993   0.08329758379829763   -0.012408088914596162
0.4316932128552993   0.08329758379829763   -0.012408088914596162
-0.13297219983787015   0.007409853455855209   0.0040487961207016955
-0.13297219983787015   0.007409853455855209   0.0040487961207016955
-0.13297219983787015   0.007409853455855209   0.0040487961207016955
-0.13297219983787015   0.007409853455855209   0.0040487961207016955
-0.18107496488212876   -0.06894333926081628   -0.03912294530325464
-0.18107496488212876   -0.06894333926081628   -0.03912294530325464
-0.18107496488212876   -0.06894333926081628   -0.03912294530325464
-0.18107496488212876   -0.06894333926081628   -0.03912294530325464
0.41960490840673215   0.10018760021724361   0.041966288145023734
0.41960490840673215   0.10018760021724361   0.041966288145023734
0.41960490840673215   0.10018760021724361   0.041966288145023734
0.41960490840673215   0.10018760021724361   0.041966288145023734
0.13136272126145318   0.02901056575224117   0.005026975287036515
0.13136272126145318   0.02901056575224117   0.005026975287036515
0.13136272126145318   0.02901056575224117   0.005026975287036515
0.13136272126145318   0.02901056575224117   0.005026975287036515
0.40060774496556917   0.05387617166721977   -0.006708100510772258
0.40060774496556917   0.05387617166721977   -0.006708100510772258
0.40060774496556917   0.05387617166721977   -0.006708100510772258
0.40060774496556917   0.05387617166721977   -0.006708100510772258
-0.16235538191160487   -0.02290949118143235   0.008441121469980942
-0.16235538191160487   -0.02290949118143235   0.008441121469980942
-0.16235538191160487   -0.02290949118143235   0.008441121469980942
-0.16235538191160487   -0.02290949118143235   0.008441121469980942
-0.20897272759230642   -0.09223457657190628   -0.031634073594749214
-0.20897272759230642   -0.09223457657190628   -0.031634073594749214
-0.20897272759230642   -0.09223457657190628   -0.031634073594749214
-0.20897272759230642   -0.09223457657190628   -0.031634073594749214
0.38539572137819356   0.07333827692947431   0.04562484465964392
0.38539572137819356   0.07333827692947431   0.04562484465964392
0.38539572137819356   0.07333827692947431   0.04562484465964392
0.38539572137819356   0.07333827692947431   0.04562484465964392
0.09698474640369634   0.0027072870110197017   -0.007608920279911641
0.09698474640369634   0.0027072870110197017   -0.007608920279911641
0.09698474640369634   0.0027072870110197017   -0.007608920279911641
0.09698474640369634   0.0027072870110197017   -0.007608920279911641
0.36699899299003536   0.028902065160980005   -0.0019225855126595356
0.36699899299003536   0.028902065160980005   -0.0019225855126595356
0.36699899299003536   0.028902065160980005   -0.0019225855126595356
0.36699899299003536   0.028902065160980005   -0.0019225855126595356
-0.1912821488177588   -0.048504514417023664   0.01308875812310641
-0.1912821488177588   -0.048504514417023664   0.01308875812310641
-0.1912821488177588   -0.048504514417023664   0.01308875812310641
-0.1912821488177588   -0.048504514417023664   0.01308875812310641
-0.23650318966755876   -0.1141721711897533   -0.024713599541170434
-0.23650318966755876   -0.1141721711897533   -0.024713599541170434
-0.23650318966755876   -0.1141721711897533   -0.024713599541170434
-0.23650318966755876   -0.1141721711897533   -0.024713599541170434
0.35452462131824697   0.04749961630127484   0.04961534759379199
0.35452462131824697   0.04749961630127484   0.04961534759379199
0.35452462131824697   0.04749961630127484   0.04961534759379199
0.35452462131824697   0.04749961630127484   0.04961534759379199
0.06934432221663728   -0.0191695966400274   -0.018783451152034374
0.06934432221663728   -0.0191695966400274   -0.018783451152034374
0.06934432221663728   -0.0191695966400274   -0.018783451152034374
0.06934432221663728   -0.0191695966400274   -0.018783451152034374
-0.11214667409732876   0.10594574797782966   0.009640530301434157
-0.11214667409732876   0.10594574797782966   0.009640530301434157
-0.11214667409732876   0.10594574797782966   0.009640530301434157
-0.11214667409732876   0.10594574797782966   0.009640530301434157
-0.6865810520682635   -0.017119227000611692   -0.020852880111837765
-0.6865810520682635   -0.017119227000611692   -0.020852880111837765
-0.6865810520682635   -0.017119227000611692   -0.020852880111837765
-0.6865810520682635   -0.017119227000611692   -0.020852880111837765
-0.7140910655721213   -0.0408525397662078   -0.015339029525294038
-0.7140910655721213   -0.0408525397662078   -0.015339029525294038
-0.7140910655721213   -0.0408525397662078   -0.015339029525294038
-0.7140910655721213   -0.0408525397662078   -0.015339029525294038
-0.14093033591402693   0.07640138505177921   0.01625547522465514
-0.14093033591402693   0.07640138505177921   0.01625547522465514
-0.14093033591402693   0.07640138505177921   0.01625547522465514
-0.14093033591402693   0.07640138505177921   0.01625547522465514
-0.4124332815941468   0.03061966643918905   0.00813708919962447
-0.4124332815941468   0.03061966643918905   0.00813708919962447
-0.4124332815941468   0.03061966643918905   0.00813708919962447
-0.4124332815941468   0.03061966643918905   0.00813708919962447
-0.14005721260719145   0.08035544341163342   0.016667033398982112
-0.14005721260719145   0.08035544341163342   0.016667033398982112
-0.14005721260719145   0.08035544341163342   0.016667033398982112
-0.14005721260719145   0.08035544341163342   0.016667033398982112
-0.7150389827822875   -0.04488139202939198   -0.01604976331294028
-0.7150389827822875   -0.04488139202939198   -0.01604976331294028
-0.7150389827822875   -0.04488139202939198   -0.01604976331294028
-0.7150389827822875   -0.04488139202939198   -0.01604976331294028
-0.7422745103842967   -0.06622905357470324   -0.008664689445691265
-0.7422745103842967   -0.06622905357470324   -0.008664689445691265
-0.7422745103842967   -0.06622905357470324   -0.008664689445691265
-0.7422745103842967   -0.06622905357470324   -0.008664689445691265
-0.17020367905919556   0.048769360185124705   0.021207232313774214
-0.17020367905919556   0.048769360185124705   0.021207232313774214
-0.17020367905919556   0.048769360185124705   0.021207232313774214
-0.17020367905919556   0.048769360185124705   0.021207232313774214
-0.4414106426281784   0.005924579483312625   -0.0027320294243511033
-0.4414106426281784   0.005924579483312625   -0.0027320294243511033
-0.4414106426281784   0.005924579483312625   -0.0027320294243511033
-0.4414106426281784   0.005924579483312625   -0.0027320294243511033
-0.16872659200397638   0.05473822795458168   0.022623799820413036
-0.16872659200397638   0.05473822795458168   0.022623799820413036
-0.16872659200397638   0.05473822795458168   0.022623799820413036
-0.16872659200397638   0.05473822795458168   0.022623799820413036
-0.7441965303834486   -0.07264285428808263   -0.011860988728070978
-0.7441965303834486   -0.07264285428808263   -0.011860988728070978
-0.7441965303834486   -0.07264285428808263   -0.011860988728070978
-0.7441965303834486   -0.07264285428808263   -0.011860988728070978
-0.7699877620289842   -0.09047440649741578   -0.0021788692403885562
-0.7699877620289842   -0.09047440649741578   -0.0021788692403885562
-0.7699877620289842   -0.09047440649741578   -0.0021788692403885562
-0.7699877620289842   -0.09047440649741578   -0.0021788692403885562
-0.19922549165138412   0.021918105758469503   0.025584613591479975
-0.19922549165138412   0.021918105758469503   0.025584613591479975
-0.19922549165138412   0.021918105758469503   0.025584613591479975
-0.19922549165138412   0.021918105758469503   0.025584613591479975
-0.4715776471647454   -0.018799673643203285   -0.014511160256052417
-0.4715776471647454   -0.018799673643203285   -0.014511160256052417
-0.4715776471647454   -0.018799673643203285   -0.014511160256052417
-0.4715776471647454   -0.018799673643203285   -0.014511160256052417
-0.6476832853755032   0.1253364099034004   0.031180316447951203
-0.6476832853755032   0.1253364099034004   0.031180316447951203
-0.6476832853755032   0.1253364099034004   0.031180316447951203
-0.6476832853755032   0.1253364099034004   0.031180316447951203
-1.230220201049217   -0.04149732967952613   -0.04250172706571577
-1.230220201049217   -0.04149732967952613   -0.04250172706571577
-1.230220201049217   -0.04149732967952613   -0.04250172706571577
-1.230220201049217   -0.04149732967952613   -0.04250172706571577
-1.240570846097757   -0.017969150398767064   0.010177480639726372
-1.240570846097757   -0.017969150398767064   0.010177480639726372
-1.240570846097757   -0.017969150398767064   0.010177480639726372
-1.240570846097757   -0.017969150398767064   0.010177480639726372
-0.6947198987174659   0.04976755751942363   -0.00910329253767117
-0.6947198987174659   0.04976755751942363   -0.00910329253767117
-0.6947198987174659   0.04976755751942363   -0.00910329253767117
-0.6947198987174659   0.04976755751942363   -0.00910329253767117
-0.9476597626979733   0.02919656135188986   0.011827642940290664
-0.9476597626979733   0.02919656135188986   0.011827642940290664
-0.9476597626979733   0.02919656135188986   0.011827642940290664
-0.9476597626979733   0.02919656135188986   0.011827642940290664
-0.6750737391156489   0.10072815622323447   0.038166906767625824
-0.6750737391156489   0.10072815622323447   0.038166906767625824
-0.6750737391156489   0.10072815622323447   0.038166906767625824
-0.6750737391156489   0.10072815622323447   0.038166906767625824
-1.2610695986286398   -0.06978234203163211   -0.04050309038183734
-1.2610695986286398   -0.06978234203163211   -0.04050309038183734
-1.2610695986286398   -0.06978234203163211   -0.04050309038183734
-1.2610695986286398   -0.06978234203163211   -0.04050309038183734
-1.2737875127078042   -0.043100631030946635   0.013275830657147492
-1.2737875127078042   -0.043100631030946635   0.013275830657147492
-1.2737875127078042   -0.043100631030946635   0.013275830657147492
-1.2737875127078042   -0.043100631030946635   0.013275830657147492
-0.7232034292663938   0.024306697310823716   -0.0038450347417191763
-0.7232034292663938   0.024306697310823716   -0.0038450347417191763
-0.7232034292663938   0.024306697310823716   -0.0038450347417191763
-0.7232034292663938   0.024306697310823716   -0.0038450347417191763
-0.9720852238602419   0.006786633298916961   0.0009258978249208072
-0.9720852238602419   0.006786633298916961   0.0009258978249208072
-0.9720852238602419   0.006786633298916961   0.0009258978249208072
-0.9720852238602419   0.006786633298916961   0.0009258978249208072
-0.7028521603546636   0.0773957289448372   0.04482227818292578
-0.7028521603546636   0.0773957289448372   0.04482227818292578
-0.7028521603546636   0.0773957289448372   0.04482227818292578
-0.7028521603546636   0.0773957289448372   0.04482227818292578
-1.294210097847653   -0.09626097889307869   -0.03567674717997182
-1.294210097847653   -0.09626097889307869   -0.03567674717997182
-1.294210097847653   -0.09626097889307869   -0.03567674717997182
-1.294210097847653   -0.09626097889307869   -0.03567674717997182
-1.3033747403909557   -0.06985999554310363   0.020236275624929217
-1.3033747403909557   -0.06985999554310363   0.020236275624929217
-1.3033747403909557   -0.06985999554310363   0.020236275624929217
-1.3033747403909557   -0.06985999554310363   0.020236275624929217
-0.7521826743746877   -0.003915158998028662   0.0002873215316919961
-0.7521826743746877   -0.003915158998028662   0.0002873215316919961
-0.7521826743746877   -0.003915158998028662   0.0002873215316919961
-0.7521826743746877   -0.003915158998028662   0.0002873215316919961
-1.0086631693941985   -0.01918812462374922   -0.01171301207701704
-1.0086631693941985   -0.01918812462374922   -0.01171301207701704
-1.0086631693941985   -0.01918812462374922   -0.01171301207701704
-1.0086631693941985   -0.01918812462374922   -0.01171301207701704
-1.1803841158435493   0.11614392709397964   0.0490374421891165
-1.1803841158435493   0.11614392709397964   0.0490374421891165
-1.1803841158435493   0.11614392709397964   0.0490374421891165
-1.1803841158435493   0.11614392709397964   0.0490374421891165
-1.7411536531525325   -0.08009361773885543   -0.05532219457614446
-1.7411536531525325   -0.08009361773885543   -0.05532219457614446
-1.7411536531525325   -0.08009361773885543   -0.05532219457614446
-1.7411536531525325   -0.08009361773885543   -0.05532219457614446
-1.7580767773710704   -0.0012651360641374176   0.04861306426554489
-1.7580767773710704   -0.0012651360641374176   0.04861306426554489
-1.7580767773710704   -0.0012651360641374176   0.04861306426554489
-1.7580767773710704   -0.0012651360641374176   0.04861306426554489
-1.24229842953116   0.016823599916760468   -0.033253186842846644
-1.24229842953116   0.016823599916760468   -0.033253186842846644
-1.24229842953116   0.016823599916760468   -0.033253186842846644
-1.24229842953116   0.016823599916760468   -0.033253186842846644
-1.4153644511477883   0.027039391059869244   0.035769963979588995
-1.4153644511477883   0.027039391059869244   0.035769963979588995
-1.4153644511477883   0.027039391059869244   0.035769963979588995
-1.4153644511477883   0.027039391059869244   0.035769963979588995
-1.205213606283866   0.11115315930189512   0.057841370008503465
-1.205213606283866   0.11115315930189512   0.057841370008503465
-1.205213606283866   0.11115315930189512   0.057841370008503465
-1.205213606283866   0.11115315930189512   0.057841370008503465
-1.795887665020882   -0.09632075985178445   -0.04538575019584942
-1.795887665020882   -0.09632075985178445   -0.04538575019584942
-1.795887665020882   -0.09632075985178445   -0.04538575019584942
-1.795887665020882   -0.09632075985178445   -0.04538575019584942
-1.8049871564985822   -0.015080999786987292   0.06127309938139808
-1.8049871564985822   -0.015080999786987292   0.06127309938139808
-1.8049871564985822   -0.015080999786987292   0.06127309938139808
-1.8049871564985822   -0.015080999786987292   0.06127309938139808
-1.272919347397717   0.0028604982549571   -0.02834447207833532
-1.272919347397717   0.0028604982549571   -0.02834447207833532
-1.272919347397717   0.0028604982549571   -0.02834447207833532
-1.272919347397717   0.0028604982549571   -0.02834447207833532
-1.4785202610308412   0.011148678804026646   0.018653743627289623
-1.4785202610308412   0.011148678804026646   0.018653743627289623
-1.4785202610308412   0.011148678804026646   0.018653743627289623
-1.4785202610308412   0.011148678804026646   0.018653743627289623
-1.2340958822455521   0.10047442131235956   0.06815893062510259
-1.2340958822455521   0.10047442131235956   0.06815893062510259
-1.2340958822455521   0.10047442131235956   0.06815893062510259
-1.2340958822455521   0.10047442131235956   0.06815893062510259
-1.8443359199024363   -0.11322022109607666   -0.03733149632878449
-1.8443359199024363   -0.11322022109607666   -0.03733149632878449
-1.8443359199024363   -0.11322022109607666   -0.03733149632878449
-1.8443359199024363   -0.11322022109607666   -0.03733149632878449
-1.8677441035281046   -0.058255659620781775   0.061499906601604384
-1.8677441035281046   -0.058255659620781775   0.061499906601604384
-1.8677441035281046   -0.058255659620781775   0.061499906601604384
-1.8677441035281046   -0.058255659620781775   0.061499906601604384
-1.304950079921831   -0.032439891463651005   -0.02506052610892226
-1.304950079921831   -0.032439891463651005   -0.02506052610892226
-1.304950079921831   -0.032439891463651005   -0.02506052610892226
-1.304950079921831   -0.032439891463651005   -0.02506052610892226
-1.496540981141575   -0.00695441899098731   0.010483443193104985
-1.496540981141575   -0.00695441899098731   0.010483443193104985
-1.496540981141575   -0.00695441899098731   0.010483443193104985
-1.496540981141575   -0.00695441899098731   0.010483443193104985
0.5503542989532058   0.032828415571705474   -0.06666178739378979
0.5503542989532058   0.032828415571705474   -0.06666178739378979
0.5503542989532058   0.032828415571705474   -0.06666178739378979
0.5503542989532058   0.032828415571705474   -0.06666178739378979
0.15939413675568861   0.04015836362146505   0.031938067493007025
0.15939413675568861   0.04015836362146505   0.031938067493007025
0.15939413675568861   0.04015836362146505   0.031938067493007025
0.15939413675568861   0.04015836362146505   0.031938067493007025
0.09731024946581307   -0.08118709164749016   -0.05876758201610647
0.09731024946581307   -0.08118709164749016   -0.05876758201610647
0.09731024946581307   -0.08118709164749016   -0.05876758201610647
0.09731024946581307   -0.08118709164749016   -0.05876758201610647
0.5350413130061301   0.09421484709448878   0.03842999020494416
0.5350413130061301   0.09421484709448878   0.03842999020494416
0.5350413130061301   0.09421484709448878   0.03842999020494416
0.5350413130061301   0.09421484709448878   0.03842999020494416
0.3159000458626068   0.015698887707091526   -0.007327876291255043
0.3159000458626068   0.015698887707091526   -0.007327876291255043
0.3159000458626068   0.015698887707091526   -0.007327876291255043
0.3159000458626068   0.015698887707091526   -0.007327876291255043
0.4959065575139815   -0.0019334180557584596   -0.06109552210555502
0.4959065575139815   -0.0019334180557584596   -0.06109552210555502
0.4959065575139815   -0.0019334180557584596   -0.06109552210555502
0.4959065575139815   -0.0019334180557584596   -0.06109552210555502
0.13522333637787726   0.013739504922662005   0.03587125597406308
0.13522333637787726   0.013739504922662005   0.03587125597406308
0.13522333637787726   0.013739504922662005   0.03587125597406308
0.13522333637787726   0.013739504922662005   0.03587125597406308
0.073865652337049   -0.09271733112681342   -0.04989229075984293
0.073865652337049   -0.09271733112681342   -0.04989229075984293
0.073865652337049   -0.09271733112681342   -0.04989229075984293
0.073865652337049   -0.09271733112681342   -0.04989229075984293
0.4929011124449194   0.07830139910227729   0.04934057013587344
0.4929011124449194   0.07830139910227729   0.04934057013587344
0.4929011124449194   0.07830139910227729   0.04934057013587344
0.4929011124449194   0.07830139910227729   0.04934057013587344
0.28641733859466967   -0.002299730112371688   -0.019023144752881315
0.28641733859466967   -0.002299730112371688   -0.019023144752881315
0.28641733859466967   -0.002299730112371688   -0.019023144752881315
0.28641733859466967   -0.002299730112371688   -0.019023144752881315
0.45399772611700145   -0.016739542249285713   -0.050135420152156836
0.45399772611700145   -0.016739542249285713   -0.050135420152156836
0.45399772611700145   -0.016739542249285713   -0.050135420152156836
0.45399772611700145   -0.016739542249285713   -0.050135420152156836
0.1111353098114445   0.0006898813712268442   0.04304878411409613
0.1111353098114445   0.0006898813712268442   0.04304878411409613
0.1111353098114445   0.0006898813712268442   0.04304878411409613
0.1111353098114445   0.0006898813712268442   0.04304878411409613
0.05289707043692021   -0.10668063682937116   -0.04154621320860256
0.05289707043692021   -0.10668063682937116   -0.04154621320860256
0.05289707043692021   -0.10668063682937116   -0.04154621320860256
0.05289707043692021   -0.10668063682937116   -0.04154621320860256
0.44073505793666623   0.05280667917056746   0.054757159414245624
0.44073505793666623   0.05280667917056746   0.054757159414245624
0.44073505793666623   0.05280667917056746   0.054757159414245624
0.44073505793666623   0.05280667917056746   0.054757159414245624
0.24580974838193   -0.0183523889655767   -0.03329590650241078
0.24580974838193   -0.0183523889655767   -0.03329590650241078
0.24580974838193   -0.0183523889655767   -0.03329590650241078
0.24580974838193   -0.0183523889655767   -0.03329590650241078
0.1530838118751966   0.059933548263952155   -0.01938874155194168
0.1530838118751966   0.059933548263952155   -0.01938874155194168
0.1530838118751966   0.059933548263952155   -0.01938874155194168
0.1530838118751966   0.059933548263952155   -0.01938874155194168
-0.22517345147723616   0.019469558341559633   0.00779732485128137
-0.22517345147723616   0.019469558341559633   0.00779732485128137
-0.22517345147723616   0.019469558341559633   0.00779732485128137
-0.22517345147723616   0.019469558341559633   0.00779732485128137
-0.26515884005605533   -0.05201302877827066   -0.03427310836976012
-0.26515884005605533   -0.05201302877827066   -0.03427310836976012
-0.26515884005605533   -0.05201302877827066   -0.03427310836976012
-0.26515884005605533   -0.05201302877827066   -0.03427310836976012
0.14746338806722878   0.07440897859371624   0.03640204074976645
0.14746338806722878   0.07440897859371624   0.03640204074976645
0.14746338806722878   0.07440897859371624   0.03640204074976645
0.14746338806722878   0.07440897859371624   0.03640204074976645
-0.04875833627839539   0.024378986200160914   0.006145674826753544
-0.04875833627839539   0.024378986200160914   0.006145674826753544
-0.04875833627839539   0.024378986200160914   0.006145674826753544
-0.04875833627839539   0.024378986200160914   0.006145674826753544
0.12859892852753677   0.030742409117836798   -0.014253687472814944
0.12859892852753677   0.030742409117836798   -0.014253687472814944
0.12859892852753677   0.030742409117836798   -0.014253687472814944
0.12859892852753677   0.030742409117836798   -0.014253687472814944
-0.2473337916825109   -0.009385870468538955   0.012224975188230144
-0.2473337916825109   -0.009385870468538955   0.012224975188230144
-0.2473337916825109   -0.009385870468538955   0.012224975188230144
-0.2473337916825109   -0.009385870468538955   0.012224975188230144
-0.28613376990858186   -0.07545741858170328   -0.02682414160946865
-0.28613376990858186   -0.07545741858170328   -0.02682414160946865
-0.28613376990858186   -0.07545741858170328   -0.02682414160946865
-0.28613376990858186   -0.07545741858170328   -0.02682414160946865
0.11994282731814086   0.04809083320101688   0.03968541981778793
0.11994282731814086   0.04809083320101688   0.03968541981778793
0.11994282731814086   0.04809083320101688   0.03968541981778793
0.11994282731814086   0.04809083320101688   0.03968541981778793
-0.0746633379438552   -0.0008881960450307126   -0.005959702054442863
-0.0746633379438552   -0.0008881960450307126   -0.005959702054442863
-0.0746633379438552   -0.0008881960450307126   -0.005959702054442863
-0.0746633379438552   -0.0008881960450307126   -0.005959702054442863
0.10163749184703211   0.005592981019970885   -0.00934340535671177
0.10163749184703211   0.005592981019970885   -0.00934340535671177
0.10163749184703211   0.005592981019970885   -0.00934340535671177
0.10163749184703211   0.005592981019970885   -0.00934340535671177
-0.269173468356983   -0.0343046003201675   0.016824547886989852
-0.269173468356983   -0.0343046003201675   0.016824547886989852
-0.269173468356983   -0.0343046003201675   0.016824547886989852
-0.269173468356983   -0.0343046003201675   0.016824547886989852
-0.30694978775033305   -0.09873657123666699   -0.02009118102733711
-0.30694978775033305   -0.09873657123666699   -0.02009118102733711
-0.30694978775033305   -0.09873657123666699   -0.02009118102733711
-0.30694978775033305   -0.09873657123666699   -0.02009118102733711
0.09584750922867225   0.022226746831241793   0.04429859708954562
0.09584750922867225   0.022226746831241793   0.04429859708954562
0.09584750922867225   0.022226746831241793   0.04429859708954562
0.09584750922867225   0.022226746831241793   0.04429859708954562
-0.09710270894184975   -0.023540813813176412   -0.017399160862789496
-0.09710270894184975   -0.023540813813176412   -0.017399160862789496
-0.09710270894184975   -0.023540813813176412   -0.017399160862789496
-0.09710270894184975   -0.023540813813176412   -0.017399160862789496
-0.21360513545297338   0.08222352083970404   0.0028849424744508134
-0.21360513545297338   0.08222352083970404   0.0028849424744508134
-0.21360513545297338   0.08222352083970404   0.0028849424744508134
-0.21360513545297338   0.08222352083970404   0.0028849424744508134
-0.6046833238322865   -0.007084827876821687   -0.016588423740238174
-0.6046833238322865   -0.007084827876821687   -0.016588423740238174
-0.6046833238322865   -0.007084827876821687   -0.016588423740238174
-0.6046833238322865   -0.007084827876821687   -0.016588423740238174
-0.6235672423259742   -0.02535661023770075   -0.009897594810797328
-0.6235672423259742   -0.02535661023770075   -0.009897594810797328
-0.6235672423259742   -0.02535661023770075   -0.009897594810797328
-0.6235672423259742   -0.02535661023770075   -0.009897594810797328
-0.23579271596636645   0.04897076917938873   0.011573714121021133
-0.23579271596636645   0.04897076917938873   0.011573714121021133
-0.23579271596636645   0.04897076917938873   0.011573714121021133
-0.23579271596636645   0.04897076917938873   0.011573714121021133
-0.4184209349283056   0.024175389093378075   0.0063803269171145115
-0.4184209349283056   0.024175389093378075   0.0063803269171145115
-0.4184209349283056   0.024175389093378075   0.0063803269171145115
-0.4184209349283056   0.024175389093378075   0.0063803269171145115
-0.23465999922987643   0.056371642283542515   0.009836424699321215
-0.23465999922987643   0.056371642283542515   0.009836424699321215
-0.23465999922987643   0.056371642283542515   0.009836424699321215
-0.23465999922987643   0.056371642283542515   0.009836424699321215
-0.6256094273015766   -0.033666951580967566   -0.011798178345550189
-0.6256094273015766   -0.033666951580967566   -0.011798178345550189
-0.6256094273015766   -0.033666951580967566   -0.011798178345550189
-0.6256094273015766   -0.033666951580967566   -0.011798178345550189
-0.6444493400431516   -0.05095034348568332   -0.0031456250563713616
-0.6444493400431516   -0.05095034348568332   -0.0031456250563713616
-0.6444493400431516   -0.05095034348568332   -0.0031456250563713616
-0.6444493400431516   -0.05095034348568332   -0.0031456250563713616
-0.25793399119583454   0.022279353327740004   0.016437980044820836
-0.25793399119583454   0.022279353327740004   0.016437980044820836
-0.25793399119583454   0.022279353327740004   0.016437980044820836
-0.25793399119583454   0.022279353327740004   0.016437980044820836
-0.4402098323974038   -0.00012816778366293857   -0.004475206782516793
-0.4402098323974038   -0.00012816778366293857   -0.004475206782516793
-0.4402098323974038   -0.00012816778366293857   -0.004475206782516793
-0.4402098323974038   -0.00012816778366293857   -0.004475206782516793
-0.25641530310475147   0.030456453065722443   0.015854320762257474
-0.25641530310475147   0.030456453065722443   0.015854320762257474
-0.25641530310475147   0.030456453065722443   0.015854320762257474
-0.25641530310475147   0.030456453065722443   0.015854320762257474
-0.6472612403596387   -0.06042065544906926   -0.007734814675421375
-0.6472612403596387   -0.06042065544906926   -0.007734814675421375
-0.6472612403596387   -0.06042065544906926   -0.007734814675421375
-0.6472612403596387   -0.06042065544906926   -0.007734814675421375
-0.6649335838611073   -0.07566291782809198   0.0033875878683957694
-0.6649335838611073   -0.07566291782809198   0.0033875878683957694
-0.6649335838611073   -0.07566291782809198   0.0033875878683957694
-0.6649335838611073   -0.07566291782809198   0.0033875878683957694
-0.2796925503012517   -0.0034360138173054403   0.020894448798708345
-0.2796925503012517   -0.0034360138173054403   0.020894448798708345
-0.2796925503012517   -0.0034360138173054403   0.020894448798708345
-0.2796925503012517   -0.0034360138173054403   0.020894448798708345
-0.46313288393260194   -0.02449133842097631   -0.01626023322274512
-0.46313288393260194   -0.02449133842097631   -0.01626023322274512
-0.46313288393260194   -0.02449133842097631   -0.01626023322274512
-0.46313288393260194   -0.02449133842097631   -0.01626023322274512
-0.5741279062194723   0.10336853499080684   0.025735301456204188
-0.5741279062194723   0.10336853499080684   0.025735301456204188
-0.5741279062194723   0.10336853499080684   0.025735301456204188
-0.5741279062194723   0.10336853499080684   0.025735301456204188
-0.9757795755731609   -0.028843799443130008   -0.037901406682797026
-0.9757795755731609   -0.028843799443130008   -0.037901406682797026
-0.9757795755731609   -0.028843799443130008   -0.037901406682797026
-0.9757795755731609   -0.028843799443130008   -0.037901406682797026
-0.9776526195477245   -0.0018084136510376214   0.015949572440281196
-0.9776526195477245   -0.0018084136510376214   0.015949572440281196
-0.9776526195477245   -0.0018084136510376214   0.015949572440281196
-0.9776526195477245   -0.0018084136510376214   0.015949572440281196
-0.6138809823451955   0.025156737269036666   -0.011979642413648676
-0.6138809823451955   0.025156737269036666   -0.011979642413648676
-0.6138809823451955   0.025156737269036666   -0.011979642413648676
-0.6138809823451955   0.025156737269036666   -0.011979642413648676
-0.7813741536976282   0.024426950986296936   0.00841625680875465
-0.7813741536976282   0.024426950986296936   0.00841625680875465
-0.7813741536976282   0.024426950986296936   0.00841625680875465
-0.7813741536976282   0.024426950986296936   0.00841625680875465
-0.5943330827347887   0.07820741483749288   0.032709178069936444
-0.5943330827347887   0.07820741483749288   0.032709178069936444
-0.5943330827347887   0.07820741483749288   0.032709178069936444
-0.5943330827347887   0.07820741483749288   0.032709178069936444
-0.9989481838771022   -0.05660675593844933   -0.03572990691920262
-0.9989481838771022   -0.05660675593844933   -0.03572990691920262
-0.9989481838771022   -0.05660675593844933   -0.03572990691920262
-0.9989481838771022   -0.05660675593844933   -0.03572990691920262
-1.0033571288317606   -0.02703735547617994   0.019588400888629294
-1.0033571288317606   -0.02703735547617994   0.019588400888629294
-1.0033571288317606   -0.02703735547617994   0.019588400888629294
-1.0033571288317606   -0.02703735547617994   0.019588400888629294
-0.6348728430672452   0.0005866562666329012   -0.006800139929163826
-0.6348728430672452   0.0005866562666329012   -0.006800139929163826
-0.6348728430672452   0.0005866562666329012   -0.006800139929163826
-0.6348728430672452   0.0005866562666329012   -0.006800139929163826
-0.7999049986840922   0.001769515954533507   -0.0029671956890477275
-0.7999049986840922   0.001769515954533507   -0.0029671956890477275
-0.7999049986840922   0.001769515954533507   -0.0029671956890477275
-0.7999049986840922   0.001769515954533507   -0.0029671956890477275
-0.6148048075056336   0.054650639533688844   0.03947605461184631
-0.6148048075056336   0.054650639533688844   0.03947605461184631
-0.6148048075056336   0.054650639533688844   0.03947605461184631
-0.6148048075056336   0.054650639533688844   0.03947605461184631
-1.0245142793903728   -0.08219045374023903   -0.031044253640395883
-1.0245142793903728   -0.08219045374023903   -0.031044253640395883
-1.0245142793903728   -0.08219045374023903   -0.031044253640395883
-1.0245142793903728   -0.08219045374023903   -0.031044253640395883
-1.0255685000606578   -0.05332191126079652   0.026639385903884066
-1.0255685000606578   -0.05332191126079652   0.026639385903884066
-1.0255685000606578   -0.05332191126079652   0.026639385903884066
-1.0255685000606578   -0.05332191126079652   0.026639385903884066
-0.6561256260438159   -0.02567665012566947   -0.0025588907475770223
-0.6561256260438159   -0.02567665012566947   -0.0025588907475770223
-0.6561256260438159   -0.02567665012566947   -0.0025588907475770223
-0.6561256260438159   -0.02567665012566947   -0.0025588907475770223
-0.8274261249318321   -0.022894982284129173   -0.015364727580935239
-0.8274261249318321   -0.022894982284129173   -0.015364727580935239
-0.8274261249318321   -0.022894982284129173   -0.015364727580935239
-0.8274261249318321   -0.022894982284129173   -0.015364727580935239
-0.9329663351402779   0.1017270699887709   0.045593926049732614
-0.9329663351402779   0.1017270699887709   0.045593926049732614
-0.9329663351402779   0.1017270699887709   0.045593926049732614
-0.9329663351402779   0.1017270699887709   0.045593926049732614
-1.3124240138056733   -0.06032729895925465   -0.057633821779924724
-1.3124240138056733   -0.06032729895925465   -0.057633821779924724
-1.3124240138056733   -0.06032729895925465   -0.057633821779924724
-1.3124240138056733   -0.06032729895925465   -0.057633821779924724
-1.322075727798923   0.017105417125257205   0.04793319746739996
-1.322075727798923   0.017105417125257205   0.04793319746739996
-1.322075727798923   0.017105417125257205   0.04793319746739996
-1.322075727798923   0.017105417125257205   0.04793319746739996
-0.98814482204232   -0.003095131329788503   -0.03522472235396055
-0.98814482204232   -0.003095131329788503   -0.03522472235396055
-0.98814482204232   -0.003095131329788503   -0.03522472235396055
-0.98814482204232   -0.003095131329788503   -0.03522472235396055
-1.0899799186000296   0.024468591336326423   0.026340882016808148
-1.0899799186000296   0.024468591336326423   0.026340882016808148
-1.0899799186000296   0.024468591336326423   0.026340882016808148
-1.0899799186000296   0.024468591336326423   0.026340882016808148
-0.951200606744584   0.09247837200302611   0.05392285080190548
-0.951200606744584   0.09247837200302611   0.05392285080190548
-0.951200606744584   0.09247837200302611   0.05392285080190548
-0.951200606744584   0.09247837200302611   0.05392285080190548
-1.3608787864154352   -0.08032692952633366   -0.04864974896354051
-1.3608787864154352   -0.08032692952633366   -0.04864974896354051
-1.3608787864154352   -0.08032692952633366   -0.04864974896354051
-1.3608787864154352   -0.08032692952633366   -0.04864974896354051
-1.3620946684612   0.0029393007033500784   0.06122486122711271
-1.3620946684612   0.0029393007033500784   0.06122486122711271
-1.3620946684612   0.0029393007033500784   0.06122486122711271
-1.3620946684612   0.0029393007033500784   0.06122486122711271
-1.0112754348400401   -0.016805398920725773   -0.030235085708245936
-1.0112754348400401   -0.016805398920725773   -0.030235085708245936
-1.0112754348400401   -0.016805398920725773   -0.030235085708245936
-1.0112754348400401   -0.016805398920725773   -0.030235085708245936
-1.1410744396491133   0.0077064825376544355   0.009423638073474613
-1.1410744396491133   0.0077064825376544355   0.009423638073474613
-1.1410744396491133   0.0077064825376544355   0.009423638073474613
-1.1410744396491133   0.0077064825376544355   0.009423638073474613
-0.9727607281496243   0.08138977190405491   0.06414327691906105
-0.9727607281496243   0.08138977190405491   0.06414327691906105
-0.9727607281496243   0.08138977190405491   0.06414327691906105
-0.9727607281496243   0.08138977190405491   0.06414327691906105
-1.4023708259610908   -0.0970173209308913   -0.040199304638053594
-1.4023708259610908   -0.0970173209308913   -0.040199304638053594
-1.4023708259610908   -0.0970173209308913   -0.040199304638053594
-1.4023708259610908   -0.0970173209308913   -0.040199304638053594
-1.4174482353062643   -0.03728062537168764   0.06323395973532772
-1.4174482353062643   -0.03728062537168764   0.06323395973532772
-1.4174482353062643   -0.03728062537168764   0.06323395973532772
-1.4174482353062643   -0.03728062537168764   0.06323395973532772
-1.0351400392717154   -0.04817408878633414   -0.02636613262588345
-1.0351400392717154   -0.04817408878633414   -0.02636613262588345
-1.0351400392717154   -0.04817408878633414   -0.02636613262588345
-1.0351400392717154   -0.04817408878633414   -0.02636613262588345
-1.1578141807095275   -0.010103406136111576   -0.00065689933039869
-1.1578141807095275   -0.010103406136111576   -0.00065689933039869
-1.1578141807095275   -0.010103406136111576   -0.00065689933039869
-1.1578141807095275   -0.010103406136111576   -0.00065689933039869
0.09687377175006855   0.007976437113242273   -0.06645120004251744
0.09687377175006855   0.007976437113242273   -0.06645120004251744
0.09687377175006855   0.007976437113242273   -0.06645120004251744
0.09687377175006855   0.007976437113242273   -0.06645120004251744
-0.10956981183930288   0.04988077045383385   0.034017034849779804
-0.10956981183930288   0.04988077045383385   0.034017034849779804
-0.10956981183930288   0.04988077045383385   0.034017034849779804
-0.10956981183930288   0.04988077045383385   0.034017034849779804
-0.16372075173129366   -0.06392383383304276   -0.05350134969528984
-0.16372075173129366   -0.06392383383304276   -0.05350134969528984
-0.16372075173129366   -0.06392383383304276   -0.05350134969528984
-0.16372075173129366   -0.06392383383304276   -0.05350134969528984
0.08866873086357388   0.07021581593675172   0.04178573235930694
0.08866873086357388   0.07021581593675172   0.04178573235930694
0.08866873086357388   0.07021581593675172   0.04178573235930694
0.08866873086357388   0.07021581593675172   0.04178573235930694
-0.024112760026946546   0.015406157052148484   0.005786291837776966
-0.024112760026946546   0.015406157052148484   0.005786291837776966
-0.024112760026946546   0.015406157052148484   0.005786291837776966
-0.024112760026946546   0.015406157052148484   0.005786291837776966
0.049915094193376815   -0.022374768100030026   -0.059391866954896635
0.049915094193376815   -0.022374768100030026   -0.059391866954896635
0.049915094193376815   -0.022374768100030026   -0.059391866954896635
0.049915094193376815   -0.022374768100030026   -0.059391866954896635
-0.12726157382059528   0.026372291444240335   0.038498414580919155
-0.12726157382059528   0.026372291444240335   0.038498414580919155
-0.12726157382059528   0.026372291444240335   0.038498414580919155
-0.12726157382059528   0.026372291444240335   0.038498414580919155
-0.1815543744115698   -0.07552526013528425   -0.04533723919541443
-0.1815543744115698   -0.07552526013528425   -0.04533723919541443
-0.1815543744115698   -0.07552526013528425   -0.04533723919541443
-0.1815543744115698   -0.07552526013528425   -0.04533723919541443
0.051932140511526496   0.05445216557296227   0.05729233170179959
0.051932140511526496   0.05445216557296227   0.05729233170179959
0.051932140511526496   0.05445216557296227   0.05729233170179959
0.051932140511526496   0.05445216557296227   0.05729233170179959
-0.05313101557058741   -0.001973032417362828   -0.007623222931951
-0.05313101557058741   -0.001973032417362828   -0.007623222931951
-0.05313101557058741   -0.001973032417362828   -0.007623222931951
-0.05313101557058741   -0.001973032417362828   -0.007623222931951
0.012287455223669273   -0.03748769350171566   -0.04899123566281049
0.012287455223669273   -0.03748769350171566   -0.04899123566281049
0.012287455223669273   -0.03748769350171566   -0.04899123566281049
0.012287455223669273   -0.03748769350171566   -0.04899123566281049
-0.1450919424700638   0.013232345593041817   0.04821731478378761
-0.1450919424700638   0.013232345593041817   0.04821731478378761
-0.1450919424700638   0.013232345593041817   0.04821731478378761
-0.1450919424700638   0.013232345593041817   0.04821731478378761
-0.19788952312893174   -0.0933838548698459   -0.037570929722192524
-0.19788952312893174   -0.0933838548698459   -0.037570929722192524
-0.19788952312893174   -0.0933838548698459   -0.037570929722192524
-0.19788952312893174   -0.0933838548698459   -0.037570929722192524
0.0009144129719114301   0.02139171754478649   0.06530239589214626
0.0009144129719114301   0.02139171754478649   0.06530239589214626
0.0009144129719114301   0.02139171754478649   0.06530239589214626
0.0009144129719114301   0.02139171754478649   0.06530239589214626
-0.08423441472385967   -0.019482315395234838   -0.023073815381613544
-0.08423441472385967   -0.019482315395234838   -0.023073815381613544
-0.08423441472385967   -0.019482315395234838   -0.023073815381613544
-0.08423441472385967   -0.019482315395234838   -0.023073815381613544
-0.1251180945877168   0.032627035884591565   -0.026470644323047608
-0.1251180945877168   0.032627035884591565   -0.026470644323047608
-0.1251180945877168   0.032627035884591565   -0.026470644323047608
-0.1251180945877168   0.032627035884591565   -0.026470644323047608
-0.31858346379250113   0.01339591812866113   0.0088921486245656
-0.31858346379250113   0.01339591812866113   0.0088921486245656
-0.31858346379250113   0.01339591812866113   0.0088921486245656
-0.31858346379250113   0.01339591812866113   0.0088921486245656
-0.3465037745765262   -0.03722645038788099   -0.027807941514464765
-0.3465037745765262   -0.03722645038788099   -0.027807941514464765
-0.3465037745765262   -0.03722645038788099   -0.027807941514464765
-0.3465037745765262   -0.03722645038788099   -0.027807941514464765
-0.12860367627667865   0.03160507156100388   0.026555122183738653
-0.12860367627667865   0.03160507156100388   0.026555122183738653
-0.12860367627667865   0.03160507156100388   0.026555122183738653
-0.12860367627667865   0.03160507156100388   0.026555122183738653
-0.22922705886985786   0.009455323325418014   0.00502728769121075
-0.22922705886985786   0.009455323325418014   0.00502728769121075
-0.22922705886985786   0.009455323325418014   0.00502728769121075
-0.22922705886985786   0.009455323325418014   0.00502728769121075
-0.14367452209950993   0.004551817780443848   -0.021745853149856838
-0.14367452209950993   0.004551817780443848   -0.021745853149856838
-0.14367452209950993   0.004551817780443848   -0.021745853149856838
-0.14367452209950993   0.004551817780443848   -0.021745853149856838
-0.3333141504927767   -0.01205441834640257   0.012968146862804435
-0.3333141504927767   -0.01205441834640257   0.012968146862804435
-0.3333141504927767   -0.01205441834640257   0.012968146862804435
-0.3333141504927767   -0.01205441834640257   0.012968146862804435
-0.3603839695164051   -0.0600137368608522   -0.02051063365701153
-0.3603839695164051   -0.0600137368608522   -0.02051063365701153
-0.3603839695164051   -0.0600137368608522   -0.02051063365701153
-0.3603839695164051   -0.0600137368608522   -0.02051063365701153
-0.15010868003665623   0.006426197912506908   0.029939774631360272
-0.15010868003665623   0.006426197912506908   0.029939774631360272
-0.15010868003665623   0.006426197912506908   0.029939774631360272
-0.15010868003665623   0.006426197912506908   0.029939774631360272
-0.2467623301174823   -0.013403243581571973   -0.006437679070059038
-0.2467623301174823   -0.013403243581571973   -0.006437679070059038
-0.2467623301174823   -0.013403243581571973   -0.006437679070059038
-0.2467623301174823   -0.013403243581571973   -0.006437679070059038
-0.16463293570286838   -0.02001038710348408   -0.016244918683707678
-0.16463293570286838   -0.02001038710348408   -0.016244918683707678
-0.16463293570286838   -0.02001038710348408   -0.016244918683707678
-0.16463293570286838   -0.02001038710348408   -0.016244918683707678
-0.34787857499569014   -0.035596012990358104   0.017598615076069156
-0.34787857499569014   -0.035596012990358104   0.017598615076069156
-0.34787857499569014   -0.035596012990358104   0.017598615076069156
-0.34787857499569014   -0.035596012990358104   0.017598615076069156
-0.37435569181341777   -0.08348313348242908   -0.014047603436749417
-0.37435569181341777   -0.08348313348242908   -0.014047603436749417
-0.37435569181341777   -0.08348313348242908   -0.014047603436749417
-0.37435569181341777   -0.08348313348242908   -0.014047603436749417
-0.1680910506307025   -0.019111205111620684   0.03714878301072736
-0.1680910506307025   -0.019111205111620684   0.03714878301072736
-0.1680910506307025   -0.019111205111620684   0.03714878301072736
-0.1680910506307025   -0.019111205111620684   0.03714878301072736
-0.26429093894819683   -0.036036182210806456   -0.018103938623942915
-0.26429093894819683   -0.036036182210806456   -0.018103938623942915
-0.26429093894819683   -0.036036182210806456   -0.018103938623942915
-0.26429093894819683   -0.036036182210806456   -0.018103938623942915
-0.31279352318235637   0.05404864246833442   -0.0028108726643877174
-0.31279352318235637   0.05404864246833442   -0.0028108726643877174
-0.31279352318235637   0.05404864246833442   -0.0028108726643877174
-0.31279352318235637   0.05404864246833442   -0.0028108726643877174
-0.5257811529282916   -0.01797299707017702   -0.014833874499202482
-0.5257811529282916   -0.01797299707017702   -0.014833874499202482
-0.5257811529282916   -0.01797299707017702   -0.014833874499202482
-0.5257811529282916   -0.01797299707017702   -0.014833874499202482
-0.5312923275635572   -0.013065153902576107   -0.003106289691643182
-0.5312923275635572   -0.013065153902576107   -0.003106289691643182
-0.5312923275635572   -0.013065153902576107   -0.003106289691643182
-0.5312923275635572   -0.013065153902576107   -0.003106289691643182
-0.3320946678509489   0.0029170146153309345   0.004094127110210021
-0.3320946678509489   0.0029170146153309345   0.004094127110210021
-0.3320946678509489   0.0029170146153309345   0.004094127110210021
-0.3320946678509489   0.0029170146153309345   0.004094127110210021
-0.4246037783664077   0.006071268152024134   0.0016923052992999718
-0.4246037783664077   0.006071268152024134   0.0016923052992999718
-0.4246037783664077   0.006071268152024134   0.0016923052992999718
-0.4246037783664077   0.006071268152024134   0.0016923052992999718
-0.32683447433814566   0.02925841378228851   0.0040536955072685045
-0.32683447433814566   0.02925841378228851   0.0040536955072685045
-0.32683447433814566   0.02925841378228851   0.0040536955072685045
-0.32683447433814566   0.02925841378228851   0.0040536955072685045
-0.5383612583451507   -0.04121529033832404   -0.010300807163863005
-0.5383612583451507   -0.04121529033832404   -0.010300807163863005
-0.5383612583451507   -0.04121529033832404   -0.010300807163863005
-0.5383612583451507   -0.04121529033832404   -0.010300807163863005
-0.5443046338200515   -0.03754493445069973   0.003687183776808406
-0.5443046338200515   -0.03754493445069973   0.003687183776808406
-0.5443046338200515   -0.03754493445069973   0.003687183776808406
-0.5443046338200515   -0.03754493445069973   0.003687183776808406
-0.3468184197048736   -0.021145665124892916   0.008449043664686991
-0.3468184197048736   -0.021145665124892916   0.008449043664686991
-0.3468184197048736   -0.021145665124892916   0.008449043664686991
-0.3468184197048736   -0.021145665124892916   0.008449043664686991
-0.4387132294646402   -0.01619207710917793   -0.008837981056409545
-0.4387132294646402   -0.01619207710917793   -0.008837981056409545
-0.4387132294646402   -0.01619207710917793   -0.008837981056409545
-0.4387132294646402   -0.01619207710917793   -0.008837981056409545
-0.34139379568637795   0.004320913455939754   0.01010558517633231
-0.34139379568637795   0.004320913455939754   0.01010558517633231
-0.34139379568637795   0.004320913455939754   0.01010558517633231
-0.34139379568637795   0.004320913455939754   0.01010558517633231
-0.5519094501964591   -0.0651917053894405   -0.006690127166496087
-0.5519094501964591   -0.0651917053894405   -0.006690127166496087
-0.5519094501964591   -0.0651917053894405   -0.006690127166496087
-0.5519094501964591   -0.0651917053894405   -0.006690127166496087
-0.5569788138207318   -0.06103228743386278   0.01019934423540171
-0.5569788138207318   -0.06103228743386278   0.01019934423540171
-0.5569788138207318   -0.06103228743386278   0.01019934423540171
-0.5569788138207318   -0.06103228743386278   0.01019934423540171
-0.36095369904578384   -0.043852971620942635   0.013332198539933508
-0.36095369904578384   -0.043852971620942635   0.013332198539933508
-0.36095369904578384   -0.043852971620942635   0.013332198539933508
-0.36095369904578384   -0.043852971620942635   0.013332198539933508
-0.4538962320228871   -0.03859621441723344   -0.0202797552739176
-0.4538962320228871   -0.03859621441723344   -0.0202797552739176
-0.4538962320228871   -0.03859621441723344   -0.0202797552739176
-0.4538962320228871   -0.03859621441723344   -0.0202797552739176
-0.4992281974577829   0.0783652822276214   0.021592623555551166
-0.4992281974577829   0.0783652822276214   0.021592623555551166
-0.4992281974577829   0.0783652822276214   0.021592623555551166
-0.4992281974577829   0.0783652822276214   0.021592623555551166
-0.724722188577352   -0.029852817900657275   -0.03329432086281468
-0.724722188577352   -0.029852817900657275   -0.03329432086281468
-0.724722188577352   -0.029852817900657275   -0.03329432086281468
-0.724722188577352   -0.029852817900657275   -0.03329432086281468
-0.7149580618216334   0.011816230258026889   0.022394902007740282
-0.7149580618216334   0.011816230258026889   0.022394902007740282
-0.7149580618216334   0.011816230258026889   0.022394902007740282
-0.7149580618216334   0.011816230258026889   0.022394902007740282
-0.5331464216633832   -0.01060798771763695   -0.014833926375712767
-0.5331464216633832   -0.01060798771763695   -0.014833926375712767
-0.5331464216633832   -0.01060798771763695   -0.014833926375712767
-0.5331464216633832   -0.01060798771763695   -0.014833926375712767
-0.615887194127632   0.01252186762386115   0.0029389660835487663
-0.615887194127632   0.01252186762386115   0.0029389660835487663
-0.615887194127632   0.01252186762386115   0.0029389660835487663
-0.615887194127632   0.01252186762386115   0.0029389660835487663
-0.5116239432575246   0.05369847429707428   0.028472003638868572
-0.5116239432575246   0.05369847429707428   0.028472003638868572
-0.5116239432575246   0.05369847429707428   0.028472003638868572
-0.5116239432575246   0.05369847429707428   0.028472003638868572
-0.7391214781505058   -0.05513116967970065   -0.03147477969890877
-0.7391214781505058   -0.05513116967970065   -0.03147477969890877
-0.7391214781505058   -0.05513116967970065   -0.03147477969890877
-0.7391214781505058   -0.05513116967970065   -0.03147477969890877
-0.7324024845266276   -0.012269924178854724   0.02644659930281118
-0.7324024845266276   -0.012269924178854724   0.02644659930281118
-0.7324024845266276   -0.012269924178854724   0.02644659930281118
-0.7324024845266276   -0.012269924178854724   0.02644659930281118
-0.5460466413434304   -0.03247746882910986   -0.010090319461676125
-0.5460466413434304   -0.03247746882910986   -0.010090319461676125
-0.5460466413434304   -0.03247746882910986   -0.010090319461676125
-0.5460466413434304   -0.03247746882910986   -0.010090319461676125
-0.6277398640907944   -0.008933520985988208   -0.008476333892484138
-0.6277398640907944   -0.008933520985988208   -0.008476333892484138
-0.6277398640907944   -0.008933520985988208   -0.008476333892484138
-0.6277398640907944   -0.008933520985988208   -0.008476333892484138
-0.5242804214969066   0.031098192295744925   0.03516511864608829
-0.5242804214969066   0.031098192295744925   0.03516511864608829
-0.5242804214969066   0.031098192295744925   0.03516511864608829
-0.5242804214969066   0.031098192295744925   0.03516511864608829
-0.7562541376882551   -0.07793101861881573   -0.02715057206538071
-0.7562541376882551   -0.07793101861881573   -0.02715057206538071
-0.7562541376882551   -0.07793101861881573   -0.02715057206538071
-0.7562541376882551   -0.07793101861881573   -0.02715057206538071
-0.7465847031955528   -0.03652160097623368   0.03367543215136959
-0.7465847031955528   -0.03652160097623368   0.03367543215136959
-0.7465847031955528   -0.03652160097623368   0.03367543215136959
-0.7465847031955528   -0.03652160097623368   0.03367543215136959
-0.558992421507674   -0.0548605010686011   -0.006040480564571203
-0.558992421507674   -0.0548605010686011   -0.006040480564571203
-0.558992421507674   -0.0548605010686011   -0.006040480564571203
-0.558992421507674   -0.0548605010686011   -0.006040480564571203
-0.6455696729110122   -0.030801112502789704   -0.02016959392708074
-0.6455696729110122   -0.030801112502789704   -0.02016959392708074
-0.6455696729110122   -0.030801112502789704   -0.02016959392708074
-0.6455696729110122   -0.030801112502789704   -0.02016959392708074
-0.6865731963389734   0.08490766114646217   0.042690161281959335
-0.6865731963389734   0.08490766114646217   0.042690161281959335
-0.6865731963389734   0.08490766114646217   0.042690161281959335
-0.6865731963389734   0.08490766114646217   0.042690161281959335
-0.8828950518946502   -0.0441019778806401   -0.05576555701313534
-0.8828950518946502   -0.0441019778806401   -0.05576555701313534
-0.8828950518946502   -0.0441019778806401   -0.05576555701313534
-0.8828950518946502   -0.0441019778806401   -0.05576555701313534
-0.8835653040721299   0.034277492423717165   0.04705887844337755
-0.8835653040721299   0.034277492423717165   0.04705887844337755
-0.8835653040721299   0.034277492423717165   0.04705887844337755
-0.8835653040721299   0.034277492423717165   0.04705887844337755
-0.7336389753421282   -0.02507193391756296   -0.034121501419151413
-0.7336389753421282   -0.02507193391756296   -0.034121501419151413
-0.7336389753421282   -0.02507193391756296   -0.034121501419151413
-0.7336389753421282   -0.02507193391756296   -0.034121501419151413
-0.7644609137212011   0.020207600652899782   0.014728642361385505
-0.7644609137212011   0.020207600652899782   0.014728642361385505
-0.7644609137212011   0.020207600652899782   0.014728642361385505
-0.7644609137212011   0.020207600652899782   0.014728642361385505
-0.6972892484738256   0.0721933063797133   0.05036189262508479
-0.6972892484738256   0.0721933063797133   0.05036189262508479
-0.6972892484738256   0.0721933063797133   0.05036189262508479
-0.6972892484738256   0.0721933063797133   0.05036189262508479
-0.9226559512309354   -0.06572866816406459   -0.04838819676285248
-0.9226559512309354   -0.06572866816406459   -0.04838819676285248
-0.9226559512309354   -0.06572866816406459   -0.04838819676285248
-0.9226559512309354   -0.06572866816406459   -0.04838819676285248
-0.9152966947741561   0.02056643467510058   0.06064534220500175
-0.9152966947741561   0.02056643467510058   0.06064534220500175
-0.9152966947741561   0.02056643467510058   0.06064534220500175
-0.9152966947741561   0.02056643467510058   0.06064534220500175
-0.748746583778524   -0.03764187853912726   -0.02990194259639776
-0.748746583778524   -0.03764187853912726   -0.02990194259639776
-0.748746583778524   -0.03764187853912726   -0.02990194259639776
-0.748746583778524   -0.03764187853912726   -0.02990194259639776
-0.8022069313456762   0.003528978690369833   -0.0010899420789121442
-0.8022069313456762   0.003528978690369833   -0.0010899420789121442
-0.8022069313456762   0.003528978690369833   -0.0010899420789121442
-0.8022069313456762   0.003528978690369833   -0.0010899420789121442
-0.7108771888975033   0.06140158171946053   0.060401571550117945
-0.7108771888975033   0.06140158171946053   0.060401571550117945
-0.7108771888975033   0.06140158171946053   0.060401571550117945
-0.7108771888975033   0.06140158171946053   0.060401571550117945
-0.9559623319181367   -0.08127326784643693   -0.04084314099336397
-0.9559623319181367   -0.08127326784643693   -0.04084314099336397
-0.9559623319181367   -0.08127326784643693   -0.04084314099336397
-0.9559623319181367   -0.08127326784643693   -0.04084314099336397
-0.9622196956313226   -0.015489496260684688   0.06413648636194019
-0.9622196956313226   -0.015489496260684688   0.06413648636194019
-0.9622196956313226   -0.015489496260684688   0.06413648636194019
-0.9622196956313226   -0.015489496260684688   0.06413648636194019
-0.7639141665821814   -0.06366425969800318   -0.025829226060003437
-0.7639141665821814   -0.06366425969800318   -0.025829226060003437
-0.7639141665821814   -0.06366425969800318   -0.025829226060003437
-0.7639141665821814   -0.06366425969800318   -0.025829226060003437
-0.816738523951856   -0.01298182154210939   -0.012331656719977727
-0.816738523951856   -0.01298182154210939   -0.012331656719977727
-0.816738523951856   -0.01298182154210939   -0.012331656719977727
-0.816738523951856   -0.01298182154210939   -0.012331656719977727
-0.37792877792377505   -0.024697725260540815   -0.07051647763762135
-0.37792877792377505   -0.024697725260540815   -0.07051647763762135
-0.37792877792377505   -0.024697725260540815   -0.07051647763762135
-0.37792877792377505   -0.024697725260540815   -0.07051647763762135
-0.37285354926896375   0.05408514771793188   0.0317425527006968
-0.37285354926896375   0.05408514771793188   0.0317425527006968
-0.37285354926896375   0.05408514771793188   0.0317425527006968
-0.37285354926896375   0.05408514771793188   0.0317425527006968
-0.4193403077619751   -0.04929768952637891   -0.0477727563307972
-0.4193403077619751   -0.04929768952637891   -0.0477727563307972
-0.4193403077619751   -0.04929768952637891   -0.0477727563307972
-0.4193403077619751   -0.04929768952637891   -0.0477727563307972
-0.38565957339572243   0.028062005014517097   0.0477504306315829
-0.38565957339572243   0.028062005014517097   0.0477504306315829
-0.38565957339572243   0.028062005014517097   0.0477504306315829
-0.38565957339572243   0.028062005014517097   0.0477504306315829
-0.3694274144371356   0.009064271516094902   0.03238291592043285
-0.3694274144371356   0.009064271516094902   0.03238291592043285
-0.3694274144371356   0.009064271516094902   0.03238291592043285
-0.3694274144371356   0.009064271516094902   0.03238291592043285
-0.4230966245340833   -0.05230747135315645   -0.05906534869254604
-0.4230966245340833   -0.05230747135315645   -0.05906534869254604
-0.4230966245340833   -0.05230747135315645   -0.05906534869254604
-0.4230966245340833   -0.05230747135315645   -0.05906534869254604
-0.38656669776978053   0.026408345695123556   0.04038925840867331
-0.38656669776978053   0.026408345695123556   0.04038925840867331
-0.38656669776978053   0.026408345695123556   0.04038925840867331
-0.38656669776978053   0.026408345695123556   0.04038925840867331
-0.43329838572265056   -0.0621344658665636   -0.040410299261652696
-0.43329838572265056   -0.0621344658665636   -0.040410299261652696
-0.43329838572265056   -0.0621344658665636   -0.040410299261652696
-0.43329838572265056   -0.0621344658665636   -0.040410299261652696
-0.4217238531547717   0.010573320673237657   0.08870902973697248
-0.4217238531547717   0.010573320673237657   0.08870902973697248
-0.4217238531547717   0.010573320673237657   0.08870902973697248
-0.4217238531547717   0.010573320673237657   0.08870902973697248
-0.40270601267654593   -0.012994867210914668   0.012921174464053456
-0.40270601267654593   -0.012994867210914668   0.012921174464053456
-0.40270601267654593   -0.012994867210914668   0.012921174464053456
-0.40270601267654593   -0.012994867210914668   0.012921174464053456
-0.4646869033411539   -0.06953057470189429   -0.04600232581980283
-0.4646869033411539   -0.06953057470189429   -0.04600232581980283
-0.4646869033411539   -0.06953057470189429   -0.04600232581980283
-0.4646869033411539   -0.06953057470189429   -0.04600232581980283
-0.40135414342743847   0.006950621617398872   0.05022582473044536
-0.40135414342743847   0.006950621617398872   0.05022582473044536
-0.40135414342743847   0.006950621617398872   0.05022582473044536
-0.40135414342743847   0.006950621617398872   0.05022582473044536
-0.4447191475322159   -0.08715249250408814   -0.031785093848068824
-0.4447191475322159   -0.08715249250408814   -0.031785093848068824
-0.4447191475322159   -0.08715249250408814   -0.031785093848068824
-0.4447191475322159   -0.08715249250408814   -0.031785093848068824
-0.4777969510979732   -0.04721955308079792   0.08302799286179516
-0.4777969510979732   -0.04721955308079792   0.08302799286179516
-0.4777969510979732   -0.04721955308079792   0.08302799286179516
-0.4777969510979732   -0.04721955308079792   0.08302799286179516
-0.43146835245229237   -0.03907956005980144   -0.017882086264978003
-0.43146835245229237   -0.03907956005980144   -0.017882086264978003
-0.43146835245229237   -0.03907956005980144   -0.017882086264978003
-0.43146835245229237   -0.03907956005980144   -0.017882086264978003
-0.3996631480893424   -0.011868755993561686   -0.03635153768970721
-0.3996631480893424   -0.011868755993561686   -0.03635153768970721
-0.3996631480893424   -0.011868755993561686   -0.03635153768970721
-0.3996631480893424   -0.011868755993561686   -0.03635153768970721
-0.40418239153616564   -0.04962298056678197   -0.002108987964808932
-0.40418239153616564   -0.04962298056678197   -0.002108987964808932
-0.40418239153616564   -0.04962298056678197   -0.002108987964808932
-0.40418239153616564   -0.04962298056678197   -0.002108987964808932
-0.4070511043589981   -0.03301203241156349   -0.018082969596778718
-0.4070511043589981   -0.03301203241156349   -0.018082969596778718
-0.4070511043589981   -0.03301203241156349   -0.018082969596778718
-0.4070511043589981   -0.03301203241156349   -0.018082969596778718
-0.4136054556864285   -0.06764277279421696   -0.0007534126852259265
-0.4136054556864285   -0.06764277279421696   -0.0007534126852259265
-0.4136054556864285   -0.06764277279421696   -0.0007534126852259265
-0.4136054556864285   -0.06764277279421696   -0.0007534126852259265
-0.40266954078928285   -0.04229503352049114   -0.0014987622068918117
-0.40266954078928285   -0.04229503352049114   -0.0014987622068918117
-0.40266954078928285   -0.04229503352049114   -0.0014987622068918117
-0.40266954078928285   -0.04229503352049114   -0.0014987622068918117
-0.41361495025732664   -0.03699744944888385   -0.031446208885051966
-0.41361495025732664   -0.03699744944888385   -0.031446208885051966
-0.41361495025732664   -0.03699744944888385   -0.031446208885051966
-0.41361495025732664   -0.03699744944888385   -0.031446208885051966
-0.4096363138900757   -0.06625205985887392   0.0022310101951364125
-0.4096363138900757   -0.06625205985887392   0.0022310101951364125
-0.4096363138900757   -0.06625205985887392   0.0022310101951364125
-0.4096363138900757   -0.06625205985887392   0.0022310101951364125
-0.41381320274939004   -0.05463210160433276   -0.011647200240104271
-0.41381320274939004   -0.05463210160433276   -0.011647200240104271
-0.41381320274939004   -0.05463210160433276   -0.011647200240104271
-0.41381320274939004   -0.05463210160433276   -0.011647200240104271
-0.4284964458669146   -0.08771392124979846   0.009178855400262097
-0.4284964458669146   -0.08771392124979846   0.009178855400262097
-0.4284964458669146   -0.08771392124979846   0.009178855400262097
-0.4284964458669146   -0.08771392124979846   0.009178855400262097
-0.41184548328941867   -0.059749417959203334   -0.011495294978221769
-0.41184548328941867   -0.059749417959203334   -0.011495294978221769
-0.41184548328941867   -0.059749417959203334   -0.011495294978221769
-0.41184548328941867   -0.059749417959203334   -0.011495294978221769
-0.42947458823202145   -0.06010007848988205   -0.02332569918518861
-0.42947458823202145   -0.06010007848988205   -0.02332569918518861
-0.42947458823202145   -0.06010007848988205   -0.02332569918518861
-0.42947458823202145   -0.06010007848988205   -0.02332569918518861
-0.41615433534374857   -0.08556521932372026   0.0075802545074870435
-0.41615433534374857   -0.08556521932372026   0.0075802545074870435
-0.41615433534374857   -0.08556521932372026   0.0075802545074870435
-0.41615433534374857   -0.08556521932372026   0.0075802545074870435
-0.4198744409043465   -0.07795199048959686   -0.00527175360550957
-0.4198744409043465   -0.07795199048959686   -0.00527175360550957
-0.4198744409043465   -0.07795199048959686   -0.00527175360550957
-0.4198744409043465   -0.07795199048959686   -0.00527175360550957
-0.43988229441612   -0.11323615915075674   0.01848283837907793
-0.43988229441612   -0.11323615915075674   0.01848283837907793
-0.43988229441612   -0.11323615915075674   0.01848283837907793
-0.43988229441612   -0.11323615915075674   0.01848283837907793
-0.4245015367928057   -0.08086511262188473   -0.024224339538471248
-0.4245015367928057   -0.08086511262188473   -0.024224339538471248
-0.4245015367928057   -0.08086511262188473   -0.024224339538471248
-0.4245015367928057   -0.08086511262188473   -0.024224339538471248
-0.3931289792074262   0.010192692663554562   -0.006657599551440716
-0.3931289792074262   0.010192692663554562   -0.006657599551440716
-0.3931289792074262   0.010192692663554562   -0.006657599551440716
-0.3931289792074262   0.010192692663554562   -0.006657599551440716
-0.4440271149836117   -0.084288520764471   -0.02126202572144275
-0.4440271149836117   -0.084288520764471   -0.02126202572144275
-0.4440271149836117   -0.084288520764471   -0.02126202572144275
-0.4440271149836117   -0.084288520764471   -0.02126202572144275
-0.42583020898487134   -0.015519516971658473   0.005647010309185487
-0.42583020898487134   -0.015519516971658473   0.005647010309185487
-0.42583020898487134   -0.015519516971658473   0.005647010309185487
-0.42583020898487134   -0.015519516971658473   0.005647010309185487
-0.41772212659420715   -0.09129814526777834   -0.013151967916616464
-0.41772212659420715   -0.09129814526777834   -0.013151967916616464
-0.41772212659420715   -0.09129814526777834   -0.013151967916616464
-0.41772212659420715   -0.09129814526777834   -0.013151967916616464
-0.41988400896141626   -0.046658227595051   -0.009541775249285516
-0.41988400896141626   -0.046658227595051   -0.009541775249285516
-0.41988400896141626   -0.046658227595051   -0.009541775249285516
-0.41988400896141626   -0.046658227595051   -0.009541775249285516
-0.39910262012088715   -0.011311597853548072   -4.0982964246750325e-05
-0.39910262012088715   -0.011311597853548072   -4.0982964246750325e-05
-0.39910262012088715   -0.011311597853548072   -4.0982964246750325e-05
-0.39910262012088715   -0.011311597853548072   -4.0982964246750325e-05
-0.4468040707453135   -0.09786041967301085   -0.016881395791672665
-0.4468040707453135   -0.09786041967301085   -0.016881395791672665
-0.4468040707453135   -0.09786041967301085   -0.016881395791672665
-0.4468040707453135   -0.09786041967301085   -0.016881395791672665
-0.430671986119125   -0.037198089657165805   0.012040487417573966
-0.430671986119125   -0.037198089657165805   0.012040487417573966
-0.430671986119125   -0.037198089657165805   0.012040487417573966
-0.430671986119125   -0.037198089657165805   0.012040487417573966
-0.42405071801430444   -0.10838784959256523   -0.009079028576447766
-0.42405071801430444   -0.10838784959256523   -0.009079028576447766
-0.42405071801430444   -0.10838784959256523   -0.009079028576447766
-0.42405071801430444   -0.10838784959256523   -0.009079028576447766
-0.4250330695891281   -0.06317740748993056   -0.018113262870623488
-0.4250330695891281   -0.06317740748993056   -0.018113262870623488
-0.4250330695891281   -0.06317740748993056   -0.018113262870623488
-0.4250330695891281   -0.06317740748993056   -0.018113262870623488
-0.40594656299044085   -0.033375269270734954   0.006429166221044046
-0.40594656299044085   -0.033375269270734954   0.006429166221044046
-0.40594656299044085   -0.033375269270734954   0.006429166221044046
-0.40594656299044085   -0.033375269270734954   0.006429166221044046
-0.4514060404606926   -0.11484056929670196   -0.013987304650727912
-0.4514060404606926   -0.11484056929670196   -0.013987304650727912
-0.4514060404606926   -0.11484056929670196   -0.013987304650727912
-0.4514060404606926   -0.11484056929670196   -0.013987304650727912
-0.43460331726062806   -0.05759109049186088   0.018291222400186425
-0.43460331726062806   -0.05759109049186088   0.018291222400186425
-0.43460331726062806   -0.05759109049186088   0.018291222400186425
-0.43460331726062806   -0.05759109049186088   0.018291222400186425
-0.4287460084977409   -0.12479712150292949   -0.0027844605591531586
-0.4287460084977409   -0.12479712150292949   -0.0027844605591531586
-0.4287460084977409   -0.12479712150292949   -0.0027844605591531586
-0.4287460084977409   -0.12479712150292949   -0.0027844605591531586
-0.4311777842135994   -0.08045670233789594   -0.027531883536975003
-0.4311777842135994   -0.08045670233789594   -0.027531883536975003
-0.4311777842135994   -0.08045670233789594   -0.027531883536975003
-0.4311777842135994   -0.08045670233789594   -0.027531883536975003
-0.41000016201606904   0.04388941271210184   0.02069480563969782
-0.41000016201606904   0.04388941271210184   0.02069480563969782
-0.41000016201606904   0.04388941271210184   0.02069480563969782
-0.41000016201606904   0.04388941271210184   0.02069480563969782
-0.48394348359308464   -0.06278701178765214   -0.02960022491789662
-0.48394348359308464   -0.06278701178765214   -0.02960022491789662
-0.48394348359308464   -0.06278701178765214   -0.02960022491789662
-0.48394348359308464   -0.06278701178765214   -0.02960022491789662
-0.45775183996558205   0.013178933734374967   0.02870609918654576
-0.45775183996558205   0.013178933734374967   0.02870609918654576
-0.45775183996558205   0.013178933734374967   0.02870609918654576
-0.45775183996558205   0.013178933734374967   0.02870609918654576
-0.44149765012211645   -0.0702594031270407   -0.017950309221657818
-0.44149765012211645   -0.0702594031270407   -0.017950309221657818
-0.44149765012211645   -0.0702594031270407   -0.017950309221657818
-0.44149765012211645   -0.0702594031270407   -0.017950309221657818
-0.4482707922156214   -0.018520010803830506   -0.005699514511649354
-0.4482707922156214   -0.018520010803830506   -0.005699514511649354
-0.4482707922156214   -0.018520010803830506   -0.005699514511649354
-0.4482707922156214   -0.018520010803830506   -0.005699514511649354
-0.4141167350406924   0.021586422911440042   0.02710844014698145
-0.4141167350406924   0.021586422911440042   0.02710844014698145
-0.4141167350406924   0.021586422911440042   0.02710844014698145
-0.4141167350406924   0.021586422911440042   0.02710844014698145
-0.4882572430437796   -0.08179138030088182   -0.028850602169184926
-0.4882572430437796   -0.08179138030088182   -0.028850602169184926
-0.4882572430437796   -0.08179138030088182   -0.028850602169184926
-0.4882572430437796   -0.08179138030088182   -0.028850602169184926
-0.4661882195018849   -0.007979270182410805   0.03254225193027355
-0.4661882195018849   -0.007979270182410805   0.03254225193027355
-0.4661882195018849   -0.007979270182410805   0.03254225193027355
-0.4661882195018849   -0.007979270182410805   0.03254225193027355
-0.44570447420415926   -0.08602554176326949   -0.014294500901493555
-0.44570447420415926   -0.08602554176326949   -0.014294500901493555
-0.44570447420415926   -0.08602554176326949   -0.014294500901493555
-0.44570447420415926   -0.08602554176326949   -0.014294500901493555
-0.45250353420350636   -0.03642015619995834   -0.015750170382642495
-0.45250353420350636   -0.03642015619995834   -0.015750170382642495
-0.45250353420350636   -0.03642015619995834   -0.015750170382642495
-0.45250353420350636   -0.03642015619995834   -0.015750170382642495
-0.41863384316728647   0.0016914810019786203   0.03334163151762225
-0.41863384316728647   0.0016914810019786203   0.03334163151762225
-0.41863384316728647   0.0016914810019786203   0.03334163151762225
-0.41863384316728647   0.0016914810019786203   0.03334163151762225
-0.4959667553137378   -0.09840419772263903   -0.02592549958876273
-0.4959667553137378   -0.09840419772263903   -0.02592549958876273
-0.4959667553137378   -0.09840419772263903   -0.02592549958876273
-0.4959667553137378   -0.09840419772263903   -0.02592549958876273
-0.47175441096485843   -0.028268424423449318   0.03968189211837212
-0.47175441096485843   -0.028268424423449318   0.03968189211837212
-0.47175441096485843   -0.028268424423449318   0.03968189211837212
-0.47175441096485843   -0.028268424423449318   0.03968189211837212
-0.44930968298473956   -0.10185981451337511   -0.010971882198871933
-0.44930968298473956   -0.10185981451337511   -0.010971882198871933
-0.44930968298473956   -0.10185981451337511   -0.010971882198871933
-0.44930968298473956   -0.10185981451337511   -0.010971882198871933
-0.45994253062369567   -0.05328167863763147   -0.025484502749179003
-0.45994253062369567   -0.05328167863763147   -0.025484502749179003
-0.45994253062369567   -0.05328167863763147   -0.025484502749179003
-0.45994253062369567   -0.05328167863763147   -0.025484502749179003
-0.4446148112983859   0.06296533882902272   0.04129078593891453
-0.4446148112983859   0.06296533882902272   0.04129078593891453
-0.4446148112983859   0.06296533882902272   0.04129078593891453
-0.4446148112983859   0.06296533882902272   0.04129078593891453
-0.47443275176323574   -0.037840089196156695   -0.04291975980199936
-0.47443275176323574   -0.037840089196156695   -0.04291975980199936
-0.47443275176323574   -0.037840089196156695   -0.04291975980199936
-0.47443275176323574   -0.037840089196156695   -0.04291975980199936
-0.4636788819061954   0.044920832880823464   0.045882239136847934
-0.4636788819061954   0.044920832880823464   0.045882239136847934
-0.4636788819061954   0.044920832880823464   0.045882239136847934
-0.4636788819061954   0.044920832880823464   0.045882239136847934
-0.48112853716180864   -0.0487655164884238   -0.026232936571795942
-0.48112853716180864   -0.0487655164884238   -0.026232936571795942
-0.48112853716180864   -0.0487655164884238   -0.026232936571795942
-0.48112853716180864   -0.0487655164884238   -0.026232936571795942
-0.450143231036733   0.011296450403633695   0.0016874544605408742
-0.450143231036733   0.011296450403633695   0.0016874544605408742
-0.450143231036733   0.011296450403633695   0.0016874544605408742
-0.450143231036733   0.011296450403633695   0.0016874544605408742
-0.44684985413812206   0.048657652515593924   0.04773730954262686
-0.44684985413812206   0.048657652515593924   0.04773730954262686
-0.44684985413812206   0.048657652515593924   0.04773730954262686
-0.44684985413812206   0.048657652515593924   0.04773730954262686
-0.5004991581034456   -0.05504392929675652   -0.03825437967182274
-0.5004991581034456   -0.05504392929675652   -0.03825437967182274
-0.5004991581034456   -0.05504392929675652   -0.03825437967182274
-0.5004991581034456   -0.05504392929675652   -0.03825437967182274
-0.48410313836055247   0.033084186408910365   0.0590849367258189
-0.48410313836055247   0.033084186408910365   0.0590849367258189
-0.48410313836055247   0.033084186408910365   0.0590849367258189
-0.48410313836055247   0.033084186408910365   0.0590849367258189
-0.4874981014413381   -0.05803827513407527   -0.023948152815335313
-0.4874981014413381   -0.05803827513407527   -0.023948152815335313
-0.4874981014413381   -0.05803827513407527   -0.023948152815335313
-0.4874981014413381   -0.05803827513407527   -0.023948152815335313
-0.47213381611702027   -0.003051697954897681   -0.010155159939634506
-0.47213381611702027   -0.003051697954897681   -0.010155159939634506
-0.47213381611702027   -0.003051697954897681   -0.010155159939634506
-0.47213381611702027   -0.003051697954897681   -0.010155159939634506
-0.4518413826316464   0.039149152857786224   0.05714801324126143
-0.4518413826316464   0.039149152857786224   0.05714801324126143
-0.4518413826316464   0.039149152857786224   0.05714801324126143
-0.4518413826316464   0.039149152857786224   0.05714801324126143
-0.5230764037547717   -0.06741978816746849   -0.035277415668883115
-0.5230764037547717   -0.06741978816746849   -0.035277415668883115
-0.5230764037547717   -0.06741978816746849   -0.035277415668883115
-0.5230764037547717   -0.06741978816746849   -0.035277415668883115
-0.520195000311875   0.002873348486972793   0.06313964859457014
-0.520195000311875   0.002873348486972793   0.06313964859457014
-0.520195000311875   0.002873348486972793   0.06313964859457014
-0.520195000311875   0.002873348486972793   0.06313964859457014
-0.4933038161655554   -0.07551790507830985   -0.02081565323026062
-0.4933038161655554   -0.07551790507830985   -0.02081565323026062
-0.4933038161655554   -0.07551790507830985   -0.02081565323026062
-0.4933038161655554   -0.07551790507830985   -0.02081565323026062
-0.4825662435193021   -0.016242705350702324   -0.020849630751399825
-0.4825662435193021   -0.016242705350702324   -0.020849630751399825
-0.4825662435193021   -0.016242705350702324   -0.020849630751399825
-0.4825662435193021   -0.016242705350702324   -0.020849630751399825
-0.9594384275643429   -0.0876082153357211   -0.09013938427218893
-0.9594384275643429   -0.0876082153357211   -0.09013938427218893
-0.9594384275643429   -0.0876082153357211   -0.09013938427218893
-0.9594384275643429   -0.0876082153357211   -0.09013938427218893
-0.607777675579516   0.052211043182883   0.021276627738603567
-0.607777675579516   0.052211043182883   0.021276627738603567
-0.607777675579516   0.052211043182883   0.021276627738603567
-0.607777675579516   0.052211043182883   0.021276627738603567
-0.638115686928715   -0.04000487988892287   -0.040127880352624413
-0.638115686928715   -0.04000487988892287   -0.040127880352624413
-0.638115686928715   -0.04000487988892287   -0.040127880352624413
-0.638115686928715   -0.04000487988892287   -0.040127880352624413
-1.0195848450065812   -0.1143576886193361   0.10121854031330242
-1.0195848450065812   -0.1143576886193361   0.10121854031330242
-1.0195848450065812   -0.1143576886193361   0.10121854031330242
-1.0195848450065812   -0.1143576886193361   0.10121854031330242
-0.7412825609442754   -0.028045161273492145   0.09805884778816425
-0.7412825609442754   -0.028045161273492145   0.09805884778816425
-0.7412825609442754   -0.028045161273492145   0.09805884778816425
-0.7412825609442754   -0.028045161273492145   0.09805884778816425
-1.055901414328022   -0.12873404023408794   -0.06598795467914262
-1.055901414328022   -0.12873404023408794   -0.06598795467914262
-1.055901414328022   -0.12873404023408794   -0.06598795467914262
-1.055901414328022   -0.12873404023408794   -0.06598795467914262
-0.6273271822315579   -0.05115659289845362   0.024966356142691618
-0.6273271822315579   -0.05115659289845362   0.024966356142691618
-0.6273271822315579   -0.05115659289845362   0.024966356142691618
-0.6273271822315579   -0.05115659289845362   0.024966356142691618
-0.6477234675738194   -0.05811787614187311   -0.028747339919533585
-0.6477234675738194   -0.05811787614187311   -0.028747339919533585
-0.6477234675738194   -0.05811787614187311   -0.028747339919533585
-0.6477234675738194   -0.05811787614187311   -0.028747339919533585
-1.051776378239124   -0.15985898236355042   0.0026386615293910783
-1.051776378239124   -0.15985898236355042   0.0026386615293910783
-1.051776378239124   -0.15985898236355042   0.0026386615293910783
-1.051776378239124   -0.15985898236355042   0.0026386615293910783
-0.8203629327177014   -0.09646444801517509   0.0226083997614342
-0.8203629327177014   -0.09646444801517509   0.0226083997614342
-0.8203629327177014   -0.09646444801517509   0.0226083997614342
-0.8203629327177014   -0.09646444801517509   0.0226083997614342
-1.0600337992318964   -0.14544329970765393   -0.053064126090360514
-1.0600337992318964   -0.14544329970765393   -0.053064126090360514
-1.0600337992318964   -0.14544329970765393   -0.053064126090360514
-1.0600337992318964   -0.14544329970765393   -0.053064126090360514
-0.6472175314369774   -0.08028504365369957   -0.004050491723501299
-0.6472175314369774   -0.08028504365369957   -0.004050491723501299
-0.6472175314369774   -0.08028504365369957   -0.004050491723501299
-0.6472175314369774   -0.08028504365369957   -0.004050491723501299
-0.6479887883267599   -0.10204350501405623   -0.020899929575709734
-0.6479887883267599   -0.10204350501405623   -0.020899929575709734
-0.6479887883267599   -0.10204350501405623   -0.020899929575709734
-0.6479887883267599   -0.10204350501405623   -0.020899929575709734
-1.0766270454365328   -0.24425053022787932   0.016232448132239737
-1.0766270454365328   -0.24425053022787932   0.016232448132239737
-1.0766270454365328   -0.24425053022787932   0.016232448132239737
-1.0766270454365328   -0.24425053022787932   0.016232448132239737
-0.819270052556949   -0.13264706681600555   0.0016377792927448499
-0.819270052556949   -0.13264706681600555   0.0016377792927448499
-0.819270052556949   -0.13264706681600555   0.0016377792927448499
-0.819270052556949   -0.13264706681600555   0.0016377792927448499
-0.656324808530817   -0.11123272094979428   -0.058015272885218946
-0.656324808530817   -0.11123272094979428   -0.058015272885218946
-0.656324808530817   -0.11123272094979428   -0.058015272885218946
-0.656324808530817   -0.11123272094979428   -0.058015272885218946
-0.4502906820855891   -0.29028941067415776   -0.05445918211986375
-0.4502906820855891   -0.29028941067415776   -0.05445918211986375
-0.4502906820855891   -0.29028941067415776   -0.05445918211986375
-0.4502906820855891   -0.29028941067415776   -0.05445918211986375
-0.3955574276749446   -0.06455662965699652   -0.003370725010607603
-0.3955574276749446   -0.06455662965699652   -0.003370725010607603
-0.3955574276749446   -0.06455662965699652   -0.003370725010607603
-0.3955574276749446   -0.06455662965699652   -0.003370725010607603
-0.6974535834652854   -0.30810123370772713   -0.06872100921667235
-0.6974535834652854   -0.30810123370772713   -0.06872100921667235
-0.6974535834652854   -0.30810123370772713   -0.06872100921667235
-0.6974535834652854   -0.30810123370772713   -0.06872100921667235
-0.5435100671372141   -0.2054602463323859   -0.01582380592253287
-0.5435100671372141   -0.2054602463323859   -0.01582380592253287
-0.5435100671372141   -0.2054602463323859   -0.01582380592253287
-0.5435100671372141   -0.2054602463323859   -0.01582380592253287
-0.6557518360605291   -0.12465338959342925   -0.04366011630718676
-0.6557518360605291   -0.12465338959342925   -0.04366011630718676
-0.6557518360605291   -0.12465338959342925   -0.04366011630718676
-0.6557518360605291   -0.12465338959342925   -0.04366011630718676
-0.43992125329649095   -0.2506665519880848   -0.039079930787254996
-0.43992125329649095   -0.2506665519880848   -0.039079930787254996
-0.43992125329649095   -0.2506665519880848   -0.039079930787254996
-0.43992125329649095   -0.2506665519880848   -0.039079930787254996
-0.3998687645543071   -0.08368455172970461   0.0006980216881238388
-0.3998687645543071   -0.08368455172970461   0.0006980216881238388
-0.3998687645543071   -0.08368455172970461   0.0006980216881238388
-0.3998687645543071   -0.08368455172970461   0.0006980216881238388
-0.6997704881377949   -0.30650777701868614   -0.04059254186260228
-0.6997704881377949   -0.30650777701868614   -0.04059254186260228
-0.6997704881377949   -0.30650777701868614   -0.04059254186260228
-0.6997704881377949   -0.30650777701868614   -0.04059254186260228
-0.5373467543616443   -0.1925938262310296   -0.01680960013737061
-0.5373467543616443   -0.1925938262310296   -0.01680960013737061
-0.5373467543616443   -0.1925938262310296   -0.01680960013737061
-0.5373467543616443   -0.1925938262310296   -0.01680960013737061
-0.6655959920861574   -0.14351264108193235   -0.032715197541164455
-0.6655959920861574   -0.14351264108193235   -0.032715197541164455
-0.6655959920861574   -0.14351264108193235   -0.032715197541164455
-0.6655959920861574   -0.14351264108193235   -0.032715197541164455
-0.4395405807479178   -0.2521770078084323   -0.0291686032012098
-0.4395405807479178   -0.2521770078084323   -0.0291686032012098
-0.4395405807479178   -0.2521770078084323   -0.0291686032012098
-0.4395405807479178   -0.2521770078084323   -0.0291686032012098
-0.3994969942473907   -0.10755282653596451   0.006514201284309884
-0.3994969942473907   -0.10755282653596451   0.006514201284309884
-0.3994969942473907   -0.10755282653596451   0.006514201284309884
-0.3994969942473907   -0.10755282653596451   0.006514201284309884
-0.6978285673141634   -0.31168886613216124   -0.060453463394630855
-0.6978285673141634   -0.31168886613216124   -0.060453463394630855
-0.6978285673141634   -0.31168886613216124   -0.060453463394630855
-0.6978285673141634   -0.31168886613216124   -0.060453463394630855
-0.5452405919608245   -0.20720262253593374   -0.031205303173740772
-0.5452405919608245   -0.20720262253593374   -0.031205303173740772
-0.5452405919608245   -0.20720262253593374   -0.031205303173740772
-0.5452405919608245   -0.20720262253593374   -0.031205303173740772
-0.3966506834096718   -0.07155879099023457   -0.0049898084242005
-0.3966506834096718   -0.07155879099023457   -0.0049898084242005
-0.3966506834096718   -0.07155879099023457   -0.0049898084242005
-0.3966506834096718   -0.07155879099023457   -0.0049898084242005
-0.3319888633113137   -0.22195369259813066   -0.03831724109842718
-0.3319888633113137   -0.22195369259813066   -0.03831724109842718
-0.3319888633113137   -0.22195369259813066   -0.03831724109842718
-0.3319888633113137   -0.22195369259813066   -0.03831724109842718
-0.2860684845930407   -0.05927035664823819   0.015333333179917835
-0.2860684845930407   -0.05927035664823819   0.015333333179917835
-0.2860684845930407   -0.05927035664823819   0.015333333179917835
-0.2860684845930407   -0.05927035664823819   0.015333333179917835
-0.43874385319873577   -0.24147295673241836   -0.042386525554145446
-0.43874385319873577   -0.24147295673241836   -0.042386525554145446
-0.43874385319873577   -0.24147295673241836   -0.042386525554145446
-0.43874385319873577   -0.24147295673241836   -0.042386525554145446
-0.3617520544464789   -0.15066585841552754   -0.01769203739810776
-0.3617520544464789   -0.15066585841552754   -0.01769203739810776
-0.3617520544464789   -0.15066585841552754   -0.01769203739810776
-0.3617520544464789   -0.15066585841552754   -0.01769203739810776
-0.398778463440661   -0.08473793812748648   0.0007054046312966881
-0.398778463440661   -0.08473793812748648   0.0007054046312966881
-0.398778463440661   -0.08473793812748648   0.0007054046312966881
-0.398778463440661   -0.08473793812748648   0.0007054046312966881
-0.32838744841964845   -0.21835894932170175   -0.037172893279649635
-0.32838744841964845   -0.21835894932170175   -0.037172893279649635
-0.32838744841964845   -0.21835894932170175   -0.037172893279649635
-0.32838744841964845   -0.21835894932170175   -0.037172893279649635
-0.28597900576261853   -0.07498600124900498   0.019858500889667577
-0.28597900576261853   -0.07498600124900498   0.019858500889667577
-0.28597900576261853   -0.07498600124900498   0.019858500889667577
-0.28597900576261853   -0.07498600124900498   0.019858500889667577
-0.43993410768259117   -0.24530337868012553   -0.03800986700288328
-0.43993410768259117   -0.24530337868012553   -0.03800986700288328
-0.43993410768259117   -0.24530337868012553   -0.03800986700288328
-0.43993410768259117   -0.24530337868012553   -0.03800986700288328
-0.36094239062149314   -0.15660239854231428   -0.02295384598182421
-0.36094239062149314   -0.15660239854231428   -0.02295384598182421
-0.36094239062149314   -0.15660239854231428   -0.02295384598182421
-0.36094239062149314   -0.15660239854231428   -0.02295384598182421
-0.4019232136159429   -0.10066524838963328   0.007406473039865714
-0.4019232136159429   -0.10066524838963328   0.007406473039865714
-0.4019232136159429   -0.10066524838963328   0.007406473039865714
-0.4019232136159429   -0.10066524838963328   0.007406473039865714
-0.32528142839824437   -0.22091566010847868   -0.03072395342898794
-0.32528142839824437   -0.22091566010847868   -0.03072395342898794
-0.32528142839824437   -0.22091566010847868   -0.03072395342898794
-0.32528142839824437   -0.22091566010847868   -0.03072395342898794
-0.2823950729311821   -0.09001400180717421   0.02478020235307974
-0.2823950729311821   -0.09001400180717421   0.02478020235307974
-0.2823950729311821   -0.09001400180717421   0.02478020235307974
-0.2823950729311821   -0.09001400180717421   0.02478020235307974
-0.43446648345300193   -0.24847307424930865   -0.02741299703040203
-0.43446648345300193   -0.24847307424930865   -0.02741299703040203
-0.43446648345300193   -0.24847307424930865   -0.02741299703040203
-0.43446648345300193   -0.24847307424930865   -0.02741299703040203
-0.35964899961914853   -0.16439265735917416   -0.02657797096888473
-0.35964899961914853   -0.16439265735917416   -0.02657797096888473
-0.35964899961914853   -0.16439265735917416   -0.02657797096888473
-0.35964899961914853   -0.16439265735917416   -0.02657797096888473
-0.2765044097070235   -0.009957404301569543   0.02710873862645518
-0.2765044097070235   -0.009957404301569543   0.02710873862645518
-0.2765044097070235   -0.009957404301569543   0.02710873862645518
-0.2765044097070235   -0.009957404301569543   0.02710873862645518
-0.26071148910125624   -0.11733945944193248   -0.022870243222849383
-0.26071148910125624   -0.11733945944193248   -0.022870243222849383
-0.26071148910125624   -0.11733945944193248   -0.022870243222849383
-0.26071148910125624   -0.11733945944193248   -0.022870243222849383
-0.2246139548433847   -0.017008318321925054   0.03142141952518861
-0.2246139548433847   -0.017008318321925054   0.03142141952518861
-0.2246139548433847   -0.017008318321925054   0.03142141952518861
-0.2246139548433847   -0.017008318321925054   0.03142141952518861
-0.30768788263965063   -0.13580642271408477   -0.01622759098728563
-0.30768788263965063   -0.13580642271408477   -0.01622759098728563
-0.30768788263965063   -0.13580642271408477   -0.01622759098728563
-0.30768788263965063   -0.13580642271408477   -0.01622759098728563
-0.2682778303639978   -0.06939307954268398   -0.00958786713545077
-0.2682778303639978   -0.06939307954268398   -0.00958786713545077
-0.2682778303639978   -0.06939307954268398   -0.00958786713545077
-0.2682778303639978   -0.06939307954268398   -0.00958786713545077
-0.27651184126772227   -0.0274191174001466   0.03126531055841843
-0.27651184126772227   -0.0274191174001466   0.03126531055841843
-0.27651184126772227   -0.0274191174001466   0.03126531055841843
-0.27651184126772227   -0.0274191174001466   0.03126531055841843
-0.25828579741703533   -0.12789142483758545   -0.026054686827404312
-0.25828579741703533   -0.12789142483758545   -0.026054686827404312
-0.25828579741703533   -0.12789142483758545   -0.026054686827404312
-0.25828579741703533   -0.12789142483758545   -0.026054686827404312
-0.2247572428614924   -0.032224646384317254   0.033762744650585416
-0.2247572428614924   -0.032224646384317254   0.033762744650585416
-0.2247572428614924   -0.032224646384317254   0.033762744650585416
-0.2247572428614924   -0.032224646384317254   0.033762744650585416
-0.30739114738580253   -0.14407197105560393   -0.018116237419660994
-0.30739114738580253   -0.14407197105560393   -0.018116237419660994
-0.30739114738580253   -0.14407197105560393   -0.018116237419660994
-0.30739114738580253   -0.14407197105560393   -0.018116237419660994
-0.26693504903371784   -0.08162765677234851   -0.016258668478427878
-0.26693504903371784   -0.08162765677234851   -0.016258668478427878
-0.26693504903371784   -0.08162765677234851   -0.016258668478427878
-0.26693504903371784   -0.08162765677234851   -0.016258668478427878
-0.27627159783455085   -0.04216513204403943   0.03557467132503295
-0.27627159783455085   -0.04216513204403943   0.03557467132503295
-0.27627159783455085   -0.04216513204403943   0.03557467132503295
-0.27627159783455085   -0.04216513204403943   0.03557467132503295
-0.2573873755236561   -0.13564206850679375   -0.025970496537756557
-0.2573873755236561   -0.13564206850679375   -0.025970496537756557
-0.2573873755236561   -0.13564206850679375   -0.025970496537756557
-0.2573873755236561   -0.13564206850679375   -0.025970496537756557
-0.2226368920465546   -0.04650689308762858   0.03911993399167581
-0.2226368920465546   -0.04650689308762858   0.03911993399167581
-0.2226368920465546   -0.04650689308762858   0.03911993399167581
-0.2226368920465546   -0.04650689308762858   0.03911993399167581
-0.3023015852872861   -0.15235125704126146   -0.012415104193353121
-0.3023015852872861   -0.15235125704126146   -0.012415104193353121
-0.3023015852872861   -0.15235125704126146   -0.012415104193353121
-0.3023015852872861   -0.15235125704126146   -0.012415104193353121
-0.26592259378300936   -0.09212057120750448   -0.020873809914959053
-0.26592259378300936   -0.09212057120750448   -0.020873809914959053
-0.26592259378300936   -0.09212057120750448   -0.020873809914959053
-0.26592259378300936   -0.09212057120750448   -0.020873809914959053
-0.21813941861057268   0.03044388279374994   0.04220676699488601
-0.21813941861057268   0.03044388279374994   0.04220676699488601
-0.21813941861057268   0.03044388279374994   0.04220676699488601
-0.21813941861057268   0.03044388279374994   0.04220676699488601
-0.14393907513716112   -0.03847694107975063   -0.014016913402875458
-0.14393907513716112   -0.03847694107975063   -0.014016913402875458
-0.14393907513716112   -0.03847694107975063   -0.014016913402875458
-0.14393907513716112   -0.03847694107975063   -0.014016913402875458
-0.12535713727836117   0.03596669478069403   0.041656719890345695
-0.12535713727836117   0.03596669478069403   0.041656719890345695
-0.12535713727836117   0.03596669478069403   0.041656719890345695
-0.12535713727836117   0.03596669478069403   0.041656719890345695
-0.24077892177540028   -0.059163246322935376   -0.007248487133878961
-0.24077892177540028   -0.059163246322935376   -0.007248487133878961
-0.24077892177540028   -0.059163246322935376   -0.007248487133878961
-0.24077892177540028   -0.059163246322935376   -0.007248487133878961
-0.17959575571685663   -0.0037426486284125385   -0.007681719239281718
-0.17959575571685663   -0.0037426486284125385   -0.007681719239281718
-0.17959575571685663   -0.0037426486284125385   -0.007681719239281718
-0.17959575571685663   -0.0037426486284125385   -0.007681719239281718
-0.21447788877169585   0.019024905680249567   0.046068525881458086
-0.21447788877169585   0.019024905680249567   0.046068525881458086
-0.21447788877169585   0.019024905680249567   0.046068525881458086
-0.21447788877169585   0.019024905680249567   0.046068525881458086
-0.15190059599535385   -0.04246388293578047   -0.012629995978158497
-0.15190059599535385   -0.04246388293578047   -0.012629995978158497
-0.15190059599535385   -0.04246388293578047   -0.012629995978158497
-0.15190059599535385   -0.04246388293578047   -0.012629995978158497
-0.13076747593454835   0.028580863598553472   0.052416915341018694
-0.13076747593454835   0.028580863598553472   0.052416915341018694
-0.13076747593454835   0.028580863598553472   0.052416915341018694
-0.13076747593454835   0.028580863598553472   0.052416915341018694
-0.23951884598662238   -0.06295575482131409   -0.009314162538067643
-0.23951884598662238   -0.06295575482131409   -0.009314162538067643
-0.23951884598662238   -0.06295575482131409   -0.009314162538067643
-0.23951884598662238   -0.06295575482131409   -0.009314162538067643
-0.1847700931752194   -0.011812986069190096   -0.010767020503035664
-0.1847700931752194   -0.011812986069190096   -0.010767020503035664
-0.1847700931752194   -0.011812986069190096   -0.010767020503035664
-0.1847700931752194   -0.011812986069190096   -0.010767020503035664
-0.21196105092311454   0.012468814270223338   0.053050243687934207
-0.21196105092311454   0.012468814270223338   0.053050243687934207
-0.21196105092311454   0.012468814270223338   0.053050243687934207
-0.21196105092311454   0.012468814270223338   0.053050243687934207
-0.16021177652328414   -0.0487302110182119   -0.017493512985894938
-0.16021177652328414   -0.0487302110182119   -0.017493512985894938
-0.16021177652328414   -0.0487302110182119   -0.017493512985894938
-0.16021177652328414   -0.0487302110182119   -0.017493512985894938
-0.1496778942194194   0.008278811178443438   0.054542006107369735
-0.1496778942194194   0.008278811178443438   0.054542006107369735
-0.1496778942194194   0.008278811178443438   0.054542006107369735
-0.1496778942194194   0.008278811178443438   0.054542006107369735
-0.2359861988075428   -0.066309704506432   -0.00782378839446174
-0.2359861988075428   -0.066309704506432   -0.00782378839446174
-0.2359861988075428   -0.066309704506432   -0.00782378839446174
-0.2359861988075428   -0.066309704506432   -0.00782378839446174
-0.18720155098660435   -0.017625264076471338   -0.015811477612179166
-0.18720155098660435   -0.017625264076471338   -0.015811477612179166
-0.18720155098660435   -0.017625264076471338   -0.015811477612179166
-0.18720155098660435   -0.017625264076471338   -0.015811477612179166
-2.258571628283116   -0.3197338839887345   -0.18765405541588315
-2.258571628283116   -0.3197338839887345   -0.18765405541588315
-2.258571628283116   -0.3197338839887345   -0.18765405541588315
-2.258571628283116   -0.3197338839887345   -0.18765405541588315
-0.7834054323150215   -1.2295733402433016   -0.14694265979361673
-0.7834054323150215   -1.2295733402433016   -0.14694265979361673
-0.7834054323150215   -1.2295733402433016   -0.14694265979361673
-0.7834054323150215   -1.2295733402433016   -0.14694265979361673
-0.6058631991548766   -0.05168083816069238   0.0008811467548164725
-0.6058631991548766   -0.05168083816069238   0.0008811467548164725
-0.6058631991548766   -0.05168083816069238   0.0008811467548164725
-0.6058631991548766   -0.05168083816069238   0.0008811467548164725
-2.4107687099652324   -1.4458864907780402   -0.7713310401486545
-2.4107687099652324   -1.4458864907780402   -0.7713310401486545
-2.4107687099652324   -1.4458864907780402   -0.7713310401486545
-2.4107687099652324   -1.4458864907780402   -0.7713310401486545
-1.4768083943642465   -0.7193881197010874   -0.10481467046734536
-1.4768083943642465   -0.7193881197010874   -0.10481467046734536
-1.4768083943642465   -0.7193881197010874   -0.10481467046734536
-1.4768083943642465   -0.7193881197010874   -0.10481467046734536
-2.098616530319532   -0.4014158835701904   -0.25504074912801816
-2.098616530319532   -0.4014158835701904   -0.25504074912801816
-2.098616530319532   -0.4014158835701904   -0.25504074912801816
-2.098616530319532   -0.4014158835701904   -0.25504074912801816
-0.8458766022781993   -1.024012668846166   -0.22685403817631714
-0.8458766022781993   -1.024012668846166   -0.22685403817631714
-0.8458766022781993   -1.024012668846166   -0.22685403817631714
-0.8458766022781993   -1.024012668846166   -0.22685403817631714
-0.6179732963876775   -0.06897125825094547   0.023274200240969385
-0.6179732963876775   -0.06897125825094547   0.023274200240969385
-0.6179732963876775   -0.06897125825094547   0.023274200240969385
-0.6179732963876775   -0.06897125825094547   0.023274200240969385
-2.2558570838410907   -1.2894659073424708   -0.7090645982367123
-2.2558570838410907   -1.2894659073424708   -0.7090645982367123
-2.2558570838410907   -1.2894659073424708   -0.7090645982367123
-2.2558570838410907   -1.2894659073424708   -0.7090645982367123
-1.3909055093521514   -0.6485984671744804   0.056373634780671034
-1.3909055093521514   -0.6485984671744804   0.056373634780671034
-1.3909055093521514   -0.6485984671744804   0.056373634780671034
-1.3909055093521514   -0.6485984671744804   0.056373634780671034
-1.9706187240715236   -0.38218577098515105   -0.19015293574621234
-1.9706187240715236   -0.38218577098515105   -0.19015293574621234
-1.9706187240715236   -0.38218577098515105   -0.19015293574621234
-1.9706187240715236   -0.38218577098515105   -0.19015293574621234
-0.8230639663345211   -0.8961037047855436   -0.17504670295864605
-0.8230639663345211   -0.8961037047855436   -0.17504670295864605
-0.8230639663345211   -0.8961037047855436   -0.17504670295864605
-0.8230639663345211   -0.8961037047855436   -0.17504670295864605
-0.7098862291674793   -0.1815148969878009   -0.03683020193642177
-0.7098862291674793   -0.1815148969878009   -0.03683020193642177
-0.7098862291674793   -0.1815148969878009   -0.03683020193642177
-0.7098862291674793   -0.1815148969878009   -0.03683020193642177
-2.056000916704326   -1.0833489969858086   -0.627869982738027
-2.056000916704326   -1.0833489969858086   -0.627869982738027
-2.056000916704326   -1.0833489969858086   -0.627869982738027
-2.056000916704326   -1.0833489969858086   -0.627869982738027
-1.2883283361260336   -0.5622412192400164   0.23842636069368497
-1.2883283361260336   -0.5622412192400164   0.23842636069368497
-1.2883283361260336   -0.5622412192400164   0.23842636069368497
-1.2883283361260336   -0.5622412192400164   0.23842636069368497
-0.5803773369015791   -0.3147416748394376   -0.046633848130273076
-0.5803773369015791   -0.3147416748394376   -0.046633848130273076
-0.5803773369015791   -0.3147416748394376   -0.046633848130273076
-0.5803773369015791   -0.3147416748394376   -0.046633848130273076
-0.2680053949674206   -0.38740688626538805   -0.06620340596845845
-0.2680053949674206   -0.38740688626538805   -0.06620340596845845
-0.2680053949674206   -0.38740688626538805   -0.06620340596845845
-0.2680053949674206   -0.38740688626538805   -0.06620340596845845
-0.23660761808188027   -0.20095914190059352   0.0061434844355907
-0.23660761808188027   -0.20095914190059352   0.0061434844355907
-0.23660761808188027   -0.20095914190059352   0.0061434844355907
-0.23660761808188027   -0.20095914190059352   0.0061434844355907
-0.7092761148825235   -0.5680517848213732   0.00018751477726847154
-0.7092761148825235   -0.5680517848213732   0.00018751477726847154
-0.7092761148825235   -0.5680517848213732   0.00018751477726847154
-0.7092761148825235   -0.5680517848213732   0.00018751477726847154
-0.3811290142731404   -0.2755828612476772   0.12199562453644026
-0.3811290142731404   -0.2755828612476772   0.12199562453644026
-0.3811290142731404   -0.2755828612476772   0.12199562453644026
-0.3811290142731404   -0.2755828612476772   0.12199562453644026
-0.6602822909715127   -0.29291816955287486   -0.029976980936183534
-0.6602822909715127   -0.29291816955287486   -0.029976980936183534
-0.6602822909715127   -0.29291816955287486   -0.029976980936183534
-0.6602822909715127   -0.29291816955287486   -0.029976980936183534
-0.3055831135882679   -0.49607442876446994   -0.043618706232470966
-0.3055831135882679   -0.49607442876446994   -0.043618706232470966
-0.3055831135882679   -0.49607442876446994   -0.043618706232470966
-0.3055831135882679   -0.49607442876446994   -0.043618706232470966
-0.255452947838371   -0.208267033797794   0.006293633942427129
-0.255452947838371   -0.208267033797794   0.006293633942427129
-0.255452947838371   -0.208267033797794   0.006293633942427129
-0.255452947838371   -0.208267033797794   0.006293633942427129
-0.7437104205813692   -0.5606370090922603   -0.1137456698861698
-0.7437104205813692   -0.5606370090922603   -0.1137456698861698
-0.7437104205813692   -0.5606370090922603   -0.1137456698861698
-0.7437104205813692   -0.5606370090922603   -0.1137456698861698
-0.4542557600877235   -0.35364202054590116   0.055791434642197865
-0.4542557600877235   -0.35364202054590116   0.055791434642197865
-0.4542557600877235   -0.35364202054590116   0.055791434642197865
-0.4542557600877235   -0.35364202054590116   0.055791434642197865
-0.6812001907963056   -0.3058679293237414   -0.05596360072937511
-0.6812001907963056   -0.3058679293237414   -0.05596360072937511
-0.6812001907963056   -0.3058679293237414   -0.05596360072937511
-0.6812001907963056   -0.3058679293237414   -0.05596360072937511
-0.3160937706428136   -0.461166706585692   -0.04401080729188389
-0.3160937706428136   -0.461166706585692   -0.04401080729188389
-0.3160937706428136   -0.461166706585692   -0.04401080729188389
-0.3160937706428136   -0.461166706585692   -0.04401080729188389
-0.2844804133835728   -0.21507580864629977   0.009263670104085853
-0.2844804133835728   -0.21507580864629977   0.009263670104085853
-0.2844804133835728   -0.21507580864629977   0.009263670104085853
-0.2844804133835728   -0.21507580864629977   0.009263670104085853
-0.7949741043922285   -0.5446470711957379   -0.09913740385222604
-0.7949741043922285   -0.5446470711957379   -0.09913740385222604
-0.7949741043922285   -0.5446470711957379   -0.09913740385222604
-0.7949741043922285   -0.5446470711957379   -0.09913740385222604
-0.47514581348412616   -0.33328334808196886   0.059050091020821566
-0.47514581348412616   -0.33328334808196886   0.059050091020821566
-0.47514581348412616   -0.33328334808196886   0.059050091020821566
-0.47514581348412616   -0.33328334808196886   0.059050091020821566
-0.21204693926852788   -0.1875545519314693   0.01373653819208618
-0.21204693926852788   -0.1875545519314693   0.01373653819208618
-0.21204693926852788   -0.1875545519314693   0.01373653819208618
-0.21204693926852788   -0.1875545519314693   0.01373653819208618
-0.1292315499031156   -0.12021339885757401   -0.03228838028906038
-0.1292315499031156   -0.12021339885757401   -0.03228838028906038
-0.1292315499031156   -0.12021339885757401   -0.03228838028906038
-0.1292315499031156   -0.12021339885757401   -0.03228838028906038
-0.125431627546493   -0.16755855997532096   0.013873232579098824
-0.125431627546493   -0.16755855997532096   0.013873232579098824
-0.125431627546493   -0.16755855997532096   0.013873232579098824
-0.125431627546493   -0.16755855997532096   0.013873232579098824
-0.23369743964437426   -0.16533693968891766   -0.014927825588554988
-0.23369743964437426   -0.16533693968891766   -0.014927825588554988
-0.23369743964437426   -0.16533693968891766   -0.014927825588554988
-0.23369743964437426   -0.16533693968891766   -0.014927825588554988
-0.14791540853004273   -0.13514585347490146   0.06114935042963524
-0.14791540853004273   -0.13514585347490146   0.06114935042963524
-0.14791540853004273   -0.13514585347490146   0.06114935042963524
-0.14791540853004273   -0.13514585347490146   0.06114935042963524
-0.23244088807436047   -0.18877621673516312   0.014794209307755435
-0.23244088807436047   -0.18877621673516312   0.014794209307755435
-0.23244088807436047   -0.18877621673516312   0.014794209307755435
-0.23244088807436047   -0.18877621673516312   0.014794209307755435
-0.12869141680973656   -0.14612252062230469   -0.023861753090127686
-0.12869141680973656   -0.14612252062230469   -0.023861753090127686
-0.12869141680973656   -0.14612252062230469   -0.023861753090127686
-0.12869141680973656   -0.14612252062230469   -0.023861753090127686
-0.12671372195228964   -0.17259437474776837   0.012314766928608847
-0.12671372195228964   -0.17259437474776837   0.012314766928608847
-0.12671372195228964   -0.17259437474776837   0.012314766928608847
-0.12671372195228964   -0.17259437474776837   0.012314766928608847
-0.24795821537978957   -0.19301741393714558   0.028517676374689778
-0.24795821537978957   -0.19301741393714558   0.028517676374689778
-0.24795821537978957   -0.19301741393714558   0.028517676374689778
-0.24795821537978957   -0.19301741393714558   0.028517676374689778
-0.16063081112613958   -0.15054465706252826   0.051920681345078476
-0.16063081112613958   -0.15054465706252826   0.051920681345078476
-0.16063081112613958   -0.15054465706252826   0.051920681345078476
-0.16063081112613958   -0.15054465706252826   0.051920681345078476
-0.25021465019504385   -0.1957615800914887   0.0199796684527537
-0.25021465019504385   -0.1957615800914887   0.0199796684527537
-0.25021465019504385   -0.1957615800914887   0.0199796684527537
-0.25021465019504385   -0.1957615800914887   0.0199796684527537
-0.13517006844998286   -0.18056298990637276   -0.021998350401252847
-0.13517006844998286   -0.18056298990637276   -0.021998350401252847
-0.13517006844998286   -0.18056298990637276   -0.021998350401252847
-0.13517006844998286   -0.18056298990637276   -0.021998350401252847
-0.12793083342759395   -0.17822654720914488   0.01728398814500886
-0.12793083342759395   -0.17822654720914488   0.01728398814500886
-0.12793083342759395   -0.17822654720914488   0.01728398814500886
-0.12793083342759395   -0.17822654720914488   0.01728398814500886
-0.28967874364058444   -0.23775777437747694   0.005953984550205141
-0.28967874364058444   -0.23775777437747694   0.005953984550205141
-0.28967874364058444   -0.23775777437747694   0.005953984550205141
-0.28967874364058444   -0.23775777437747694   0.005953984550205141
-0.17913920489697124   -0.17172670489304098   0.024699586661500447
-0.17913920489697124   -0.17172670489304098   0.024699586661500447
-0.17913920489697124   -0.17172670489304098   0.024699586661500447
-0.17913920489697124   -0.17172670489304098   0.024699586661500447
-0.10641017199689018   -0.07465343774965905   0.03625854813415177
-0.10641017199689018   -0.07465343774965905   0.03625854813415177
-0.10641017199689018   -0.07465343774965905   0.03625854813415177
-0.10641017199689018   -0.07465343774965905   0.03625854813415177
-0.07424280663331424   0.000718170111551196   -0.007225516159169516
-0.07424280663331424   0.000718170111551196   -0.007225516159169516
-0.07424280663331424   0.000718170111551196   -0.007225516159169516
-0.07424280663331424   0.000718170111551196   -0.007225516159169516
-0.07048397433671995   -0.08061613805453399   0.02251992400753758
-0.07048397433671995   -0.08061613805453399   0.02251992400753758
-0.07048397433671995   -0.08061613805453399   0.02251992400753758
-0.07048397433671995   -0.08061613805453399   0.02251992400753758
-0.09831938999745217   -0.01338405926216464   -0.004740080388845821
-0.09831938999745217   -0.01338405926216464   -0.004740080388845821
-0.09831938999745217   -0.01338405926216464   -0.004740080388845821
-0.09831938999745217   -0.01338405926216464   -0.004740080388845821
-0.08080184546859225   -0.0404750491688015   0.017987269801277093
-0.08080184546859225   -0.0404750491688015   0.017987269801277093
-0.08080184546859225   -0.0404750491688015   0.017987269801277093
-0.08080184546859225   -0.0404750491688015   0.017987269801277093
-0.10489588610807707   -0.08516985770928326   0.034163237505148325
-0.10489588610807707   -0.08516985770928326   0.034163237505148325
-0.10489588610807707   -0.08516985770928326   0.034163237505148325
-0.10489588610807707   -0.08516985770928326   0.034163237505148325
-0.06203916532971234   -0.00696202671103264   -0.008910142300925683
-0.06203916532971234   -0.00696202671103264   -0.008910142300925683
-0.06203916532971234   -0.00696202671103264   -0.008910142300925683
-0.06203916532971234   -0.00696202671103264   -0.008910142300925683
-0.0644687323745631   -0.0877154566038567   0.02074391982783569
-0.0644687323745631   -0.0877154566038567   0.02074391982783569
-0.0644687323745631   -0.0877154566038567   0.02074391982783569
-0.0644687323745631   -0.0877154566038567   0.02074391982783569
-0.09888156595193262   -0.027036290852723743   0.005917463035349332
-0.09888156595193262   -0.027036290852723743   0.005917463035349332
-0.09888156595193262   -0.027036290852723743   0.005917463035349332
-0.09888156595193262   -0.027036290852723743   0.005917463035349332
-0.07398225879397848   -0.04636189037999054   0.02153678210745106
-0.07398225879397848   -0.04636189037999054   0.02153678210745106
-0.07398225879397848   -0.04636189037999054   0.02153678210745106
-0.07398225879397848   -0.04636189037999054   0.02153678210745106
-0.10530173093777379   -0.09222897569281835   0.039009322946238115
-0.10530173093777379   -0.09222897569281835   0.039009322946238115
-0.10530173093777379   -0.09222897569281835   0.039009322946238115
-0.10530173093777379   -0.09222897569281835   0.039009322946238115
-0.058579275640800156   -0.023053480015840302   -0.014470773091365921
-0.058579275640800156   -0.023053480015840302   -0.014470773091365921
-0.058579275640800156   -0.023053480015840302   -0.014470773091365921
-0.058579275640800156   -0.023053480015840302   -0.014470773091365921
-0.0536762458980751   -0.0955866038614651   0.02278282231642528
-0.0536762458980751   -0.0955866038614651   0.02278282231642528
-0.0536762458980751   -0.0955866038614651   0.02278282231642528
-0.0536762458980751   -0.0955866038614651   0.02278282231642528
-0.10629254221522429   -0.0605340465243843   0.007782943522096587
-0.10629254221522429   -0.0605340465243843   0.007782943522096587
-0.10629254221522429   -0.0605340465243843   0.007782943522096587
-0.10629254221522429   -0.0605340465243843   0.007782943522096587
-0.07096989209224958   -0.05857245440223319   0.018741867789607604
-0.07096989209224958   -0.05857245440223319   0.018741867789607604
-0.07096989209224958   -0.05857245440223319   0.018741867789607604
-0.07096989209224958   -0.05857245440223319   0.018741867789607604
-0.06830865182808771   -0.01326232345138037   0.036425751429894744
-0.06830865182808771   -0.01326232345138037   0.036425751429894744
-0.06830865182808771   -0.01326232345138037   0.036425751429894744
-0.06830865182808771   -0.01326232345138037   0.036425751429894744
-0.011693417145765694   0.008118530735206202   -0.0007352769508056191
-0.011693417145765694   0.008118530735206202   -0.0007352769508056191
-0.011693417145765694   0.008118530735206202   -0.0007352769508056191
-0.011693417145765694   0.008118530735206202   -0.0007352769508056191
0.004327334734924346   -0.00419369399645289   0.022493017988201185
0.004327334734924346   -0.00419369399645289   0.022493017988201185
0.004327334734924346   -0.00419369399645289   0.022493017988201185
0.004327334734924346   -0.00419369399645289   0.022493017988201185
-0.05821404401024873   0.0061806960351887055   -0.0029272584498290077
-0.05821404401024873   0.0061806960351887055   -0.0029272584498290077
-0.05821404401024873   0.0061806960351887055   -0.0029272584498290077
-0.05821404401024873   0.0061806960351887055   -0.0029272584498290077
-0.03405595419850807   -0.0025271246765873334   -0.002855765193015357
-0.03405595419850807   -0.0025271246765873334   -0.002855765193015357
-0.03405595419850807   -0.0025271246765873334   -0.002855765193015357
-0.03405595419850807   -0.0025271246765873334   -0.002855765193015357
-0.05384331472967846   -0.01275417557447751   0.037861259562688564
-0.05384331472967846   -0.01275417557447751   0.037861259562688564
-0.05384331472967846   -0.01275417557447751   0.037861259562688564
-0.05384331472967846   -0.01275417557447751   0.037861259562688564
0.0020042162672370602   0.016788788426095033   -0.010105056772783165
0.0020042162672370602   0.016788788426095033   -0.010105056772783165
0.0020042162672370602   0.016788788426095033   -0.010105056772783165
0.0020042162672370602   0.016788788426095033   -0.010105056772783165
0.012498139475029982   -0.005146895500786683   0.027713148602917025
0.012498139475029982   -0.005146895500786683   0.027713148602917025
0.012498139475029982   -0.005146895500786683   0.027713148602917025
0.012498139475029982   -0.005146895500786683   0.027713148602917025
-0.05096602486020985   0.004870924717136599   -0.004328923921391339
-0.05096602486020985   0.004870924717136599   -0.004328923921391339
-0.05096602486020985   0.004870924717136599   -0.004328923921391339
-0.05096602486020985   0.004870924717136599   -0.004328923921391339
-0.02209764659041554   -0.0005099120931779675   0.0036250383084752563
-0.02209764659041554   -0.0005099120931779675   0.0036250383084752563
-0.02209764659041554   -0.0005099120931779675   0.0036250383084752563
-0.02209764659041554   -0.0005099120931779675   0.0036250383084752563
-0.045792072479299555   -0.014221012560147203   0.040632775260443975
-0.045792072479299555   -0.014221012560147203   0.040632775260443975
-0.045792072479299555   -0.014221012560147203   0.040632775260443975
-0.045792072479299555   -0.014221012560147203   0.040632775260443975
0.009180904202079202   0.01580175888445664   -0.0098216821470802
0.009180904202079202   0.01580175888445664   -0.0098216821470802
0.009180904202079202   0.01580175888445664   -0.0098216821470802
0.009180904202079202   0.01580175888445664   -0.0098216821470802
0.020914221120051354   -0.007988871971602033   0.02687995435209395
0.020914221120051354   -0.007988871971602033   0.02687995435209395
0.020914221120051354   -0.007988871971602033   0.02687995435209395
0.020914221120051354   -0.007988871971602033   0.02687995435209395
-0.03906234676663818   0.005185337854591786   -0.004919623742447015
-0.03906234676663818   0.005185337854591786   -0.004919623742447015
-0.03906234676663818   0.005185337854591786   -0.004919623742447015
-0.03906234676663818   0.005185337854591786   -0.004919623742447015
-0.011388003339320068   0.0007913978667180442   0.009369319745000689
-0.011388003339320068   0.0007913978667180442   0.009369319745000689
-0.011388003339320068   0.0007913978667180442   0.009369319745000689
-0.011388003339320068   0.0007913978667180442   0.009369319745000689
              </DataArray>   
             <DataArray type="Float64" NumberOfComponents="3" Name="Displacements" format="ascii">   
0.0   0.0   0.0
-0.006283313862668942   -0.004119436492682984   -0.002104658905569958
0.0   0.0   0.0
0.0   0.0   0.0
-0.006283313862668942   -0.004119436492682984   -0.002104658905569958
-0.00399862104103899   -0.003701450665894488   -0.001546269582769229
0.0   0.0   0.0
-0.003919847921212229   -0.003887367262656926   -0.0012953571749368257
0.0   0.0   0.0
0.0   0.0   0.0
-0.003919847921212229   -0.003887367262656926   -0.0012953571749368257
0.0   0.0   0.0
0.0   0.0   0.0
-0.003919847921212229   -0.003887367262656926   -0.0012953571749368257
-0.006576164546350446   -0.004388807695126631   -0.0016896178275340287
-0.006283313862668942   -0.004119436492682984   -0.002104658905569958
0.0   0.0   0.0
-0.003919847921212229   -0.003887367262656926   -0.0012953571749368257
-0.006283313862668942   -0.004119436492682984   -0.002104658905569958
0.0   0.0   0.0
0.0   0.0   0.0
-0.006576164546350446   -0.004388807695126631   -0.0016896178275340287
0.0   0.0   0.0
0.0   0.0   0.0
-0.006576164546350446   -0.004388807695126631   -0.0016896178275340287
-0.003919847921212229   -0.003887367262656926   -0.0012953571749368257
0.0   0.0   0.0
-0.003931234190646526   -0.00398260560961511   -0.0010447683963700069
0.0   0.0   0.0
0.0   0.0   0.0
-0.003931234190646526   -0.00398260560961511   -0.0010447683963700069
0.0   0.0   0.0
0.0   0.0   0.0
-0.003931234190646526   -0.00398260560961511   -0.0010447683963700069
-0.006781982945178502   -0.004519778807406661   -0.001291872191902987
-0.006576164546350446   -0.004388807695126631   -0.0016896178275340287
0.0   0.0   0.0
-0.003931234190646526   -0.00398260560961511   -0.0010447683963700069
-0.006576164546350446   -0.004388807695126631   -0.0016896178275340287
0.0   0.0   0.0
0.0   0.0   0.0
-0.006781982945178502   -0.004519778807406661   -0.001291872191902987
0.0   0.0   0.0
0.0   0.0   0.0
-0.006781982945178502   -0.004519778807406661   -0.001291872191902987
-0.003931234190646526   -0.00398260560961511   -0.0010447683963700069
0.0   0.0   0.0
-0.003929541658195303   -0.004007025775844162   -0.0007856091420165793
0.0   0.0   0.0
0.0   0.0   0.0
-0.003929541658195303   -0.004007025775844162   -0.0007856091420165793
0.0   0.0   0.0
0.0   0.0   0.0
-0.003929541658195303   -0.004007025775844162   -0.0007856091420165793
-0.007225043396320344   -0.004618836715819713   -0.0008303839878926478
-0.006781982945178502   -0.004519778807406661   -0.001291872191902987
0.0   0.0   0.0
-0.003929541658195303   -0.004007025775844162   -0.0007856091420165793
-0.006781982945178502   -0.004519778807406661   -0.001291872191902987
0.0   0.0   0.0
0.0   0.0   0.0
-0.00399862104103899   -0.003701450665894488   -0.001546269582769229
0.0   0.0   0.0
0.0   0.0   0.0
-0.00399862104103899   -0.003701450665894488   -0.001546269582769229
-0.0018206101683571328   -0.0035480836406446355   -0.0011759822786905692
0.0   0.0   0.0
-0.0017513602979145652   -0.0036691332569495595   -0.0010575689211671897
0.0   0.0   0.0
0.0   0.0   0.0
-0.0017513602979145652   -0.0036691332569495595   -0.0010575689211671897
0.0   0.0   0.0
0.0   0.0   0.0
-0.0017513602979145652   -0.0036691332569495595   -0.0010575689211671897
-0.003919847921212229   -0.003887367262656926   -0.0012953571749368257
-0.00399862104103899   -0.003701450665894488   -0.001546269582769229
0.0   0.0   0.0
-0.0017513602979145652   -0.0036691332569495595   -0.0010575689211671897
-0.00399862104103899   -0.003701450665894488   -0.001546269582769229
0.0   0.0   0.0
0.0   0.0   0.0
-0.003919847921212229   -0.003887367262656926   -0.0012953571749368257
0.0   0.0   0.0
0.0   0.0   0.0
-0.003919847921212229   -0.003887367262656926   -0.0012953571749368257
-0.0017513602979145652   -0.0036691332569495595   -0.0010575689211671897
0.0   0.0   0.0
-0.0017126029901399075   -0.003715259354468325   -0.0009422106242232375
0.0   0.0   0.0
0.0   0.0   0.0
-0.0017126029901399075   -0.003715259354468325   -0.0009422106242232375
0.0   0.0   0.0
0.0   0.0   0.0
-0.0017126029901399075   -0.003715259354468325   -0.0009422106242232375
-0.003931234190646526   -0.00398260560961511   -0.0010447683963700069
-0.003919847921212229   -0.003887367262656926   -0.0012953571749368257
0.0   0.0   0.0
-0.0017126029901399075   -0.003715259354468325   -0.0009422106242232375
-0.003919847921212229   -0.003887367262656926   -0.0012953571749368257
0.0   0.0   0.0
0.0   0.0   0.0
-0.003931234190646526   -0.00398260560961511   -0.0010447683963700069
0.0   0.0   0.0
0.0   0.0   0.0
-0.003931234190646526   -0.00398260560961511   -0.0010447683963700069
-0.0017126029901399075   -0.003715259354468325   -0.0009422106242232375
0.0   0.0   0.0
-0.0016773662048458454   -0.003695984399620347   -0.0008229122367393465
0.0   0.0   0.0
0.0   0.0   0.0
-0.0016773662048458454   -0.003695984399620347   -0.0008229122367393465
0.0   0.0   0.0
0.0   0.0   0.0
-0.0016773662048458454   -0.003695984399620347   -0.0008229122367393465
-0.003929541658195303   -0.004007025775844162   -0.0007856091420165793
-0.003931234190646526   -0.00398260560961511   -0.0010447683963700069
0.0   0.0   0.0
-0.0016773662048458454   -0.003695984399620347   -0.0008229122367393465
-0.003931234190646526   -0.00398260560961511   -0.0010447683963700069
0.0   0.0   0.0
0.0   0.0   0.0
-0.0018206101683571328   -0.0035480836406446355   -0.0011759822786905692
0.0   0.0   0.0
0.0   0.0   0.0
-0.0018206101683571328   -0.0035480836406446355   -0.0011759822786905692
0.00023748435499710375   -0.003567682339639854   -0.0009399425342336086
0.0   0.0   0.0
0.0002815327157962737   -0.0036304653700203727   -0.0009564229580367169
0.0   0.0   0.0
0.0   0.0   0.0
0.0002815327157962737   -0.0036304653700203727   -0.0009564229580367169
0.0   0.0   0.0
0.0   0.0   0.0
0.0002815327157962737   -0.0036304653700203727   -0.0009564229580367169
-0.0017513602979145652   -0.0036691332569495595   -0.0010575689211671897
-0.0018206101683571328   -0.0035480836406446355   -0.0011759822786905692
0.0   0.0   0.0
0.0002815327157962737   -0.0036304653700203727   -0.0009564229580367169
-0.0018206101683571328   -0.0035480836406446355   -0.0011759822786905692
0.0   0.0   0.0
0.0   0.0   0.0
-0.0017513602979145652   -0.0036691332569495595   -0.0010575689211671897
0.0   0.0   0.0
0.0   0.0   0.0
-0.0017513602979145652   -0.0036691332569495595   -0.0010575689211671897
0.0002815327157962737   -0.0036304653700203727   -0.0009564229580367169
0.0   0.0   0.0
0.0003162546446430931   -0.003625296906741582   -0.0009712774981967506
0.0   0.0   0.0
0.0   0.0   0.0
0.0003162546446430931   -0.003625296906741582   -0.0009712774981967506
0.0   0.0   0.0
0.0   0.0   0.0
0.0003162546446430931   -0.003625296906741582   -0.0009712774981967506
-0.0017126029901399075   -0.003715259354468325   -0.0009422106242232375
-0.0017513602979145652   -0.0036691332569495595   -0.0010575689211671897
0.0   0.0   0.0
0.0003162546446430931   -0.003625296906741582   -0.0009712774981967506
-0.0017513602979145652   -0.0036691332569495595   -0.0010575689211671897
0.0   0.0   0.0
0.0   0.0   0.0
-0.0017126029901399075   -0.003715259354468325   -0.0009422106242232375
0.0   0.0   0.0
0.0   0.0   0.0
-0.0017126029901399075   -0.003715259354468325   -0.0009422106242232375
0.0003162546446430931   -0.003625296906741582   -0.0009712774981967506
0.0   0.0   0.0
0.00036308324399048704   -0.003546597947900986   -0.000986505793211738
0.0   0.0   0.0
0.0   0.0   0.0
0.00036308324399048704   -0.003546597947900986   -0.000986505793211738
0.0   0.0   0.0
0.0   0.0   0.0
0.00036308324399048704   -0.003546597947900986   -0.000986505793211738
-0.0016773662048458454   -0.003695984399620347   -0.0008229122367393465
-0.0017126029901399075   -0.003715259354468325   -0.0009422106242232375
0.0   0.0   0.0
0.00036308324399048704   -0.003546597947900986   -0.000986505793211738
-0.0017126029901399075   -0.003715259354468325   -0.0009422106242232375
0.0   0.0   0.0
0.0   0.0   0.0
0.00023748435499710375   -0.003567682339639854   -0.0009399425342336086
0.0   0.0   0.0
0.0   0.0   0.0
0.00023748435499710375   -0.003567682339639854   -0.0009399425342336086
0.0024712326984882983   -0.0037415915038023274   -0.0008231076275051586
0.0   0.0   0.0
0.0024751726407190896   -0.003761625947849263   -0.0009815234977757054
0.0   0.0   0.0
0.0   0.0   0.0
0.0024751726407190896   -0.003761625947849263   -0.0009815234977757054
0.0   0.0   0.0
0.0   0.0   0.0
0.0024751726407190896   -0.003761625947849263   -0.0009815234977757054
0.0002815327157962737   -0.0036304653700203727   -0.0009564229580367169
0.00023748435499710375   -0.003567682339639854   -0.0009399425342336086
0.0   0.0   0.0
0.0024751726407190896   -0.003761625947849263   -0.0009815234977757054
0.00023748435499710375   -0.003567682339639854   -0.0009399425342336086
0.0   0.0   0.0
0.0   0.0   0.0
0.0002815327157962737   -0.0036304653700203727   -0.0009564229580367169
0.0   0.0   0.0
0.0   0.0   0.0
0.0002815327157962737   -0.0036304653700203727   -0.0009564229580367169
0.0024751726407190896   -0.003761625947849263   -0.0009815234977757054
0.0   0.0   0.0
0.0024641803063742153   -0.0037079080947297013   -0.0011334550364601006
0.0   0.0   0.0
0.0   0.0   0.0
0.0024641803063742153   -0.0037079080947297013   -0.0011334550364601006
0.0   0.0   0.0
0.0   0.0   0.0
0.0024641803063742153   -0.0037079080947297013   -0.0011334550364601006
0.0003162546446430931   -0.003625296906741582   -0.0009712774981967506
0.0002815327157962737   -0.0036304653700203727   -0.0009564229580367169
0.0   0.0   0.0
0.0024641803063742153   -0.0037079080947297013   -0.0011334550364601006
0.0002815327157962737   -0.0036304653700203727   -0.0009564229580367169
0.0   0.0   0.0
0.0   0.0   0.0
0.0003162546446430931   -0.003625296906741582   -0.0009712774981967506
0.0   0.0   0.0
0.0   0.0   0.0
0.0003162546446430931   -0.003625296906741582   -0.0009712774981967506
0.0024641803063742153   -0.0037079080947297013   -0.0011334550364601006
0.0   0.0   0.0
0.0025115278568158257   -0.003563955280620011   -0.0012824619227767332
0.0   0.0   0.0
0.0   0.0   0.0
0.0025115278568158257   -0.003563955280620011   -0.0012824619227767332
0.0   0.0   0.0
0.0   0.0   0.0
0.0025115278568158257   -0.003563955280620011   -0.0012824619227767332
0.00036308324399048704   -0.003546597947900986   -0.000986505793211738
0.0003162546446430931   -0.003625296906741582   -0.0009712774981967506
0.0   0.0   0.0
0.0025115278568158257   -0.003563955280620011   -0.0012824619227767332
0.0003162546446430931   -0.003625296906741582   -0.0009712774981967506
0.0   0.0   0.0
0.0   0.0   0.0
0.0024712326984882983   -0.0037415915038023274   -0.0008231076275051586
0.0   0.0   0.0
0.0   0.0   0.0
0.0024712326984882983   -0.0037415915038023274   -0.0008231076275051586
0.005576758508882865   -0.004182267046973213   -0.0007763962944613622
0.0   0.0   0.0
0.005236886073537299   -0.004136714689428148   -0.001135440168883825
0.0   0.0   0.0
0.0   0.0   0.0
0.005236886073537299   -0.004136714689428148   -0.001135440168883825
0.0   0.0   0.0
0.0   0.0   0.0
0.005236886073537299   -0.004136714689428148   -0.001135440168883825
0.0024751726407190896   -0.003761625947849263   -0.0009815234977757054
0.0024712326984882983   -0.0037415915038023274   -0.0008231076275051586
0.0   0.0   0.0
0.005236886073537299   -0.004136714689428148   -0.001135440168883825
0.0024712326984882983   -0.0037415915038023274   -0.0008231076275051586
0.0   0.0   0.0
0.0   0.0   0.0
0.0024751726407190896   -0.003761625947849263   -0.0009815234977757054
0.0   0.0   0.0
0.0   0.0   0.0
0.0024751726407190896   -0.003761625947849263   -0.0009815234977757054
0.005236886073537299   -0.004136714689428148   -0.001135440168883825
0.0   0.0   0.0
0.005079980454315013   -0.004050705835234005   -0.0014390263842116418
0.0   0.0   0.0
0.0   0.0   0.0
0.005079980454315013   -0.004050705835234005   -0.0014390263842116418
0.0   0.0   0.0
0.0   0.0   0.0
0.005079980454315013   -0.004050705835234005   -0.0014390263842116418
0.0024641803063742153   -0.0037079080947297013   -0.0011334550364601006
0.0024751726407190896   -0.003761625947849263   -0.0009815234977757054
0.0   0.0   0.0
0.005079980454315013   -0.004050705835234005   -0.0014390263842116418
0.0024751726407190896   -0.003761625947849263   -0.0009815234977757054
0.0   0.0   0.0
0.0   0.0   0.0
0.0024641803063742153   -0.0037079080947297013   -0.0011334550364601006
0.0   0.0   0.0
0.0   0.0   0.0
0.0024641803063742153   -0.0037079080947297013   -0.0011334550364601006
0.005079980454315013   -0.004050705835234005   -0.0014390263842116418
0.0   0.0   0.0
0.0048466657783379045   -0.0038305551769418373   -0.0017602173512787603
0.0   0.0   0.0
0.0   0.0   0.0
0.0048466657783379045   -0.0038305551769418373   -0.0017602173512787603
0.0   0.0   0.0
0.0   0.0   0.0
0.0048466657783379045   -0.0038305551769418373   -0.0017602173512787603
0.0025115278568158257   -0.003563955280620011   -0.0012824619227767332
0.0024641803063742153   -0.0037079080947297013   -0.0011334550364601006
0.0   0.0   0.0
0.0048466657783379045   -0.0038305551769418373   -0.0017602173512787603
0.0024641803063742153   -0.0037079080947297013   -0.0011334550364601006
0.0   0.0   0.0
-0.006283313862668942   -0.004119436492682984   -0.002104658905569958
-0.011738174951866402   -0.011503482726857101   -0.0028354177589979073
-0.00399862104103899   -0.003701450665894488   -0.001546269582769229
-0.006576164546350446   -0.004388807695126631   -0.0016896178275340287
-0.011738174951866402   -0.011503482726857101   -0.0028354177589979073
-0.007492127915141229   -0.011127479239735321   -0.0023336471756332973
-0.00399862104103899   -0.003701450665894488   -0.001546269582769229
-0.007501444880027888   -0.011317743860466262   -0.0021015185417740043
-0.006576164546350446   -0.004388807695126631   -0.0016896178275340287
-0.003919847921212229   -0.003887367262656926   -0.0012953571749368257
-0.007501444880027888   -0.011317743860466262   -0.0021015185417740043
-0.00399862104103899   -0.003701450665894488   -0.001546269582769229
-0.006576164546350446   -0.004388807695126631   -0.0016896178275340287
-0.007501444880027888   -0.011317743860466262   -0.0021015185417740043
-0.012090477128265015   -0.011768927961811105   -0.002458408196649439
-0.011738174951866402   -0.011503482726857101   -0.0028354177589979073
-0.006576164546350446   -0.004388807695126631   -0.0016896178275340287
-0.007501444880027888   -0.011317743860466262   -0.0021015185417740043
-0.011738174951866402   -0.011503482726857101   -0.0028354177589979073
-0.00399862104103899   -0.003701450665894488   -0.001546269582769229
-0.006576164546350446   -0.004388807695126631   -0.0016896178275340287
-0.012090477128265015   -0.011768927961811105   -0.002458408196649439
-0.003919847921212229   -0.003887367262656926   -0.0012953571749368257
-0.006781982945178502   -0.004519778807406661   -0.001291872191902987
-0.012090477128265015   -0.011768927961811105   -0.002458408196649439
-0.007501444880027888   -0.011317743860466262   -0.0021015185417740043
-0.003919847921212229   -0.003887367262656926   -0.0012953571749368257
-0.007531488929063347   -0.011433688536513446   -0.0018784223020600138
-0.006781982945178502   -0.004519778807406661   -0.001291872191902987
-0.003931234190646526   -0.00398260560961511   -0.0010447683963700069
-0.007531488929063347   -0.011433688536513446   -0.0018784223020600138
-0.003919847921212229   -0.003887367262656926   -0.0012953571749368257
-0.006781982945178502   -0.004519778807406661   -0.001291872191902987
-0.007531488929063347   -0.011433688536513446   -0.0018784223020600138
-0.012335450401938139   -0.01191879962859086   -0.0020892098216206234
-0.012090477128265015   -0.011768927961811105   -0.002458408196649439
-0.006781982945178502   -0.004519778807406661   -0.001291872191902987
-0.007531488929063347   -0.011433688536513446   -0.0018784223020600138
-0.012090477128265015   -0.011768927961811105   -0.002458408196649439
-0.003919847921212229   -0.003887367262656926   -0.0012953571749368257
-0.006781982945178502   -0.004519778807406661   -0.001291872191902987
-0.012335450401938139   -0.01191879962859086   -0.0020892098216206234
-0.003931234190646526   -0.00398260560961511   -0.0010447683963700069
-0.007225043396320344   -0.004618836715819713   -0.0008303839878926478
-0.012335450401938139   -0.01191879962859086   -0.0020892098216206234
-0.007531488929063347   -0.011433688536513446   -0.0018784223020600138
-0.003931234190646526   -0.00398260560961511   -0.0010447683963700069
-0.007509569581949516   -0.011493786076910617   -0.001669566530195699
-0.007225043396320344   -0.004618836715819713   -0.0008303839878926478
-0.003929541658195303   -0.004007025775844162   -0.0007856091420165793
-0.007509569581949516   -0.011493786076910617   -0.001669566530195699
-0.003931234190646526   -0.00398260560961511   -0.0010447683963700069
-0.007225043396320344   -0.004618836715819713   -0.0008303839878926478
-0.007509569581949516   -0.011493786076910617   -0.001669566530195699
-0.012625020389782658   -0.012005818285154022   -0.0017532411588707154
-0.012335450401938139   -0.01191879962859086   -0.0020892098216206234
-0.007225043396320344   -0.004618836715819713   -0.0008303839878926478
-0.007509569581949516   -0.011493786076910617   -0.001669566530195699
-0.012335450401938139   -0.01191879962859086   -0.0020892098216206234
-0.003931234190646526   -0.00398260560961511   -0.0010447683963700069
-0.00399862104103899   -0.003701450665894488   -0.001546269582769229
-0.007492127915141229   -0.011127479239735321   -0.0023336471756332973
-0.0018206101683571328   -0.0035480836406446355   -0.0011759822786905692
-0.003919847921212229   -0.003887367262656926   -0.0012953571749368257
-0.007492127915141229   -0.011127479239735321   -0.0023336471756332973
-0.003475519364846042   -0.010952522666221948   -0.001991080407923799
-0.0018206101683571328   -0.0035480836406446355   -0.0011759822786905692
-0.0034460129258849486   -0.011073651346486938   -0.0018721703820609571
-0.003919847921212229   -0.003887367262656926   -0.0012953571749368257
-0.0017513602979145652   -0.0036691332569495595   -0.0010575689211671897
-0.0034460129258849486   -0.011073651346486938   -0.0018721703820609571
-0.0018206101683571328   -0.0035480836406446355   -0.0011759822786905692
-0.003919847921212229   -0.003887367262656926   -0.0012953571749368257
-0.0034460129258849486   -0.011073651346486938   -0.0018721703820609571
-0.007501444880027888   -0.011317743860466262   -0.0021015185417740043
-0.007492127915141229   -0.011127479239735321   -0.0023336471756332973
-0.003919847921212229   -0.003887367262656926   -0.0012953571749368257
-0.0034460129258849486   -0.011073651346486938   -0.0018721703820609571
-0.007492127915141229   -0.011127479239735321   -0.0023336471756332973
-0.0018206101683571328   -0.0035480836406446355   -0.0011759822786905692
-0.003919847921212229   -0.003887367262656926   -0.0012953571749368257
-0.007501444880027888   -0.011317743860466262   -0.0021015185417740043
-0.0017513602979145652   -0.0036691332569495595   -0.0010575689211671897
-0.003931234190646526   -0.00398260560961511   -0.0010447683963700069
-0.007501444880027888   -0.011317743860466262   -0.0021015185417740043
-0.0034460129258849486   -0.011073651346486938   -0.0018721703820609571
-0.0017513602979145652   -0.0036691332569495595   -0.0010575689211671897
-0.0034199193027540796   -0.011132383235493589   -0.0017643561464992484
-0.003931234190646526   -0.00398260560961511   -0.0010447683963700069
-0.0017126029901399075   -0.003715259354468325   -0.0009422106242232375
-0.0034199193027540796   -0.011132383235493589   -0.0017643561464992484
-0.0017513602979145652   -0.0036691332569495595   -0.0010575689211671897
-0.003931234190646526   -0.00398260560961511   -0.0010447683963700069
-0.0034199193027540796   -0.011132383235493589   -0.0017643561464992484
-0.007531488929063347   -0.011433688536513446   -0.0018784223020600138
-0.007501444880027888   -0.011317743860466262   -0.0021015185417740043
-0.003931234190646526   -0.00398260560961511   -0.0010447683963700069
-0.0034199193027540796   -0.011132383235493589   -0.0017643561464992484
-0.007501444880027888   -0.011317743860466262   -0.0021015185417740043
-0.0017513602979145652   -0.0036691332569495595   -0.0010575689211671897
-0.003931234190646526   -0.00398260560961511   -0.0010447683963700069
-0.007531488929063347   -0.011433688536513446   -0.0018784223020600138
-0.0017126029901399075   -0.003715259354468325   -0.0009422106242232375
-0.003929541658195303   -0.004007025775844162   -0.0007856091420165793
-0.007531488929063347   -0.011433688536513446   -0.0018784223020600138
-0.0034199193027540796   -0.011132383235493589   -0.0017643561464992484
-0.0017126029901399075   -0.003715259354468325   -0.0009422106242232375
-0.003380756804644676   -0.011130933408956977   -0.0016704674922524252
-0.003929541658195303   -0.004007025775844162   -0.0007856091420165793
-0.0016773662048458454   -0.003695984399620347   -0.0008229122367393465
-0.003380756804644676   -0.011130933408956977   -0.0016704674922524252
-0.0017126029901399075   -0.003715259354468325   -0.0009422106242232375
-0.003929541658195303   -0.004007025775844162   -0.0007856091420165793
-0.003380756804644676   -0.011130933408956977   -0.0016704674922524252
-0.007509569581949516   -0.011493786076910617   -0.001669566530195699
-0.007531488929063347   -0.011433688536513446   -0.0018784223020600138
-0.003929541658195303   -0.004007025775844162   -0.0007856091420165793
-0.003380756804644676   -0.011130933408956977   -0.0016704674922524252
-0.007531488929063347   -0.011433688536513446   -0.0018784223020600138
-0.0017126029901399075   -0.003715259354468325   -0.0009422106242232375
-0.0018206101683571328   -0.0035480836406446355   -0.0011759822786905692
-0.003475519364846042   -0.010952522666221948   -0.001991080407923799
0.00023748435499710375   -0.003567682339639854   -0.0009399425342336086
-0.0017513602979145652   -0.0036691332569495595   -0.0010575689211671897
-0.003475519364846042   -0.010952522666221948   -0.001991080407923799
0.00039801525240994265   -0.010957703114181835   -0.0017744166526302537
0.00023748435499710375   -0.003567682339639854   -0.0009399425342336086
0.000434365944121549   -0.011015138996180968   -0.0017666314908515804
-0.0017513602979145652   -0.0036691332569495595   -0.0010575689211671897
0.0002815327157962737   -0.0036304653700203727   -0.0009564229580367169
0.000434365944121549   -0.011015138996180968   -0.0017666314908515804
0.00023748435499710375   -0.003567682339639854   -0.0009399425342336086
-0.0017513602979145652   -0.0036691332569495595   -0.0010575689211671897
0.000434365944121549   -0.011015138996180968   -0.0017666314908515804
-0.0034460129258849486   -0.011073651346486938   -0.0018721703820609571
-0.003475519364846042   -0.010952522666221948   -0.001991080407923799
-0.0017513602979145652   -0.0036691332569495595   -0.0010575689211671897
0.000434365944121549   -0.011015138996180968   -0.0017666314908515804
-0.003475519364846042   -0.010952522666221948   -0.001991080407923799
0.00023748435499710375   -0.003567682339639854   -0.0009399425342336086
-0.0017513602979145652   -0.0036691332569495595   -0.0010575689211671897
-0.0034460129258849486   -0.011073651346486938   -0.0018721703820609571
0.0002815327157962737   -0.0036304653700203727   -0.0009564229580367169
-0.0017126029901399075   -0.003715259354468325   -0.0009422106242232375
-0.0034460129258849486   -0.011073651346486938   -0.0018721703820609571
0.000434365944121549   -0.011015138996180968   -0.0017666314908515804
0.0002815327157962737   -0.0036304653700203727   -0.0009564229580367169
0.0004586728445468075   -0.011011642433772117   -0.0017714416935145187
-0.0017126029901399075   -0.003715259354468325   -0.0009422106242232375
0.0003162546446430931   -0.003625296906741582   -0.0009712774981967506
0.0004586728445468075   -0.011011642433772117   -0.0017714416935145187
0.0002815327157962737   -0.0036304653700203727   -0.0009564229580367169
-0.0017126029901399075   -0.003715259354468325   -0.0009422106242232375
0.0004586728445468075   -0.011011642433772117   -0.0017714416935145187
-0.0034199193027540796   -0.011132383235493589   -0.0017643561464992484
-0.0034460129258849486   -0.011073651346486938   -0.0018721703820609571
-0.0017126029901399075   -0.003715259354468325   -0.0009422106242232375
0.0004586728445468075   -0.011011642433772117   -0.0017714416935145187
-0.0034460129258849486   -0.011073651346486938   -0.0018721703820609571
0.0002815327157962737   -0.0036304653700203727   -0.0009564229580367169
-0.0017126029901399075   -0.003715259354468325   -0.0009422106242232375
-0.0034199193027540796   -0.011132383235493589   -0.0017643561464992484
0.0003162546446430931   -0.003625296906741582   -0.0009712774981967506
-0.0016773662048458454   -0.003695984399620347   -0.0008229122367393465
-0.0034199193027540796   -0.011132383235493589   -0.0017643561464992484
0.0004586728445468075   -0.011011642433772117   -0.0017714416935145187
0.0003162546446430931   -0.003625296906741582   -0.0009712774981967506
0.00048478615223918677   -0.010945351721983314   -0.0017890470233928395
-0.0016773662048458454   -0.003695984399620347   -0.0008229122367393465
0.00036308324399048704   -0.003546597947900986   -0.000986505793211738
0.00048478615223918677   -0.010945351721983314   -0.0017890470233928395
0.0003162546446430931   -0.003625296906741582   -0.0009712774981967506
-0.0016773662048458454   -0.003695984399620347   -0.0008229122367393465
0.00048478615223918677   -0.010945351721983314   -0.0017890470233928395
-0.003380756804644676   -0.011130933408956977   -0.0016704674922524252
-0.0034199193027540796   -0.011132383235493589   -0.0017643561464992484
-0.0016773662048458454   -0.003695984399620347   -0.0008229122367393465
0.00048478615223918677   -0.010945351721983314   -0.0017890470233928395
-0.0034199193027540796   -0.011132383235493589   -0.0017643561464992484
0.0003162546446430931   -0.003625296906741582   -0.0009712774981967506
0.00023748435499710375   -0.003567682339639854   -0.0009399425342336086
0.00039801525240994265   -0.010957703114181835   -0.0017744166526302537
0.0024712326984882983   -0.0037415915038023274   -0.0008231076275051586
0.0002815327157962737   -0.0036304653700203727   -0.0009564229580367169
0.00039801525240994265   -0.010957703114181835   -0.0017744166526302537
0.004502612190269395   -0.011136509061786636   -0.001673220517240641
0.0024712326984882983   -0.0037415915038023274   -0.0008231076275051586
0.004522927611294698   -0.011136094056628857   -0.001780167137739949
0.0002815327157962737   -0.0036304653700203727   -0.0009564229580367169
0.0024751726407190896   -0.003761625947849263   -0.0009815234977757054
0.004522927611294698   -0.011136094056628857   -0.001780167137739949
0.0024712326984882983   -0.0037415915038023274   -0.0008231076275051586
0.0002815327157962737   -0.0036304653700203727   -0.0009564229580367169
0.004522927611294698   -0.011136094056628857   -0.001780167137739949
0.000434365944121549   -0.011015138996180968   -0.0017666314908515804
0.00039801525240994265   -0.010957703114181835   -0.0017744166526302537
0.0002815327157962737   -0.0036304653700203727   -0.0009564229580367169
0.004522927611294698   -0.011136094056628857   -0.001780167137739949
0.00039801525240994265   -0.010957703114181835   -0.0017744166526302537
0.0024712326984882983   -0.0037415915038023274   -0.0008231076275051586
0.0002815327157962737   -0.0036304653700203727   -0.0009564229580367169
0.000434365944121549   -0.011015138996180968   -0.0017666314908515804
0.0024751726407190896   -0.003761625947849263   -0.0009815234977757054
0.0003162546446430931   -0.003625296906741582   -0.0009712774981967506
0.000434365944121549   -0.011015138996180968   -0.0017666314908515804
0.004522927611294698   -0.011136094056628857   -0.001780167137739949
0.0024751726407190896   -0.003761625947849263   -0.0009815234977757054
0.004501523036459094   -0.0110759169894755   -0.001901364422308873
0.0003162546446430931   -0.003625296906741582   -0.0009712774981967506
0.0024641803063742153   -0.0037079080947297013   -0.0011334550364601006
0.004501523036459094   -0.0110759169894755   -0.001901364422308873
0.0024751726407190896   -0.003761625947849263   -0.0009815234977757054
0.0003162546446430931   -0.003625296906741582   -0.0009712774981967506
0.004501523036459094   -0.0110759169894755   -0.001901364422308873
0.0004586728445468075   -0.011011642433772117   -0.0017714416935145187
0.000434365944121549   -0.011015138996180968   -0.0017666314908515804
0.0003162546446430931   -0.003625296906741582   -0.0009712774981967506
0.004501523036459094   -0.0110759169894755   -0.001901364422308873
0.000434365944121549   -0.011015138996180968   -0.0017666314908515804
0.0024751726407190896   -0.003761625947849263   -0.0009815234977757054
0.0003162546446430931   -0.003625296906741582   -0.0009712774981967506
0.0004586728445468075   -0.011011642433772117   -0.0017714416935145187
0.0024641803063742153   -0.0037079080947297013   -0.0011334550364601006
0.00036308324399048704   -0.003546597947900986   -0.000986505793211738
0.0004586728445468075   -0.011011642433772117   -0.0017714416935145187
0.004501523036459094   -0.0110759169894755   -0.001901364422308873
0.0024641803063742153   -0.0037079080947297013   -0.0011334550364601006
0.004489074005990636   -0.010939503609826769   -0.002032329994670616
0.00036308324399048704   -0.003546597947900986   -0.000986505793211738
0.0025115278568158257   -0.003563955280620011   -0.0012824619227767332
0.004489074005990636   -0.010939503609826769   -0.002032329994670616
0.0024641803063742153   -0.0037079080947297013   -0.0011334550364601006
0.00036308324399048704   -0.003546597947900986   -0.000986505793211738
0.004489074005990636   -0.010939503609826769   -0.002032329994670616
0.00048478615223918677   -0.010945351721983314   -0.0017890470233928395
0.0004586728445468075   -0.011011642433772117   -0.0017714416935145187
0.00036308324399048704   -0.003546597947900986   -0.000986505793211738
0.004489074005990636   -0.010939503609826769   -0.002032329994670616
0.0004586728445468075   -0.011011642433772117   -0.0017714416935145187
0.0024641803063742153   -0.0037079080947297013   -0.0011334550364601006
0.0024712326984882983   -0.0037415915038023274   -0.0008231076275051586
0.004502612190269395   -0.011136509061786636   -0.001673220517240641
0.005576758508882865   -0.004182267046973213   -0.0007763962944613622
0.0024751726407190896   -0.003761625947849263   -0.0009815234977757054
0.004502612190269395   -0.011136509061786636   -0.001673220517240641
0.009455037094240087   -0.011468953909542442   -0.0016457685221537084
0.005576758508882865   -0.004182267046973213   -0.0007763962944613622
0.009261952664164423   -0.011437792522107887   -0.0018863044287249187
0.0024751726407190896   -0.003761625947849263   -0.0009815234977757054
0.005236886073537299   -0.004136714689428148   -0.001135440168883825
0.009261952664164423   -0.011437792522107887   -0.0018863044287249187
0.005576758508882865   -0.004182267046973213   -0.0007763962944613622
0.0024751726407190896   -0.003761625947849263   -0.0009815234977757054
0.009261952664164423   -0.011437792522107887   -0.0018863044287249187
0.004522927611294698   -0.011136094056628857   -0.001780167137739949
0.004502612190269395   -0.011136509061786636   -0.001673220517240641
0.0024751726407190896   -0.003761625947849263   -0.0009815234977757054
0.009261952664164423   -0.011437792522107887   -0.0018863044287249187
0.004502612190269395   -0.011136509061786636   -0.001673220517240641
0.005576758508882865   -0.004182267046973213   -0.0007763962944613622
0.0024751726407190896   -0.003761625947849263   -0.0009815234977757054
0.004522927611294698   -0.011136094056628857   -0.001780167137739949
0.005236886073537299   -0.004136714689428148   -0.001135440168883825
0.0024641803063742153   -0.0037079080947297013   -0.0011334550364601006
0.004522927611294698   -0.011136094056628857   -0.001780167137739949
0.009261952664164423   -0.011437792522107887   -0.0018863044287249187
0.005236886073537299   -0.004136714689428148   -0.001135440168883825
0.00908945835834226   -0.011344994395079987   -0.002156830493164474
0.0024641803063742153   -0.0037079080947297013   -0.0011334550364601006
0.005079980454315013   -0.004050705835234005   -0.0014390263842116418
0.00908945835834226   -0.011344994395079987   -0.002156830493164474
0.005236886073537299   -0.004136714689428148   -0.001135440168883825
0.0024641803063742153   -0.0037079080947297013   -0.0011334550364601006
0.00908945835834226   -0.011344994395079987   -0.002156830493164474
0.004501523036459094   -0.0110759169894755   -0.001901364422308873
0.004522927611294698   -0.011136094056628857   -0.001780167137739949
0.0024641803063742153   -0.0037079080947297013   -0.0011334550364601006
0.00908945835834226   -0.011344994395079987   -0.002156830493164474
0.004522927611294698   -0.011136094056628857   -0.001780167137739949
0.005236886073537299   -0.004136714689428148   -0.001135440168883825
0.0024641803063742153   -0.0037079080947297013   -0.0011334550364601006
0.004501523036459094   -0.0110759169894755   -0.001901364422308873
0.005079980454315013   -0.004050705835234005   -0.0014390263842116418
0.0025115278568158257   -0.003563955280620011   -0.0012824619227767332
0.004501523036459094   -0.0110759169894755   -0.001901364422308873
0.00908945835834226   -0.011344994395079987   -0.002156830493164474
0.005079980454315013   -0.004050705835234005   -0.0014390263842116418
0.008831290254140202   -0.011138372183828123   -0.0024383945559812315
0.0025115278568158257   -0.003563955280620011   -0.0012824619227767332
0.0048466657783379045   -0.0038305551769418373   -0.0017602173512787603
0.008831290254140202   -0.011138372183828123   -0.0024383945559812315
0.005079980454315013   -0.004050705835234005   -0.0014390263842116418
0.0025115278568158257   -0.003563955280620011   -0.0012824619227767332
0.008831290254140202   -0.011138372183828123   -0.0024383945559812315
0.004489074005990636   -0.010939503609826769   -0.002032329994670616
0.004501523036459094   -0.0110759169894755   -0.001901364422308873
0.0025115278568158257   -0.003563955280620011   -0.0012824619227767332
0.008831290254140202   -0.011138372183828123   -0.0024383945559812315
0.004501523036459094   -0.0110759169894755   -0.001901364422308873
0.005079980454315013   -0.004050705835234005   -0.0014390263842116418
-0.011738174951866402   -0.011503482726857101   -0.0028354177589979073
-0.016086092719078283   -0.02157935143739767   -0.0032292131560496635
-0.007492127915141229   -0.011127479239735321   -0.0023336471756332973
-0.012090477128265015   -0.011768927961811105   -0.002458408196649439
-0.016086092719078283   -0.02157935143739767   -0.0032292131560496635
-0.010341950933057507   -0.021291910589726893   -0.002822080767944912
-0.007492127915141229   -0.011127479239735321   -0.0023336471756332973
-0.01036517289955325   -0.02145619328778953   -0.0026419270731218546
-0.012090477128265015   -0.011768927961811105   -0.002458408196649439
-0.007501444880027888   -0.011317743860466262   -0.0021015185417740043
-0.01036517289955325   -0.02145619328778953   -0.0026419270731218546
-0.007492127915141229   -0.011127479239735321   -0.0023336471756332973
-0.012090477128265015   -0.011768927961811105   -0.002458408196649439
-0.01036517289955325   -0.02145619328778953   -0.0026419270731218546
-0.016372886730327184   -0.02180384055326906   -0.0029479189023977805
-0.016086092719078283   -0.02157935143739767   -0.0032292131560496635
-0.012090477128265015   -0.011768927961811105   -0.002458408196649439
-0.01036517289955325   -0.02145619328778953   -0.0026419270731218546
-0.016086092719078283   -0.02157935143739767   -0.0032292131560496635
-0.007492127915141229   -0.011127479239735321   -0.0023336471756332973
-0.012090477128265015   -0.011768927961811105   -0.002458408196649439
-0.016372886730327184   -0.02180384055326906   -0.0029479189023977805
-0.007501444880027888   -0.011317743860466262   -0.0021015185417740043
-0.012335450401938139   -0.01191879962859086   -0.0020892098216206234
-0.016372886730327184   -0.02180384055326906   -0.0029479189023977805
-0.01036517289955325   -0.02145619328778953   -0.0026419270731218546
-0.007501444880027888   -0.011317743860466262   -0.0021015185417740043
-0.010392451937608998   -0.021570482974012744   -0.0024747916825973958
-0.012335450401938139   -0.01191879962859086   -0.0020892098216206234
-0.007531488929063347   -0.011433688536513446   -0.0018784223020600138
-0.010392451937608998   -0.021570482974012744   -0.0024747916825973958
-0.007501444880027888   -0.011317743860466262   -0.0021015185417740043
-0.012335450401938139   -0.01191879962859086   -0.0020892098216206234
-0.010392451937608998   -0.021570482974012744   -0.0024747916825973958
-0.016553935928780374   -0.021944569728210937   -0.002685709524136325
-0.016372886730327184   -0.02180384055326906   -0.0029479189023977805
-0.012335450401938139   -0.01191879962859086   -0.0020892098216206234
-0.010392451937608998   -0.021570482974012744   -0.0024747916825973958
-0.016372886730327184   -0.02180384055326906   -0.0029479189023977805
-0.007501444880027888   -0.011317743860466262   -0.0021015185417740043
-0.012335450401938139   -0.01191879962859086   -0.0020892098216206234
-0.016553935928780374   -0.021944569728210937   -0.002685709524136325
-0.007531488929063347   -0.011433688536513446   -0.0018784223020600138
-0.012625020389782658   -0.012005818285154022   -0.0017532411588707154
-0.016553935928780374   -0.021944569728210937   -0.002685709524136325
-0.010392451937608998   -0.021570482974012744   -0.0024747916825973958
-0.007531488929063347   -0.011433688536513446   -0.0018784223020600138
-0.010373548824629887   -0.021645618932041734   -0.00231790242020394
-0.012625020389782658   -0.012005818285154022   -0.0017532411588707154
-0.007509569581949516   -0.011493786076910617   -0.001669566530195699
-0.010373548824629887   -0.021645618932041734   -0.00231790242020394
-0.007531488929063347   -0.011433688536513446   -0.0018784223020600138
-0.012625020389782658   -0.012005818285154022   -0.0017532411588707154
-0.010373548824629887   -0.021645618932041734   -0.00231790242020394
-0.016759933654173404   -0.022045688541386253   -0.002444369312523619
-0.016553935928780374   -0.021944569728210937   -0.002685709524136325
-0.012625020389782658   -0.012005818285154022   -0.0017532411588707154
-0.010373548824629887   -0.021645618932041734   -0.00231790242020394
-0.016553935928780374   -0.021944569728210937   -0.002685709524136325
-0.007531488929063347   -0.011433688536513446   -0.0018784223020600138
-0.007492127915141229   -0.011127479239735321   -0.0023336471756332973
-0.010341950933057507   -0.021291910589726893   -0.002822080767944912
-0.003475519364846042   -0.010952522666221948   -0.001991080407923799
-0.007501444880027888   -0.011317743860466262   -0.0021015185417740043
-0.010341950933057507   -0.021291910589726893   -0.002822080767944912
-0.0049252876018056665   -0.021148635133396366   -0.00253920262297841
-0.003475519364846042   -0.010952522666221948   -0.001991080407923799
-0.004913498836423377   -0.02125371624556763   -0.0024374372628486237
-0.007501444880027888   -0.011317743860466262   -0.0021015185417740043
-0.0034460129258849486   -0.011073651346486938   -0.0018721703820609571
-0.004913498836423377   -0.02125371624556763   -0.0024374372628486237
-0.003475519364846042   -0.010952522666221948   -0.001991080407923799
-0.007501444880027888   -0.011317743860466262   -0.0021015185417740043
-0.004913498836423377   -0.02125371624556763   -0.0024374372628486237
-0.01036517289955325   -0.02145619328778953   -0.0026419270731218546
-0.010341950933057507   -0.021291910589726893   -0.002822080767944912
-0.007501444880027888   -0.011317743860466262   -0.0021015185417740043
-0.004913498836423377   -0.02125371624556763   -0.0024374372628486237
-0.010341950933057507   -0.021291910589726893   -0.002822080767944912
-0.003475519364846042   -0.010952522666221948   -0.001991080407923799
-0.007501444880027888   -0.011317743860466262   -0.0021015185417740043
-0.01036517289955325   -0.02145619328778953   -0.0026419270731218546
-0.0034460129258849486   -0.011073651346486938   -0.0018721703820609571
-0.007531488929063347   -0.011433688536513446   -0.0018784223020600138
-0.01036517289955325   -0.02145619328778953   -0.0026419270731218546
-0.004913498836423377   -0.02125371624556763   -0.0024374372628486237
-0.0034460129258849486   -0.011073651346486938   -0.0018721703820609571
-0.00489893241892644   -0.021315426208607848   -0.0023480715457511315
-0.007531488929063347   -0.011433688536513446   -0.0018784223020600138
-0.0034199193027540796   -0.011132383235493589   -0.0017643561464992484
-0.00489893241892644   -0.021315426208607848   -0.0023480715457511315
-0.0034460129258849486   -0.011073651346486938   -0.0018721703820609571
-0.007531488929063347   -0.011433688536513446   -0.0018784223020600138
-0.00489893241892644   -0.021315426208607848   -0.0023480715457511315
-0.010392451937608998   -0.021570482974012744   -0.0024747916825973958
-0.01036517289955325   -0.02145619328778953   -0.0026419270731218546
-0.007531488929063347   -0.011433688536513446   -0.0018784223020600138
-0.00489893241892644   -0.021315426208607848   -0.0023480715457511315
-0.01036517289955325   -0.02145619328778953   -0.0026419270731218546
-0.0034460129258849486   -0.011073651346486938   -0.0018721703820609571
-0.007531488929063347   -0.011433688536513446   -0.0018784223020600138
-0.010392451937608998   -0.021570482974012744   -0.0024747916825973958
-0.0034199193027540796   -0.011132383235493589   -0.0017643561464992484
-0.007509569581949516   -0.011493786076910617   -0.001669566530195699
-0.010392451937608998   -0.021570482974012744   -0.0024747916825973958
-0.00489893241892644   -0.021315426208607848   -0.0023480715457511315
-0.0034199193027540796   -0.011132383235493589   -0.0017643561464992484
-0.004874645492486368   -0.021334647336942143   -0.002271067040381462
-0.007509569581949516   -0.011493786076910617   -0.001669566530195699
-0.003380756804644676   -0.011130933408956977   -0.0016704674922524252
-0.004874645492486368   -0.021334647336942143   -0.002271067040381462
-0.0034199193027540796   -0.011132383235493589   -0.0017643561464992484
-0.007509569581949516   -0.011493786076910617   -0.001669566530195699
-0.004874645492486368   -0.021334647336942143   -0.002271067040381462
-0.010373548824629887   -0.021645618932041734   -0.00231790242020394
-0.010392451937608998   -0.021570482974012744   -0.0024747916825973958
-0.007509569581949516   -0.011493786076910617   -0.001669566530195699
-0.004874645492486368   -0.021334647336942143   -0.002271067040381462
-0.010392451937608998   -0.021570482974012744   -0.0024747916825973958
-0.0034199193027540796   -0.011132383235493589   -0.0017643561464992484
-0.003475519364846042   -0.010952522666221948   -0.001991080407923799
-0.0049252876018056665   -0.021148635133396366   -0.00253920262297841
0.00039801525240994265   -0.010957703114181835   -0.0017744166526302537
-0.0034460129258849486   -0.011073651346486938   -0.0018721703820609571
-0.0049252876018056665   -0.021148635133396366   -0.00253920262297841
0.0003325226859604671   -0.02114101721387299   -0.0023637306239577267
0.00039801525240994265   -0.010957703114181835   -0.0017744166526302537
0.0003546435075697121   -0.021187837516883596   -0.0023399302660188984
-0.0034460129258849486   -0.011073651346486938   -0.0018721703820609571
0.000434365944121549   -0.011015138996180968   -0.0017666314908515804
0.0003546435075697121   -0.021187837516883596   -0.0023399302660188984
0.00039801525240994265   -0.010957703114181835   -0.0017744166526302537
-0.0034460129258849486   -0.011073651346486938   -0.0018721703820609571
0.0003546435075697121   -0.021187837516883596   -0.0023399302660188984
-0.004913498836423377   -0.02125371624556763   -0.0024374372628486237
-0.0049252876018056665   -0.021148635133396366   -0.00253920262297841
-0.0034460129258849486   -0.011073651346486938   -0.0018721703820609571
0.0003546435075697121   -0.021187837516883596   -0.0023399302660188984
-0.0049252876018056665   -0.021148635133396366   -0.00253920262297841
0.00039801525240994265   -0.010957703114181835   -0.0017744166526302537
-0.0034460129258849486   -0.011073651346486938   -0.0018721703820609571
-0.004913498836423377   -0.02125371624556763   -0.0024374372628486237
0.000434365944121549   -0.011015138996180968   -0.0017666314908515804
-0.0034199193027540796   -0.011132383235493589   -0.0017643561464992484
-0.004913498836423377   -0.02125371624556763   -0.0024374372628486237
0.0003546435075697121   -0.021187837516883596   -0.0023399302660188984
0.000434365944121549   -0.011015138996180968   -0.0017666314908515804
0.00036863012965341366   -0.02119146179062211   -0.0023282038809392556
-0.0034199193027540796   -0.011132383235493589   -0.0017643561464992484
0.0004586728445468075   -0.011011642433772117   -0.0017714416935145187
0.00036863012965341366   -0.02119146179062211   -0.0023282038809392556
0.000434365944121549   -0.011015138996180968   -0.0017666314908515804
-0.0034199193027540796   -0.011132383235493589   -0.0017643561464992484
0.00036863012965341366   -0.02119146179062211   -0.0023282038809392556
-0.00489893241892644   -0.021315426208607848   -0.0023480715457511315
-0.004913498836423377   -0.02125371624556763   -0.0024374372628486237
-0.0034199193027540796   -0.011132383235493589   -0.0017643561464992484
0.00036863012965341366   -0.02119146179062211   -0.0023282038809392556
-0.004913498836423377   -0.02125371624556763   -0.0024374372628486237
0.000434365944121549   -0.011015138996180968   -0.0017666314908515804
-0.0034199193027540796   -0.011132383235493589   -0.0017643561464992484
-0.00489893241892644   -0.021315426208607848   -0.0023480715457511315
0.0004586728445468075   -0.011011642433772117   -0.0017714416935145187
-0.003380756804644676   -0.011130933408956977   -0.0016704674922524252
-0.00489893241892644   -0.021315426208607848   -0.0023480715457511315
0.00036863012965341366   -0.02119146179062211   -0.0023282038809392556
0.0004586728445468075   -0.011011642433772117   -0.0017714416935145187
0.0003785904199757911   -0.021151245319944993   -0.0023292872051905995
-0.003380756804644676   -0.011130933408956977   -0.0016704674922524252
0.00048478615223918677   -0.010945351721983314   -0.0017890470233928395
0.0003785904199757911   -0.021151245319944993   -0.0023292872051905995
0.0004586728445468075   -0.011011642433772117   -0.0017714416935145187
-0.003380756804644676   -0.011130933408956977   -0.0016704674922524252
0.0003785904199757911   -0.021151245319944993   -0.0023292872051905995
-0.004874645492486368   -0.021334647336942143   -0.002271067040381462
-0.00489893241892644   -0.021315426208607848   -0.0023480715457511315
-0.003380756804644676   -0.011130933408956977   -0.0016704674922524252
0.0003785904199757911   -0.021151245319944993   -0.0023292872051905995
-0.00489893241892644   -0.021315426208607848   -0.0023480715457511315
0.0004586728445468075   -0.011011642433772117   -0.0017714416935145187
0.00039801525240994265   -0.010957703114181835   -0.0017744166526302537
0.0003325226859604671   -0.02114101721387299   -0.0023637306239577267
0.004502612190269395   -0.011136509061786636   -0.001673220517240641
0.000434365944121549   -0.011015138996180968   -0.0017666314908515804
0.0003325226859604671   -0.02114101721387299   -0.0023637306239577267
0.005814588910568062   -0.021260997799846477   -0.002292651566782965
0.004502612190269395   -0.011136509061786636   -0.001673220517240641
0.005833789072641906   -0.021254434862754346   -0.0023484395351749347
0.000434365944121549   -0.011015138996180968   -0.0017666314908515804
0.004522927611294698   -0.011136094056628857   -0.001780167137739949
0.005833789072641906   -0.021254434862754346   -0.0023484395351749347
0.004502612190269395   -0.011136509061786636   -0.001673220517240641
0.000434365944121549   -0.011015138996180968   -0.0017666314908515804
0.005833789072641906   -0.021254434862754346   -0.0023484395351749347
0.0003546435075697121   -0.021187837516883596   -0.0023399302660188984
0.0003325226859604671   -0.02114101721387299   -0.0023637306239577267
0.000434365944121549   -0.011015138996180968   -0.0017666314908515804
0.005833789072641906   -0.021254434862754346   -0.0023484395351749347
0.0003325226859604671   -0.02114101721387299   -0.0023637306239577267
0.004502612190269395   -0.011136509061786636   -0.001673220517240641
0.000434365944121549   -0.011015138996180968   -0.0017666314908515804
0.0003546435075697121   -0.021187837516883596   -0.0023399302660188984
0.004522927611294698   -0.011136094056628857   -0.001780167137739949
0.0004586728445468075   -0.011011642433772117   -0.0017714416935145187
0.0003546435075697121   -0.021187837516883596   -0.0023399302660188984
0.005833789072641906   -0.021254434862754346   -0.0023484395351749347
0.004522927611294698   -0.011136094056628857   -0.001780167137739949
0.005818425318661637   -0.0212055860901406   -0.0024154142797246274
0.0004586728445468075   -0.011011642433772117   -0.0017714416935145187
0.004501523036459094   -0.0110759169894755   -0.001901364422308873
0.005818425318661637   -0.0212055860901406   -0.0024154142797246274
0.004522927611294698   -0.011136094056628857   -0.001780167137739949
0.0004586728445468075   -0.011011642433772117   -0.0017714416935145187
0.005818425318661637   -0.0212055860901406   -0.0024154142797246274
0.00036863012965341366   -0.02119146179062211   -0.0023282038809392556
0.0003546435075697121   -0.021187837516883596   -0.0023399302660188984
0.0004586728445468075   -0.011011642433772117   -0.0017714416935145187
0.005818425318661637   -0.0212055860901406   -0.0024154142797246274
0.0003546435075697121   -0.021187837516883596   -0.0023399302660188984
0.004522927611294698   -0.011136094056628857   -0.001780167137739949
0.0004586728445468075   -0.011011642433772117   -0.0017714416935145187
0.00036863012965341366   -0.02119146179062211   -0.0023282038809392556
0.004501523036459094   -0.0110759169894755   -0.001901364422308873
0.00048478615223918677   -0.010945351721983314   -0.0017890470233928395
0.00036863012965341366   -0.02119146179062211   -0.0023282038809392556
0.005818425318661637   -0.0212055860901406   -0.0024154142797246274
0.004501523036459094   -0.0110759169894755   -0.001901364422308873
0.005795741982312433   -0.021103998736348516   -0.002494899599450177
0.00048478615223918677   -0.010945351721983314   -0.0017890470233928395
0.004489074005990636   -0.010939503609826769   -0.002032329994670616
0.005795741982312433   -0.021103998736348516   -0.002494899599450177
0.004501523036459094   -0.0110759169894755   -0.001901364422308873
0.00048478615223918677   -0.010945351721983314   -0.0017890470233928395
0.005795741982312433   -0.021103998736348516   -0.002494899599450177
0.0003785904199757911   -0.021151245319944993   -0.0023292872051905995
0.00036863012965341366   -0.02119146179062211   -0.0023282038809392556
0.00048478615223918677   -0.010945351721983314   -0.0017890470233928395
0.005795741982312433   -0.021103998736348516   -0.002494899599450177
0.00036863012965341366   -0.02119146179062211   -0.0023282038809392556
0.004501523036459094   -0.0110759169894755   -0.001901364422308873
0.004502612190269395   -0.011136509061786636   -0.001673220517240641
0.005814588910568062   -0.021260997799846477   -0.002292651566782965
0.009455037094240087   -0.011468953909542442   -0.0016457685221537084
0.004522927611294698   -0.011136094056628857   -0.001780167137739949
0.005814588910568062   -0.021260997799846477   -0.002292651566782965
0.012057536517446989   -0.021478729588411166   -0.0022937140321157867
0.009455037094240087   -0.011468953909542442   -0.0016457685221537084
0.011951826821837996   -0.02144143538757907   -0.002439386595245044
0.004522927611294698   -0.011136094056628857   -0.001780167137739949
0.009261952664164423   -0.011437792522107887   -0.0018863044287249187
0.011951826821837996   -0.02144143538757907   -0.002439386595245044
0.009455037094240087   -0.011468953909542442   -0.0016457685221537084
0.004522927611294698   -0.011136094056628857   -0.001780167137739949
0.011951826821837996   -0.02144143538757907   -0.002439386595245044
0.005833789072641906   -0.021254434862754346   -0.0023484395351749347
0.005814588910568062   -0.021260997799846477   -0.002292651566782965
0.004522927611294698   -0.011136094056628857   -0.001780167137739949
0.011951826821837996   -0.02144143538757907   -0.002439386595245044
0.005814588910568062   -0.021260997799846477   -0.002292651566782965
0.009455037094240087   -0.011468953909542442   -0.0016457685221537084
0.004522927611294698   -0.011136094056628857   -0.001780167137739949
0.005833789072641906   -0.021254434862754346   -0.0023484395351749347
0.009261952664164423   -0.011437792522107887   -0.0018863044287249187
0.004501523036459094   -0.0110759169894755   -0.001901364422308873
0.005833789072641906   -0.021254434862754346   -0.0023484395351749347
0.011951826821837996   -0.02144143538757907   -0.002439386595245044
0.009261952664164423   -0.011437792522107887   -0.0018863044287249187
0.011846421421258876   -0.021366194741373464   -0.0026052312964330747
0.004501523036459094   -0.0110759169894755   -0.001901364422308873
0.00908945835834226   -0.011344994395079987   -0.002156830493164474
0.011846421421258876   -0.021366194741373464   -0.0026052312964330747
0.009261952664164423   -0.011437792522107887   -0.0018863044287249187
0.004501523036459094   -0.0110759169894755   -0.001901364422308873
0.011846421421258876   -0.021366194741373464   -0.0026052312964330747
0.005818425318661637   -0.0212055860901406   -0.0024154142797246274
0.005833789072641906   -0.021254434862754346   -0.0023484395351749347
0.004501523036459094   -0.0110759169894755   -0.001901364422308873
0.011846421421258876   -0.021366194741373464   -0.0026052312964330747
0.005833789072641906   -0.021254434862754346   -0.0023484395351749347
0.009261952664164423   -0.011437792522107887   -0.0018863044287249187
0.004501523036459094   -0.0110759169894755   -0.001901364422308873
0.005818425318661637   -0.0212055860901406   -0.0024154142797246274
0.00908945835834226   -0.011344994395079987   -0.002156830493164474
0.004489074005990636   -0.010939503609826769   -0.002032329994670616
0.005818425318661637   -0.0212055860901406   -0.0024154142797246274
0.011846421421258876   -0.021366194741373464   -0.0026052312964330747
0.00908945835834226   -0.011344994395079987   -0.002156830493164474
0.011659687416017356   -0.02120820192815492   -0.0027912694000121366
0.004489074005990636   -0.010939503609826769   -0.002032329994670616
0.008831290254140202   -0.011138372183828123   -0.0024383945559812315
0.011659687416017356   -0.02120820192815492   -0.0027912694000121366
0.00908945835834226   -0.011344994395079987   -0.002156830493164474
0.004489074005990636   -0.010939503609826769   -0.002032329994670616
0.011659687416017356   -0.02120820192815492   -0.0027912694000121366
0.005795741982312433   -0.021103998736348516   -0.002494899599450177
0.005818425318661637   -0.0212055860901406   -0.0024154142797246274
0.004489074005990636   -0.010939503609826769   -0.002032329994670616
0.011659687416017356   -0.02120820192815492   -0.0027912694000121366
0.005818425318661637   -0.0212055860901406   -0.0024154142797246274
0.00908945835834226   -0.011344994395079987   -0.002156830493164474
-0.016086092719078283   -0.02157935143739767   -0.0032292131560496635
-0.019212711513581643   -0.03353025167563797   -0.003443447691350627
-0.010341950933057507   -0.021291910589726893   -0.002822080767944912
-0.016372886730327184   -0.02180384055326906   -0.0029479189023977805
-0.019212711513581643   -0.03353025167563797   -0.003443447691350627
-0.012470042383608557   -0.033347277548431566   -0.0031113573937228637
-0.010341950933057507   -0.021291910589726893   -0.002822080767944912
-0.01248553401212397   -0.03348865046668382   -0.0029823639022089924
-0.016372886730327184   -0.02180384055326906   -0.0029479189023977805
-0.01036517289955325   -0.02145619328778953   -0.0026419270731218546
-0.01248553401212397   -0.03348865046668382   -0.0029823639022089924
-0.010341950933057507   -0.021291910589726893   -0.002822080767944912
-0.016372886730327184   -0.02180384055326906   -0.0029479189023977805
-0.01248553401212397   -0.03348865046668382   -0.0029823639022089924
-0.01940618327287832   -0.03372148724000636   -0.003256554345545706
-0.019212711513581643   -0.03353025167563797   -0.003443447691350627
-0.016372886730327184   -0.02180384055326906   -0.0029479189023977805
-0.01248553401212397   -0.03348865046668382   -0.0029823639022089924
-0.019212711513581643   -0.03353025167563797   -0.003443447691350627
-0.010341950933057507   -0.021291910589726893   -0.002822080767944912
-0.016372886730327184   -0.02180384055326906   -0.0029479189023977805
-0.01940618327287832   -0.03372148724000636   -0.003256554345545706
-0.01036517289955325   -0.02145619328778953   -0.0026419270731218546
-0.016553935928780374   -0.021944569728210937   -0.002685709524136325
-0.01940618327287832   -0.03372148724000636   -0.003256554345545706
-0.01248553401212397   -0.03348865046668382   -0.0029823639022089924
-0.01036517289955325   -0.02145619328778953   -0.0026419270731218546
-0.012496743549194157   -0.033600692486286   -0.002866216153064254
-0.016553935928780374   -0.021944569728210937   -0.002685709524136325
-0.010392451937608998   -0.021570482974012744   -0.0024747916825973958
-0.012496743549194157   -0.033600692486286   -0.002866216153064254
-0.01036517289955325   -0.02145619328778953   -0.0026419270731218546
-0.016553935928780374   -0.021944569728210937   -0.002685709524136325
-0.012496743549194157   -0.033600692486286   -0.002866216153064254
-0.01951743792371316   -0.033856745846936785   -0.003087574190936534
-0.01940618327287832   -0.03372148724000636   -0.003256554345545706
-0.016553935928780374   -0.021944569728210937   -0.002685709524136325
-0.012496743549194157   -0.033600692486286   -0.002866216153064254
-0.01940618327287832   -0.03372148724000636   -0.003256554345545706
-0.01036517289955325   -0.02145619328778953   -0.0026419270731218546
-0.016553935928780374   -0.021944569728210937   -0.002685709524136325
-0.01951743792371316   -0.033856745846936785   -0.003087574190936534
-0.010392451937608998   -0.021570482974012744   -0.0024747916825973958
-0.016759933654173404   -0.022045688541386253   -0.002444369312523619
-0.01951743792371316   -0.033856745846936785   -0.003087574190936534
-0.012496743549194157   -0.033600692486286   -0.002866216153064254
-0.010392451937608998   -0.021570482974012744   -0.0024747916825973958
-0.012471385787323016   -0.033692691156632745   -0.0027612095907343552
-0.016759933654173404   -0.022045688541386253   -0.002444369312523619
-0.010373548824629887   -0.021645618932041734   -0.00231790242020394
-0.012471385787323016   -0.033692691156632745   -0.0027612095907343552
-0.010392451937608998   -0.021570482974012744   -0.0024747916825973958
-0.016759933654173404   -0.022045688541386253   -0.002444369312523619
-0.012471385787323016   -0.033692691156632745   -0.0027612095907343552
-0.019632076158831998   -0.0339779148419017   -0.002938633708740921
-0.01951743792371316   -0.033856745846936785   -0.003087574190936534
-0.016759933654173404   -0.022045688541386253   -0.002444369312523619
-0.012471385787323016   -0.033692691156632745   -0.0027612095907343552
-0.01951743792371316   -0.033856745846936785   -0.003087574190936534
-0.010392451937608998   -0.021570482974012744   -0.0024747916825973958
-0.010341950933057507   -0.021291910589726893   -0.002822080767944912
-0.012470042383608557   -0.033347277548431566   -0.0031113573937228637
-0.0049252876018056665   -0.021148635133396366   -0.00253920262297841
-0.01036517289955325   -0.02145619328778953   -0.0026419270731218546
-0.012470042383608557   -0.033347277548431566   -0.0031113573937228637
-0.0061485591624126255   -0.033252758504581106   -0.0028813896980016177
-0.0049252876018056665   -0.021148635133396366   -0.00253920262297841
-0.006137356768132655   -0.033341500798659725   -0.00279627821371665
-0.01036517289955325   -0.02145619328778953   -0.0026419270731218546
-0.004913498836423377   -0.02125371624556763   -0.0024374372628486237
-0.006137356768132655   -0.033341500798659725   -0.00279627821371665
-0.0049252876018056665   -0.021148635133396366   -0.00253920262297841
-0.01036517289955325   -0.02145619328778953   -0.0026419270731218546
-0.006137356768132655   -0.033341500798659725   -0.00279627821371665
-0.01248553401212397   -0.03348865046668382   -0.0029823639022089924
-0.012470042383608557   -0.033347277548431566   -0.0031113573937228637
-0.01036517289955325   -0.02145619328778953   -0.0026419270731218546
-0.006137356768132655   -0.033341500798659725   -0.00279627821371665
-0.012470042383608557   -0.033347277548431566   -0.0031113573937228637
-0.0049252876018056665   -0.021148635133396366   -0.00253920262297841
-0.01036517289955325   -0.02145619328778953   -0.0026419270731218546
-0.01248553401212397   -0.03348865046668382   -0.0029823639022089924
-0.004913498836423377   -0.02125371624556763   -0.0024374372628486237
-0.010392451937608998   -0.021570482974012744   -0.0024747916825973958
-0.01248553401212397   -0.03348865046668382   -0.0029823639022089924
-0.006137356768132655   -0.033341500798659725   -0.00279627821371665
-0.004913498836423377   -0.02125371624556763   -0.0024374372628486237
-0.006121872571554482   -0.033405668176384865   -0.0027238217809613147
-0.010392451937608998   -0.021570482974012744   -0.0024747916825973958
-0.00489893241892644   -0.021315426208607848   -0.0023480715457511315
-0.006121872571554482   -0.033405668176384865   -0.0027238217809613147
-0.004913498836423377   -0.02125371624556763   -0.0024374372628486237
-0.010392451937608998   -0.021570482974012744   -0.0024747916825973958
-0.006121872571554482   -0.033405668176384865   -0.0027238217809613147
-0.012496743549194157   -0.033600692486286   -0.002866216153064254
-0.01248553401212397   -0.03348865046668382   -0.0029823639022089924
-0.010392451937608998   -0.021570482974012744   -0.0024747916825973958
-0.006121872571554482   -0.033405668176384865   -0.0027238217809613147
-0.01248553401212397   -0.03348865046668382   -0.0029823639022089924
-0.004913498836423377   -0.02125371624556763   -0.0024374372628486237
-0.010392451937608998   -0.021570482974012744   -0.0024747916825973958
-0.012496743549194157   -0.033600692486286   -0.002866216153064254
-0.00489893241892644   -0.021315426208607848   -0.0023480715457511315
-0.010373548824629887   -0.021645618932041734   -0.00231790242020394
-0.012496743549194157   -0.033600692486286   -0.002866216153064254
-0.006121872571554482   -0.033405668176384865   -0.0027238217809613147
-0.00489893241892644   -0.021315426208607848   -0.0023480715457511315
-0.006098544904471848   -0.033445680758731465   -0.002664228378137988
-0.010373548824629887   -0.021645618932041734   -0.00231790242020394
-0.004874645492486368   -0.021334647336942143   -0.002271067040381462
-0.006098544904471848   -0.033445680758731465   -0.002664228378137988
-0.00489893241892644   -0.021315426208607848   -0.0023480715457511315
-0.010373548824629887   -0.021645618932041734   -0.00231790242020394
-0.006098544904471848   -0.033445680758731465   -0.002664228378137988
-0.012471385787323016   -0.033692691156632745   -0.0027612095907343552
-0.012496743549194157   -0.033600692486286   -0.002866216153064254
-0.010373548824629887   -0.021645618932041734   -0.00231790242020394
-0.006098544904471848   -0.033445680758731465   -0.002664228378137988
-0.012496743549194157   -0.033600692486286   -0.002866216153064254
-0.00489893241892644   -0.021315426208607848   -0.0023480715457511315
-0.0049252876018056665   -0.021148635133396366   -0.00253920262297841
-0.0061485591624126255   -0.033252758504581106   -0.0028813896980016177
0.0003325226859604671   -0.02114101721387299   -0.0023637306239577267
-0.004913498836423377   -0.02125371624556763   -0.0024374372628486237
-0.0061485591624126255   -0.033252758504581106   -0.0028813896980016177
1.377240339782105e-06   -0.03323653496640908   -0.002747368705701614
0.0003325226859604671   -0.02114101721387299   -0.0023637306239577267
2.2882610721975208e-05   -0.03327237747165455   -0.002706474620087164
-0.004913498836423377   -0.02125371624556763   -0.0024374372628486237
0.0003546435075697121   -0.021187837516883596   -0.0023399302660188984
2.2882610721975208e-05   -0.03327237747165455   -0.002706474620087164
0.0003325226859604671   -0.02114101721387299   -0.0023637306239577267
-0.004913498836423377   -0.02125371624556763   -0.0024374372628486237
2.2882610721975208e-05   -0.03327237747165455   -0.002706474620087164
-0.006137356768132655   -0.033341500798659725   -0.00279627821371665
-0.0061485591624126255   -0.033252758504581106   -0.0028813896980016177
-0.004913498836423377   -0.02125371624556763   -0.0024374372628486237
2.2882610721975208e-05   -0.03327237747165455   -0.002706474620087164
-0.0061485591624126255   -0.033252758504581106   -0.0028813896980016177
0.0003325226859604671   -0.02114101721387299   -0.0023637306239577267
-0.004913498836423377   -0.02125371624556763   -0.0024374372628486237
-0.006137356768132655   -0.033341500798659725   -0.00279627821371665
0.0003546435075697121   -0.021187837516883596   -0.0023399302660188984
-0.00489893241892644   -0.021315426208607848   -0.0023480715457511315
-0.006137356768132655   -0.033341500798659725   -0.00279627821371665
2.2882610721975208e-05   -0.03327237747165455   -0.002706474620087164
0.0003546435075697121   -0.021187837516883596   -0.0023399302660188984
3.8053195883524526e-05   -0.03328347620564872   -0.0026780735228689465
-0.00489893241892644   -0.021315426208607848   -0.0023480715457511315
0.00036863012965341366   -0.02119146179062211   -0.0023282038809392556
3.8053195883524526e-05   -0.03328347620564872   -0.0026780735228689465
0.0003546435075697121   -0.021187837516883596   -0.0023399302660188984
-0.00489893241892644   -0.021315426208607848   -0.0023480715457511315
3.8053195883524526e-05   -0.03328347620564872   -0.0026780735228689465
-0.006121872571554482   -0.033405668176384865   -0.0027238217809613147
-0.006137356768132655   -0.033341500798659725   -0.00279627821371665
-0.00489893241892644   -0.021315426208607848   -0.0023480715457511315
3.8053195883524526e-05   -0.03328347620564872   -0.0026780735228689465
-0.006137356768132655   -0.033341500798659725   -0.00279627821371665
0.0003546435075697121   -0.021187837516883596   -0.0023399302660188984
-0.00489893241892644   -0.021315426208607848   -0.0023480715457511315
-0.006121872571554482   -0.033405668176384865   -0.0027238217809613147
0.00036863012965341366   -0.02119146179062211   -0.0023282038809392556
-0.004874645492486368   -0.021334647336942143   -0.002271067040381462
-0.006121872571554482   -0.033405668176384865   -0.0027238217809613147
3.8053195883524526e-05   -0.03328347620564872   -0.0026780735228689465
0.00036863012965341366   -0.02119146179062211   -0.0023282038809392556
4.749955155615754e-05   -0.03326949228246163   -0.0026627196675678365
-0.004874645492486368   -0.021334647336942143   -0.002271067040381462
0.0003785904199757911   -0.021151245319944993   -0.0023292872051905995
4.749955155615754e-05   -0.03326949228246163   -0.0026627196675678365
0.00036863012965341366   -0.02119146179062211   -0.0023282038809392556
-0.004874645492486368   -0.021334647336942143   -0.002271067040381462
4.749955155615754e-05   -0.03326949228246163   -0.0026627196675678365
-0.006098544904471848   -0.033445680758731465   -0.002664228378137988
-0.006121872571554482   -0.033405668176384865   -0.0027238217809613147
-0.004874645492486368   -0.021334647336942143   -0.002271067040381462
4.749955155615754e-05   -0.03326949228246163   -0.0026627196675678365
-0.006121872571554482   -0.033405668176384865   -0.0027238217809613147
0.00036863012965341366   -0.02119146179062211   -0.0023282038809392556
0.0003325226859604671   -0.02114101721387299   -0.0023637306239577267
1.377240339782105e-06   -0.03323653496640908   -0.002747368705701614
0.005814588910568062   -0.021260997799846477   -0.002292651566782965
0.0003546435075697121   -0.021187837516883596   -0.0023399302660188984
1.377240339782105e-06   -0.03323653496640908   -0.002747368705701614
0.006362770168692647   -0.03329193002643323   -0.002708736237228978
0.005814588910568062   -0.021260997799846477   -0.002292651566782965
0.006389156583850716   -0.033277962889703756   -0.002712995255141155
0.0003546435075697121   -0.021187837516883596   -0.0023399302660188984
0.005833789072641906   -0.021254434862754346   -0.0023484395351749347
0.006389156583850716   -0.033277962889703756   -0.002712995255141155
0.005814588910568062   -0.021260997799846477   -0.002292651566782965
0.0003546435075697121   -0.021187837516883596   -0.0023399302660188984
0.006389156583850716   -0.033277962889703756   -0.002712995255141155
2.2882610721975208e-05   -0.03327237747165455   -0.002706474620087164
1.377240339782105e-06   -0.03323653496640908   -0.002747368705701614
0.0003546435075697121   -0.021187837516883596   -0.0023399302660188984
0.006389156583850716   -0.033277962889703756   -0.002712995255141155
1.377240339782105e-06   -0.03323653496640908   -0.002747368705701614
0.005814588910568062   -0.021260997799846477   -0.002292651566782965
0.0003546435075697121   -0.021187837516883596   -0.0023399302660188984
2.2882610721975208e-05   -0.03327237747165455   -0.002706474620087164
0.005833789072641906   -0.021254434862754346   -0.0023484395351749347
0.00036863012965341366   -0.02119146179062211   -0.0023282038809392556
2.2882610721975208e-05   -0.03327237747165455   -0.002706474620087164
0.006389156583850716   -0.033277962889703756   -0.002712995255141155
0.005833789072641906   -0.021254434862754346   -0.0023484395351749347
0.006390683979897992   -0.033241127563936455   -0.0027290759848638906
0.00036863012965341366   -0.02119146179062211   -0.0023282038809392556
0.005818425318661637   -0.0212055860901406   -0.0024154142797246274
0.006390683979897992   -0.033241127563936455   -0.0027290759848638906
0.005833789072641906   -0.021254434862754346   -0.0023484395351749347
0.00036863012965341366   -0.02119146179062211   -0.0023282038809392556
0.006390683979897992   -0.033241127563936455   -0.0027290759848638906
3.8053195883524526e-05   -0.03328347620564872   -0.0026780735228689465
2.2882610721975208e-05   -0.03327237747165455   -0.002706474620087164
0.00036863012965341366   -0.02119146179062211   -0.0023282038809392556
0.006390683979897992   -0.033241127563936455   -0.0027290759848638906
2.2882610721975208e-05   -0.03327237747165455   -0.002706474620087164
0.005833789072641906   -0.021254434862754346   -0.0023484395351749347
0.00036863012965341366   -0.02119146179062211   -0.0023282038809392556
3.8053195883524526e-05   -0.03328347620564872   -0.0026780735228689465
0.005818425318661637   -0.0212055860901406   -0.0024154142797246274
0.0003785904199757911   -0.021151245319944993   -0.0023292872051905995
3.8053195883524526e-05   -0.03328347620564872   -0.0026780735228689465
0.006390683979897992   -0.033241127563936455   -0.0027290759848638906
0.005818425318661637   -0.0212055860901406   -0.0024154142797246274
0.006376255856727125   -0.03317218722407967   -0.0027574269810775936
0.0003785904199757911   -0.021151245319944993   -0.0023292872051905995
0.005795741982312433   -0.021103998736348516   -0.002494899599450177
0.006376255856727125   -0.03317218722407967   -0.0027574269810775936
0.005818425318661637   -0.0212055860901406   -0.0024154142797246274
0.0003785904199757911   -0.021151245319944993   -0.0023292872051905995
0.006376255856727125   -0.03317218722407967   -0.0027574269810775936
4.749955155615754e-05   -0.03326949228246163   -0.0026627196675678365
3.8053195883524526e-05   -0.03328347620564872   -0.0026780735228689465
0.0003785904199757911   -0.021151245319944993   -0.0023292872051905995
0.006376255856727125   -0.03317218722407967   -0.0027574269810775936
3.8053195883524526e-05   -0.03328347620564872   -0.0026780735228689465
0.005818425318661637   -0.0212055860901406   -0.0024154142797246274
0.005814588910568062   -0.021260997799846477   -0.002292651566782965
0.006362770168692647   -0.03329193002643323   -0.002708736237228978
0.012057536517446989   -0.021478729588411166   -0.0022937140321157867
0.005833789072641906   -0.021254434862754346   -0.0023484395351749347
0.006362770168692647   -0.03329193002643323   -0.002708736237228978
0.01338736372410294   -0.03339381759995302   -0.002744576109454922
0.012057536517446989   -0.021478729588411166   -0.0022937140321157867
0.013374252631417121   -0.033346134912190864   -0.0027976105033437958
0.005833789072641906   -0.021254434862754346   -0.0023484395351749347
0.011951826821837996   -0.02144143538757907   -0.002439386595245044
0.013374252631417121   -0.033346134912190864   -0.0027976105033437958
0.012057536517446989   -0.021478729588411166   -0.0022937140321157867
0.005833789072641906   -0.021254434862754346   -0.0023484395351749347
0.013374252631417121   -0.033346134912190864   -0.0027976105033437958
0.006389156583850716   -0.033277962889703756   -0.002712995255141155
0.006362770168692647   -0.03329193002643323   -0.002708736237228978
0.005833789072641906   -0.021254434862754346   -0.0023484395351749347
0.013374252631417121   -0.033346134912190864   -0.0027976105033437958
0.006362770168692647   -0.03329193002643323   -0.002708736237228978
0.012057536517446989   -0.021478729588411166   -0.0022937140321157867
0.005833789072641906   -0.021254434862754346   -0.0023484395351749347
0.006389156583850716   -0.033277962889703756   -0.002712995255141155
0.011951826821837996   -0.02144143538757907   -0.002439386595245044
0.005818425318661637   -0.0212055860901406   -0.0024154142797246274
0.006389156583850716   -0.033277962889703756   -0.002712995255141155
0.013374252631417121   -0.033346134912190864   -0.0027976105033437958
0.011951826821837996   -0.02144143538757907   -0.002439386595245044
0.01334009398998376   -0.0332860041962325   -0.0028698214280329813
0.005818425318661637   -0.0212055860901406   -0.0024154142797246274
0.011846421421258876   -0.021366194741373464   -0.0026052312964330747
0.01334009398998376   -0.0332860041962325   -0.0028698214280329813
0.011951826821837996   -0.02144143538757907   -0.002439386595245044
0.005818425318661637   -0.0212055860901406   -0.0024154142797246274
0.01334009398998376   -0.0332860041962325   -0.0028698214280329813
0.006390683979897992   -0.033241127563936455   -0.0027290759848638906
0.006389156583850716   -0.033277962889703756   -0.002712995255141155
0.005818425318661637   -0.0212055860901406   -0.0024154142797246274
0.01334009398998376   -0.0332860041962325   -0.0028698214280329813
0.006389156583850716   -0.033277962889703756   -0.002712995255141155
0.011951826821837996   -0.02144143538757907   -0.002439386595245044
0.005818425318661637   -0.0212055860901406   -0.0024154142797246274
0.006390683979897992   -0.033241127563936455   -0.0027290759848638906
0.011846421421258876   -0.021366194741373464   -0.0026052312964330747
0.005795741982312433   -0.021103998736348516   -0.002494899599450177
0.006390683979897992   -0.033241127563936455   -0.0027290759848638906
0.01334009398998376   -0.0332860041962325   -0.0028698214280329813
0.011846421421258876   -0.021366194741373464   -0.0026052312964330747
0.013248003640493677   -0.03317123211923683   -0.0029610699047452876
0.005795741982312433   -0.021103998736348516   -0.002494899599450177
0.011659687416017356   -0.02120820192815492   -0.0027912694000121366
0.013248003640493677   -0.03317123211923683   -0.0029610699047452876
0.011846421421258876   -0.021366194741373464   -0.0026052312964330747
0.005795741982312433   -0.021103998736348516   -0.002494899599450177
0.013248003640493677   -0.03317123211923683   -0.0029610699047452876
0.006376255856727125   -0.03317218722407967   -0.0027574269810775936
0.006390683979897992   -0.033241127563936455   -0.0027290759848638906
0.005795741982312433   -0.021103998736348516   -0.002494899599450177
0.013248003640493677   -0.03317123211923683   -0.0029610699047452876
0.006390683979897992   -0.033241127563936455   -0.0027290759848638906
0.011846421421258876   -0.021366194741373464   -0.0026052312964330747
-0.019212711513581643   -0.03353025167563797   -0.003443447691350627
-0.021107119786360755   -0.04654222575788392   -0.003506042775696336
-0.012470042383608557   -0.033347277548431566   -0.0031113573937228637
-0.01940618327287832   -0.03372148724000636   -0.003256554345545706
-0.021107119786360755   -0.04654222575788392   -0.003506042775696336
-0.01386788458360512   -0.04646758089846044   -0.0032413956408131037
-0.012470042383608557   -0.033347277548431566   -0.0031113573937228637
-0.013862764179851881   -0.046588217966627425   -0.0031622478239972224
-0.01940618327287832   -0.03372148724000636   -0.003256554345545706
-0.01248553401212397   -0.03348865046668382   -0.0029823639022089924
-0.013862764179851881   -0.046588217966627425   -0.0031622478239972224
-0.012470042383608557   -0.033347277548431566   -0.0031113573937228637
-0.01940618327287832   -0.03372148724000636   -0.003256554345545706
-0.013862764179851881   -0.046588217966627425   -0.0031622478239972224
-0.021197771947691832   -0.04670437407578096   -0.003409572627953372
-0.021107119786360755   -0.04654222575788392   -0.003506042775696336
-0.01940618327287832   -0.03372148724000636   -0.003256554345545706
-0.013862764179851881   -0.046588217966627425   -0.0031622478239972224
-0.021107119786360755   -0.04654222575788392   -0.003506042775696336
-0.012470042383608557   -0.033347277548431566   -0.0031113573937228637
-0.01940618327287832   -0.03372148724000636   -0.003256554345545706
-0.021197771947691832   -0.04670437407578096   -0.003409572627953372
-0.01248553401212397   -0.03348865046668382   -0.0029823639022089924
-0.01951743792371316   -0.033856745846936785   -0.003087574190936534
-0.021197771947691832   -0.04670437407578096   -0.003409572627953372
-0.013862764179851881   -0.046588217966627425   -0.0031622478239972224
-0.01248553401212397   -0.03348865046668382   -0.0029823639022089924
-0.013844571669197184   -0.04669946790484684   -0.003096240969822715
-0.01951743792371316   -0.033856745846936785   -0.003087574190936534
-0.012496743549194157   -0.033600692486286   -0.002866216153064254
-0.013844571669197184   -0.04669946790484684   -0.003096240969822715
-0.01248553401212397   -0.03348865046668382   -0.0029823639022089924
-0.01951743792371316   -0.033856745846936785   -0.003087574190936534
-0.013844571669197184   -0.04669946790484684   -0.003096240969822715
-0.02122696407838243   -0.04683658024707844   -0.0033320177949265908
-0.021197771947691832   -0.04670437407578096   -0.003409572627953372
-0.01951743792371316   -0.033856745846936785   -0.003087574190936534
-0.013844571669197184   -0.04669946790484684   -0.003096240969822715
-0.021197771947691832   -0.04670437407578096   -0.003409572627953372
-0.01248553401212397   -0.03348865046668382   -0.0029823639022089924
-0.01951743792371316   -0.033856745846936785   -0.003087574190936534
-0.02122696407838243   -0.04683658024707844   -0.0033320177949265908
-0.012496743549194157   -0.033600692486286   -0.002866216153064254
-0.019632076158831998   -0.0339779148419017   -0.002938633708740921
-0.02122696407838243   -0.04683658024707844   -0.0033320177949265908
-0.013844571669197184   -0.04669946790484684   -0.003096240969822715
-0.012496743549194157   -0.033600692486286   -0.002866216153064254
-0.013799140459816913   -0.046809807291493415   -0.003042457492327184
-0.019632076158831998   -0.0339779148419017   -0.002938633708740921
-0.012471385787323016   -0.033692691156632745   -0.0027612095907343552
-0.013799140459816913   -0.046809807291493415   -0.003042457492327184
-0.012496743549194157   -0.033600692486286   -0.002866216153064254
-0.019632076158831998   -0.0339779148419017   -0.002938633708740921
-0.013799140459816913   -0.046809807291493415   -0.003042457492327184
-0.02123709600023225   -0.046980106733903605   -0.0032749992906278996
-0.02122696407838243   -0.04683658024707844   -0.0033320177949265908
-0.019632076158831998   -0.0339779148419017   -0.002938633708740921
-0.013799140459816913   -0.046809807291493415   -0.003042457492327184
-0.02122696407838243   -0.04683658024707844   -0.0033320177949265908
-0.012496743549194157   -0.033600692486286   -0.002866216153064254
-0.012470042383608557   -0.033347277548431566   -0.0031113573937228637
-0.01386788458360512   -0.04646758089846044   -0.0032413956408131037
-0.0061485591624126255   -0.033252758504581106   -0.0028813896980016177
-0.01248553401212397   -0.03348865046668382   -0.0029823639022089924
-0.01386788458360512   -0.04646758089846044   -0.0032413956408131037
-0.007143049391400195   -0.04642481955274915   -0.0030612132093335775
-0.0061485591624126255   -0.033252758504581106   -0.0028813896980016177
-0.00711831507442668   -0.04649786698986337   -0.002992266452305605
-0.01248553401212397   -0.03348865046668382   -0.0029823639022089924
-0.006137356768132655   -0.033341500798659725   -0.00279627821371665
-0.00711831507442668   -0.04649786698986337   -0.002992266452305605
-0.0061485591624126255   -0.033252758504581106   -0.0028813896980016177
-0.01248553401212397   -0.03348865046668382   -0.0029823639022089924
-0.00711831507442668   -0.04649786698986337   -0.002992266452305605
-0.013862764179851881   -0.046588217966627425   -0.0031622478239972224
-0.01386788458360512   -0.04646758089846044   -0.0032413956408131037
-0.01248553401212397   -0.03348865046668382   -0.0029823639022089924
-0.00711831507442668   -0.04649786698986337   -0.002992266452305605
-0.01386788458360512   -0.04646758089846044   -0.0032413956408131037
-0.0061485591624126255   -0.033252758504581106   -0.0028813896980016177
-0.01248553401212397   -0.03348865046668382   -0.0029823639022089924
-0.013862764179851881   -0.046588217966627425   -0.0031622478239972224
-0.006137356768132655   -0.033341500798659725   -0.00279627821371665
-0.012496743549194157   -0.033600692486286   -0.002866216153064254
-0.013862764179851881   -0.046588217966627425   -0.0031622478239972224
-0.00711831507442668   -0.04649786698986337   -0.002992266452305605
-0.006137356768132655   -0.033341500798659725   -0.00279627821371665
-0.007087891014548118   -0.04656488061101778   -0.002936473295002768
-0.012496743549194157   -0.033600692486286   -0.002866216153064254
-0.006121872571554482   -0.033405668176384865   -0.0027238217809613147
-0.007087891014548118   -0.04656488061101778   -0.002936473295002768
-0.006137356768132655   -0.033341500798659725   -0.00279627821371665
-0.012496743549194157   -0.033600692486286   -0.002866216153064254
-0.007087891014548118   -0.04656488061101778   -0.002936473295002768
-0.013844571669197184   -0.04669946790484684   -0.003096240969822715
-0.013862764179851881   -0.046588217966627425   -0.0031622478239972224
-0.012496743549194157   -0.033600692486286   -0.002866216153064254
-0.007087891014548118   -0.04656488061101778   -0.002936473295002768
-0.013862764179851881   -0.046588217966627425   -0.0031622478239972224
-0.006137356768132655   -0.033341500798659725   -0.00279627821371665
-0.012496743549194157   -0.033600692486286   -0.002866216153064254
-0.013844571669197184   -0.04669946790484684   -0.003096240969822715
-0.006121872571554482   -0.033405668176384865   -0.0027238217809613147
-0.012471385787323016   -0.033692691156632745   -0.0027612095907343552
-0.013844571669197184   -0.04669946790484684   -0.003096240969822715
-0.007087891014548118   -0.04656488061101778   -0.002936473295002768
-0.006121872571554482   -0.033405668176384865   -0.0027238217809613147
-0.007051263079708027   -0.04662608010195306   -0.002894148207562913
-0.012471385787323016   -0.033692691156632745   -0.0027612095907343552
-0.006098544904471848   -0.033445680758731465   -0.002664228378137988
-0.007051263079708027   -0.04662608010195306   -0.002894148207562913
-0.006121872571554482   -0.033405668176384865   -0.0027238217809613147
-0.012471385787323016   -0.033692691156632745   -0.0027612095907343552
-0.007051263079708027   -0.04662608010195306   -0.002894148207562913
-0.013799140459816913   -0.046809807291493415   -0.003042457492327184
-0.013844571669197184   -0.04669946790484684   -0.003096240969822715
-0.012471385787323016   -0.033692691156632745   -0.0027612095907343552
-0.007051263079708027   -0.04662608010195306   -0.002894148207562913
-0.013844571669197184   -0.04669946790484684   -0.003096240969822715
-0.006121872571554482   -0.033405668176384865   -0.0027238217809613147
-0.0061485591624126255   -0.033252758504581106   -0.0028813896980016177
-0.007143049391400195   -0.04642481955274915   -0.0030612132093335775
1.377240339782105e-06   -0.03323653496640908   -0.002747368705701614
-0.006137356768132655   -0.033341500798659725   -0.00279627821371665
-0.007143049391400195   -0.04642481955274915   -0.0030612132093335775
-0.0006001628599426477   -0.04640037415696531   -0.0029679233585667795
1.377240339782105e-06   -0.03323653496640908   -0.002747368705701614
-0.0005654611022264751   -0.046424967035173466   -0.0029098625441450034
-0.006137356768132655   -0.033341500798659725   -0.00279627821371665
2.2882610721975208e-05   -0.03327237747165455   -0.002706474620087164
-0.0005654611022264751   -0.046424967035173466   -0.0029098625441450034
1.377240339782105e-06   -0.03323653496640908   -0.002747368705701614
-0.006137356768132655   -0.033341500798659725   -0.00279627821371665
-0.0005654611022264751   -0.046424967035173466   -0.0029098625441450034
-0.00711831507442668   -0.04649786698986337   -0.002992266452305605
-0.007143049391400195   -0.04642481955274915   -0.0030612132093335775
-0.006137356768132655   -0.033341500798659725   -0.00279627821371665
-0.0005654611022264751   -0.046424967035173466   -0.0029098625441450034
-0.007143049391400195   -0.04642481955274915   -0.0030612132093335775
1.377240339782105e-06   -0.03323653496640908   -0.002747368705701614
-0.006137356768132655   -0.033341500798659725   -0.00279627821371665
-0.00711831507442668   -0.04649786698986337   -0.002992266452305605
2.2882610721975208e-05   -0.03327237747165455   -0.002706474620087164
-0.006121872571554482   -0.033405668176384865   -0.0027238217809613147
-0.00711831507442668   -0.04649786698986337   -0.002992266452305605
-0.0005654611022264751   -0.046424967035173466   -0.0029098625441450034
2.2882610721975208e-05   -0.03327237747165455   -0.002706474620087164
-0.0005354586968873262   -0.046443100864634615   -0.002864840370089715
-0.006121872571554482   -0.033405668176384865   -0.0027238217809613147
3.8053195883524526e-05   -0.03328347620564872   -0.0026780735228689465
-0.0005354586968873262   -0.046443100864634615   -0.002864840370089715
2.2882610721975208e-05   -0.03327237747165455   -0.002706474620087164
-0.006121872571554482   -0.033405668176384865   -0.0027238217809613147
-0.0005354586968873262   -0.046443100864634615   -0.002864840370089715
-0.007087891014548118   -0.04656488061101778   -0.002936473295002768
-0.00711831507442668   -0.04649786698986337   -0.002992266452305605
-0.006121872571554482   -0.033405668176384865   -0.0027238217809613147
-0.0005354586968873262   -0.046443100864634615   -0.002864840370089715
-0.00711831507442668   -0.04649786698986337   -0.002992266452305605
2.2882610721975208e-05   -0.03327237747165455   -0.002706474620087164
-0.006121872571554482   -0.033405668176384865   -0.0027238217809613147
-0.007087891014548118   -0.04656488061101778   -0.002936473295002768
3.8053195883524526e-05   -0.03328347620564872   -0.0026780735228689465
-0.006098544904471848   -0.033445680758731465   -0.002664228378137988
-0.007087891014548118   -0.04656488061101778   -0.002936473295002768
-0.0005354586968873262   -0.046443100864634615   -0.002864840370089715
3.8053195883524526e-05   -0.03328347620564872   -0.0026780735228689465
-0.0005126827277208211   -0.046454683758022836   -0.0028333331575218323
-0.006098544904471848   -0.033445680758731465   -0.002664228378137988
4.749955155615754e-05   -0.03326949228246163   -0.0026627196675678365
-0.0005126827277208211   -0.046454683758022836   -0.0028333331575218323
3.8053195883524526e-05   -0.03328347620564872   -0.0026780735228689465
-0.006098544904471848   -0.033445680758731465   -0.002664228378137988
-0.0005126827277208211   -0.046454683758022836   -0.0028333331575218323
-0.007051263079708027   -0.04662608010195306   -0.002894148207562913
-0.007087891014548118   -0.04656488061101778   -0.002936473295002768
-0.006098544904471848   -0.033445680758731465   -0.002664228378137988
-0.0005126827277208211   -0.046454683758022836   -0.0028333331575218323
-0.007087891014548118   -0.04656488061101778   -0.002936473295002768
3.8053195883524526e-05   -0.03328347620564872   -0.0026780735228689465
1.377240339782105e-06   -0.03323653496640908   -0.002747368705701614
-0.0006001628599426477   -0.04640037415696531   -0.0029679233585667795
0.006362770168692647   -0.03329193002643323   -0.002708736237228978
2.2882610721975208e-05   -0.03327237747165455   -0.002706474620087164
-0.0006001628599426477   -0.04640037415696531   -0.0029679233585667795
0.0061425014361504784   -0.04639003627459985   -0.0029623300571404907
0.006362770168692647   -0.03329193002643323   -0.002708736237228978
0.006188568969855544   -0.046367705636522004   -0.0029157029724117224
2.2882610721975208e-05   -0.03327237747165455   -0.002706474620087164
0.006389156583850716   -0.033277962889703756   -0.002712995255141155
0.006188568969855544   -0.046367705636522004   -0.0029157029724117224
0.006362770168692647   -0.03329193002643323   -0.002708736237228978
2.2882610721975208e-05   -0.03327237747165455   -0.002706474620087164
0.006188568969855544   -0.046367705636522004   -0.0029157029724117224
-0.0005654611022264751   -0.046424967035173466   -0.0029098625441450034
-0.0006001628599426477   -0.04640037415696531   -0.0029679233585667795
2.2882610721975208e-05   -0.03327237747165455   -0.002706474620087164
0.006188568969855544   -0.046367705636522004   -0.0029157029724117224
-0.0006001628599426477   -0.04640037415696531   -0.0029679233585667795
0.006362770168692647   -0.03329193002643323   -0.002708736237228978
2.2882610721975208e-05   -0.03327237747165455   -0.002706474620087164
-0.0005654611022264751   -0.046424967035173466   -0.0029098625441450034
0.006389156583850716   -0.033277962889703756   -0.002712995255141155
3.8053195883524526e-05   -0.03328347620564872   -0.0026780735228689465
-0.0005654611022264751   -0.046424967035173466   -0.0029098625441450034
0.006188568969855544   -0.046367705636522004   -0.0029157029724117224
0.006389156583850716   -0.033277962889703756   -0.002712995255141155
0.00621925862738119   -0.04634160849837144   -0.002881742016348962
3.8053195883524526e-05   -0.03328347620564872   -0.0026780735228689465
0.006390683979897992   -0.033241127563936455   -0.0027290759848638906
0.00621925862738119   -0.04634160849837144   -0.002881742016348962
0.006389156583850716   -0.033277962889703756   -0.002712995255141155
3.8053195883524526e-05   -0.03328347620564872   -0.0026780735228689465
0.00621925862738119   -0.04634160849837144   -0.002881742016348962
-0.0005354586968873262   -0.046443100864634615   -0.002864840370089715
-0.0005654611022264751   -0.046424967035173466   -0.0029098625441450034
3.8053195883524526e-05   -0.03328347620564872   -0.0026780735228689465
0.00621925862738119   -0.04634160849837144   -0.002881742016348962
-0.0005654611022264751   -0.046424967035173466   -0.0029098625441450034
0.006389156583850716   -0.033277962889703756   -0.002712995255141155
3.8053195883524526e-05   -0.03328347620564872   -0.0026780735228689465
-0.0005354586968873262   -0.046443100864634615   -0.002864840370089715
0.006390683979897992   -0.033241127563936455   -0.0027290759848638906
4.749955155615754e-05   -0.03326949228246163   -0.0026627196675678365
-0.0005354586968873262   -0.046443100864634615   -0.002864840370089715
0.00621925862738119   -0.04634160849837144   -0.002881742016348962
0.006390683979897992   -0.033241127563936455   -0.0027290759848638906
0.006225201493899339   -0.0463031618759417   -0.002860186554957414
4.749955155615754e-05   -0.03326949228246163   -0.0026627196675678365
0.006376255856727125   -0.03317218722407967   -0.0027574269810775936
0.006225201493899339   -0.0463031618759417   -0.002860186554957414
0.006390683979897992   -0.033241127563936455   -0.0027290759848638906
4.749955155615754e-05   -0.03326949228246163   -0.0026627196675678365
0.006225201493899339   -0.0463031618759417   -0.002860186554957414
-0.0005126827277208211   -0.046454683758022836   -0.0028333331575218323
-0.0005354586968873262   -0.046443100864634615   -0.002864840370089715
4.749955155615754e-05   -0.03326949228246163   -0.0026627196675678365
0.006225201493899339   -0.0463031618759417   -0.002860186554957414
-0.0005354586968873262   -0.046443100864634615   -0.002864840370089715
0.006390683979897992   -0.033241127563936455   -0.0027290759848638906
0.006362770168692647   -0.03329193002643323   -0.002708736237228978
0.0061425014361504784   -0.04639003627459985   -0.0029623300571404907
0.01338736372410294   -0.03339381759995302   -0.002744576109454922
0.006389156583850716   -0.033277962889703756   -0.002712995255141155
0.0061425014361504784   -0.04639003627459985   -0.0029623300571404907
0.01344986083117334   -0.04637582507656108   -0.0030355774009626604
0.01338736372410294   -0.03339381759995302   -0.002744576109454922
0.013540217341087202   -0.046316422514850235   -0.002997508313051185
0.006389156583850716   -0.033277962889703756   -0.002712995255141155
0.013374252631417121   -0.033346134912190864   -0.0027976105033437958
0.013540217341087202   -0.046316422514850235   -0.002997508313051185
0.01338736372410294   -0.03339381759995302   -0.002744576109454922
0.006389156583850716   -0.033277962889703756   -0.002712995255141155
0.013540217341087202   -0.046316422514850235   -0.002997508313051185
0.006188568969855544   -0.046367705636522004   -0.0029157029724117224
0.0061425014361504784   -0.04639003627459985   -0.0029623300571404907
0.006389156583850716   -0.033277962889703756   -0.002712995255141155
0.013540217341087202   -0.046316422514850235   -0.002997508313051185
0.0061425014361504784   -0.04639003627459985   -0.0029623300571404907
0.01338736372410294   -0.03339381759995302   -0.002744576109454922
0.006389156583850716   -0.033277962889703756   -0.002712995255141155
0.006188568969855544   -0.046367705636522004   -0.0029157029724117224
0.013374252631417121   -0.033346134912190864   -0.0027976105033437958
0.006390683979897992   -0.033241127563936455   -0.0027290759848638906
0.006188568969855544   -0.046367705636522004   -0.0029157029724117224
0.013540217341087202   -0.046316422514850235   -0.002997508313051185
0.013374252631417121   -0.033346134912190864   -0.0027976105033437958
0.01358774757708625   -0.04626946773651791   -0.002978680263650551
0.006390683979897992   -0.033241127563936455   -0.0027290759848638906
0.01334009398998376   -0.0332860041962325   -0.0028698214280329813
0.01358774757708625   -0.04626946773651791   -0.002978680263650551
0.013374252631417121   -0.033346134912190864   -0.0027976105033437958
0.006390683979897992   -0.033241127563936455   -0.0027290759848638906
0.01358774757708625   -0.04626946773651791   -0.002978680263650551
0.00621925862738119   -0.04634160849837144   -0.002881742016348962
0.006188568969855544   -0.046367705636522004   -0.0029157029724117224
0.006390683979897992   -0.033241127563936455   -0.0027290759848638906
0.01358774757708625   -0.04626946773651791   -0.002978680263650551
0.006188568969855544   -0.046367705636522004   -0.0029157029724117224
0.013374252631417121   -0.033346134912190864   -0.0027976105033437958
0.006390683979897992   -0.033241127563936455   -0.0027290759848638906
0.00621925862738119   -0.04634160849837144   -0.002881742016348962
0.01334009398998376   -0.0332860041962325   -0.0028698214280329813
0.006376255856727125   -0.03317218722407967   -0.0027574269810775936
0.00621925862738119   -0.04634160849837144   -0.002881742016348962
0.01358774757708625   -0.04626946773651791   -0.002978680263650551
0.01334009398998376   -0.0332860041962325   -0.0028698214280329813
0.013598678122097982   -0.04619399321621096   -0.00297942091900495
0.006376255856727125   -0.03317218722407967   -0.0027574269810775936
0.013248003640493677   -0.03317123211923683   -0.0029610699047452876
0.013598678122097982   -0.04619399321621096   -0.00297942091900495
0.01334009398998376   -0.0332860041962325   -0.0028698214280329813
0.006376255856727125   -0.03317218722407967   -0.0027574269810775936
0.013598678122097982   -0.04619399321621096   -0.00297942091900495
0.006225201493899339   -0.0463031618759417   -0.002860186554957414
0.00621925862738119   -0.04634160849837144   -0.002881742016348962
0.006376255856727125   -0.03317218722407967   -0.0027574269810775936
0.013598678122097982   -0.04619399321621096   -0.00297942091900495
0.00621925862738119   -0.04634160849837144   -0.002881742016348962
0.01334009398998376   -0.0332860041962325   -0.0028698214280329813
-0.021107119786360755   -0.04654222575788392   -0.003506042775696336
-0.02176887030418376   -0.05979157488067123   -0.003446388371018276
-0.01386788458360512   -0.04646758089846044   -0.0032413956408131037
-0.021197771947691832   -0.04670437407578096   -0.003409572627953372
-0.02176887030418376   -0.05979157488067123   -0.003446388371018276
-0.014536818794775743   -0.059826135481093425   -0.003250600290323707
-0.01386788458360512   -0.04646758089846044   -0.0032413956408131037
-0.014498092979481242   -0.05992560280050927   -0.0032205654965219792
-0.021197771947691832   -0.04670437407578096   -0.003409572627953372
-0.013862764179851881   -0.046588217966627425   -0.0031622478239972224
-0.014498092979481242   -0.05992560280050927   -0.0032205654965219792
-0.01386788458360512   -0.04646758089846044   -0.0032413956408131037
-0.021197771947691832   -0.04670437407578096   -0.003409572627953372
-0.014498092979481242   -0.05992560280050927   -0.0032205654965219792
-0.021744218103497182   -0.05992464335924065   -0.003440013256416784
-0.02176887030418376   -0.05979157488067123   -0.003446388371018276
-0.021197771947691832   -0.04670437407578096   -0.003409572627953372
-0.014498092979481242   -0.05992560280050927   -0.0032205654965219792
-0.02176887030418376   -0.05979157488067123   -0.003446388371018276
-0.01386788458360512   -0.04646758089846044   -0.0032413956408131037
-0.021197771947691832   -0.04670437407578096   -0.003409572627953372
-0.021744218103497182   -0.05992464335924065   -0.003440013256416784
-0.013862764179851881   -0.046588217966627425   -0.0031622478239972224
-0.02122696407838243   -0.04683658024707844   -0.0033320177949265908
-0.021744218103497182   -0.05992464335924065   -0.003440013256416784
-0.014498092979481242   -0.05992560280050927   -0.0032205654965219792
-0.013862764179851881   -0.046588217966627425   -0.0031622478239972224
-0.014437529824938001   -0.06003576022125358   -0.0032040858936796604
-0.02122696407838243   -0.04683658024707844   -0.0033320177949265908
-0.013844571669197184   -0.04669946790484684   -0.003096240969822715
-0.014437529824938001   -0.06003576022125358   -0.0032040858936796604
-0.013862764179851881   -0.046588217966627425   -0.0031622478239972224
-0.02122696407838243   -0.04683658024707844   -0.0033320177949265908
-0.014437529824938001   -0.06003576022125358   -0.0032040858936796604
-0.021678001706838028   -0.06005378851092252   -0.0034538960168207277
-0.021744218103497182   -0.05992464335924065   -0.003440013256416784
-0.02122696407838243   -0.04683658024707844   -0.0033320177949265908
-0.014437529824938001   -0.06003576022125358   -0.0032040858936796604
-0.021744218103497182   -0.05992464335924065   -0.003440013256416784
-0.013862764179851881   -0.046588217966627425   -0.0031622478239972224
-0.02122696407838243   -0.04683658024707844   -0.0033320177949265908
-0.021678001706838028   -0.06005378851092252   -0.0034538960168207277
-0.013844571669197184   -0.04669946790484684   -0.003096240969822715
-0.02123709600023225   -0.046980106733903605   -0.0032749992906278996
-0.021678001706838028   -0.06005378851092252   -0.0034538960168207277
-0.014437529824938001   -0.06003576022125358   -0.0032040858936796604
-0.013844571669197184   -0.04669946790484684   -0.003096240969822715
-0.014359003162981596   -0.06016418926688365   -0.003200945173221323
-0.02123709600023225   -0.046980106733903605   -0.0032749992906278996
-0.013799140459816913   -0.046809807291493415   -0.003042457492327184
-0.014359003162981596   -0.06016418926688365   -0.003200945173221323
-0.013844571669197184   -0.04669946790484684   -0.003096240969822715
-0.02123709600023225   -0.046980106733903605   -0.0032749992906278996
-0.014359003162981596   -0.06016418926688365   -0.003200945173221323
-0.02157033481775928   -0.060220094274357434   -0.0034890563605568773
-0.021678001706838028   -0.06005378851092252   -0.0034538960168207277
-0.02123709600023225   -0.046980106733903605   -0.0032749992906278996
-0.014359003162981596   -0.06016418926688365   -0.003200945173221323
-0.021678001706838028   -0.06005378851092252   -0.0034538960168207277
-0.013844571669197184   -0.04669946790484684   -0.003096240969822715
-0.01386788458360512   -0.04646758089846044   -0.0032413956408131037
-0.014536818794775743   -0.059826135481093425   -0.003250600290323707
-0.007143049391400195   -0.04642481955274915   -0.0030612132093335775
-0.013862764179851881   -0.046588217966627425   -0.0031622478239972224
-0.014536818794775743   -0.059826135481093425   -0.003250600290323707
-0.007912472627860063   -0.05983368747841099   -0.003120452823980774
-0.007143049391400195   -0.04642481955274915   -0.0030612132093335775
-0.007860548462065598   -0.05989077167990259   -0.0030672069264498195
-0.013862764179851881   -0.046588217966627425   -0.0031622478239972224
-0.00711831507442668   -0.04649786698986337   -0.002992266452305605
-0.007860548462065598   -0.05989077167990259   -0.0030672069264498195
-0.007143049391400195   -0.04642481955274915   -0.0030612132093335775
-0.013862764179851881   -0.046588217966627425   -0.0031622478239972224
-0.007860548462065598   -0.05989077167990259   -0.0030672069264498195
-0.014498092979481242   -0.05992560280050927   -0.0032205654965219792
-0.014536818794775743   -0.059826135481093425   -0.003250600290323707
-0.013862764179851881   -0.046588217966627425   -0.0031622478239972224
-0.007860548462065598   -0.05989077167990259   -0.0030672069264498195
-0.014536818794775743   -0.059826135481093425   -0.003250600290323707
-0.007143049391400195   -0.04642481955274915   -0.0030612132093335775
-0.013862764179851881   -0.046588217966627425   -0.0031622478239972224
-0.014498092979481242   -0.05992560280050927   -0.0032205654965219792
-0.00711831507442668   -0.04649786698986337   -0.002992266452305605
-0.013844571669197184   -0.04669946790484684   -0.003096240969822715
-0.014498092979481242   -0.05992560280050927   -0.0032205654965219792
-0.007860548462065598   -0.05989077167990259   -0.0030672069264498195
-0.00711831507442668   -0.04649786698986337   -0.002992266452305605
-0.007801849024647931   -0.05996013681281711   -0.0030275688218719086
-0.013844571669197184   -0.04669946790484684   -0.003096240969822715
-0.007087891014548118   -0.04656488061101778   -0.002936473295002768
-0.007801849024647931   -0.05996013681281711   -0.0030275688218719086
-0.00711831507442668   -0.04649786698986337   -0.002992266452305605
-0.013844571669197184   -0.04669946790484684   -0.003096240969822715
-0.007801849024647931   -0.05996013681281711   -0.0030275688218719086
-0.014437529824938001   -0.06003576022125358   -0.0032040858936796604
-0.014498092979481242   -0.05992560280050927   -0.0032205654965219792
-0.013844571669197184   -0.04669946790484684   -0.003096240969822715
-0.007801849024647931   -0.05996013681281711   -0.0030275688218719086
-0.014498092979481242   -0.05992560280050927   -0.0032205654965219792
-0.00711831507442668   -0.04649786698986337   -0.002992266452305605
-0.013844571669197184   -0.04669946790484684   -0.003096240969822715
-0.014437529824938001   -0.06003576022125358   -0.0032040858936796604
-0.007087891014548118   -0.04656488061101778   -0.002936473295002768
-0.013799140459816913   -0.046809807291493415   -0.003042457492327184
-0.014437529824938001   -0.06003576022125358   -0.0032040858936796604
-0.007801849024647931   -0.05996013681281711   -0.0030275688218719086
-0.007087891014548118   -0.04656488061101778   -0.002936473295002768
-0.00773857774827877   -0.0600419990268363   -0.003001978004941391
-0.013799140459816913   -0.046809807291493415   -0.003042457492327184
-0.007051263079708027   -0.04662608010195306   -0.002894148207562913
-0.00773857774827877   -0.0600419990268363   -0.003001978004941391
-0.007087891014548118   -0.04656488061101778   -0.002936473295002768
-0.013799140459816913   -0.046809807291493415   -0.003042457492327184
-0.00773857774827877   -0.0600419990268363   -0.003001978004941391
-0.014359003162981596   -0.06016418926688365   -0.003200945173221323
-0.014437529824938001   -0.06003576022125358   -0.0032040858936796604
-0.013799140459816913   -0.046809807291493415   -0.003042457492327184
-0.00773857774827877   -0.0600419990268363   -0.003001978004941391
-0.014437529824938001   -0.06003576022125358   -0.0032040858936796604
-0.007087891014548118   -0.04656488061101778   -0.002936473295002768
-0.007143049391400195   -0.04642481955274915   -0.0030612132093335775
-0.007912472627860063   -0.05983368747841099   -0.003120452823980774
-0.0006001628599426477   -0.04640037415696531   -0.0029679233585667795
-0.00711831507442668   -0.04649786698986337   -0.002992266452305605
-0.007912472627860063   -0.05983368747841099   -0.003120452823980774
-0.0014755820769347132   -0.05979863063341083   -0.0030671443977540237
-0.0006001628599426477   -0.04640037415696531   -0.0029679233585667795
-0.001414150385309509   -0.059811925407973913   -0.0029918420289524045
-0.00711831507442668   -0.04649786698986337   -0.002992266452305605
-0.0005654611022264751   -0.046424967035173466   -0.0029098625441450034
-0.001414150385309509   -0.059811925407973913   -0.0029918420289524045
-0.0006001628599426477   -0.04640037415696531   -0.0029679233585667795
-0.00711831507442668   -0.04649786698986337   -0.002992266452305605
-0.001414150385309509   -0.059811925407973913   -0.0029918420289524045
-0.007860548462065598   -0.05989077167990259   -0.0030672069264498195
-0.007912472627860063   -0.05983368747841099   -0.003120452823980774
-0.00711831507442668   -0.04649786698986337   -0.002992266452305605
-0.001414150385309509   -0.059811925407973913   -0.0029918420289524045
-0.007912472627860063   -0.05983368747841099   -0.003120452823980774
-0.0006001628599426477   -0.04640037415696531   -0.0029679233585667795
-0.00711831507442668   -0.04649786698986337   -0.002992266452305605
-0.007860548462065598   -0.05989077167990259   -0.0030672069264498195
-0.0005654611022264751   -0.046424967035173466   -0.0029098625441450034
-0.007087891014548118   -0.04656488061101778   -0.002936473295002768
-0.007860548462065598   -0.05989077167990259   -0.0030672069264498195
-0.001414150385309509   -0.059811925407973913   -0.0029918420289524045
-0.0005654611022264751   -0.046424967035173466   -0.0029098625441450034
-0.0013560472684728524   -0.059836535783590834   -0.0029300497889303777
-0.007087891014548118   -0.04656488061101778   -0.002936473295002768
-0.0005354586968873262   -0.046443100864634615   -0.002864840370089715
-0.0013560472684728524   -0.059836535783590834   -0.0029300497889303777
-0.0005654611022264751   -0.046424967035173466   -0.0029098625441450034
-0.007087891014548118   -0.04656488061101778   -0.002936473295002768
-0.0013560472684728524   -0.059836535783590834   -0.0029300497889303777
-0.007801849024647931   -0.05996013681281711   -0.0030275688218719086
-0.007860548462065598   -0.05989077167990259   -0.0030672069264498195
-0.007087891014548118   -0.04656488061101778   -0.002936473295002768
-0.0013560472684728524   -0.059836535783590834   -0.0029300497889303777
-0.007860548462065598   -0.05989077167990259   -0.0030672069264498195
-0.0005654611022264751   -0.046424967035173466   -0.0029098625441450034
-0.007087891014548118   -0.04656488061101778   -0.002936473295002768
-0.007801849024647931   -0.05996013681281711   -0.0030275688218719086
-0.0005354586968873262   -0.046443100864634615   -0.002864840370089715
-0.007051263079708027   -0.04662608010195306   -0.002894148207562913
-0.007801849024647931   -0.05996013681281711   -0.0030275688218719086
-0.0013560472684728524   -0.059836535783590834   -0.0029300497889303777
-0.0005354586968873262   -0.046443100864634615   -0.002864840370089715
-0.00130676508669529   -0.05987302516570655   -0.0028822403002485616
-0.007051263079708027   -0.04662608010195306   -0.002894148207562913
-0.0005126827277208211   -0.046454683758022836   -0.0028333331575218323
-0.00130676508669529   -0.05987302516570655   -0.0028822403002485616
-0.0005354586968873262   -0.046443100864634615   -0.002864840370089715
-0.007051263079708027   -0.04662608010195306   -0.002894148207562913
-0.00130676508669529   -0.05987302516570655   -0.0028822403002485616
-0.00773857774827877   -0.0600419990268363   -0.003001978004941391
-0.007801849024647931   -0.05996013681281711   -0.0030275688218719086
-0.007051263079708027   -0.04662608010195306   -0.002894148207562913
-0.00130676508669529   -0.05987302516570655   -0.0028822403002485616
-0.007801849024647931   -0.05996013681281711   -0.0030275688218719086
-0.0005354586968873262   -0.046443100864634615   -0.002864840370089715
-0.0006001628599426477   -0.04640037415696531   -0.0029679233585667795
-0.0014755820769347132   -0.05979863063341083   -0.0030671443977540237
0.0061425014361504784   -0.04639003627459985   -0.0029623300571404907
-0.0005654611022264751   -0.046424967035173466   -0.0029098625441450034
-0.0014755820769347132   -0.05979863063341083   -0.0030671443977540237
0.005155282683449538   -0.059720676105471535   -0.0030932053342123756
0.0061425014361504784   -0.04639003627459985   -0.0029623300571404907
0.005233667271931538   -0.05969004263099439   -0.0029962432276805393
-0.0005654611022264751   -0.046424967035173466   -0.0029098625441450034
0.006188568969855544   -0.046367705636522004   -0.0029157029724117224
0.005233667271931538   -0.05969004263099439   -0.0029962432276805393
0.0061425014361504784   -0.04639003627459985   -0.0029623300571404907
-0.0005654611022264751   -0.046424967035173466   -0.0029098625441450034
0.005233667271931538   -0.05969004263099439   -0.0029962432276805393
-0.001414150385309509   -0.059811925407973913   -0.0029918420289524045
-0.0014755820769347132   -0.05979863063341083   -0.0030671443977540237
-0.0005654611022264751   -0.046424967035173466   -0.0029098625441450034
0.005233667271931538   -0.05969004263099439   -0.0029962432276805393
-0.0014755820769347132   -0.05979863063341083   -0.0030671443977540237
0.0061425014361504784   -0.04639003627459985   -0.0029623300571404907
-0.0005654611022264751   -0.046424967035173466   -0.0029098625441450034
-0.001414150385309509   -0.059811925407973913   -0.0029918420289524045
0.006188568969855544   -0.046367705636522004   -0.0029157029724117224
-0.0005354586968873262   -0.046443100864634615   -0.002864840370089715
-0.001414150385309509   -0.059811925407973913   -0.0029918420289524045
0.005233667271931538   -0.05969004263099439   -0.0029962432276805393
0.006188568969855544   -0.046367705636522004   -0.0029157029724117224
0.0053060618851828644   -0.05967411752865332   -0.002912751709248555
-0.0005354586968873262   -0.046443100864634615   -0.002864840370089715
0.00621925862738119   -0.04634160849837144   -0.002881742016348962
0.0053060618851828644   -0.05967411752865332   -0.002912751709248555
0.006188568969855544   -0.046367705636522004   -0.0029157029724117224
-0.0005354586968873262   -0.046443100864634615   -0.002864840370089715
0.0053060618851828644   -0.05967411752865332   -0.002912751709248555
-0.0013560472684728524   -0.059836535783590834   -0.0029300497889303777
-0.001414150385309509   -0.059811925407973913   -0.0029918420289524045
-0.0005354586968873262   -0.046443100864634615   -0.002864840370089715
0.0053060618851828644   -0.05967411752865332   -0.002912751709248555
-0.001414150385309509   -0.059811925407973913   -0.0029918420289524045
0.006188568969855544   -0.046367705636522004   -0.0029157029724117224
-0.0005354586968873262   -0.046443100864634615   -0.002864840370089715
-0.0013560472684728524   -0.059836535783590834   -0.0029300497889303777
0.00621925862738119   -0.04634160849837144   -0.002881742016348962
-0.0005126827277208211   -0.046454683758022836   -0.0028333331575218323
-0.0013560472684728524   -0.059836535783590834   -0.0029300497889303777
0.0053060618851828644   -0.05967411752865332   -0.002912751709248555
0.00621925862738119   -0.04634160849837144   -0.002881742016348962
0.005344782734855208   -0.059665161816702145   -0.0028418513745361034
-0.0005126827277208211   -0.046454683758022836   -0.0028333331575218323
0.006225201493899339   -0.0463031618759417   -0.002860186554957414
0.005344782734855208   -0.059665161816702145   -0.0028418513745361034
0.00621925862738119   -0.04634160849837144   -0.002881742016348962
-0.0005126827277208211   -0.046454683758022836   -0.0028333331575218323
0.005344782734855208   -0.059665161816702145   -0.0028418513745361034
-0.00130676508669529   -0.05987302516570655   -0.0028822403002485616
-0.0013560472684728524   -0.059836535783590834   -0.0029300497889303777
-0.0005126827277208211   -0.046454683758022836   -0.0028333331575218323
0.005344782734855208   -0.059665161816702145   -0.0028418513745361034
-0.0013560472684728524   -0.059836535783590834   -0.0029300497889303777
0.00621925862738119   -0.04634160849837144   -0.002881742016348962
0.0061425014361504784   -0.04639003627459985   -0.0029623300571404907
0.005155282683449538   -0.059720676105471535   -0.0030932053342123756
0.01344986083117334   -0.04637582507656108   -0.0030355774009626604
0.006188568969855544   -0.046367705636522004   -0.0029157029724117224
0.005155282683449538   -0.059720676105471535   -0.0030932053342123756
0.01225532853435196   -0.059589746443208996   -0.003202747390912443
0.01344986083117334   -0.04637582507656108   -0.0030355774009626604
0.012460090587093964   -0.059519303021951304   -0.0030755364289853514
0.006188568969855544   -0.046367705636522004   -0.0029157029724117224
0.013540217341087202   -0.046316422514850235   -0.002997508313051185
0.012460090587093964   -0.059519303021951304   -0.0030755364289853514
0.01344986083117334   -0.04637582507656108   -0.0030355774009626604
0.006188568969855544   -0.046367705636522004   -0.0029157029724117224
0.012460090587093964   -0.059519303021951304   -0.0030755364289853514
0.005233667271931538   -0.05969004263099439   -0.0029962432276805393
0.005155282683449538   -0.059720676105471535   -0.0030932053342123756
0.006188568969855544   -0.046367705636522004   -0.0029157029724117224
0.012460090587093964   -0.059519303021951304   -0.0030755364289853514
0.005155282683449538   -0.059720676105471535   -0.0030932053342123756
0.01344986083117334   -0.04637582507656108   -0.0030355774009626604
0.006188568969855544   -0.046367705636522004   -0.0029157029724117224
0.005233667271931538   -0.05969004263099439   -0.0029962432276805393
0.013540217341087202   -0.046316422514850235   -0.002997508313051185
0.00621925862738119   -0.04634160849837144   -0.002881742016348962
0.005233667271931538   -0.05969004263099439   -0.0029962432276805393
0.012460090587093964   -0.059519303021951304   -0.0030755364289853514
0.013540217341087202   -0.046316422514850235   -0.002997508313051185
0.012600673767837751   -0.0594851487135629   -0.002967504697956487
0.00621925862738119   -0.04634160849837144   -0.002881742016348962
0.01358774757708625   -0.04626946773651791   -0.002978680263650551
0.012600673767837751   -0.0594851487135629   -0.002967504697956487
0.013540217341087202   -0.046316422514850235   -0.002997508313051185
0.00621925862738119   -0.04634160849837144   -0.002881742016348962
0.012600673767837751   -0.0594851487135629   -0.002967504697956487
0.0053060618851828644   -0.05967411752865332   -0.002912751709248555
0.005233667271931538   -0.05969004263099439   -0.0029962432276805393
0.00621925862738119   -0.04634160849837144   -0.002881742016348962
0.012600673767837751   -0.0594851487135629   -0.002967504697956487
0.005233667271931538   -0.05969004263099439   -0.0029962432276805393
0.013540217341087202   -0.046316422514850235   -0.002997508313051185
0.00621925862738119   -0.04634160849837144   -0.002881742016348962
0.0053060618851828644   -0.05967411752865332   -0.002912751709248555
0.01358774757708625   -0.04626946773651791   -0.002978680263650551
0.006225201493899339   -0.0463031618759417   -0.002860186554957414
0.0053060618851828644   -0.05967411752865332   -0.002912751709248555
0.012600673767837751   -0.0594851487135629   -0.002967504697956487
0.01358774757708625   -0.04626946773651791   -0.002978680263650551
0.012725349882244897   -0.059447904299505284   -0.0028794472358167145
0.006225201493899339   -0.0463031618759417   -0.002860186554957414
0.013598678122097982   -0.04619399321621096   -0.00297942091900495
0.012725349882244897   -0.059447904299505284   -0.0028794472358167145
0.01358774757708625   -0.04626946773651791   -0.002978680263650551
0.006225201493899339   -0.0463031618759417   -0.002860186554957414
0.012725349882244897   -0.059447904299505284   -0.0028794472358167145
0.005344782734855208   -0.059665161816702145   -0.0028418513745361034
0.0053060618851828644   -0.05967411752865332   -0.002912751709248555
0.006225201493899339   -0.0463031618759417   -0.002860186554957414
0.012725349882244897   -0.059447904299505284   -0.0028794472358167145
0.0053060618851828644   -0.05967411752865332   -0.002912751709248555
0.01358774757708625   -0.04626946773651791   -0.002978680263650551
-0.02176887030418376   -0.05979157488067123   -0.003446388371018276
-0.021186980969429614   -0.07244605024793067   -0.003294717812340206
-0.014536818794775743   -0.059826135481093425   -0.003250600290323707
-0.021744218103497182   -0.05992464335924065   -0.003440013256416784
-0.021186980969429614   -0.07244605024793067   -0.003294717812340206
-0.01447742996749902   -0.07259185735039124   -0.003176710859831341
-0.014536818794775743   -0.059826135481093425   -0.003250600290323707
-0.014392608345314709   -0.07266614393120105   -0.003194512699212163
-0.021744218103497182   -0.05992464335924065   -0.003440013256416784
-0.014498092979481242   -0.05992560280050927   -0.0032205654965219792
-0.014392608345314709   -0.07266614393120105   -0.003194512699212163
-0.014536818794775743   -0.059826135481093425   -0.003250600290323707
-0.021744218103497182   -0.05992464335924065   -0.003440013256416784
-0.014392608345314709   -0.07266614393120105   -0.003194512699212163
-0.021033881263561267   -0.07254634717712137   -0.003378686828790733
-0.021186980969429614   -0.07244605024793067   -0.003294717812340206
-0.021744218103497182   -0.05992464335924065   -0.003440013256416784
-0.014392608345314709   -0.07266614393120105   -0.003194512699212163
-0.021186980969429614   -0.07244605024793067   -0.003294717812340206
-0.014536818794775743   -0.059826135481093425   -0.003250600290323707
-0.021744218103497182   -0.05992464335924065   -0.003440013256416784
-0.021033881263561267   -0.07254634717712137   -0.003378686828790733
-0.014498092979481242   -0.05992560280050927   -0.0032205654965219792
-0.021678001706838028   -0.06005378851092252   -0.0034538960168207277
-0.021033881263561267   -0.07254634717712137   -0.003378686828790733
-0.014392608345314709   -0.07266614393120105   -0.003194512699212163
-0.014498092979481242   -0.05992560280050927   -0.0032205654965219792
-0.01427772396019137   -0.0727718401538962   -0.003226223170128506
-0.021678001706838028   -0.06005378851092252   -0.0034538960168207277
-0.014437529824938001   -0.06003576022125358   -0.0032040858936796604
-0.01427772396019137   -0.0727718401538962   -0.003226223170128506
-0.014498092979481242   -0.05992560280050927   -0.0032205654965219792
-0.021678001706838028   -0.06005378851092252   -0.0034538960168207277
-0.01427772396019137   -0.0727718401538962   -0.003226223170128506
-0.020859033259486556   -0.07266936046523079   -0.0034845320524707077
-0.021033881263561267   -0.07254634717712137   -0.003378686828790733
-0.021678001706838028   -0.06005378851092252   -0.0034538960168207277
-0.01427772396019137   -0.0727718401538962   -0.003226223170128506
-0.021033881263561267   -0.07254634717712137   -0.003378686828790733
-0.014498092979481242   -0.05992560280050927   -0.0032205654965219792
-0.021678001706838028   -0.06005378851092252   -0.0034538960168207277
-0.020859033259486556   -0.07266936046523079   -0.0034845320524707077
-0.014437529824938001   -0.06003576022125358   -0.0032040858936796604
-0.02157033481775928   -0.060220094274357434   -0.0034890563605568773
-0.020859033259486556   -0.07266936046523079   -0.0034845320524707077
-0.01427772396019137   -0.0727718401538962   -0.003226223170128506
-0.014437529824938001   -0.06003576022125358   -0.0032040858936796604
-0.014154434099105667   -0.0729153904931445   -0.0032722555808789963
-0.02157033481775928   -0.060220094274357434   -0.0034890563605568773
-0.014359003162981596   -0.06016418926688365   -0.003200945173221323
-0.014154434099105667   -0.0729153904931445   -0.0032722555808789963
-0.014437529824938001   -0.06003576022125358   -0.0032040858936796604
-0.02157033481775928   -0.060220094274357434   -0.0034890563605568773
-0.014154434099105667   -0.0729153904931445   -0.0032722555808789963
-0.02062087769822547   -0.07285656849633435   -0.003612652416121321
-0.020859033259486556   -0.07266936046523079   -0.0034845320524707077
-0.02157033481775928   -0.060220094274357434   -0.0034890563605568773
-0.014154434099105667   -0.0729153904931445   -0.0032722555808789963
-0.020859033259486556   -0.07266936046523079   -0.0034845320524707077
-0.014437529824938001   -0.06003576022125358   -0.0032040858936796604
-0.014536818794775743   -0.059826135481093425   -0.003250600290323707
-0.01447742996749902   -0.07259185735039124   -0.003176710859831341
-0.007912472627860063   -0.05983368747841099   -0.003120452823980774
-0.014498092979481242   -0.05992560280050927   -0.0032205654965219792
-0.01447742996749902   -0.07259185735039124   -0.003176710859831341
-0.00846357076170433   -0.07264962826309067   -0.00310116206618666
-0.007912472627860063   -0.05983368747841099   -0.003120452823980774
-0.008371178142431606   -0.07268827973307629   -0.0030623955296973583
-0.014498092979481242   -0.05992560280050927   -0.0032205654965219792
-0.007860548462065598   -0.05989077167990259   -0.0030672069264498195
-0.008371178142431606   -0.07268827973307629   -0.0030623955296973583
-0.007912472627860063   -0.05983368747841099   -0.003120452823980774
-0.014498092979481242   -0.05992560280050927   -0.0032205654965219792
-0.008371178142431606   -0.07268827973307629   -0.0030623955296973583
-0.014392608345314709   -0.07266614393120105   -0.003194512699212163
-0.01447742996749902   -0.07259185735039124   -0.003176710859831341
-0.014498092979481242   -0.05992560280050927   -0.0032205654965219792
-0.008371178142431606   -0.07268827973307629   -0.0030623955296973583
-0.01447742996749902   -0.07259185735039124   -0.003176710859831341
-0.007912472627860063   -0.05983368747841099   -0.003120452823980774
-0.014498092979481242   -0.05992560280050927   -0.0032205654965219792
-0.014392608345314709   -0.07266614393120105   -0.003194512699212163
-0.007860548462065598   -0.05989077167990259   -0.0030672069264498195
-0.014437529824938001   -0.06003576022125358   -0.0032040858936796604
-0.014392608345314709   -0.07266614393120105   -0.003194512699212163
-0.008371178142431606   -0.07268827973307629   -0.0030623955296973583
-0.007860548462065598   -0.05989077167990259   -0.0030672069264498195
-0.008271780884237585   -0.07275713674542185   -0.0030373687510266505
-0.014437529824938001   -0.06003576022125358   -0.0032040858936796604
-0.007801849024647931   -0.05996013681281711   -0.0030275688218719086
-0.008271780884237585   -0.07275713674542185   -0.0030373687510266505
-0.007860548462065598   -0.05989077167990259   -0.0030672069264498195
-0.014437529824938001   -0.06003576022125358   -0.0032040858936796604
-0.008271780884237585   -0.07275713674542185   -0.0030373687510266505
-0.01427772396019137   -0.0727718401538962   -0.003226223170128506
-0.014392608345314709   -0.07266614393120105   -0.003194512699212163
-0.014437529824938001   -0.06003576022125358   -0.0032040858936796604
-0.008271780884237585   -0.07275713674542185   -0.0030373687510266505
-0.014392608345314709   -0.07266614393120105   -0.003194512699212163
-0.007860548462065598   -0.05989077167990259   -0.0030672069264498195
-0.014437529824938001   -0.06003576022125358   -0.0032040858936796604
-0.01427772396019137   -0.0727718401538962   -0.003226223170128506
-0.007801849024647931   -0.05996013681281711   -0.0030275688218719086
-0.014359003162981596   -0.06016418926688365   -0.003200945173221323
-0.01427772396019137   -0.0727718401538962   -0.003226223170128506
-0.008271780884237585   -0.07275713674542185   -0.0030373687510266505
-0.007801849024647931   -0.05996013681281711   -0.0030275688218719086
-0.008169611795061793   -0.07285707282860313   -0.003026751774351901
-0.014359003162981596   -0.06016418926688365   -0.003200945173221323
-0.00773857774827877   -0.0600419990268363   -0.003001978004941391
-0.008169611795061793   -0.07285707282860313   -0.003026751774351901
-0.007801849024647931   -0.05996013681281711   -0.0030275688218719086
-0.014359003162981596   -0.06016418926688365   -0.003200945173221323
-0.008169611795061793   -0.07285707282860313   -0.003026751774351901
-0.014154434099105667   -0.0729153904931445   -0.0032722555808789963
-0.01427772396019137   -0.0727718401538962   -0.003226223170128506
-0.014359003162981596   -0.06016418926688365   -0.003200945173221323
-0.008169611795061793   -0.07285707282860313   -0.003026751774351901
-0.01427772396019137   -0.0727718401538962   -0.003226223170128506
-0.007801849024647931   -0.05996013681281711   -0.0030275688218719086
-0.007912472627860063   -0.05983368747841099   -0.003120452823980774
-0.00846357076170433   -0.07264962826309067   -0.00310116206618666
-0.0014755820769347132   -0.05979863063341083   -0.0030671443977540237
-0.007860548462065598   -0.05989077167990259   -0.0030672069264498195
-0.00846357076170433   -0.07264962826309067   -0.00310116206618666
-0.0026319293460998275   -0.07260543053747377   -0.0030885226641392794
-0.0014755820769347132   -0.05979863063341083   -0.0030671443977540237
-0.002529734037514429   -0.07260639586009233   -0.0029951281180056613
-0.007860548462065598   -0.05989077167990259   -0.0030672069264498195
-0.001414150385309509   -0.059811925407973913   -0.0029918420289524045
-0.002529734037514429   -0.07260639586009233   -0.0029951281180056613
-0.0014755820769347132   -0.05979863063341083   -0.0030671443977540237
-0.007860548462065598   -0.05989077167990259   -0.0030672069264498195
-0.002529734037514429   -0.07260639586009233   -0.0029951281180056613
-0.008371178142431606   -0.07268827973307629   -0.0030623955296973583
-0.00846357076170433   -0.07264962826309067   -0.00310116206618666
-0.007860548462065598   -0.05989077167990259   -0.0030672069264498195
-0.002529734037514429   -0.07260639586009233   -0.0029951281180056613
-0.00846357076170433   -0.07264962826309067   -0.00310116206618666
-0.0014755820769347132   -0.05979863063341083   -0.0030671443977540237
-0.007860548462065598   -0.05989077167990259   -0.0030672069264498195
-0.008371178142431606   -0.07268827973307629   -0.0030623955296973583
-0.001414150385309509   -0.059811925407973913   -0.0029918420289524045
-0.007801849024647931   -0.05996013681281711   -0.0030275688218719086
-0.008371178142431606   -0.07268827973307629   -0.0030623955296973583
-0.002529734037514429   -0.07260639586009233   -0.0029951281180056613
-0.001414150385309509   -0.059811925407973913   -0.0029918420289524045
-0.0024302231140905647   -0.07263534610321437   -0.002915506035793322
-0.007801849024647931   -0.05996013681281711   -0.0030275688218719086
-0.0013560472684728524   -0.059836535783590834   -0.0029300497889303777
-0.0024302231140905647   -0.07263534610321437   -0.002915506035793322
-0.001414150385309509   -0.059811925407973913   -0.0029918420289524045
-0.007801849024647931   -0.05996013681281711   -0.0030275688218719086
-0.0024302231140905647   -0.07263534610321437   -0.002915506035793322
-0.008271780884237585   -0.07275713674542185   -0.0030373687510266505
-0.008371178142431606   -0.07268827973307629   -0.0030623955296973583
-0.007801849024647931   -0.05996013681281711   -0.0030275688218719086
-0.0024302231140905647   -0.07263534610321437   -0.002915506035793322
-0.008371178142431606   -0.07268827973307629   -0.0030623955296973583
-0.001414150385309509   -0.059811925407973913   -0.0029918420289524045
-0.007801849024647931   -0.05996013681281711   -0.0030275688218719086
-0.008271780884237585   -0.07275713674542185   -0.0030373687510266505
-0.0013560472684728524   -0.059836535783590834   -0.0029300497889303777
-0.00773857774827877   -0.0600419990268363   -0.003001978004941391
-0.008271780884237585   -0.07275713674542185   -0.0030373687510266505
-0.0024302231140905647   -0.07263534610321437   -0.002915506035793322
-0.0013560472684728524   -0.059836535783590834   -0.0029300497889303777
-0.002341454070866059   -0.07269468649137381   -0.002850135790669388
-0.00773857774827877   -0.0600419990268363   -0.003001978004941391
-0.00130676508669529   -0.05987302516570655   -0.0028822403002485616
-0.002341454070866059   -0.07269468649137381   -0.002850135790669388
-0.0013560472684728524   -0.059836535783590834   -0.0029300497889303777
-0.00773857774827877   -0.0600419990268363   -0.003001978004941391
-0.002341454070866059   -0.07269468649137381   -0.002850135790669388
-0.008169611795061793   -0.07285707282860313   -0.003026751774351901
-0.008271780884237585   -0.07275713674542185   -0.0030373687510266505
-0.00773857774827877   -0.0600419990268363   -0.003001978004941391
-0.002341454070866059   -0.07269468649137381   -0.002850135790669388
-0.008271780884237585   -0.07275713674542185   -0.0030373687510266505
-0.0013560472684728524   -0.059836535783590834   -0.0029300497889303777
-0.0014755820769347132   -0.05979863063341083   -0.0030671443977540237
-0.0026319293460998275   -0.07260543053747377   -0.0030885226641392794
0.005155282683449538   -0.059720676105471535   -0.0030932053342123756
-0.001414150385309509   -0.059811925407973913   -0.0029918420289524045
-0.0026319293460998275   -0.07260543053747377   -0.0030885226641392794
0.00340113071914785   -0.07246230504301462   -0.0031437335455171793
0.005155282683449538   -0.059720676105471535   -0.0030932053342123756
0.0035260729444591423   -0.0724230453820036   -0.002996232812001032
-0.001414150385309509   -0.059811925407973913   -0.0029918420289524045
0.005233667271931538   -0.05969004263099439   -0.0029962432276805393
0.0035260729444591423   -0.0724230453820036   -0.002996232812001032
0.005155282683449538   -0.059720676105471535   -0.0030932053342123756
-0.001414150385309509   -0.059811925407973913   -0.0029918420289524045
0.0035260729444591423   -0.0724230453820036   -0.002996232812001032
-0.002529734037514429   -0.07260639586009233   -0.0029951281180056613
-0.0026319293460998275   -0.07260543053747377   -0.0030885226641392794
-0.001414150385309509   -0.059811925407973913   -0.0029918420289524045
0.0035260729444591423   -0.0724230453820036   -0.002996232812001032
-0.0026319293460998275   -0.07260543053747377   -0.0030885226641392794
0.005155282683449538   -0.059720676105471535   -0.0030932053342123756
-0.001414150385309509   -0.059811925407973913   -0.0029918420289524045
-0.002529734037514429   -0.07260639586009233   -0.0029951281180056613
0.005233667271931538   -0.05969004263099439   -0.0029962432276805393
-0.0013560472684728524   -0.059836535783590834   -0.0029300497889303777
-0.002529734037514429   -0.07260639586009233   -0.0029951281180056613
0.0035260729444591423   -0.0724230453820036   -0.002996232812001032
0.005233667271931538   -0.05969004263099439   -0.0029962432276805393
0.0036541586044455173   -0.07241575387672881   -0.0028633885936731247
-0.0013560472684728524   -0.059836535783590834   -0.0029300497889303777
0.0053060618851828644   -0.05967411752865332   -0.002912751709248555
0.0036541586044455173   -0.07241575387672881   -0.0028633885936731247
0.005233667271931538   -0.05969004263099439   -0.0029962432276805393
-0.0013560472684728524   -0.059836535783590834   -0.0029300497889303777
0.0036541586044455173   -0.07241575387672881   -0.0028633885936731247
-0.0024302231140905647   -0.07263534610321437   -0.002915506035793322
-0.002529734037514429   -0.07260639586009233   -0.0029951281180056613
-0.0013560472684728524   -0.059836535783590834   -0.0029300497889303777
0.0036541586044455173   -0.07241575387672881   -0.0028633885936731247
-0.002529734037514429   -0.07260639586009233   -0.0029951281180056613
0.005233667271931538   -0.05969004263099439   -0.0029962432276805393
-0.0013560472684728524   -0.059836535783590834   -0.0029300497889303777
-0.0024302231140905647   -0.07263534610321437   -0.002915506035793322
0.0053060618851828644   -0.05967411752865332   -0.002912751709248555
-0.00130676508669529   -0.05987302516570655   -0.0028822403002485616
-0.0024302231140905647   -0.07263534610321437   -0.002915506035793322
0.0036541586044455173   -0.07241575387672881   -0.0028633885936731247
0.0053060618851828644   -0.05967411752865332   -0.002912751709248555
0.0037392907109621036   -0.07243452601109941   -0.0027432687361042614
-0.00130676508669529   -0.05987302516570655   -0.0028822403002485616
0.005344782734855208   -0.059665161816702145   -0.0028418513745361034
0.0037392907109621036   -0.07243452601109941   -0.0027432687361042614
0.0053060618851828644   -0.05967411752865332   -0.002912751709248555
-0.00130676508669529   -0.05987302516570655   -0.0028822403002485616
0.0037392907109621036   -0.07243452601109941   -0.0027432687361042614
-0.002341454070866059   -0.07269468649137381   -0.002850135790669388
-0.0024302231140905647   -0.07263534610321437   -0.002915506035793322
-0.00130676508669529   -0.05987302516570655   -0.0028822403002485616
0.0037392907109621036   -0.07243452601109941   -0.0027432687361042614
-0.0024302231140905647   -0.07263534610321437   -0.002915506035793322
0.0053060618851828644   -0.05967411752865332   -0.002912751709248555
0.005155282683449538   -0.059720676105471535   -0.0030932053342123756
0.00340113071914785   -0.07246230504301462   -0.0031437335455171793
0.01225532853435196   -0.059589746443208996   -0.003202747390912443
0.005233667271931538   -0.05969004263099439   -0.0029962432276805393
0.00340113071914785   -0.07246230504301462   -0.0031437335455171793
0.009820122919980032   -0.07221626489148751   -0.003286504934363063
0.01225532853435196   -0.059589746443208996   -0.003202747390912443
0.010152503409970025   -0.07213525881951534   -0.0030719218716159873
0.005233667271931538   -0.05969004263099439   -0.0029962432276805393
0.012460090587093964   -0.059519303021951304   -0.0030755364289853514
0.010152503409970025   -0.07213525881951534   -0.0030719218716159873
0.01225532853435196   -0.059589746443208996   -0.003202747390912443
0.005233667271931538   -0.05969004263099439   -0.0029962432276805393
0.010152503409970025   -0.07213525881951534   -0.0030719218716159873
0.0035260729444591423   -0.0724230453820036   -0.002996232812001032
0.00340113071914785   -0.07246230504301462   -0.0031437335455171793
0.005233667271931538   -0.05969004263099439   -0.0029962432276805393
0.010152503409970025   -0.07213525881951534   -0.0030719218716159873
0.00340113071914785   -0.07246230504301462   -0.0031437335455171793
0.01225532853435196   -0.059589746443208996   -0.003202747390912443
0.005233667271931538   -0.05969004263099439   -0.0029962432276805393
0.0035260729444591423   -0.0724230453820036   -0.002996232812001032
0.012460090587093964   -0.059519303021951304   -0.0030755364289853514
0.0053060618851828644   -0.05967411752865332   -0.002912751709248555
0.0035260729444591423   -0.0724230453820036   -0.002996232812001032
0.010152503409970025   -0.07213525881951534   -0.0030719218716159873
0.012460090587093964   -0.059519303021951304   -0.0030755364289853514
0.010398566507013656   -0.07211301425072342   -0.0028768257816560944
0.0053060618851828644   -0.05967411752865332   -0.002912751709248555
0.012600673767837751   -0.0594851487135629   -0.002967504697956487
0.010398566507013656   -0.07211301425072342   -0.0028768257816560944
0.012460090587093964   -0.059519303021951304   -0.0030755364289853514
0.0053060618851828644   -0.05967411752865332   -0.002912751709248555
0.010398566507013656   -0.07211301425072342   -0.0028768257816560944
0.0036541586044455173   -0.07241575387672881   -0.0028633885936731247
0.0035260729444591423   -0.0724230453820036   -0.002996232812001032
0.0053060618851828644   -0.05967411752865332   -0.002912751709248555
0.010398566507013656   -0.07211301425072342   -0.0028768257816560944
0.0035260729444591423   -0.0724230453820036   -0.002996232812001032
0.012460090587093964   -0.059519303021951304   -0.0030755364289853514
0.0053060618851828644   -0.05967411752865332   -0.002912751709248555
0.0036541586044455173   -0.07241575387672881   -0.0028633885936731247
0.012600673767837751   -0.0594851487135629   -0.002967504697956487
0.005344782734855208   -0.059665161816702145   -0.0028418513745361034
0.0036541586044455173   -0.07241575387672881   -0.0028633885936731247
0.010398566507013656   -0.07211301425072342   -0.0028768257816560944
0.012600673767837751   -0.0594851487135629   -0.002967504697956487
0.010647914716064064   -0.0721127773251384   -0.0027021015414839963
0.005344782734855208   -0.059665161816702145   -0.0028418513745361034
0.012725349882244897   -0.059447904299505284   -0.0028794472358167145
0.010647914716064064   -0.0721127773251384   -0.0027021015414839963
0.012600673767837751   -0.0594851487135629   -0.002967504697956487
0.005344782734855208   -0.059665161816702145   -0.0028418513745361034
0.010647914716064064   -0.0721127773251384   -0.0027021015414839963
0.0037392907109621036   -0.07243452601109941   -0.0027432687361042614
0.0036541586044455173   -0.07241575387672881   -0.0028633885936731247
0.005344782734855208   -0.059665161816702145   -0.0028418513745361034
0.010647914716064064   -0.0721127773251384   -0.0027021015414839963
0.0036541586044455173   -0.07241575387672881   -0.0028633885936731247
0.012600673767837751   -0.0594851487135629   -0.002967504697956487
-0.021186980969429614   -0.07244605024793067   -0.003294717812340206
-0.01933528512566252   -0.08364545638091182   -0.0030721750665556125
-0.01447742996749902   -0.07259185735039124   -0.003176710859831341
-0.021033881263561267   -0.07254634717712137   -0.003378686828790733
-0.01933528512566252   -0.08364545638091182   -0.0030721750665556125
-0.013687774018713593   -0.08390869994709797   -0.0030530858131056224
-0.01447742996749902   -0.07259185735039124   -0.003176710859831341
-0.013546712029690527   -0.08394678851072158   -0.0031153048074544286
-0.021033881263561267   -0.07254634717712137   -0.003378686828790733
-0.014392608345314709   -0.07266614393120105   -0.003194512699212163
-0.013546712029690527   -0.08394678851072158   -0.0031153048074544286
-0.01447742996749902   -0.07259185735039124   -0.003176710859831341
-0.021033881263561267   -0.07254634717712137   -0.003378686828790733
-0.013546712029690527   -0.08394678851072158   -0.0031153048074544286
-0.01904162586350697   -0.08370199694612561   -0.0032462885898743004
-0.01933528512566252   -0.08364545638091182   -0.0030721750665556125
-0.021033881263561267   -0.07254634717712137   -0.003378686828790733
-0.013546712029690527   -0.08394678851072158   -0.0031153048074544286
-0.01933528512566252   -0.08364545638091182   -0.0030721750665556125
-0.01447742996749902   -0.07259185735039124   -0.003176710859831341
-0.021033881263561267   -0.07254634717712137   -0.003378686828790733
-0.01904162586350697   -0.08370199694612561   -0.0032462885898743004
-0.014392608345314709   -0.07266614393120105   -0.003194512699212163
-0.020859033259486556   -0.07266936046523079   -0.0034845320524707077
-0.01904162586350697   -0.08370199694612561   -0.0032462885898743004
-0.013546712029690527   -0.08394678851072158   -0.0031153048074544286
-0.014392608345314709   -0.07266614393120105   -0.003194512699212163
-0.013369540968471377   -0.08403797311497194   -0.0031916488541799347
-0.020859033259486556   -0.07266936046523079   -0.0034845320524707077
-0.01427772396019137   -0.0727718401538962   -0.003226223170128506
-0.013369540968471377   -0.08403797311497194   -0.0031916488541799347
-0.014392608345314709   -0.07266614393120105   -0.003194512699212163
-0.020859033259486556   -0.07266936046523079   -0.0034845320524707077
-0.013369540968471377   -0.08403797311497194   -0.0031916488541799347
-0.018748636926365685   -0.08380900547386186   -0.003443402868787028
-0.01904162586350697   -0.08370199694612561   -0.0032462885898743004
-0.020859033259486556   -0.07266936046523079   -0.0034845320524707077
-0.013369540968471377   -0.08403797311497194   -0.0031916488541799347
-0.01904162586350697   -0.08370199694612561   -0.0032462885898743004
-0.014392608345314709   -0.07266614393120105   -0.003194512699212163
-0.020859033259486556   -0.07266936046523079   -0.0034845320524707077
-0.018748636926365685   -0.08380900547386186   -0.003443402868787028
-0.01427772396019137   -0.0727718401538962   -0.003226223170128506
-0.02062087769822547   -0.07285656849633435   -0.003612652416121321
-0.018748636926365685   -0.08380900547386186   -0.003443402868787028
-0.013369540968471377   -0.08403797311497194   -0.0031916488541799347
-0.01427772396019137   -0.0727718401538962   -0.003226223170128506
-0.013194715160822662   -0.08418743160333   -0.0032819855589445316
-0.02062087769822547   -0.07285656849633435   -0.003612652416121321
-0.014154434099105667   -0.0729153904931445   -0.0032722555808789963
-0.013194715160822662   -0.08418743160333   -0.0032819855589445316
-0.01427772396019137   -0.0727718401538962   -0.003226223170128506
-0.02062087769822547   -0.07285656849633435   -0.003612652416121321
-0.013194715160822662   -0.08418743160333   -0.0032819855589445316
-0.01837331548837886   -0.08400854382110956   -0.0036630880233308955
-0.018748636926365685   -0.08380900547386186   -0.003443402868787028
-0.02062087769822547   -0.07285656849633435   -0.003612652416121321
-0.013194715160822662   -0.08418743160333   -0.0032819855589445316
-0.018748636926365685   -0.08380900547386186   -0.003443402868787028
-0.01427772396019137   -0.0727718401538962   -0.003226223170128506
-0.01447742996749902   -0.07259185735039124   -0.003176710859831341
-0.013687774018713593   -0.08390869994709797   -0.0030530858131056224
-0.00846357076170433   -0.07264962826309067   -0.00310116206618666
-0.014392608345314709   -0.07266614393120105   -0.003194512699212163
-0.013687774018713593   -0.08390869994709797   -0.0030530858131056224
-0.008798669638733566   -0.08403215530779769   -0.003045466429367076
-0.00846357076170433   -0.07264962826309067   -0.00310116206618666
-0.00865391450098516   -0.08404466847154103   -0.003017660007762899
-0.014392608345314709   -0.07266614393120105   -0.003194512699212163
-0.008371178142431606   -0.07268827973307629   -0.0030623955296973583
-0.00865391450098516   -0.08404466847154103   -0.003017660007762899
-0.00846357076170433   -0.07264962826309067   -0.00310116206618666
-0.014392608345314709   -0.07266614393120105   -0.003194512699212163
-0.00865391450098516   -0.08404466847154103   -0.003017660007762899
-0.013546712029690527   -0.08394678851072158   -0.0031153048074544286
-0.013687774018713593   -0.08390869994709797   -0.0030530858131056224
-0.014392608345314709   -0.07266614393120105   -0.003194512699212163
-0.00865391450098516   -0.08404466847154103   -0.003017660007762899
-0.013687774018713593   -0.08390869994709797   -0.0030530858131056224
-0.00846357076170433   -0.07264962826309067   -0.00310116206618666
-0.014392608345314709   -0.07266614393120105   -0.003194512699212163
-0.013546712029690527   -0.08394678851072158   -0.0031153048074544286
-0.008371178142431606   -0.07268827973307629   -0.0030623955296973583
-0.01427772396019137   -0.0727718401538962   -0.003226223170128506
-0.013546712029690527   -0.08394678851072158   -0.0031153048074544286
-0.00865391450098516   -0.08404466847154103   -0.003017660007762899
-0.008371178142431606   -0.07268827973307629   -0.0030623955296973583
-0.008504520567828959   -0.0841045856572965   -0.003003560591159005
-0.01427772396019137   -0.0727718401538962   -0.003226223170128506
-0.008271780884237585   -0.07275713674542185   -0.0030373687510266505
-0.008504520567828959   -0.0841045856572965   -0.003003560591159005
-0.008371178142431606   -0.07268827973307629   -0.0030623955296973583
-0.01427772396019137   -0.0727718401538962   -0.003226223170128506
-0.008504520567828959   -0.0841045856572965   -0.003003560591159005
-0.013369540968471377   -0.08403797311497194   -0.0031916488541799347
-0.013546712029690527   -0.08394678851072158   -0.0031153048074544286
-0.01427772396019137   -0.0727718401538962   -0.003226223170128506
-0.008504520567828959   -0.0841045856572965   -0.003003560591159005
-0.013546712029690527   -0.08394678851072158   -0.0031153048074544286
-0.008371178142431606   -0.07268827973307629   -0.0030623955296973583
-0.01427772396019137   -0.0727718401538962   -0.003226223170128506
-0.013369540968471377   -0.08403797311497194   -0.0031916488541799347
-0.008271780884237585   -0.07275713674542185   -0.0030373687510266505
-0.014154434099105667   -0.0729153904931445   -0.0032722555808789963
-0.013369540968471377   -0.08403797311497194   -0.0031916488541799347
-0.008504520567828959   -0.0841045856572965   -0.003003560591159005
-0.008271780884237585   -0.07275713674542185   -0.0030373687510266505
-0.008355376706370984   -0.08421471406533668   -0.0030029880213993036
-0.014154434099105667   -0.0729153904931445   -0.0032722555808789963
-0.008169611795061793   -0.07285707282860313   -0.003026751774351901
-0.008355376706370984   -0.08421471406533668   -0.0030029880213993036
-0.008271780884237585   -0.07275713674542185   -0.0030373687510266505
-0.014154434099105667   -0.0729153904931445   -0.0032722555808789963
-0.008355376706370984   -0.08421471406533668   -0.0030029880213993036
-0.013194715160822662   -0.08418743160333   -0.0032819855589445316
-0.013369540968471377   -0.08403797311497194   -0.0031916488541799347
-0.014154434099105667   -0.0729153904931445   -0.0032722555808789963
-0.008355376706370984   -0.08421471406533668   -0.0030029880213993036
-0.013369540968471377   -0.08403797311497194   -0.0031916488541799347
-0.008271780884237585   -0.07275713674542185   -0.0030373687510266505
-0.00846357076170433   -0.07264962826309067   -0.00310116206618666
-0.008798669638733566   -0.08403215530779769   -0.003045466429367076
-0.0026319293460998275   -0.07260543053747377   -0.0030885226641392794
-0.008371178142431606   -0.07268827973307629   -0.0030623955296973583
-0.008798669638733566   -0.08403215530779769   -0.003045466429367076
-0.004071974102933755   -0.08401003332787427   -0.0030804233017279487
-0.0026319293460998275   -0.07260543053747377   -0.0030885226641392794
-0.0039134138377345355   -0.08399383388264953   -0.00296575313486091
-0.008371178142431606   -0.07268827973307629   -0.0030623955296973583
-0.002529734037514429   -0.07260639586009233   -0.0029951281180056613
-0.0039134138377345355   -0.08399383388264953   -0.00296575313486091
-0.0026319293460998275   -0.07260543053747377   -0.0030885226641392794
-0.008371178142431606   -0.07268827973307629   -0.0030623955296973583
-0.0039134138377345355   -0.08399383388264953   -0.00296575313486091
-0.00865391450098516   -0.08404466847154103   -0.003017660007762899
-0.008798669638733566   -0.08403215530779769   -0.003045466429367076
-0.008371178142431606   -0.07268827973307629   -0.0030623955296973583
-0.0039134138377345355   -0.08399383388264953   -0.00296575313486091
-0.008798669638733566   -0.08403215530779769   -0.003045466429367076
-0.0026319293460998275   -0.07260543053747377   -0.0030885226641392794
-0.008371178142431606   -0.07268827973307629   -0.0030623955296973583
-0.00865391450098516   -0.08404466847154103   -0.003017660007762899
-0.002529734037514429   -0.07260639586009233   -0.0029951281180056613
-0.008271780884237585   -0.07275713674542185   -0.0030373687510266505
-0.00865391450098516   -0.08404466847154103   -0.003017660007762899
-0.0039134138377345355   -0.08399383388264953   -0.00296575313486091
-0.002529734037514429   -0.07260639586009233   -0.0029951281180056613
-0.003759545423780876   -0.08402048311910024   -0.002865693358158299
-0.008271780884237585   -0.07275713674542185   -0.0030373687510266505
-0.0024302231140905647   -0.07263534610321437   -0.002915506035793322
-0.003759545423780876   -0.08402048311910024   -0.002865693358158299
-0.002529734037514429   -0.07260639586009233   -0.0029951281180056613
-0.008271780884237585   -0.07275713674542185   -0.0030373687510266505
-0.003759545423780876   -0.08402048311910024   -0.002865693358158299
-0.008504520567828959   -0.0841045856572965   -0.003003560591159005
-0.00865391450098516   -0.08404466847154103   -0.003017660007762899
-0.008271780884237585   -0.07275713674542185   -0.0030373687510266505
-0.003759545423780876   -0.08402048311910024   -0.002865693358158299
-0.00865391450098516   -0.08404466847154103   -0.003017660007762899
-0.002529734037514429   -0.07260639586009233   -0.0029951281180056613
-0.008271780884237585   -0.07275713674542185   -0.0030373687510266505
-0.008504520567828959   -0.0841045856572965   -0.003003560591159005
-0.0024302231140905647   -0.07263534610321437   -0.002915506035793322
-0.008169611795061793   -0.07285707282860313   -0.003026751774351901
-0.008504520567828959   -0.0841045856572965   -0.003003560591159005
-0.003759545423780876   -0.08402048311910024   -0.002865693358158299
-0.0024302231140905647   -0.07263534610321437   -0.002915506035793322
-0.003620545841926102   -0.08409622676311884   -0.002778976388018774
-0.008169611795061793   -0.07285707282860313   -0.003026751774351901
-0.002341454070866059   -0.07269468649137381   -0.002850135790669388
-0.003620545841926102   -0.08409622676311884   -0.002778976388018774
-0.0024302231140905647   -0.07263534610321437   -0.002915506035793322
-0.008169611795061793   -0.07285707282860313   -0.003026751774351901
-0.003620545841926102   -0.08409622676311884   -0.002778976388018774
-0.008355376706370984   -0.08421471406533668   -0.0030029880213993036
-0.008504520567828959   -0.0841045856572965   -0.003003560591159005
-0.008169611795061793   -0.07285707282860313   -0.003026751774351901
-0.003620545841926102   -0.08409622676311884   -0.002778976388018774
-0.008504520567828959   -0.0841045856572965   -0.003003560591159005
-0.0024302231140905647   -0.07263534610321437   -0.002915506035793322
-0.0026319293460998275   -0.07260543053747377   -0.0030885226641392794
-0.004071974102933755   -0.08401003332787427   -0.0030804233017279487
0.00340113071914785   -0.07246230504301462   -0.0031437335455171793
-0.002529734037514429   -0.07260639586009233   -0.0029951281180056613
-0.004071974102933755   -0.08401003332787427   -0.0030804233017279487
0.0008769380350042338   -0.08383713198753187   -0.003165676133484093
0.00340113071914785   -0.07246230504301462   -0.0031437335455171793
0.0010697968969300903   -0.0837844479473321   -0.0029644491294022095
-0.002529734037514429   -0.07260639586009233   -0.0029951281180056613
0.0035260729444591423   -0.0724230453820036   -0.002996232812001032
0.0010697968969300903   -0.0837844479473321   -0.0029644491294022095
0.00340113071914785   -0.07246230504301462   -0.0031437335455171793
-0.002529734037514429   -0.07260639586009233   -0.0029951281180056613
0.0010697968969300903   -0.0837844479473321   -0.0029644491294022095
-0.0039134138377345355   -0.08399383388264953   -0.00296575313486091
-0.004071974102933755   -0.08401003332787427   -0.0030804233017279487
-0.002529734037514429   -0.07260639586009233   -0.0029951281180056613
0.0010697968969300903   -0.0837844479473321   -0.0029644491294022095
-0.004071974102933755   -0.08401003332787427   -0.0030804233017279487
0.00340113071914785   -0.07246230504301462   -0.0031437335455171793
-0.002529734037514429   -0.07260639586009233   -0.0029951281180056613
-0.0039134138377345355   -0.08399383388264953   -0.00296575313486091
0.0035260729444591423   -0.0724230453820036   -0.002996232812001032
-0.0024302231140905647   -0.07263534610321437   -0.002915506035793322
-0.0039134138377345355   -0.08399383388264953   -0.00296575313486091
0.0010697968969300903   -0.0837844479473321   -0.0029644491294022095
0.0035260729444591423   -0.0724230453820036   -0.002996232812001032
0.0012729896771141486   -0.08377967323418856   -0.0027817467618642877
-0.0024302231140905647   -0.07263534610321437   -0.002915506035793322
0.0036541586044455173   -0.07241575387672881   -0.0028633885936731247
0.0012729896771141486   -0.08377967323418856   -0.0027817467618642877
0.0035260729444591423   -0.0724230453820036   -0.002996232812001032
-0.0024302231140905647   -0.07263534610321437   -0.002915506035793322
0.0012729896771141486   -0.08377967323418856   -0.0027817467618642877
-0.003759545423780876   -0.08402048311910024   -0.002865693358158299
-0.0039134138377345355   -0.08399383388264953   -0.00296575313486091
-0.0024302231140905647   -0.07263534610321437   -0.002915506035793322
0.0012729896771141486   -0.08377967323418856   -0.0027817467618642877
-0.0039134138377345355   -0.08399383388264953   -0.00296575313486091
0.0035260729444591423   -0.0724230453820036   -0.002996232812001032
-0.0024302231140905647   -0.07263534610321437   -0.002915506035793322
-0.003759545423780876   -0.08402048311910024   -0.002865693358158299
0.0036541586044455173   -0.07241575387672881   -0.0028633885936731247
-0.002341454070866059   -0.07269468649137381   -0.002850135790669388
-0.003759545423780876   -0.08402048311910024   -0.002865693358158299
0.0012729896771141486   -0.08377967323418856   -0.0027817467618642877
0.0036541586044455173   -0.07241575387672881   -0.0028633885936731247
0.0014215992091393783   -0.08382063516865056   -0.0026118015380424218
-0.002341454070866059   -0.07269468649137381   -0.002850135790669388
0.0037392907109621036   -0.07243452601109941   -0.0027432687361042614
0.0014215992091393783   -0.08382063516865056   -0.0026118015380424218
0.0036541586044455173   -0.07241575387672881   -0.0028633885936731247
-0.002341454070866059   -0.07269468649137381   -0.002850135790669388
0.0014215992091393783   -0.08382063516865056   -0.0026118015380424218
-0.003620545841926102   -0.08409622676311884   -0.002778976388018774
-0.003759545423780876   -0.08402048311910024   -0.002865693358158299
-0.002341454070866059   -0.07269468649137381   -0.002850135790669388
0.0014215992091393783   -0.08382063516865056   -0.0026118015380424218
-0.003759545423780876   -0.08402048311910024   -0.002865693358158299
0.0036541586044455173   -0.07241575387672881   -0.0028633885936731247
0.00340113071914785   -0.07246230504301462   -0.0031437335455171793
0.0008769380350042338   -0.08383713198753187   -0.003165676133484093
0.009820122919980032   -0.07221626489148751   -0.003286504934363063
0.0035260729444591423   -0.0724230453820036   -0.002996232812001032
0.0008769380350042338   -0.08383713198753187   -0.003165676133484093
0.006154429664492203   -0.08349703522620233   -0.0033481984561175068
0.009820122919980032   -0.07221626489148751   -0.003286504934363063
0.006642487436633335   -0.08339587828847335   -0.003040249833388085
0.0035260729444591423   -0.0724230453820036   -0.002996232812001032
0.010152503409970025   -0.07213525881951534   -0.0030719218716159873
0.006642487436633335   -0.08339587828847335   -0.003040249833388085
0.009820122919980032   -0.07221626489148751   -0.003286504934363063
0.0035260729444591423   -0.0724230453820036   -0.002996232812001032
0.006642487436633335   -0.08339587828847335   -0.003040249833388085
0.0010697968969300903   -0.0837844479473321   -0.0029644491294022095
0.0008769380350042338   -0.08383713198753187   -0.003165676133484093
0.0035260729444591423   -0.0724230453820036   -0.002996232812001032
0.006642487436633335   -0.08339587828847335   -0.003040249833388085
0.0008769380350042338   -0.08383713198753187   -0.003165676133484093
0.009820122919980032   -0.07221626489148751   -0.003286504934363063
0.0035260729444591423   -0.0724230453820036   -0.002996232812001032
0.0010697968969300903   -0.0837844479473321   -0.0029644491294022095
0.010152503409970025   -0.07213525881951534   -0.0030719218716159873
0.0036541586044455173   -0.07241575387672881   -0.0028633885936731247
0.0010697968969300903   -0.0837844479473321   -0.0029644491294022095
0.006642487436633335   -0.08339587828847335   -0.003040249833388085
0.010152503409970025   -0.07213525881951534   -0.0030719218716159873
0.007016662414420793   -0.08337836391654782   -0.0027552717929764754
0.0036541586044455173   -0.07241575387672881   -0.0028633885936731247
0.010398566507013656   -0.07211301425072342   -0.0028768257816560944
0.007016662414420793   -0.08337836391654782   -0.0027552717929764754
0.010152503409970025   -0.07213525881951534   -0.0030719218716159873
0.0036541586044455173   -0.07241575387672881   -0.0028633885936731247
0.007016662414420793   -0.08337836391654782   -0.0027552717929764754
0.0012729896771141486   -0.08377967323418856   -0.0027817467618642877
0.0010697968969300903   -0.0837844479473321   -0.0029644491294022095
0.0036541586044455173   -0.07241575387672881   -0.0028633885936731247
0.007016662414420793   -0.08337836391654782   -0.0027552717929764754
0.0010697968969300903   -0.0837844479473321   -0.0029644491294022095
0.010152503409970025   -0.07213525881951534   -0.0030719218716159873
0.0036541586044455173   -0.07241575387672881   -0.0028633885936731247
0.0012729896771141486   -0.08377967323418856   -0.0027817467618642877
0.010398566507013656   -0.07211301425072342   -0.0028768257816560944
0.0037392907109621036   -0.07243452601109941   -0.0027432687361042614
0.0012729896771141486   -0.08377967323418856   -0.0027817467618642877
0.007016662414420793   -0.08337836391654782   -0.0027552717929764754
0.010398566507013656   -0.07211301425072342   -0.0028768257816560944
0.007404141870180505   -0.08340829689102874   -0.00249559593611063
0.0037392907109621036   -0.07243452601109941   -0.0027432687361042614
0.010647914716064064   -0.0721127773251384   -0.0027021015414839963
0.007404141870180505   -0.08340829689102874   -0.00249559593611063
0.010398566507013656   -0.07211301425072342   -0.0028768257816560944
0.0037392907109621036   -0.07243452601109941   -0.0027432687361042614
0.007404141870180505   -0.08340829689102874   -0.00249559593611063
0.0014215992091393783   -0.08382063516865056   -0.0026118015380424218
0.0012729896771141486   -0.08377967323418856   -0.0027817467618642877
0.0037392907109621036   -0.07243452601109941   -0.0027432687361042614
0.007404141870180505   -0.08340829689102874   -0.00249559593611063
0.0012729896771141486   -0.08377967323418856   -0.0027817467618642877
0.010398566507013656   -0.07211301425072342   -0.0028768257816560944
-0.01933528512566252   -0.08364545638091182   -0.0030721750665556125
-0.016190107825314468   -0.0924373443936513   -0.002787080914019326
-0.013687774018713593   -0.08390869994709797   -0.0030530858131056224
-0.01904162586350697   -0.08370199694612561   -0.0032462885898743004
-0.016190107825314468   -0.0924373443936513   -0.002787080914019326
-0.012171411643820143   -0.09282739660734583   -0.0029041252799221363
-0.013687774018713593   -0.08390869994709797   -0.0030530858131056224
-0.011968002797388981   -0.09280722265282981   -0.0029998917333515763
-0.01904162586350697   -0.08370199694612561   -0.0032462885898743004
-0.013546712029690527   -0.08394678851072158   -0.0031153048074544286
-0.011968002797388981   -0.09280722265282981   -0.0029998917333515763
-0.013687774018713593   -0.08390869994709797   -0.0030530858131056224
-0.01904162586350697   -0.08370199694612561   -0.0032462885898743004
-0.011968002797388981   -0.09280722265282981   -0.0029998917333515763
-0.015751967284634866   -0.09242631090023094   -0.0030453060868429406
-0.016190107825314468   -0.0924373443936513   -0.002787080914019326
-0.01904162586350697   -0.08370199694612561   -0.0032462885898743004
-0.011968002797388981   -0.09280722265282981   -0.0029998917333515763
-0.016190107825314468   -0.0924373443936513   -0.002787080914019326
-0.013687774018713593   -0.08390869994709797   -0.0030530858131056224
-0.01904162586350697   -0.08370199694612561   -0.0032462885898743004
-0.015751967284634866   -0.09242631090023094   -0.0030453060868429406
-0.013546712029690527   -0.08394678851072158   -0.0031153048074544286
-0.018748636926365685   -0.08380900547386186   -0.003443402868787028
-0.015751967284634866   -0.09242631090023094   -0.0030453060868429406
-0.011968002797388981   -0.09280722265282981   -0.0029998917333515763
-0.013546712029690527   -0.08394678851072158   -0.0031153048074544286
-0.01172881722017515   -0.09286321845070955   -0.003110099802709266
-0.018748636926365685   -0.08380900547386186   -0.003443402868787028
-0.013369540968471377   -0.08403797311497194   -0.0031916488541799347
-0.01172881722017515   -0.09286321845070955   -0.003110099802709266
-0.013546712029690527   -0.08394678851072158   -0.0031153048074544286
-0.018748636926365685   -0.08380900547386186   -0.003443402868787028
-0.01172881722017515   -0.09286321845070955   -0.003110099802709266
-0.015348037815988813   -0.09249552031419028   -0.0033238661138920676
-0.015751967284634866   -0.09242631090023094   -0.0030453060868429406
-0.018748636926365685   -0.08380900547386186   -0.003443402868787028
-0.01172881722017515   -0.09286321845070955   -0.003110099802709266
-0.015751967284634866   -0.09242631090023094   -0.0030453060868429406
-0.013546712029690527   -0.08394678851072158   -0.0031153048074544286
-0.018748636926365685   -0.08380900547386186   -0.003443402868787028
-0.015348037815988813   -0.09249552031419028   -0.0033238661138920676
-0.013369540968471377   -0.08403797311497194   -0.0031916488541799347
-0.01837331548837886   -0.08400854382110956   -0.0036630880233308955
-0.015348037815988813   -0.09249552031419028   -0.0033238661138920676
-0.01172881722017515   -0.09286321845070955   -0.003110099802709266
-0.013369540968471377   -0.08403797311497194   -0.0031916488541799347
-0.011511825941902585   -0.09299665147652401   -0.0032338246518937787
-0.01837331548837886   -0.08400854382110956   -0.0036630880233308955
-0.013194715160822662   -0.08418743160333   -0.0032819855589445316
-0.011511825941902585   -0.09299665147652401   -0.0032338246518937787
-0.013369540968471377   -0.08403797311497194   -0.0031916488541799347
-0.01837331548837886   -0.08400854382110956   -0.0036630880233308955
-0.011511825941902585   -0.09299665147652401   -0.0032338246518937787
-0.014855418826750752   -0.09268053097613034   -0.003621556714698335
-0.015348037815988813   -0.09249552031419028   -0.0033238661138920676
-0.01837331548837886   -0.08400854382110956   -0.0036630880233308955
-0.011511825941902585   -0.09299665147652401   -0.0032338246518937787
-0.015348037815988813   -0.09249552031419028   -0.0033238661138920676
-0.013369540968471377   -0.08403797311497194   -0.0031916488541799347
-0.013687774018713593   -0.08390869994709797   -0.0030530858131056224
-0.012171411643820143   -0.09282739660734583   -0.0029041252799221363
-0.008798669638733566   -0.08403215530779769   -0.003045466429367076
-0.013546712029690527   -0.08394678851072158   -0.0031153048074544286
-0.012171411643820143   -0.09282739660734583   -0.0029041252799221363
-0.008889230640868044   -0.09308061303707803   -0.002995710253673179
-0.008798669638733566   -0.08403215530779769   -0.003045466429367076
-0.008680450306849826   -0.09304837882564716   -0.002966406114639924
-0.013546712029690527   -0.08394678851072158   -0.0031153048074544286
-0.00865391450098516   -0.08404466847154103   -0.003017660007762899
-0.008680450306849826   -0.09304837882564716   -0.002966406114639924
-0.008798669638733566   -0.08403215530779769   -0.003045466429367076
-0.013546712029690527   -0.08394678851072158   -0.0031153048074544286
-0.008680450306849826   -0.09304837882564716   -0.002966406114639924
-0.011968002797388981   -0.09280722265282981   -0.0029998917333515763
-0.012171411643820143   -0.09282739660734583   -0.0029041252799221363
-0.013546712029690527   -0.08394678851072158   -0.0031153048074544286
-0.008680450306849826   -0.09304837882564716   -0.002966406114639924
-0.012171411643820143   -0.09282739660734583   -0.0029041252799221363
-0.008798669638733566   -0.08403215530779769   -0.003045466429367076
-0.013546712029690527   -0.08394678851072158   -0.0031153048074544286
-0.011968002797388981   -0.09280722265282981   -0.0029998917333515763
-0.00865391450098516   -0.08404466847154103   -0.003017660007762899
-0.013369540968471377   -0.08403797311497194   -0.0031916488541799347
-0.011968002797388981   -0.09280722265282981   -0.0029998917333515763
-0.008680450306849826   -0.09304837882564716   -0.002966406114639924
-0.00865391450098516   -0.08404466847154103   -0.003017660007762899
-0.008474638776525737   -0.09308187537029863   -0.002951124884526942
-0.013369540968471377   -0.08403797311497194   -0.0031916488541799347
-0.008504520567828959   -0.0841045856572965   -0.003003560591159005
-0.008474638776525737   -0.09308187537029863   -0.002951124884526942
-0.00865391450098516   -0.08404466847154103   -0.003017660007762899
-0.013369540968471377   -0.08403797311497194   -0.0031916488541799347
-0.008474638776525737   -0.09308187537029863   -0.002951124884526942
-0.01172881722017515   -0.09286321845070955   -0.003110099802709266
-0.011968002797388981   -0.09280722265282981   -0.0029998917333515763
-0.013369540968471377   -0.08403797311497194   -0.0031916488541799347
-0.008474638776525737   -0.09308187537029863   -0.002951124884526942
-0.011968002797388981   -0.09280722265282981   -0.0029998917333515763
-0.00865391450098516   -0.08404466847154103   -0.003017660007762899
-0.013369540968471377   -0.08403797311497194   -0.0031916488541799347
-0.01172881722017515   -0.09286321845070955   -0.003110099802709266
-0.008504520567828959   -0.0841045856572965   -0.003003560591159005
-0.013194715160822662   -0.08418743160333   -0.0032819855589445316
-0.01172881722017515   -0.09286321845070955   -0.003110099802709266
-0.008474638776525737   -0.09308187537029863   -0.002951124884526942
-0.008504520567828959   -0.0841045856572965   -0.003003560591159005
-0.008285302043855884   -0.09318330060206326   -0.0029528098662261757
-0.013194715160822662   -0.08418743160333   -0.0032819855589445316
-0.008355376706370984   -0.08421471406533668   -0.0030029880213993036
-0.008285302043855884   -0.09318330060206326   -0.0029528098662261757
-0.008504520567828959   -0.0841045856572965   -0.003003560591159005
-0.013194715160822662   -0.08418743160333   -0.0032819855589445316
-0.008285302043855884   -0.09318330060206326   -0.0029528098662261757
-0.011511825941902585   -0.09299665147652401   -0.0032338246518937787
-0.01172881722017515   -0.09286321845070955   -0.003110099802709266
-0.013194715160822662   -0.08418743160333   -0.0032819855589445316
-0.008285302043855884   -0.09318330060206326   -0.0029528098662261757
-0.01172881722017515   -0.09286321845070955   -0.003110099802709266
-0.008504520567828959   -0.0841045856572965   -0.003003560591159005
-0.008798669638733566   -0.08403215530779769   -0.003045466429367076
-0.008889230640868044   -0.09308061303707803   -0.002995710253673179
-0.004071974102933755   -0.08401003332787427   -0.0030804233017279487
-0.00865391450098516   -0.08404466847154103   -0.003017660007762899
-0.008889230640868044   -0.09308061303707803   -0.002995710253673179
-0.005745716925322154   -0.0932142734438069   -0.003103799468446644
-0.004071974102933755   -0.08401003332787427   -0.0030804233017279487
-0.005510348412429566   -0.09316784876927306   -0.0029565699489419077
-0.00865391450098516   -0.08404466847154103   -0.003017660007762899
-0.0039134138377345355   -0.08399383388264953   -0.00296575313486091
-0.005510348412429566   -0.09316784876927306   -0.0029565699489419077
-0.004071974102933755   -0.08401003332787427   -0.0030804233017279487
-0.00865391450098516   -0.08404466847154103   -0.003017660007762899
-0.005510348412429566   -0.09316784876927306   -0.0029565699489419077
-0.008680450306849826   -0.09304837882564716   -0.002966406114639924
-0.008889230640868044   -0.09308061303707803   -0.002995710253673179
-0.00865391450098516   -0.08404466847154103   -0.003017660007762899
-0.005510348412429566   -0.09316784876927306   -0.0029565699489419077
-0.008889230640868044   -0.09308061303707803   -0.002995710253673179
-0.004071974102933755   -0.08401003332787427   -0.0030804233017279487
-0.00865391450098516   -0.08404466847154103   -0.003017660007762899
-0.008680450306849826   -0.09304837882564716   -0.002966406114639924
-0.0039134138377345355   -0.08399383388264953   -0.00296575313486091
-0.008504520567828959   -0.0841045856572965   -0.003003560591159005
-0.008680450306849826   -0.09304837882564716   -0.002966406114639924
-0.005510348412429566   -0.09316784876927306   -0.0029565699489419077
-0.0039134138377345355   -0.08399383388264953   -0.00296575313486091
-0.005286011148789196   -0.0931791883063286   -0.0028217209233945724
-0.008504520567828959   -0.0841045856572965   -0.003003560591159005
-0.003759545423780876   -0.08402048311910024   -0.002865693358158299
-0.005286011148789196   -0.0931791883063286   -0.0028217209233945724
-0.0039134138377345355   -0.08399383388264953   -0.00296575313486091
-0.008504520567828959   -0.0841045856572965   -0.003003560591159005
-0.005286011148789196   -0.0931791883063286   -0.0028217209233945724
-0.008474638776525737   -0.09308187537029863   -0.002951124884526942
-0.008680450306849826   -0.09304837882564716   -0.002966406114639924
-0.008504520567828959   -0.0841045856572965   -0.003003560591159005
-0.005286011148789196   -0.0931791883063286   -0.0028217209233945724
-0.008680450306849826   -0.09304837882564716   -0.002966406114639924
-0.0039134138377345355   -0.08399383388264953   -0.00296575313486091
-0.008504520567828959   -0.0841045856572965   -0.003003560591159005
-0.008474638776525737   -0.09308187537029863   -0.002951124884526942
-0.003759545423780876   -0.08402048311910024   -0.002865693358158299
-0.008355376706370984   -0.08421471406533668   -0.0030029880213993036
-0.008474638776525737   -0.09308187537029863   -0.002951124884526942
-0.005286011148789196   -0.0931791883063286   -0.0028217209233945724
-0.003759545423780876   -0.08402048311910024   -0.002865693358158299
-0.0050994883175166095   -0.0932596115450479   -0.0027070223274305617
-0.008355376706370984   -0.08421471406533668   -0.0030029880213993036
-0.003620545841926102   -0.08409622676311884   -0.002778976388018774
-0.0050994883175166095   -0.0932596115450479   -0.0027070223274305617
-0.003759545423780876   -0.08402048311910024   -0.002865693358158299
-0.008355376706370984   -0.08421471406533668   -0.0030029880213993036
-0.0050994883175166095   -0.0932596115450479   -0.0027070223274305617
-0.008285302043855884   -0.09318330060206326   -0.0029528098662261757
-0.008474638776525737   -0.09308187537029863   -0.002951124884526942
-0.008355376706370984   -0.08421471406533668   -0.0030029880213993036
-0.0050994883175166095   -0.0932596115450479   -0.0027070223274305617
-0.008474638776525737   -0.09308187537029863   -0.002951124884526942
-0.003759545423780876   -0.08402048311910024   -0.002865693358158299
-0.004071974102933755   -0.08401003332787427   -0.0030804233017279487
-0.005745716925322154   -0.0932142734438069   -0.003103799468446644
0.0008769380350042338   -0.08383713198753187   -0.003165676133484093
-0.0039134138377345355   -0.08399383388264953   -0.00296575313486091
-0.005745716925322154   -0.0932142734438069   -0.003103799468446644
-0.00240190724289666   -0.09318184354529178   -0.0032310053675131006
0.0008769380350042338   -0.08383713198753187   -0.003165676133484093
-0.0020997155160023735   -0.09310908577423209   -0.002970994216289988
-0.0039134138377345355   -0.08399383388264953   -0.00296575313486091
0.0010697968969300903   -0.0837844479473321   -0.0029644491294022095
-0.0020997155160023735   -0.09310908577423209   -0.002970994216289988
0.0008769380350042338   -0.08383713198753187   -0.003165676133484093
-0.0039134138377345355   -0.08399383388264953   -0.00296575313486091
-0.0020997155160023735   -0.09310908577423209   -0.002970994216289988
-0.005510348412429566   -0.09316784876927306   -0.0029565699489419077
-0.005745716925322154   -0.0932142734438069   -0.003103799468446644
-0.0039134138377345355   -0.08399383388264953   -0.00296575313486091
-0.0020997155160023735   -0.09310908577423209   -0.002970994216289988
-0.005745716925322154   -0.0932142734438069   -0.003103799468446644
0.0008769380350042338   -0.08383713198753187   -0.003165676133484093
-0.0039134138377345355   -0.08399383388264953   -0.00296575313486091
-0.005510348412429566   -0.09316784876927306   -0.0029565699489419077
0.0010697968969300903   -0.0837844479473321   -0.0029644491294022095
-0.003759545423780876   -0.08402048311910024   -0.002865693358158299
-0.005510348412429566   -0.09316784876927306   -0.0029565699489419077
-0.0020997155160023735   -0.09310908577423209   -0.002970994216289988
0.0010697968969300903   -0.0837844479473321   -0.0029644491294022095
-0.0017908832369863672   -0.09309617423139618   -0.0027242362637796445
-0.003759545423780876   -0.08402048311910024   -0.002865693358158299
0.0012729896771141486   -0.08377967323418856   -0.0027817467618642877
-0.0017908832369863672   -0.09309617423139618   -0.0027242362637796445
0.0010697968969300903   -0.0837844479473321   -0.0029644491294022095
-0.003759545423780876   -0.08402048311910024   -0.002865693358158299
-0.0017908832369863672   -0.09309617423139618   -0.0027242362637796445
-0.005286011148789196   -0.0931791883063286   -0.0028217209233945724
-0.005510348412429566   -0.09316784876927306   -0.0029565699489419077
-0.003759545423780876   -0.08402048311910024   -0.002865693358158299
-0.0017908832369863672   -0.09309617423139618   -0.0027242362637796445
-0.005510348412429566   -0.09316784876927306   -0.0029565699489419077
0.0010697968969300903   -0.0837844479473321   -0.0029644491294022095
-0.003759545423780876   -0.08402048311910024   -0.002865693358158299
-0.005286011148789196   -0.0931791883063286   -0.0028217209233945724
0.0012729896771141486   -0.08377967323418856   -0.0027817467618642877
-0.003620545841926102   -0.08409622676311884   -0.002778976388018774
-0.005286011148789196   -0.0931791883063286   -0.0028217209233945724
-0.0017908832369863672   -0.09309617423139618   -0.0027242362637796445
0.0012729896771141486   -0.08377967323418856   -0.0027817467618642877
-0.0015620632390250188   -0.0931560626091877   -0.0025001906855472585
-0.003620545841926102   -0.08409622676311884   -0.002778976388018774
0.0014215992091393783   -0.08382063516865056   -0.0026118015380424218
-0.0015620632390250188   -0.0931560626091877   -0.0025001906855472585
0.0012729896771141486   -0.08377967323418856   -0.0027817467618642877
-0.003620545841926102   -0.08409622676311884   -0.002778976388018774
-0.0015620632390250188   -0.0931560626091877   -0.0025001906855472585
-0.0050994883175166095   -0.0932596115450479   -0.0027070223274305617
-0.005286011148789196   -0.0931791883063286   -0.0028217209233945724
-0.003620545841926102   -0.08409622676311884   -0.002778976388018774
-0.0015620632390250188   -0.0931560626091877   -0.0025001906855472585
-0.005286011148789196   -0.0931791883063286   -0.0028217209233945724
0.0012729896771141486   -0.08377967323418856   -0.0027817467618642877
0.0008769380350042338   -0.08383713198753187   -0.003165676133484093
-0.00240190724289666   -0.09318184354529178   -0.0032310053675131006
0.006154429664492203   -0.08349703522620233   -0.0033481984561175068
0.0010697968969300903   -0.0837844479473321   -0.0029644491294022095
-0.00240190724289666   -0.09318184354529178   -0.0032310053675131006
0.0011990403978712934   -0.09286105525001509   -0.0034920942752686354
0.006154429664492203   -0.08349703522620233   -0.0033481984561175068
0.0019023710642234023   -0.09270259841844788   -0.003066702290765235
0.0010697968969300903   -0.0837844479473321   -0.0029644491294022095
0.006642487436633335   -0.08339587828847335   -0.003040249833388085
0.0019023710642234023   -0.09270259841844788   -0.003066702290765235
0.006154429664492203   -0.08349703522620233   -0.0033481984561175068
0.0010697968969300903   -0.0837844479473321   -0.0029644491294022095
0.0019023710642234023   -0.09270259841844788   -0.003066702290765235
-0.0020997155160023735   -0.09310908577423209   -0.002970994216289988
-0.00240190724289666   -0.09318184354529178   -0.0032310053675131006
0.0010697968969300903   -0.0837844479473321   -0.0029644491294022095
0.0019023710642234023   -0.09270259841844788   -0.003066702290765235
-0.00240190724289666   -0.09318184354529178   -0.0032310053675131006
0.006154429664492203   -0.08349703522620233   -0.0033481984561175068
0.0010697968969300903   -0.0837844479473321   -0.0029644491294022095
-0.0020997155160023735   -0.09310908577423209   -0.002970994216289988
0.006642487436633335   -0.08339587828847335   -0.003040249833388085
0.0012729896771141486   -0.08377967323418856   -0.0027817467618642877
-0.0020997155160023735   -0.09310908577423209   -0.002970994216289988
0.0019023710642234023   -0.09270259841844788   -0.003066702290765235
0.006642487436633335   -0.08339587828847335   -0.003040249833388085
0.0024551544044214934   -0.0926704446662085   -0.0026673669794622344
0.0012729896771141486   -0.08377967323418856   -0.0027817467618642877
0.007016662414420793   -0.08337836391654782   -0.0027552717929764754
0.0024551544044214934   -0.0926704446662085   -0.0026673669794622344
0.006642487436633335   -0.08339587828847335   -0.003040249833388085
0.0012729896771141486   -0.08377967323418856   -0.0027817467618642877
0.0024551544044214934   -0.0926704446662085   -0.0026673669794622344
-0.0017908832369863672   -0.09309617423139618   -0.0027242362637796445
-0.0020997155160023735   -0.09310908577423209   -0.002970994216289988
0.0012729896771141486   -0.08377967323418856   -0.0027817467618642877
0.0024551544044214934   -0.0926704446662085   -0.0026673669794622344
-0.0020997155160023735   -0.09310908577423209   -0.002970994216289988
0.006642487436633335   -0.08339587828847335   -0.003040249833388085
0.0012729896771141486   -0.08377967323418856   -0.0027817467618642877
-0.0017908832369863672   -0.09309617423139618   -0.0027242362637796445
0.007016662414420793   -0.08337836391654782   -0.0027552717929764754
0.0014215992091393783   -0.08382063516865056   -0.0026118015380424218
-0.0017908832369863672   -0.09309617423139618   -0.0027242362637796445
0.0024551544044214934   -0.0926704446662085   -0.0026673669794622344
0.007016662414420793   -0.08337836391654782   -0.0027552717929764754
0.003029366353290148   -0.09269716834758898   -0.0023027613176235056
0.0014215992091393783   -0.08382063516865056   -0.0026118015380424218
0.007404141870180505   -0.08340829689102874   -0.00249559593611063
0.003029366353290148   -0.09269716834758898   -0.0023027613176235056
0.007016662414420793   -0.08337836391654782   -0.0027552717929764754
0.0014215992091393783   -0.08382063516865056   -0.0026118015380424218
0.003029366353290148   -0.09269716834758898   -0.0023027613176235056
-0.0015620632390250188   -0.0931560626091877   -0.0025001906855472585
-0.0017908832369863672   -0.09309617423139618   -0.0027242362637796445
0.0014215992091393783   -0.08382063516865056   -0.0026118015380424218
0.003029366353290148   -0.09269716834758898   -0.0023027613176235056
-0.0017908832369863672   -0.09309617423139618   -0.0027242362637796445
0.007016662414420793   -0.08337836391654782   -0.0027552717929764754
-0.016190107825314468   -0.0924373443936513   -0.002787080914019326
-0.01186405459466866   -0.09766165523468606   -0.0024523619442777186
-0.012171411643820143   -0.09282739660734583   -0.0029041252799221363
-0.015751967284634866   -0.09242631090023094   -0.0030453060868429406
-0.01186405459466866   -0.09766165523468606   -0.0024523619442777186
-0.009996166096146753   -0.09815514762451355   -0.0027491841460583226
-0.012171411643820143   -0.09282739660734583   -0.0029041252799221363
-0.009739372447409893   -0.0980574412933606   -0.002851014013842666
-0.015751967284634866   -0.09242631090023094   -0.0030453060868429406
-0.011968002797388981   -0.09280722265282981   -0.0029998917333515763
-0.009739372447409893   -0.0980574412933606   -0.002851014013842666
-0.012171411643820143   -0.09282739660734583   -0.0029041252799221363
-0.015751967284634866   -0.09242631090023094   -0.0030453060868429406
-0.009739372447409893   -0.0980574412933606   -0.002851014013842666
-0.011317806460286734   -0.09755160511406594   -0.0027622096849615153
-0.01186405459466866   -0.09766165523468606   -0.0024523619442777186
-0.015751967284634866   -0.09242631090023094   -0.0030453060868429406
-0.009739372447409893   -0.0980574412933606   -0.002851014013842666
-0.01186405459466866   -0.09766165523468606   -0.0024523619442777186
-0.012171411643820143   -0.09282739660734583   -0.0029041252799221363
-0.015751967284634866   -0.09242631090023094   -0.0030453060868429406
-0.011317806460286734   -0.09755160511406594   -0.0027622096849615153
-0.011968002797388981   -0.09280722265282981   -0.0029998917333515763
-0.015348037815988813   -0.09249552031419028   -0.0033238661138920676
-0.011317806460286734   -0.09755160511406594   -0.0027622096849615153
-0.009739372447409893   -0.0980574412933606   -0.002851014013842666
-0.011968002797388981   -0.09280722265282981   -0.0029998917333515763
-0.009455057978238752   -0.09806201258209792   -0.0029538714372828226
-0.015348037815988813   -0.09249552031419028   -0.0033238661138920676
-0.01172881722017515   -0.09286321845070955   -0.003110099802709266
-0.009455057978238752   -0.09806201258209792   -0.0029538714372828226
-0.011968002797388981   -0.09280722265282981   -0.0029998917333515763
-0.015348037815988813   -0.09249552031419028   -0.0033238661138920676
-0.009455057978238752   -0.09806201258209792   -0.0029538714372828226
-0.01084647911171343   -0.09756073122009054   -0.0030708414266849724
-0.011317806460286734   -0.09755160511406594   -0.0027622096849615153
-0.015348037815988813   -0.09249552031419028   -0.0033238661138920676
-0.009455057978238752   -0.09806201258209792   -0.0029538714372828226
-0.011317806460286734   -0.09755160511406594   -0.0027622096849615153
-0.011968002797388981   -0.09280722265282981   -0.0029998917333515763
-0.015348037815988813   -0.09249552031419028   -0.0033238661138920676
-0.01084647911171343   -0.09756073122009054   -0.0030708414266849724
-0.01172881722017515   -0.09286321845070955   -0.003110099802709266
-0.014855418826750752   -0.09268053097613034   -0.003621556714698335
-0.01084647911171343   -0.09756073122009054   -0.0030708414266849724
-0.009455057978238752   -0.09806201258209792   -0.0029538714372828226
-0.01172881722017515   -0.09286321845070955   -0.003110099802709266
-0.009190882532605279   -0.09816932444578147   -0.003058187682233225
-0.014855418826750752   -0.09268053097613034   -0.003621556714698335
-0.011511825941902585   -0.09299665147652401   -0.0032338246518937787
-0.009190882532605279   -0.09816932444578147   -0.003058187682233225
-0.01172881722017515   -0.09286321845070955   -0.003110099802709266
-0.014855418826750752   -0.09268053097613034   -0.003621556714698335
-0.009190882532605279   -0.09816932444578147   -0.003058187682233225
-0.0102874992500131   -0.09769584912527515   -0.003386128191031966
-0.01084647911171343   -0.09756073122009054   -0.0030708414266849724
-0.014855418826750752   -0.09268053097613034   -0.003621556714698335
-0.009190882532605279   -0.09816932444578147   -0.003058187682233225
-0.01084647911171343   -0.09756073122009054   -0.0030708414266849724
-0.01172881722017515   -0.09286321845070955   -0.003110099802709266
-0.012171411643820143   -0.09282739660734583   -0.0029041252799221363
-0.009996166096146753   -0.09815514762451355   -0.0027491841460583226
-0.008889230640868044   -0.09308061303707803   -0.002995710253673179
-0.011968002797388981   -0.09280722265282981   -0.0029998917333515763
-0.009996166096146753   -0.09815514762451355   -0.0027491841460583226
-0.008629211159268745   -0.09865133089382692   -0.0030115796946476223
-0.008889230640868044   -0.09308061303707803   -0.002995710253673179
-0.008358188260114748   -0.09855112906452257   -0.0029399721406841717
-0.011968002797388981   -0.09280722265282981   -0.0029998917333515763
-0.008680450306849826   -0.09304837882564716   -0.002966406114639924
-0.008358188260114748   -0.09855112906452257   -0.0029399721406841717
-0.008889230640868044   -0.09308061303707803   -0.002995710253673179
-0.011968002797388981   -0.09280722265282981   -0.0029998917333515763
-0.008358188260114748   -0.09855112906452257   -0.0029399721406841717
-0.009739372447409893   -0.0980574412933606   -0.002851014013842666
-0.009996166096146753   -0.09815514762451355   -0.0027491841460583226
-0.011968002797388981   -0.09280722265282981   -0.0029998917333515763
-0.008358188260114748   -0.09855112906452257   -0.0029399721406841717
-0.009996166096146753   -0.09815514762451355   -0.0027491841460583226
-0.008889230640868044   -0.09308061303707803   -0.002995710253673179
-0.011968002797388981   -0.09280722265282981   -0.0029998917333515763
-0.009739372447409893   -0.0980574412933606   -0.002851014013842666
-0.008680450306849826   -0.09304837882564716   -0.002966406114639924
-0.01172881722017515   -0.09286321845070955   -0.003110099802709266
-0.009739372447409893   -0.0980574412933606   -0.002851014013842666
-0.008358188260114748   -0.09855112906452257   -0.0029399721406841717
-0.008680450306849826   -0.09304837882564716   -0.002966406114639924
-0.008096189687345188   -0.09854914079806461   -0.0028674679319603056
-0.01172881722017515   -0.09286321845070955   -0.003110099802709266
-0.008474638776525737   -0.09308187537029863   -0.002951124884526942
-0.008096189687345188   -0.09854914079806461   -0.0028674679319603056
-0.008680450306849826   -0.09304837882564716   -0.002966406114639924
-0.01172881722017515   -0.09286321845070955   -0.003110099802709266
-0.008096189687345188   -0.09854914079806461   -0.0028674679319603056
-0.009455057978238752   -0.09806201258209792   -0.0029538714372828226
-0.009739372447409893   -0.0980574412933606   -0.002851014013842666
-0.01172881722017515   -0.09286321845070955   -0.003110099802709266
-0.008096189687345188   -0.09854914079806461   -0.0028674679319603056
-0.009739372447409893   -0.0980574412933606   -0.002851014013842666
-0.008680450306849826   -0.09304837882564716   -0.002966406114639924
-0.01172881722017515   -0.09286321845070955   -0.003110099802709266
-0.009455057978238752   -0.09806201258209792   -0.0029538714372828226
-0.008474638776525737   -0.09308187537029863   -0.002951124884526942
-0.011511825941902585   -0.09299665147652401   -0.0032338246518937787
-0.009455057978238752   -0.09806201258209792   -0.0029538714372828226
-0.008096189687345188   -0.09854914079806461   -0.0028674679319603056
-0.008474638776525737   -0.09308187537029863   -0.002951124884526942
-0.007823014465194972   -0.09864330409499687   -0.0027978120086625405
-0.011511825941902585   -0.09299665147652401   -0.0032338246518937787
-0.008285302043855884   -0.09318330060206326   -0.0029528098662261757
-0.007823014465194972   -0.09864330409499687   -0.0027978120086625405
-0.008474638776525737   -0.09308187537029863   -0.002951124884526942
-0.011511825941902585   -0.09299665147652401   -0.0032338246518937787
-0.007823014465194972   -0.09864330409499687   -0.0027978120086625405
-0.009190882532605279   -0.09816932444578147   -0.003058187682233225
-0.009455057978238752   -0.09806201258209792   -0.0029538714372828226
-0.011511825941902585   -0.09299665147652401   -0.0032338246518937787
-0.007823014465194972   -0.09864330409499687   -0.0027978120086625405
-0.009455057978238752   -0.09806201258209792   -0.0029538714372828226
-0.008474638776525737   -0.09308187537029863   -0.002951124884526942
-0.008889230640868044   -0.09308061303707803   -0.002995710253673179
-0.008629211159268745   -0.09865133089382692   -0.0030115796946476223
-0.005745716925322154   -0.0932142734438069   -0.003103799468446644
-0.008680450306849826   -0.09304837882564716   -0.002966406114639924
-0.008629211159268745   -0.09865133089382692   -0.0030115796946476223
-0.007381200624275502   -0.09925107163766213   -0.0033004052658092806
-0.005745716925322154   -0.0932142734438069   -0.003103799468446644
-0.007048898287095775   -0.09916421278507415   -0.003045612119375141
-0.008680450306849826   -0.09304837882564716   -0.002966406114639924
-0.005510348412429566   -0.09316784876927306   -0.0029565699489419077
-0.007048898287095775   -0.09916421278507415   -0.003045612119375141
-0.005745716925322154   -0.0932142734438069   -0.003103799468446644
-0.008680450306849826   -0.09304837882564716   -0.002966406114639924
-0.007048898287095775   -0.09916421278507415   -0.003045612119375141
-0.008358188260114748   -0.09855112906452257   -0.0029399721406841717
-0.008629211159268745   -0.09865133089382692   -0.0030115796946476223
-0.008680450306849826   -0.09304837882564716   -0.002966406114639924
-0.007048898287095775   -0.09916421278507415   -0.003045612119375141
-0.008629211159268745   -0.09865133089382692   -0.0030115796946476223
-0.005745716925322154   -0.0932142734438069   -0.003103799468446644
-0.008680450306849826   -0.09304837882564716   -0.002966406114639924
-0.008358188260114748   -0.09855112906452257   -0.0029399721406841717
-0.005510348412429566   -0.09316784876927306   -0.0029565699489419077
-0.008474638776525737   -0.09308187537029863   -0.002951124884526942
-0.008358188260114748   -0.09855112906452257   -0.0029399721406841717
-0.007048898287095775   -0.09916421278507415   -0.003045612119375141
-0.005510348412429566   -0.09316784876927306   -0.0029565699489419077
-0.006741054922090738   -0.09915945234461442   -0.002791718368443884
-0.008474638776525737   -0.09308187537029863   -0.002951124884526942
-0.005286011148789196   -0.0931791883063286   -0.0028217209233945724
-0.006741054922090738   -0.09915945234461442   -0.002791718368443884
-0.005510348412429566   -0.09316784876927306   -0.0029565699489419077
-0.008474638776525737   -0.09308187537029863   -0.002951124884526942
-0.006741054922090738   -0.09915945234461442   -0.002791718368443884
-0.008096189687345188   -0.09854914079806461   -0.0028674679319603056
-0.008358188260114748   -0.09855112906452257   -0.0029399721406841717
-0.008474638776525737   -0.09308187537029863   -0.002951124884526942
-0.006741054922090738   -0.09915945234461442   -0.002791718368443884
-0.008358188260114748   -0.09855112906452257   -0.0029399721406841717
-0.005510348412429566   -0.09316784876927306   -0.0029565699489419077
-0.008474638776525737   -0.09308187537029863   -0.002951124884526942
-0.008096189687345188   -0.09854914079806461   -0.0028674679319603056
-0.005286011148789196   -0.0931791883063286   -0.0028217209233945724
-0.008285302043855884   -0.09318330060206326   -0.0029528098662261757
-0.008096189687345188   -0.09854914079806461   -0.0028674679319603056
-0.006741054922090738   -0.09915945234461442   -0.002791718368443884
-0.005286011148789196   -0.0931791883063286   -0.0028217209233945724
-0.006410468414819822   -0.09923232726953357   -0.0025371936820843773
-0.008285302043855884   -0.09318330060206326   -0.0029528098662261757
-0.0050994883175166095   -0.0932596115450479   -0.0027070223274305617
-0.006410468414819822   -0.09923232726953357   -0.0025371936820843773
-0.005286011148789196   -0.0931791883063286   -0.0028217209233945724
-0.008285302043855884   -0.09318330060206326   -0.0029528098662261757
-0.006410468414819822   -0.09923232726953357   -0.0025371936820843773
-0.007823014465194972   -0.09864330409499687   -0.0027978120086625405
-0.008096189687345188   -0.09854914079806461   -0.0028674679319603056
-0.008285302043855884   -0.09318330060206326   -0.0029528098662261757
-0.006410468414819822   -0.09923232726953357   -0.0025371936820843773
-0.008096189687345188   -0.09854914079806461   -0.0028674679319603056
-0.005286011148789196   -0.0931791883063286   -0.0028217209233945724
-0.005745716925322154   -0.0932142734438069   -0.003103799468446644
-0.007381200624275502   -0.09925107163766213   -0.0033004052658092806
-0.00240190724289666   -0.09318184354529178   -0.0032310053675131006
-0.005510348412429566   -0.09316784876927306   -0.0029565699489419077
-0.007381200624275502   -0.09925107163766213   -0.0033004052658092806
-0.006152941450582424   -0.1   -0.0035217850809935143
-0.00240190724289666   -0.09318184354529178   -0.0032310053675131006
-0.0057351353066325   -0.1   -0.003135200125739049
-0.005510348412429566   -0.09316784876927306   -0.0029565699489419077
-0.0020997155160023735   -0.09310908577423209   -0.002970994216289988
-0.0057351353066325   -0.1   -0.003135200125739049
-0.00240190724289666   -0.09318184354529178   -0.0032310053675131006
-0.005510348412429566   -0.09316784876927306   -0.0029565699489419077
-0.0057351353066325   -0.1   -0.003135200125739049
-0.007048898287095775   -0.09916421278507415   -0.003045612119375141
-0.007381200624275502   -0.09925107163766213   -0.0033004052658092806
-0.005510348412429566   -0.09316784876927306   -0.0029565699489419077
-0.0057351353066325   -0.1   -0.003135200125739049
-0.007381200624275502   -0.09925107163766213   -0.0033004052658092806
-0.00240190724289666   -0.09318184354529178   -0.0032310053675131006
-0.005510348412429566   -0.09316784876927306   -0.0029565699489419077
-0.007048898287095775   -0.09916421278507415   -0.003045612119375141
-0.0020997155160023735   -0.09310908577423209   -0.002970994216289988
-0.005286011148789196   -0.0931791883063286   -0.0028217209233945724
-0.007048898287095775   -0.09916421278507415   -0.003045612119375141
-0.0057351353066325   -0.1   -0.003135200125739049
-0.0020997155160023735   -0.09310908577423209   -0.002970994216289988
-0.005315459444772895   -0.1   -0.0027440266409411917
-0.005286011148789196   -0.0931791883063286   -0.0028217209233945724
-0.0017908832369863672   -0.09309617423139618   -0.0027242362637796445
-0.005315459444772895   -0.1   -0.0027440266409411917
-0.0020997155160023735   -0.09310908577423209   -0.002970994216289988
-0.005286011148789196   -0.0931791883063286   -0.0028217209233945724
-0.005315459444772895   -0.1   -0.0027440266409411917
-0.006741054922090738   -0.09915945234461442   -0.002791718368443884
-0.007048898287095775   -0.09916421278507415   -0.003045612119375141
-0.005286011148789196   -0.0931791883063286   -0.0028217209233945724
-0.005315459444772895   -0.1   -0.0027440266409411917
-0.007048898287095775   -0.09916421278507415   -0.003045612119375141
-0.0020997155160023735   -0.09310908577423209   -0.002970994216289988
-0.005286011148789196   -0.0931791883063286   -0.0028217209233945724
-0.006741054922090738   -0.09915945234461442   -0.002791718368443884
-0.0017908832369863672   -0.09309617423139618   -0.0027242362637796445
-0.0050994883175166095   -0.0932596115450479   -0.0027070223274305617
-0.006741054922090738   -0.09915945234461442   -0.002791718368443884
-0.005315459444772895   -0.1   -0.0027440266409411917
-0.0017908832369863672   -0.09309617423139618   -0.0027242362637796445
-0.0049050706640077005   -0.1   -0.0023580146329791876
-0.0050994883175166095   -0.0932596115450479   -0.0027070223274305617
-0.0015620632390250188   -0.0931560626091877   -0.0025001906855472585
-0.0049050706640077005   -0.1   -0.0023580146329791876
-0.0017908832369863672   -0.09309617423139618   -0.0027242362637796445
-0.0050994883175166095   -0.0932596115450479   -0.0027070223274305617
-0.0049050706640077005   -0.1   -0.0023580146329791876
-0.006410468414819822   -0.09923232726953357   -0.0025371936820843773
-0.006741054922090738   -0.09915945234461442   -0.002791718368443884
-0.0050994883175166095   -0.0932596115450479   -0.0027070223274305617
-0.0049050706640077005   -0.1   -0.0023580146329791876
-0.006741054922090738   -0.09915945234461442   -0.002791718368443884
-0.0017908832369863672   -0.09309617423139618   -0.0027242362637796445
-0.00240190724289666   -0.09318184354529178   -0.0032310053675131006
-0.006152941450582424   -0.1   -0.0035217850809935143
0.0011990403978712934   -0.09286105525001509   -0.0034920942752686354
-0.0020997155160023735   -0.09310908577423209   -0.002970994216289988
-0.006152941450582424   -0.1   -0.0035217850809935143
-0.005263253417690036   -0.1   -0.0037899016957314625
0.0011990403978712934   -0.09286105525001509   -0.0034920942752686354
-0.004390626558328496   -0.1   -0.003230842764398026
-0.0020997155160023735   -0.09310908577423209   -0.002970994216289988
0.0019023710642234023   -0.09270259841844788   -0.003066702290765235
-0.004390626558328496   -0.1   -0.003230842764398026
0.0011990403978712934   -0.09286105525001509   -0.0034920942752686354
-0.0020997155160023735   -0.09310908577423209   -0.002970994216289988
-0.004390626558328496   -0.1   -0.003230842764398026
-0.0057351353066325   -0.1   -0.003135200125739049
-0.006152941450582424   -0.1   -0.0035217850809935143
-0.0020997155160023735   -0.09310908577423209   -0.002970994216289988
-0.004390626558328496   -0.1   -0.003230842764398026
-0.006152941450582424   -0.1   -0.0035217850809935143
0.0011990403978712934   -0.09286105525001509   -0.0034920942752686354
-0.0020997155160023735   -0.09310908577423209   -0.002970994216289988
-0.0057351353066325   -0.1   -0.003135200125739049
0.0019023710642234023   -0.09270259841844788   -0.003066702290765235
-0.0017908832369863672   -0.09309617423139618   -0.0027242362637796445
-0.0057351353066325   -0.1   -0.003135200125739049
-0.004390626558328496   -0.1   -0.003230842764398026
0.0019023710642234023   -0.09270259841844788   -0.003066702290765235
-0.003694709934139279   -0.1   -0.002696020989840877
-0.0017908832369863672   -0.09309617423139618   -0.0027242362637796445
0.0024551544044214934   -0.0926704446662085   -0.0026673669794622344
-0.003694709934139279   -0.1   -0.002696020989840877
0.0019023710642234023   -0.09270259841844788   -0.003066702290765235
-0.0017908832369863672   -0.09309617423139618   -0.0027242362637796445
-0.003694709934139279   -0.1   -0.002696020989840877
-0.005315459444772895   -0.1   -0.0027440266409411917
-0.0057351353066325   -0.1   -0.003135200125739049
-0.0017908832369863672   -0.09309617423139618   -0.0027242362637796445
-0.003694709934139279   -0.1   -0.002696020989840877
-0.0057351353066325   -0.1   -0.003135200125739049
0.0019023710642234023   -0.09270259841844788   -0.003066702290765235
-0.0017908832369863672   -0.09309617423139618   -0.0027242362637796445
-0.005315459444772895   -0.1   -0.0027440266409411917
0.0024551544044214934   -0.0926704446662085   -0.0026673669794622344
-0.0015620632390250188   -0.0931560626091877   -0.0025001906855472585
-0.005315459444772895   -0.1   -0.0027440266409411917
-0.003694709934139279   -0.1   -0.002696020989840877
0.0024551544044214934   -0.0926704446662085   -0.0026673669794622344
-0.002835002528099844   -0.1   -0.0021408264538206895
-0.0015620632390250188   -0.0931560626091877   -0.0025001906855472585
0.003029366353290148   -0.09269716834758898   -0.0023027613176235056
-0.002835002528099844   -0.1   -0.0021408264538206895
0.0024551544044214934   -0.0926704446662085   -0.0026673669794622344
-0.0015620632390250188   -0.0931560626091877   -0.0025001906855472585
-0.002835002528099844   -0.1   -0.0021408264538206895
-0.0049050706640077005   -0.1   -0.0023580146329791876
-0.005315459444772895   -0.1   -0.0027440266409411917
-0.0015620632390250188   -0.0931560626091877   -0.0025001906855472585
-0.002835002528099844   -0.1   -0.0021408264538206895
-0.005315459444772895   -0.1   -0.0027440266409411917
0.0024551544044214934   -0.0926704446662085   -0.0026673669794622344
-0.01186405459466866   -0.09766165523468606   -0.0024523619442777186
-0.007077913418855438   -0.09791667929618764   -0.0020988234396040846
-0.009996166096146753   -0.09815514762451355   -0.0027491841460583226
-0.011317806460286734   -0.09755160511406594   -0.0027622096849615153
-0.007077913418855438   -0.09791667929618764   -0.0020988234396040846
-0.007512160621322371   -0.09829659047059197   -0.002480979864293585
-0.009996166096146753   -0.09815514762451355   -0.0027491841460583226
-0.00731802008304181   -0.09816320430581998   -0.0026200482157983196
-0.011317806460286734   -0.09755160511406594   -0.0027622096849615153
-0.009739372447409893   -0.0980574412933606   -0.002851014013842666
-0.00731802008304181   -0.09816320430581998   -0.0026200482157983196
-0.009996166096146753   -0.09815514762451355   -0.0027491841460583226
-0.011317806460286734   -0.09755160511406594   -0.0027622096849615153
-0.00731802008304181   -0.09816320430581998   -0.0026200482157983196
-0.006583078486741266   -0.09774543792917266   -0.0024243434306023106
-0.007077913418855438   -0.09791667929618764   -0.0020988234396040846
-0.011317806460286734   -0.09755160511406594   -0.0027622096849615153
-0.00731802008304181   -0.09816320430581998   -0.0026200482157983196
-0.007077913418855438   -0.09791667929618764   -0.0020988234396040846
-0.009996166096146753   -0.09815514762451355   -0.0027491841460583226
-0.011317806460286734   -0.09755160511406594   -0.0027622096849615153
-0.006583078486741266   -0.09774543792917266   -0.0024243434306023106
-0.009739372447409893   -0.0980574412933606   -0.002851014013842666
-0.01084647911171343   -0.09756073122009054   -0.0030708414266849724
-0.006583078486741266   -0.09774543792917266   -0.0024243434306023106
-0.00731802008304181   -0.09816320430581998   -0.0026200482157983196
-0.009739372447409893   -0.0980574412933606   -0.002851014013842666
-0.0070903681226310526   -0.098113702036894   -0.0027483091995181576
-0.01084647911171343   -0.09756073122009054   -0.0030708414266849724
-0.009455057978238752   -0.09806201258209792   -0.0029538714372828226
-0.0070903681226310526   -0.098113702036894   -0.0027483091995181576
-0.009739372447409893   -0.0980574412933606   -0.002851014013842666
-0.01084647911171343   -0.09756073122009054   -0.0030708414266849724
-0.0070903681226310526   -0.098113702036894   -0.0027483091995181576
-0.006171154308591945   -0.09769242563551916   -0.002736449722116207
-0.006583078486741266   -0.09774543792917266   -0.0024243434306023106
-0.01084647911171343   -0.09756073122009054   -0.0030708414266849724
-0.0070903681226310526   -0.098113702036894   -0.0027483091995181576
-0.006583078486741266   -0.09774543792917266   -0.0024243434306023106
-0.009739372447409893   -0.0980574412933606   -0.002851014013842666
-0.01084647911171343   -0.09756073122009054   -0.0030708414266849724
-0.006171154308591945   -0.09769242563551916   -0.002736449722116207
-0.009455057978238752   -0.09806201258209792   -0.0029538714372828226
-0.0102874992500131   -0.09769584912527515   -0.003386128191031966
-0.006171154308591945   -0.09769242563551916   -0.002736449722116207
-0.0070903681226310526   -0.098113702036894   -0.0027483091995181576
-0.009455057978238752   -0.09806201258209792   -0.0029538714372828226
-0.0068953143579080604   -0.09814878727001046   -0.0028650872653891387
-0.0102874992500131   -0.09769584912527515   -0.003386128191031966
-0.009190882532605279   -0.09816932444578147   -0.003058187682233225
-0.0068953143579080604   -0.09814878727001046   -0.0028650872653891387
-0.009455057978238752   -0.09806201258209792   -0.0029538714372828226
-0.0102874992500131   -0.09769584912527515   -0.003386128191031966
-0.0068953143579080604   -0.09814878727001046   -0.0028650872653891387
-0.005705243428105739   -0.09773621031133907   -0.003033745862765845
-0.006171154308591945   -0.09769242563551916   -0.002736449722116207
-0.0102874992500131   -0.09769584912527515   -0.003386128191031966
-0.0068953143579080604   -0.09814878727001046   -0.0028650872653891387
-0.006171154308591945   -0.09769242563551916   -0.002736449722116207
-0.009455057978238752   -0.09806201258209792   -0.0029538714372828226
-0.009996166096146753   -0.09815514762451355   -0.0027491841460583226
-0.007512160621322371   -0.09829659047059197   -0.002480979864293585
-0.008629211159268745   -0.09865133089382692   -0.0030115796946476223
-0.009739372447409893   -0.0980574412933606   -0.002851014013842666
-0.007512160621322371   -0.09829659047059197   -0.002480979864293585
-0.008097873422648892   -0.09853191452942864   -0.0027866009930154296
-0.008629211159268745   -0.09865133089382692   -0.0030115796946476223
-0.00792601117007446   -0.09841282748357609   -0.0027903063637872458
-0.009739372447409893   -0.0980574412933606   -0.002851014013842666
-0.008358188260114748   -0.09855112906452257   -0.0029399721406841717
-0.00792601117007446   -0.09841282748357609   -0.0027903063637872458
-0.008629211159268745   -0.09865133089382692   -0.0030115796946476223
-0.009739372447409893   -0.0980574412933606   -0.002851014013842666
-0.00792601117007446   -0.09841282748357609   -0.0027903063637872458
-0.00731802008304181   -0.09816320430581998   -0.0026200482157983196
-0.007512160621322371   -0.09829659047059197   -0.002480979864293585
-0.009739372447409893   -0.0980574412933606   -0.002851014013842666
-0.00792601117007446   -0.09841282748357609   -0.0027903063637872458
-0.007512160621322371   -0.09829659047059197   -0.002480979864293585
-0.008629211159268745   -0.09865133089382692   -0.0030115796946476223
-0.009739372447409893   -0.0980574412933606   -0.002851014013842666
-0.00731802008304181   -0.09816320430581998   -0.0026200482157983196
-0.008358188260114748   -0.09855112906452257   -0.0029399721406841717
-0.009455057978238752   -0.09806201258209792   -0.0029538714372828226
-0.00731802008304181   -0.09816320430581998   -0.0026200482157983196
-0.00792601117007446   -0.09841282748357609   -0.0027903063637872458
-0.008358188260114748   -0.09855112906452257   -0.0029399721406841717
-0.007734700701021247   -0.09836971847455354   -0.00277999964825825
-0.009455057978238752   -0.09806201258209792   -0.0029538714372828226
-0.008096189687345188   -0.09854914079806461   -0.0028674679319603056
-0.007734700701021247   -0.09836971847455354   -0.00277999964825825
-0.008358188260114748   -0.09855112906452257   -0.0029399721406841717
-0.009455057978238752   -0.09806201258209792   -0.0029538714372828226
-0.007734700701021247   -0.09836971847455354   -0.00277999964825825
-0.0070903681226310526   -0.098113702036894   -0.0027483091995181576
-0.00731802008304181   -0.09816320430581998   -0.0026200482157983196
-0.009455057978238752   -0.09806201258209792   -0.0029538714372828226
-0.007734700701021247   -0.09836971847455354   -0.00277999964825825
-0.00731802008304181   -0.09816320430581998   -0.0026200482157983196
-0.008358188260114748   -0.09855112906452257   -0.0029399721406841717
-0.009455057978238752   -0.09806201258209792   -0.0029538714372828226
-0.0070903681226310526   -0.098113702036894   -0.0027483091995181576
-0.008096189687345188   -0.09854914079806461   -0.0028674679319603056
-0.009190882532605279   -0.09816932444578147   -0.003058187682233225
-0.0070903681226310526   -0.098113702036894   -0.0027483091995181576
-0.007734700701021247   -0.09836971847455354   -0.00277999964825825
-0.008096189687345188   -0.09854914079806461   -0.0028674679319603056
-0.007540169252931371   -0.09839909304456278   -0.0027586988252861068
-0.009190882532605279   -0.09816932444578147   -0.003058187682233225
-0.007823014465194972   -0.09864330409499687   -0.0027978120086625405
-0.007540169252931371   -0.09839909304456278   -0.0027586988252861068
-0.008096189687345188   -0.09854914079806461   -0.0028674679319603056
-0.009190882532605279   -0.09816932444578147   -0.003058187682233225
-0.007540169252931371   -0.09839909304456278   -0.0027586988252861068
-0.0068953143579080604   -0.09814878727001046   -0.0028650872653891387
-0.0070903681226310526   -0.098113702036894   -0.0027483091995181576
-0.009190882532605279   -0.09816932444578147   -0.003058187682233225
-0.007540169252931371   -0.09839909304456278   -0.0027586988252861068
-0.0070903681226310526   -0.098113702036894   -0.0027483091995181576
-0.008096189687345188   -0.09854914079806461   -0.0028674679319603056
-0.008629211159268745   -0.09865133089382692   -0.0030115796946476223
-0.008097873422648892   -0.09853191452942864   -0.0027866009930154296
-0.007381200624275502   -0.09925107163766213   -0.0033004052658092806
-0.008358188260114748   -0.09855112906452257   -0.0029399721406841717
-0.008097873422648892   -0.09853191452942864   -0.0027866009930154296
-0.008725486789540198   -0.09863151148539152   -0.0030873306983746013
-0.007381200624275502   -0.09925107163766213   -0.0033004052658092806
-0.008547458752190313   -0.09851801685253614   -0.0029608820530260998
-0.008358188260114748   -0.09855112906452257   -0.0029399721406841717
-0.007048898287095775   -0.09916421278507415   -0.003045612119375141
-0.008547458752190313   -0.09851801685253614   -0.0029608820530260998
-0.007381200624275502   -0.09925107163766213   -0.0033004052658092806
-0.008358188260114748   -0.09855112906452257   -0.0029399721406841717
-0.008547458752190313   -0.09851801685253614   -0.0029608820530260998
-0.00792601117007446   -0.09841282748357609   -0.0027903063637872458
-0.008097873422648892   -0.09853191452942864   -0.0027866009930154296
-0.008358188260114748   -0.09855112906452257   -0.0029399721406841717
-0.008547458752190313   -0.09851801685253614   -0.0029608820530260998
-0.008097873422648892   -0.09853191452942864   -0.0027866009930154296
-0.007381200624275502   -0.09925107163766213   -0.0033004052658092806
-0.008358188260114748   -0.09855112906452257   -0.0029399721406841717
-0.00792601117007446   -0.09841282748357609   -0.0027903063637872458
-0.007048898287095775   -0.09916421278507415   -0.003045612119375141
-0.008096189687345188   -0.09854914079806461   -0.0028674679319603056
-0.00792601117007446   -0.09841282748357609   -0.0027903063637872458
-0.008547458752190313   -0.09851801685253614   -0.0029608820530260998
-0.007048898287095775   -0.09916421278507415   -0.003045612119375141
-0.008333868591791685   -0.09848174808838932   -0.0028173697210276292
-0.008096189687345188   -0.09854914079806461   -0.0028674679319603056
-0.006741054922090738   -0.09915945234461442   -0.002791718368443884
-0.008333868591791685   -0.09848174808838932   -0.0028173697210276292
-0.007048898287095775   -0.09916421278507415   -0.003045612119375141
-0.008096189687345188   -0.09854914079806461   -0.0028674679319603056
-0.008333868591791685   -0.09848174808838932   -0.0028173697210276292
-0.007734700701021247   -0.09836971847455354   -0.00277999964825825
-0.00792601117007446   -0.09841282748357609   -0.0027903063637872458
-0.008096189687345188   -0.09854914079806461   -0.0028674679319603056
-0.008333868591791685   -0.09848174808838932   -0.0028173697210276292
-0.00792601117007446   -0.09841282748357609   -0.0027903063637872458
-0.007048898287095775   -0.09916421278507415   -0.003045612119375141
-0.008096189687345188   -0.09854914079806461   -0.0028674679319603056
-0.007734700701021247   -0.09836971847455354   -0.00277999964825825
-0.006741054922090738   -0.09915945234461442   -0.002791718368443884
-0.007823014465194972   -0.09864330409499687   -0.0027978120086625405
-0.007734700701021247   -0.09836971847455354   -0.00277999964825825
-0.008333868591791685   -0.09848174808838932   -0.0028173697210276292
-0.006741054922090738   -0.09915945234461442   -0.002791718368443884
-0.008114184854988816   -0.09851051222098405   -0.002664481205314435
-0.007823014465194972   -0.09864330409499687   -0.0027978120086625405
-0.006410468414819822   -0.09923232726953357   -0.0025371936820843773
-0.008114184854988816   -0.09851051222098405   -0.002664481205314435
-0.006741054922090738   -0.09915945234461442   -0.002791718368443884
-0.007823014465194972   -0.09864330409499687   -0.0027978120086625405
-0.008114184854988816   -0.09851051222098405   -0.002664481205314435
-0.007540169252931371   -0.09839909304456278   -0.0027586988252861068
-0.007734700701021247   -0.09836971847455354   -0.00277999964825825
-0.007823014465194972   -0.09864330409499687   -0.0027978120086625405
-0.008114184854988816   -0.09851051222098405   -0.002664481205314435
-0.007734700701021247   -0.09836971847455354   -0.00277999964825825
-0.006741054922090738   -0.09915945234461442   -0.002791718368443884
-0.007381200624275502   -0.09925107163766213   -0.0033004052658092806
-0.008725486789540198   -0.09863151148539152   -0.0030873306983746013
-0.006152941450582424   -0.1   -0.0035217850809935143
-0.007048898287095775   -0.09916421278507415   -0.003045612119375141
-0.008725486789540198   -0.09863151148539152   -0.0030873306983746013
-0.009634257798730428   -0.09852624403985931   -0.003372863758648656
-0.006152941450582424   -0.1   -0.0035217850809935143
-0.00940169176189486   -0.09841920127020971   -0.003122541508893287
-0.007048898287095775   -0.09916421278507415   -0.003045612119375141
-0.0057351353066325   -0.1   -0.003135200125739049
-0.00940169176189486   -0.09841920127020971   -0.003122541508893287
-0.006152941450582424   -0.1   -0.0035217850809935143
-0.007048898287095775   -0.09916421278507415   -0.003045612119375141
-0.00940169176189486   -0.09841920127020971   -0.003122541508893287
-0.008547458752190313   -0.09851801685253614   -0.0029608820530260998
-0.008725486789540198   -0.09863151148539152   -0.0030873306983746013
-0.007048898287095775   -0.09916421278507415   -0.003045612119375141
-0.00940169176189486   -0.09841920127020971   -0.003122541508893287
-0.008725486789540198   -0.09863151148539152   -0.0030873306983746013
-0.006152941450582424   -0.1   -0.0035217850809935143
-0.007048898287095775   -0.09916421278507415   -0.003045612119375141
-0.008547458752190313   -0.09851801685253614   -0.0029608820530260998
-0.0057351353066325   -0.1   -0.003135200125739049
-0.006741054922090738   -0.09915945234461442   -0.002791718368443884
-0.008547458752190313   -0.09851801685253614   -0.0029608820530260998
-0.00940169176189486   -0.09841920127020971   -0.003122541508893287
-0.0057351353066325   -0.1   -0.003135200125739049
-0.009094951435551729   -0.0983947097412669   -0.0028532364973921213
-0.006741054922090738   -0.09915945234461442   -0.002791718368443884
-0.005315459444772895   -0.1   -0.0027440266409411917
-0.009094951435551729   -0.0983947097412669   -0.0028532364973921213
-0.0057351353066325   -0.1   -0.003135200125739049
-0.006741054922090738   -0.09915945234461442   -0.002791718368443884
-0.009094951435551729   -0.0983947097412669   -0.0028532364973921213
-0.008333868591791685   -0.09848174808838932   -0.0028173697210276292
-0.008547458752190313   -0.09851801685253614   -0.0029608820530260998
-0.006741054922090738   -0.09915945234461442   -0.002791718368443884
-0.009094951435551729   -0.0983947097412669   -0.0028532364973921213
-0.008547458752190313   -0.09851801685253614   -0.0029608820530260998
-0.0057351353066325   -0.1   -0.003135200125739049
-0.006741054922090738   -0.09915945234461442   -0.002791718368443884
-0.008333868591791685   -0.09848174808838932   -0.0028173697210276292
-0.005315459444772895   -0.1   -0.0027440266409411917
-0.006410468414819822   -0.09923232726953357   -0.0025371936820843773
-0.008333868591791685   -0.09848174808838932   -0.0028173697210276292
-0.009094951435551729   -0.0983947097412669   -0.0028532364973921213
-0.005315459444772895   -0.1   -0.0027440266409411917
-0.008806211367015157   -0.09843679327209316   -0.0025734917029803833
-0.006410468414819822   -0.09923232726953357   -0.0025371936820843773
-0.0049050706640077005   -0.1   -0.0023580146329791876
-0.008806211367015157   -0.09843679327209316   -0.0025734917029803833
-0.005315459444772895   -0.1   -0.0027440266409411917
-0.006410468414819822   -0.09923232726953357   -0.0025371936820843773
-0.008806211367015157   -0.09843679327209316   -0.0025734917029803833
-0.008114184854988816   -0.09851051222098405   -0.002664481205314435
-0.008333868591791685   -0.09848174808838932   -0.0028173697210276292
-0.006410468414819822   -0.09923232726953357   -0.0025371936820843773
-0.008806211367015157   -0.09843679327209316   -0.0025734917029803833
-0.008333868591791685   -0.09848174808838932   -0.0028173697210276292
-0.005315459444772895   -0.1   -0.0027440266409411917
-0.006152941450582424   -0.1   -0.0035217850809935143
-0.009634257798730428   -0.09852624403985931   -0.003372863758648656
-0.005263253417690036   -0.1   -0.0037899016957314625
-0.0057351353066325   -0.1   -0.003135200125739049
-0.009634257798730428   -0.09852624403985931   -0.003372863758648656
-0.011398168059914478   -0.09804384312905604   -0.0036752643351295067
-0.005263253417690036   -0.1   -0.0037899016957314625
-0.010781288631802754   -0.09795380723450739   -0.0032645498773063815
-0.0057351353066325   -0.1   -0.003135200125739049
-0.004390626558328496   -0.1   -0.003230842764398026
-0.010781288631802754   -0.09795380723450739   -0.0032645498773063815
-0.005263253417690036   -0.1   -0.0037899016957314625
-0.0057351353066325   -0.1   -0.003135200125739049
-0.010781288631802754   -0.09795380723450739   -0.0032645498773063815
-0.00940169176189486   -0.09841920127020971   -0.003122541508893287
-0.009634257798730428   -0.09852624403985931   -0.003372863758648656
-0.0057351353066325   -0.1   -0.003135200125739049
-0.010781288631802754   -0.09795380723450739   -0.0032645498773063815
-0.009634257798730428   -0.09852624403985931   -0.003372863758648656
-0.005263253417690036   -0.1   -0.0037899016957314625
-0.0057351353066325   -0.1   -0.003135200125739049
-0.00940169176189486   -0.09841920127020971   -0.003122541508893287
-0.004390626558328496   -0.1   -0.003230842764398026
-0.005315459444772895   -0.1   -0.0027440266409411917
-0.00940169176189486   -0.09841920127020971   -0.003122541508893287
-0.010781288631802754   -0.09795380723450739   -0.0032645498773063815
-0.004390626558328496   -0.1   -0.003230842764398026
-0.010214209248772163   -0.09794132496481318   -0.0028260270162686835
-0.005315459444772895   -0.1   -0.0027440266409411917
-0.003694709934139279   -0.1   -0.002696020989840877
-0.010214209248772163   -0.09794132496481318   -0.0028260270162686835
-0.004390626558328496   -0.1   -0.003230842764398026
-0.005315459444772895   -0.1   -0.0027440266409411917
-0.010214209248772163   -0.09794132496481318   -0.0028260270162686835
-0.009094951435551729   -0.0983947097412669   -0.0028532364973921213
-0.00940169176189486   -0.09841920127020971   -0.003122541508893287
-0.005315459444772895   -0.1   -0.0027440266409411917
-0.010214209248772163   -0.09794132496481318   -0.0028260270162686835
-0.00940169176189486   -0.09841920127020971   -0.003122541508893287
-0.004390626558328496   -0.1   -0.003230842764398026
-0.005315459444772895   -0.1   -0.0027440266409411917
-0.009094951435551729   -0.0983947097412669   -0.0028532364973921213
-0.003694709934139279   -0.1   -0.002696020989840877
-0.0049050706640077005   -0.1   -0.0023580146329791876
-0.009094951435551729   -0.0983947097412669   -0.0028532364973921213
-0.010214209248772163   -0.09794132496481318   -0.0028260270162686835
-0.003694709934139279   -0.1   -0.002696020989840877
-0.009498102817817962   -0.09805953786087206   -0.002367285543259754
-0.0049050706640077005   -0.1   -0.0023580146329791876
-0.002835002528099844   -0.1   -0.0021408264538206895
-0.009498102817817962   -0.09805953786087206   -0.002367285543259754
-0.003694709934139279   -0.1   -0.002696020989840877
-0.0049050706640077005   -0.1   -0.0023580146329791876
-0.009498102817817962   -0.09805953786087206   -0.002367285543259754
-0.008806211367015157   -0.09843679327209316   -0.0025734917029803833
-0.009094951435551729   -0.0983947097412669   -0.0028532364973921213
-0.0049050706640077005   -0.1   -0.0023580146329791876
-0.009498102817817962   -0.09805953786087206   -0.002367285543259754
-0.009094951435551729   -0.0983947097412669   -0.0028532364973921213
-0.003694709934139279   -0.1   -0.002696020989840877
-0.007077913418855438   -0.09791667929618764   -0.0020988234396040846
-0.0028708924129762186   -0.09420380920993084   -0.00181403196548733
-0.007512160621322371   -0.09829659047059197   -0.002480979864293585
-0.006583078486741266   -0.09774543792917266   -0.0024243434306023106
-0.0028708924129762186   -0.09420380920993084   -0.00181403196548733
-0.005383870419799016   -0.09449004055241456   -0.0022198545487462132
-0.007512160621322371   -0.09829659047059197   -0.002480979864293585
-0.005246049526401924   -0.09432866234869078   -0.0023437631028862494
-0.006583078486741266   -0.09774543792917266   -0.0024243434306023106
-0.00731802008304181   -0.09816320430581998   -0.0026200482157983196
-0.005246049526401924   -0.09432866234869078   -0.0023437631028862494
-0.007512160621322371   -0.09829659047059197   -0.002480979864293585
-0.006583078486741266   -0.09774543792917266   -0.0024243434306023106
-0.005246049526401924   -0.09432866234869078   -0.0023437631028862494
-0.002476675963107511   -0.0940041722726311   -0.00209514153839271
-0.0028708924129762186   -0.09420380920993084   -0.00181403196548733
-0.006583078486741266   -0.09774543792917266   -0.0024243434306023106
-0.005246049526401924   -0.09432866234869078   -0.0023437631028862494
-0.0028708924129762186   -0.09420380920993084   -0.00181403196548733
-0.007512160621322371   -0.09829659047059197   -0.002480979864293585
-0.006583078486741266   -0.09774543792917266   -0.0024243434306023106
-0.002476675963107511   -0.0940041722726311   -0.00209514153839271
-0.00731802008304181   -0.09816320430581998   -0.0026200482157983196
-0.006171154308591945   -0.09769242563551916   -0.002736449722116207
-0.002476675963107511   -0.0940041722726311   -0.00209514153839271
-0.005246049526401924   -0.09432866234869078   -0.0023437631028862494
-0.00731802008304181   -0.09816320430581998   -0.0026200482157983196
-0.005090971859788624   -0.09423895539756451   -0.0024564565794410816
-0.006171154308591945   -0.09769242563551916   -0.002736449722116207
-0.0070903681226310526   -0.098113702036894   -0.0027483091995181576
-0.005090971859788624   -0.09423895539756451   -0.0024564565794410816
-0.00731802008304181   -0.09816320430581998   -0.0026200482157983196
-0.006171154308591945   -0.09769242563551916   -0.002736449722116207
-0.005090971859788624   -0.09423895539756451   -0.0024564565794410816
-0.002166482367942198   -0.09390875894673607   -0.0023596247254326556
-0.002476675963107511   -0.0940041722726311   -0.00209514153839271
-0.006171154308591945   -0.09769242563551916   -0.002736449722116207
-0.005090971859788624   -0.09423895539756451   -0.0024564565794410816
-0.002476675963107511   -0.0940041722726311   -0.00209514153839271
-0.00731802008304181   -0.09816320430581998   -0.0026200482157983196
-0.006171154308591945   -0.09769242563551916   -0.002736449722116207
-0.002166482367942198   -0.09390875894673607   -0.0023596247254326556
-0.0070903681226310526   -0.098113702036894   -0.0027483091995181576
-0.005705243428105739   -0.09773621031133907   -0.003033745862765845
-0.002166482367942198   -0.09390875894673607   -0.0023596247254326556
-0.005090971859788624   -0.09423895539756451   -0.0024564565794410816
-0.0070903681226310526   -0.098113702036894   -0.0027483091995181576
-0.004972049706078806   -0.09421841734335087   -0.002558290473794937
-0.005705243428105739   -0.09773621031133907   -0.003033745862765845
-0.0068953143579080604   -0.09814878727001046   -0.0028650872653891387
-0.004972049706078806   -0.09421841734335087   -0.002558290473794937
-0.0070903681226310526   -0.098113702036894   -0.0027483091995181576
-0.005705243428105739   -0.09773621031133907   -0.003033745862765845
-0.004972049706078806   -0.09421841734335087   -0.002558290473794937
-0.0018279066895872404   -0.09389022240718882   -0.002606775131540158
-0.002166482367942198   -0.09390875894673607   -0.0023596247254326556
-0.005705243428105739   -0.09773621031133907   -0.003033745862765845
-0.004972049706078806   -0.09421841734335087   -0.002558290473794937
-0.002166482367942198   -0.09390875894673607   -0.0023596247254326556
-0.0070903681226310526   -0.098113702036894   -0.0027483091995181576
-0.007512160621322371   -0.09829659047059197   -0.002480979864293585
-0.005383870419799016   -0.09449004055241456   -0.0022198545487462132
-0.008097873422648892   -0.09853191452942864   -0.0027866009930154296
-0.00731802008304181   -0.09816320430581998   -0.0026200482157983196
-0.005383870419799016   -0.09449004055241456   -0.0022198545487462132
-0.007863201693642484   -0.09459113923842745   -0.002550999508926958
-0.008097873422648892   -0.09853191452942864   -0.0027866009930154296
-0.0077472708911407815   -0.09445033884042406   -0.0025578964251302527
-0.00731802008304181   -0.09816320430581998   -0.0026200482157983196
-0.00792601117007446   -0.09841282748357609   -0.0027903063637872458
-0.0077472708911407815   -0.09445033884042406   -0.0025578964251302527
-0.008097873422648892   -0.09853191452942864   -0.0027866009930154296
-0.00731802008304181   -0.09816320430581998   -0.0026200482157983196
-0.0077472708911407815   -0.09445033884042406   -0.0025578964251302527
-0.005246049526401924   -0.09432866234869078   -0.0023437631028862494
-0.005383870419799016   -0.09449004055241456   -0.0022198545487462132
-0.00731802008304181   -0.09816320430581998   -0.0026200482157983196
-0.0077472708911407815   -0.09445033884042406   -0.0025578964251302527
-0.005383870419799016   -0.09449004055241456   -0.0022198545487462132
-0.008097873422648892   -0.09853191452942864   -0.0027866009930154296
-0.00731802008304181   -0.09816320430581998   -0.0026200482157983196
-0.005246049526401924   -0.09432866234869078   -0.0023437631028862494
-0.00792601117007446   -0.09841282748357609   -0.0027903063637872458
-0.0070903681226310526   -0.098113702036894   -0.0027483091995181576
-0.005246049526401924   -0.09432866234869078   -0.0023437631028862494
-0.0077472708911407815   -0.09445033884042406   -0.0025578964251302527
-0.00792601117007446   -0.09841282748357609   -0.0027903063637872458
-0.007627375529172426   -0.09437415109546608   -0.002554408090499601
-0.0070903681226310526   -0.098113702036894   -0.0027483091995181576
-0.007734700701021247   -0.09836971847455354   -0.00277999964825825
-0.007627375529172426   -0.09437415109546608   -0.002554408090499601
-0.00792601117007446   -0.09841282748357609   -0.0027903063637872458
-0.0070903681226310526   -0.098113702036894   -0.0027483091995181576
-0.007627375529172426   -0.09437415109546608   -0.002554408090499601
-0.005090971859788624   -0.09423895539756451   -0.0024564565794410816
-0.005246049526401924   -0.09432866234869078   -0.0023437631028862494
-0.0070903681226310526   -0.098113702036894   -0.0027483091995181576
-0.007627375529172426   -0.09437415109546608   -0.002554408090499601
-0.005246049526401924   -0.09432866234869078   -0.0023437631028862494
-0.00792601117007446   -0.09841282748357609   -0.0027903063637872458
-0.0070903681226310526   -0.098113702036894   -0.0027483091995181576
-0.005090971859788624   -0.09423895539756451   -0.0024564565794410816
-0.007734700701021247   -0.09836971847455354   -0.00277999964825825
-0.0068953143579080604   -0.09814878727001046   -0.0028650872653891387
-0.005090971859788624   -0.09423895539756451   -0.0024564565794410816
-0.007627375529172426   -0.09437415109546608   -0.002554408090499601
-0.007734700701021247   -0.09836971847455354   -0.00277999964825825
-0.00751173732698523   -0.0943594419595542   -0.0025404315713786737
-0.0068953143579080604   -0.09814878727001046   -0.0028650872653891387
-0.007540169252931371   -0.09839909304456278   -0.0027586988252861068
-0.00751173732698523   -0.0943594419595542   -0.0025404315713786737
-0.007734700701021247   -0.09836971847455354   -0.00277999964825825
-0.0068953143579080604   -0.09814878727001046   -0.0028650872653891387
-0.00751173732698523   -0.0943594419595542   -0.0025404315713786737
-0.004972049706078806   -0.09421841734335087   -0.002558290473794937
-0.005090971859788624   -0.09423895539756451   -0.0024564565794410816
-0.0068953143579080604   -0.09814878727001046   -0.0028650872653891387
-0.00751173732698523   -0.0943594419595542   -0.0025404315713786737
-0.005090971859788624   -0.09423895539756451   -0.0024564565794410816
-0.007734700701021247   -0.09836971847455354   -0.00277999964825825
-0.008097873422648892   -0.09853191452942864   -0.0027866009930154296
-0.007863201693642484   -0.09459113923842745   -0.002550999508926958
-0.008725486789540198   -0.09863151148539152   -0.0030873306983746013
-0.00792601117007446   -0.09841282748357609   -0.0027903063637872458
-0.007863201693642484   -0.09459113923842745   -0.002550999508926958
-0.01032518852669575   -0.09450151190300314   -0.00286088559309769
-0.008725486789540198   -0.09863151148539152   -0.0030873306983746013
-0.010210173083542707   -0.09437649294936572   -0.00275559663347211
-0.00792601117007446   -0.09841282748357609   -0.0027903063637872458
-0.008547458752190313   -0.09851801685253614   -0.0029608820530260998
-0.010210173083542707   -0.09437649294936572   -0.00275559663347211
-0.008725486789540198   -0.09863151148539152   -0.0030873306983746013
-0.00792601117007446   -0.09841282748357609   -0.0027903063637872458
-0.010210173083542707   -0.09437649294936572   -0.00275559663347211
-0.0077472708911407815   -0.09445033884042406   -0.0025578964251302527
-0.007863201693642484   -0.09459113923842745   -0.002550999508926958
-0.00792601117007446   -0.09841282748357609   -0.0027903063637872458
-0.010210173083542707   -0.09437649294936572   -0.00275559663347211
-0.007863201693642484   -0.09459113923842745   -0.002550999508926958
-0.008725486789540198   -0.09863151148539152   -0.0030873306983746013
-0.00792601117007446   -0.09841282748357609   -0.0027903063637872458
-0.0077472708911407815   -0.09445033884042406   -0.0025578964251302527
-0.008547458752190313   -0.09851801685253614   -0.0029608820530260998
-0.007734700701021247   -0.09836971847455354   -0.00277999964825825
-0.0077472708911407815   -0.09445033884042406   -0.0025578964251302527
-0.010210173083542707   -0.09437649294936572   -0.00275559663347211
-0.008547458752190313   -0.09851801685253614   -0.0029608820530260998
-0.010081097896424496   -0.09431499617968654   -0.002640073677942135
-0.007734700701021247   -0.09836971847455354   -0.00277999964825825
-0.008333868591791685   -0.09848174808838932   -0.0028173697210276292
-0.010081097896424496   -0.09431499617968654   -0.002640073677942135
-0.008547458752190313   -0.09851801685253614   -0.0029608820530260998
-0.007734700701021247   -0.09836971847455354   -0.00277999964825825
-0.010081097896424496   -0.09431499617968654   -0.002640073677942135
-0.007627375529172426   -0.09437415109546608   -0.002554408090499601
-0.0077472708911407815   -0.09445033884042406   -0.0025578964251302527
-0.007734700701021247   -0.09836971847455354   -0.00277999964825825
-0.010081097896424496   -0.09431499617968654   -0.002640073677942135
-0.0077472708911407815   -0.09445033884042406   -0.0025578964251302527
-0.008547458752190313   -0.09851801685253614   -0.0029608820530260998
-0.007734700701021247   -0.09836971847455354   -0.00277999964825825
-0.007627375529172426   -0.09437415109546608   -0.002554408090499601
-0.008333868591791685   -0.09848174808838932   -0.0028173697210276292
-0.007540169252931371   -0.09839909304456278   -0.0027586988252861068
-0.007627375529172426   -0.09437415109546608   -0.002554408090499601
-0.010081097896424496   -0.09431499617968654   -0.002640073677942135
-0.008333868591791685   -0.09848174808838932   -0.0028173697210276292
-0.009951459707625916   -0.09431087669383943   -0.0025130693969224378
-0.007540169252931371   -0.09839909304456278   -0.0027586988252861068
-0.008114184854988816   -0.09851051222098405   -0.002664481205314435
-0.009951459707625916   -0.09431087669383943   -0.0025130693969224378
-0.008333868591791685   -0.09848174808838932   -0.0028173697210276292
-0.007540169252931371   -0.09839909304456278   -0.0027586988252861068
-0.009951459707625916   -0.09431087669383943   -0.0025130693969224378
-0.00751173732698523   -0.0943594419595542   -0.0025404315713786737
-0.007627375529172426   -0.09437415109546608   -0.002554408090499601
-0.007540169252931371   -0.09839909304456278   -0.0027586988252861068
-0.009951459707625916   -0.09431087669383943   -0.0025130693969224378
-0.007627375529172426   -0.09437415109546608   -0.002554408090499601
-0.008333868591791685   -0.09848174808838932   -0.0028173697210276292
-0.008725486789540198   -0.09863151148539152   -0.0030873306983746013
-0.01032518852669575   -0.09450151190300314   -0.00286088559309769
-0.009634257798730428   -0.09852624403985931   -0.003372863758648656
-0.008547458752190313   -0.09851801685253614   -0.0029608820530260998
-0.01032518852669575   -0.09450151190300314   -0.00286088559309769
-0.013030616277284034   -0.094209243816074   -0.003145415432870974
-0.009634257798730428   -0.09852624403985931   -0.003372863758648656
-0.012889901676355892   -0.09410006353920769   -0.0029304698038072935
-0.008547458752190313   -0.09851801685253614   -0.0029608820530260998
-0.00940169176189486   -0.09841920127020971   -0.003122541508893287
-0.012889901676355892   -0.09410006353920769   -0.0029304698038072935
-0.009634257798730428   -0.09852624403985931   -0.003372863758648656
-0.008547458752190313   -0.09851801685253614   -0.0029608820530260998
-0.012889901676355892   -0.09410006353920769   -0.0029304698038072935
-0.010210173083542707   -0.09437649294936572   -0.00275559663347211
-0.01032518852669575   -0.09450151190300314   -0.00286088559309769
-0.008547458752190313   -0.09851801685253614   -0.0029608820530260998
-0.012889901676355892   -0.09410006353920769   -0.0029304698038072935
-0.01032518852669575   -0.09450151190300314   -0.00286088559309769
-0.009634257798730428   -0.09852624403985931   -0.003372863758648656
-0.008547458752190313   -0.09851801685253614   -0.0029608820530260998
-0.010210173083542707   -0.09437649294936572   -0.00275559663347211
-0.00940169176189486   -0.09841920127020971   -0.003122541508893287
-0.008333868591791685   -0.09848174808838932   -0.0028173697210276292
-0.010210173083542707   -0.09437649294936572   -0.00275559663347211
-0.012889901676355892   -0.09410006353920769   -0.0029304698038072935
-0.00940169176189486   -0.09841920127020971   -0.003122541508893287
-0.012695698987619023   -0.09405319900413317   -0.002706033290602775
-0.008333868591791685   -0.09848174808838932   -0.0028173697210276292
-0.009094951435551729   -0.0983947097412669   -0.0028532364973921213
-0.012695698987619023   -0.09405319900413317   -0.002706033290602775
-0.00940169176189486   -0.09841920127020971   -0.003122541508893287
-0.008333868591791685   -0.09848174808838932   -0.0028173697210276292
-0.012695698987619023   -0.09405319900413317   -0.002706033290602775
-0.010081097896424496   -0.09431499617968654   -0.002640073677942135
-0.010210173083542707   -0.09437649294936572   -0.00275559663347211
-0.008333868591791685   -0.09848174808838932   -0.0028173697210276292
-0.012695698987619023   -0.09405319900413317   -0.002706033290602775
-0.010210173083542707   -0.09437649294936572   -0.00275559663347211
-0.00940169176189486   -0.09841920127020971   -0.003122541508893287
-0.008333868591791685   -0.09848174808838932   -0.0028173697210276292
-0.010081097896424496   -0.09431499617968654   -0.002640073677942135
-0.009094951435551729   -0.0983947097412669   -0.0028532364973921213
-0.008114184854988816   -0.09851051222098405   -0.002664481205314435
-0.010081097896424496   -0.09431499617968654   -0.002640073677942135
-0.012695698987619023   -0.09405319900413317   -0.002706033290602775
-0.009094951435551729   -0.0983947097412669   -0.0028532364973921213
-0.012526063191702937   -0.09406873133232997   -0.0024658310127725954
-0.008114184854988816   -0.09851051222098405   -0.002664481205314435
-0.008806211367015157   -0.09843679327209316   -0.0025734917029803833
-0.012526063191702937   -0.09406873133232997   -0.0024658310127725954
-0.009094951435551729   -0.0983947097412669   -0.0028532364973921213
-0.008114184854988816   -0.09851051222098405   -0.002664481205314435
-0.012526063191702937   -0.09406873133232997   -0.0024658310127725954
-0.009951459707625916   -0.09431087669383943   -0.0025130693969224378
-0.010081097896424496   -0.09431499617968654   -0.002640073677942135
-0.008114184854988816   -0.09851051222098405   -0.002664481205314435
-0.012526063191702937   -0.09406873133232997   -0.0024658310127725954
-0.010081097896424496   -0.09431499617968654   -0.002640073677942135
-0.009094951435551729   -0.0983947097412669   -0.0028532364973921213
-0.009634257798730428   -0.09852624403985931   -0.003372863758648656
-0.013030616277284034   -0.094209243816074   -0.003145415432870974
-0.011398168059914478   -0.09804384312905604   -0.0036752643351295067
-0.00940169176189486   -0.09841920127020971   -0.003122541508893287
-0.013030616277284034   -0.094209243816074   -0.003145415432870974
-0.016514672853249913   -0.09373392191522968   -0.0034181550478585114
-0.011398168059914478   -0.09804384312905604   -0.0036752643351295067
-0.016062632445288116   -0.09361570502484566   -0.003078830569612914
-0.00940169176189486   -0.09841920127020971   -0.003122541508893287
-0.010781288631802754   -0.09795380723450739   -0.0032645498773063815
-0.016062632445288116   -0.09361570502484566   -0.003078830569612914
-0.011398168059914478   -0.09804384312905604   -0.0036752643351295067
-0.00940169176189486   -0.09841920127020971   -0.003122541508893287
-0.016062632445288116   -0.09361570502484566   -0.003078830569612914
-0.012889901676355892   -0.09410006353920769   -0.0029304698038072935
-0.013030616277284034   -0.094209243816074   -0.003145415432870974
-0.00940169176189486   -0.09841920127020971   -0.003122541508893287
-0.016062632445288116   -0.09361570502484566   -0.003078830569612914
-0.013030616277284034   -0.094209243816074   -0.003145415432870974
-0.011398168059914478   -0.09804384312905604   -0.0036752643351295067
-0.00940169176189486   -0.09841920127020971   -0.003122541508893287
-0.012889901676355892   -0.09410006353920769   -0.0029304698038072935
-0.010781288631802754   -0.09795380723450739   -0.0032645498773063815
-0.009094951435551729   -0.0983947097412669   -0.0028532364973921213
-0.012889901676355892   -0.09410006353920769   -0.0029304698038072935
-0.016062632445288116   -0.09361570502484566   -0.003078830569612914
-0.010781288631802754   -0.09795380723450739   -0.0032645498773063815
-0.015657205615187467   -0.09357235671851633   -0.002719620798042696
-0.009094951435551729   -0.0983947097412669   -0.0028532364973921213
-0.010214209248772163   -0.09794132496481318   -0.0028260270162686835
-0.015657205615187467   -0.09357235671851633   -0.002719620798042696
-0.010781288631802754   -0.09795380723450739   -0.0032645498773063815
-0.009094951435551729   -0.0983947097412669   -0.0028532364973921213
-0.015657205615187467   -0.09357235671851633   -0.002719620798042696
-0.012695698987619023   -0.09405319900413317   -0.002706033290602775
-0.012889901676355892   -0.09410006353920769   -0.0029304698038072935
-0.009094951435551729   -0.0983947097412669   -0.0028532364973921213
-0.015657205615187467   -0.09357235671851633   -0.002719620798042696
-0.012889901676355892   -0.09410006353920769   -0.0029304698038072935
-0.010781288631802754   -0.09795380723450739   -0.0032645498773063815
-0.009094951435551729   -0.0983947097412669   -0.0028532364973921213
-0.012695698987619023   -0.09405319900413317   -0.002706033290602775
-0.010214209248772163   -0.09794132496481318   -0.0028260270162686835
-0.008806211367015157   -0.09843679327209316   -0.0025734917029803833
-0.012695698987619023   -0.09405319900413317   -0.002706033290602775
-0.015657205615187467   -0.09357235671851633   -0.002719620798042696
-0.010214209248772163   -0.09794132496481318   -0.0028260270162686835
-0.015131721708811875   -0.09362616475755368   -0.002343948338331171
-0.008806211367015157   -0.09843679327209316   -0.0025734917029803833
-0.009498102817817962   -0.09805953786087206   -0.002367285543259754
-0.015131721708811875   -0.09362616475755368   -0.002343948338331171
-0.010214209248772163   -0.09794132496481318   -0.0028260270162686835
-0.008806211367015157   -0.09843679327209316   -0.0025734917029803833
-0.015131721708811875   -0.09362616475755368   -0.002343948338331171
-0.012526063191702937   -0.09406873133232997   -0.0024658310127725954
-0.012695698987619023   -0.09405319900413317   -0.002706033290602775
-0.008806211367015157   -0.09843679327209316   -0.0025734917029803833
-0.015131721708811875   -0.09362616475755368   -0.002343948338331171
-0.012695698987619023   -0.09405319900413317   -0.002706033290602775
-0.010214209248772163   -0.09794132496481318   -0.0028260270162686835
-0.0028708924129762186   -0.09420380920993084   -0.00181403196548733
0.0005381750449695701   -0.08738248988303035   -0.0015010152925712397
-0.005383870419799016   -0.09449004055241456   -0.0022198545487462132
-0.002476675963107511   -0.0940041722726311   -0.00209514153839271
0.0005381750449695701   -0.08738248988303035   -0.0015010152925712397
-0.003695610287736927   -0.08759211353798094   -0.0018993461780463165
-0.005383870419799016   -0.09449004055241456   -0.0022198545487462132
-0.00362265648476362   -0.08742300980468358   -0.001997542657896847
-0.002476675963107511   -0.0940041722726311   -0.00209514153839271
-0.005246049526401924   -0.09432866234869078   -0.0023437631028862494
-0.00362265648476362   -0.08742300980468358   -0.001997542657896847
-0.005383870419799016   -0.09449004055241456   -0.0022198545487462132
-0.002476675963107511   -0.0940041722726311   -0.00209514153839271
-0.00362265648476362   -0.08742300980468358   -0.001997542657896847
0.0008130718623954147   -0.08717971514544644   -0.001724599623647871
0.0005381750449695701   -0.08738248988303035   -0.0015010152925712397
-0.002476675963107511   -0.0940041722726311   -0.00209514153839271
-0.00362265648476362   -0.08742300980468358   -0.001997542657896847
0.0005381750449695701   -0.08738248988303035   -0.0015010152925712397
-0.005383870419799016   -0.09449004055241456   -0.0022198545487462132
-0.002476675963107511   -0.0940041722726311   -0.00209514153839271
0.0008130718623954147   -0.08717971514544644   -0.001724599623647871
-0.005246049526401924   -0.09432866234869078   -0.0023437631028862494
-0.002166482367942198   -0.09390875894673607   -0.0023596247254326556
0.0008130718623954147   -0.08717971514544644   -0.001724599623647871
-0.00362265648476362   -0.08742300980468358   -0.001997542657896847
-0.005246049526401924   -0.09432866234869078   -0.0023437631028862494
-0.0035396450079908893   -0.08731228551553037   -0.002084254265635914
-0.002166482367942198   -0.09390875894673607   -0.0023596247254326556
-0.005090971859788624   -0.09423895539756451   -0.0024564565794410816
-0.0035396450079908893   -0.08731228551553037   -0.002084254265635914
-0.005246049526401924   -0.09432866234869078   -0.0023437631028862494
-0.002166482367942198   -0.09390875894673607   -0.0023596247254326556
-0.0035396450079908893   -0.08731228551553037   -0.002084254265635914
0.0010152460057129325   -0.08706221277623011   -0.0019321092877250497
0.0008130718623954147   -0.08717971514544644   -0.001724599623647871
-0.002166482367942198   -0.09390875894673607   -0.0023596247254326556
-0.0035396450079908893   -0.08731228551553037   -0.002084254265635914
0.0008130718623954147   -0.08717971514544644   -0.001724599623647871
-0.005246049526401924   -0.09432866234869078   -0.0023437631028862494
-0.002166482367942198   -0.09390875894673607   -0.0023596247254326556
0.0010152460057129325   -0.08706221277623011   -0.0019321092877250497
-0.005090971859788624   -0.09423895539756451   -0.0024564565794410816
-0.0018279066895872404   -0.09389022240718882   -0.002606775131540158
0.0010152460057129325   -0.08706221277623011   -0.0019321092877250497
-0.0035396450079908893   -0.08731228551553037   -0.002084254265635914
-0.005090971859788624   -0.09423895539756451   -0.0024564565794410816
-0.003490023492884514   -0.08725667395617225   -0.002160614507184191
-0.0018279066895872404   -0.09389022240718882   -0.002606775131540158
-0.004972049706078806   -0.09421841734335087   -0.002558290473794937
-0.003490023492884514   -0.08725667395617225   -0.002160614507184191
-0.005090971859788624   -0.09423895539756451   -0.0024564565794410816
-0.0018279066895872404   -0.09389022240718882   -0.002606775131540158
-0.003490023492884514   -0.08725667395617225   -0.002160614507184191
0.001231507290215679   -0.08700379147816817   -0.0021234628343667016
0.0010152460057129325   -0.08706221277623011   -0.0019321092877250497
-0.0018279066895872404   -0.09389022240718882   -0.002606775131540158
-0.003490023492884514   -0.08725667395617225   -0.002160614507184191
0.0010152460057129325   -0.08706221277623011   -0.0019321092877250497
-0.005090971859788624   -0.09423895539756451   -0.0024564565794410816
-0.005383870419799016   -0.09449004055241456   -0.0022198545487462132
-0.003695610287736927   -0.08759211353798094   -0.0018993461780463165
-0.007863201693642484   -0.09459113923842745   -0.002550999508926958
-0.005246049526401924   -0.09432866234869078   -0.0023437631028862494
-0.003695610287736927   -0.08759211353798094   -0.0018993461780463165
-0.007790156689543116   -0.08763218042650166   -0.0022277525978753126
-0.007863201693642484   -0.09459113923842745   -0.002550999508926958
-0.007736482121266741   -0.08748696996583281   -0.0022303328592693118
-0.005246049526401924   -0.09432866234869078   -0.0023437631028862494
-0.0077472708911407815   -0.09445033884042406   -0.0025578964251302527
-0.007736482121266741   -0.08748696996583281   -0.0022303328592693118
-0.007863201693642484   -0.09459113923842745   -0.002550999508926958
-0.005246049526401924   -0.09432866234869078   -0.0023437631028862494
-0.007736482121266741   -0.08748696996583281   -0.0022303328592693118
-0.00362265648476362   -0.08742300980468358   -0.001997542657896847
-0.003695610287736927   -0.08759211353798094   -0.0018993461780463165
-0.005246049526401924   -0.09432866234869078   -0.0023437631028862494
-0.007736482121266741   -0.08748696996583281   -0.0022303328592693118
-0.003695610287736927   -0.08759211353798094   -0.0018993461780463165
-0.007863201693642484   -0.09459113923842745   -0.002550999508926958
-0.005246049526401924   -0.09432866234869078   -0.0023437631028862494
-0.00362265648476362   -0.08742300980468358   -0.001997542657896847
-0.0077472708911407815   -0.09445033884042406   -0.0025578964251302527
-0.005090971859788624   -0.09423895539756451   -0.0024564565794410816
-0.00362265648476362   -0.08742300980468358   -0.001997542657896847
-0.007736482121266741   -0.08748696996583281   -0.0022303328592693118
-0.0077472708911407815   -0.09445033884042406   -0.0025578964251302527
-0.007681297094440904   -0.08739401679969722   -0.0022219123469575577
-0.005090971859788624   -0.09423895539756451   -0.0024564565794410816
-0.007627375529172426   -0.09437415109546608   -0.002554408090499601
-0.007681297094440904   -0.08739401679969722   -0.0022219123469575577
-0.0077472708911407815   -0.09445033884042406   -0.0025578964251302527
-0.005090971859788624   -0.09423895539756451   -0.0024564565794410816
-0.007681297094440904   -0.08739401679969722   -0.0022219123469575577
-0.0035396450079908893   -0.08731228551553037   -0.002084254265635914
-0.00362265648476362   -0.08742300980468358   -0.001997542657896847
-0.005090971859788624   -0.09423895539756451   -0.0024564565794410816
-0.007681297094440904   -0.08739401679969722   -0.0022219123469575577
-0.00362265648476362   -0.08742300980468358   -0.001997542657896847
-0.0077472708911407815   -0.09445033884042406   -0.0025578964251302527
-0.005090971859788624   -0.09423895539756451   -0.0024564565794410816
-0.0035396450079908893   -0.08731228551553037   -0.002084254265635914
-0.007627375529172426   -0.09437415109546608   -0.002554408090499601
-0.004972049706078806   -0.09421841734335087   -0.002558290473794937
-0.0035396450079908893   -0.08731228551553037   -0.002084254265635914
-0.007681297094440904   -0.08739401679969722   -0.0022219123469575577
-0.007627375529172426   -0.09437415109546608   -0.002554408090499601
-0.007633026480238119   -0.08735245054940655   -0.0022032191022932582
-0.004972049706078806   -0.09421841734335087   -0.002558290473794937
-0.00751173732698523   -0.0943594419595542   -0.0025404315713786737
-0.007633026480238119   -0.08735245054940655   -0.0022032191022932582
-0.007627375529172426   -0.09437415109546608   -0.002554408090499601
-0.004972049706078806   -0.09421841734335087   -0.002558290473794937
-0.007633026480238119   -0.08735245054940655   -0.0022032191022932582
-0.003490023492884514   -0.08725667395617225   -0.002160614507184191
-0.0035396450079908893   -0.08731228551553037   -0.002084254265635914
-0.004972049706078806   -0.09421841734335087   -0.002558290473794937
-0.007633026480238119   -0.08735245054940655   -0.0022032191022932582
-0.0035396450079908893   -0.08731228551553037   -0.002084254265635914
-0.007627375529172426   -0.09437415109546608   -0.002554408090499601
-0.007863201693642484   -0.09459113923842745   -0.002550999508926958
-0.007790156689543116   -0.08763218042650166   -0.0022277525978753126
-0.01032518852669575   -0.09450151190300314   -0.00286088559309769
-0.0077472708911407815   -0.09445033884042406   -0.0025578964251302527
-0.007790156689543116   -0.08763218042650166   -0.0022277525978753126
-0.011820082204431499   -0.08750190700110788   -0.002524214522756738
-0.01032518852669575   -0.09450151190300314   -0.00286088559309769
-0.011770106520527495   -0.08737660409897956   -0.0024334877897969867
-0.0077472708911407815   -0.09445033884042406   -0.0025578964251302527
-0.010210173083542707   -0.09437649294936572   -0.00275559663347211
-0.011770106520527495   -0.08737660409897956   -0.0024334877897969867
-0.01032518852669575   -0.09450151190300314   -0.00286088559309769
-0.0077472708911407815   -0.09445033884042406   -0.0025578964251302527
-0.011770106520527495   -0.08737660409897956   -0.0024334877897969867
-0.007736482121266741   -0.08748696996583281   -0.0022303328592693118
-0.007790156689543116   -0.08763218042650166   -0.0022277525978753126
-0.0077472708911407815   -0.09445033884042406   -0.0025578964251302527
-0.011770106520527495   -0.08737660409897956   -0.0024334877897969867
-0.007790156689543116   -0.08763218042650166   -0.0022277525978753126
-0.01032518852669575   -0.09450151190300314   -0.00286088559309769
-0.0077472708911407815   -0.09445033884042406   -0.0025578964251302527
-0.007736482121266741   -0.08748696996583281   -0.0022303328592693118
-0.010210173083542707   -0.09437649294936572   -0.00275559663347211
-0.007627375529172426   -0.09437415109546608   -0.002554408090499601
-0.007736482121266741   -0.08748696996583281   -0.0022303328592693118
-0.011770106520527495   -0.08737660409897956   -0.0024334877897969867
-0.010210173083542707   -0.09437649294936572   -0.00275559663347211
-0.011709722695672595   -0.08730298230347099   -0.0023319964980849594
-0.007627375529172426   -0.09437415109546608   -0.002554408090499601
-0.010081097896424496   -0.09431499617968654   -0.002640073677942135
-0.011709722695672595   -0.08730298230347099   -0.0023319964980849594
-0.010210173083542707   -0.09437649294936572   -0.00275559663347211
-0.007627375529172426   -0.09437415109546608   -0.002554408090499601
-0.011709722695672595   -0.08730298230347099   -0.0023319964980849594
-0.007681297094440904   -0.08739401679969722   -0.0022219123469575577
-0.007736482121266741   -0.08748696996583281   -0.0022303328592693118
-0.007627375529172426   -0.09437415109546608   -0.002554408090499601
-0.011709722695672595   -0.08730298230347099   -0.0023319964980849594
-0.007736482121266741   -0.08748696996583281   -0.0022303328592693118
-0.010210173083542707   -0.09437649294936572   -0.00275559663347211
-0.007627375529172426   -0.09437415109546608   -0.002554408090499601
-0.007681297094440904   -0.08739401679969722   -0.0022219123469575577
-0.010081097896424496   -0.09431499617968654   -0.002640073677942135
-0.00751173732698523   -0.0943594419595542   -0.0025404315713786737
-0.007681297094440904   -0.08739401679969722   -0.0022219123469575577
-0.011709722695672595   -0.08730298230347099   -0.0023319964980849594
-0.010081097896424496   -0.09431499617968654   -0.002640073677942135
-0.011650974530017491   -0.08727862487648094   -0.0022200727407291464
-0.00751173732698523   -0.0943594419595542   -0.0025404315713786737
-0.009951459707625916   -0.09431087669383943   -0.0025130693969224378
-0.011650974530017491   -0.08727862487648094   -0.0022200727407291464
-0.010081097896424496   -0.09431499617968654   -0.002640073677942135
-0.00751173732698523   -0.0943594419595542   -0.0025404315713786737
-0.011650974530017491   -0.08727862487648094   -0.0022200727407291464
-0.007633026480238119   -0.08735245054940655   -0.0022032191022932582
-0.007681297094440904   -0.08739401679969722   -0.0022219123469575577
-0.00751173732698523   -0.0943594419595542   -0.0025404315713786737
-0.011650974530017491   -0.08727862487648094   -0.0022200727407291464
-0.007681297094440904   -0.08739401679969722   -0.0022219123469575577
-0.010081097896424496   -0.09431499617968654   -0.002640073677942135
-0.01032518852669575   -0.09450151190300314   -0.00286088559309769
-0.011820082204431499   -0.08750190700110788   -0.002524214522756738
-0.013030616277284034   -0.094209243816074   -0.003145415432870974
-0.010210173083542707   -0.09437649294936572   -0.00275559663347211
-0.011820082204431499   -0.08750190700110788   -0.002524214522756738
-0.01604363304631298   -0.08720594581671091   -0.0027875469197916163
-0.013030616277284034   -0.094209243816074   -0.003145415432870974
-0.01597843073941651   -0.08709967605995454   -0.002603408765582491
-0.010210173083542707   -0.09437649294936572   -0.00275559663347211
-0.012889901676355892   -0.09410006353920769   -0.0029304698038072935
-0.01597843073941651   -0.08709967605995454   -0.002603408765582491
-0.013030616277284034   -0.094209243816074   -0.003145415432870974
-0.010210173083542707   -0.09437649294936572   -0.00275559663347211
-0.01597843073941651   -0.08709967605995454   -0.002603408765582491
-0.011770106520527495   -0.08737660409897956   -0.0024334877897969867
-0.011820082204431499   -0.08750190700110788   -0.002524214522756738
-0.010210173083542707   -0.09437649294936572   -0.00275559663347211
-0.01597843073941651   -0.08709967605995454   -0.002603408765582491
-0.011820082204431499   -0.08750190700110788   -0.002524214522756738
-0.013030616277284034   -0.094209243816074   -0.003145415432870974
-0.010210173083542707   -0.09437649294936572   -0.00275559663347211
-0.011770106520527495   -0.08737660409897956   -0.0024334877897969867
-0.012889901676355892   -0.09410006353920769   -0.0029304698038072935
-0.010081097896424496   -0.09431499617968654   -0.002640073677942135
-0.011770106520527495   -0.08737660409897956   -0.0024334877897969867
-0.01597843073941651   -0.08709967605995454   -0.002603408765582491
-0.012889901676355892   -0.09410006353920769   -0.0029304698038072935
-0.01586794030015805   -0.08704358095547128   -0.0024101563779588744
-0.010081097896424496   -0.09431499617968654   -0.002640073677942135
-0.012695698987619023   -0.09405319900413317   -0.002706033290602775
-0.01586794030015805   -0.08704358095547128   -0.0024101563779588744
-0.012889901676355892   -0.09410006353920769   -0.0029304698038072935
-0.010081097896424496   -0.09431499617968654   -0.002640073677942135
-0.01586794030015805   -0.08704358095547128   -0.0024101563779588744
-0.011709722695672595   -0.08730298230347099   -0.0023319964980849594
-0.011770106520527495   -0.08737660409897956   -0.0024334877897969867
-0.010081097896424496   -0.09431499617968654   -0.002640073677942135
-0.01586794030015805   -0.08704358095547128   -0.0024101563779588744
-0.011770106520527495   -0.08737660409897956   -0.0024334877897969867
-0.012889901676355892   -0.09410006353920769   -0.0029304698038072935
-0.010081097896424496   -0.09431499617968654   -0.002640073677942135
-0.011709722695672595   -0.08730298230347099   -0.0023319964980849594
-0.012695698987619023   -0.09405319900413317   -0.002706033290602775
-0.009951459707625916   -0.09431087669383943   -0.0025130693969224378
-0.011709722695672595   -0.08730298230347099   -0.0023319964980849594
-0.01586794030015805   -0.08704358095547128   -0.0024101563779588744
-0.012695698987619023   -0.09405319900413317   -0.002706033290602775
-0.015778098327698366   -0.08704060978931166   -0.0022049559452663884
-0.009951459707625916   -0.09431087669383943   -0.0025130693969224378
-0.012526063191702937   -0.09406873133232997   -0.0024658310127725954
-0.015778098327698366   -0.08704060978931166   -0.0022049559452663884
-0.012695698987619023   -0.09405319900413317   -0.002706033290602775
-0.009951459707625916   -0.09431087669383943   -0.0025130693969224378
-0.015778098327698366   -0.08704060978931166   -0.0022049559452663884
-0.011650974530017491   -0.08727862487648094   -0.0022200727407291464
-0.011709722695672595   -0.08730298230347099   -0.0023319964980849594
-0.009951459707625916   -0.09431087669383943   -0.0025130693969224378
-0.015778098327698366   -0.08704060978931166   -0.0022049559452663884
-0.011709722695672595   -0.08730298230347099   -0.0023319964980849594
-0.012695698987619023   -0.09405319900413317   -0.002706033290602775
-0.013030616277284034   -0.094209243816074   -0.003145415432870974
-0.01604363304631298   -0.08720594581671091   -0.0027875469197916163
-0.016514672853249913   -0.09373392191522968   -0.0034181550478585114
-0.012889901676355892   -0.09410006353920769   -0.0029304698038072935
-0.01604363304631298   -0.08720594581671091   -0.0027875469197916163
-0.02096944487607637   -0.08678006244184851   -0.003032817543067754
-0.016514672853249913   -0.09373392191522968   -0.0034181550478585114
-0.020636310110328196   -0.08666935016355311   -0.0027446546247129307
-0.012889901676355892   -0.09410006353920769   -0.0029304698038072935
-0.016062632445288116   -0.09361570502484566   -0.003078830569612914
-0.020636310110328196   -0.08666935016355311   -0.0027446546247129307
-0.016514672853249913   -0.09373392191522968   -0.0034181550478585114
-0.012889901676355892   -0.09410006353920769   -0.0029304698038072935
-0.020636310110328196   -0.08666935016355311   -0.0027446546247129307
-0.01597843073941651   -0.08709967605995454   -0.002603408765582491
-0.01604363304631298   -0.08720594581671091   -0.0027875469197916163
-0.012889901676355892   -0.09410006353920769   -0.0029304698038072935
-0.020636310110328196   -0.08666935016355311   -0.0027446546247129307
-0.01604363304631298   -0.08720594581671091   -0.0027875469197916163
-0.016514672853249913   -0.09373392191522968   -0.0034181550478585114
-0.012889901676355892   -0.09410006353920769   -0.0029304698038072935
-0.01597843073941651   -0.08709967605995454   -0.002603408765582491
-0.016062632445288116   -0.09361570502484566   -0.003078830569612914
-0.012695698987619023   -0.09405319900413317   -0.002706033290602775
-0.01597843073941651   -0.08709967605995454   -0.002603408765582491
-0.020636310110328196   -0.08666935016355311   -0.0027446546247129307
-0.016062632445288116   -0.09361570502484566   -0.003078830569612914
-0.020347019392088717   -0.08661801224454653   -0.0024414755685141726
-0.012695698987619023   -0.09405319900413317   -0.002706033290602775
-0.015657205615187467   -0.09357235671851633   -0.002719620798042696
-0.020347019392088717   -0.08661801224454653   -0.0024414755685141726
-0.016062632445288116   -0.09361570502484566   -0.003078830569612914
-0.012695698987619023   -0.09405319900413317   -0.002706033290602775
-0.020347019392088717   -0.08661801224454653   -0.0024414755685141726
-0.01586794030015805   -0.08704358095547128   -0.0024101563779588744
-0.01597843073941651   -0.08709967605995454   -0.002603408765582491
-0.012695698987619023   -0.09405319900413317   -0.002706033290602775
-0.020347019392088717   -0.08661801224454653   -0.0024414755685141726
-0.01597843073941651   -0.08709967605995454   -0.002603408765582491
-0.016062632445288116   -0.09361570502484566   -0.003078830569612914
-0.012695698987619023   -0.09405319900413317   -0.002706033290602775
-0.01586794030015805   -0.08704358095547128   -0.0024101563779588744
-0.015657205615187467   -0.09357235671851633   -0.002719620798042696
-0.012526063191702937   -0.09406873133232997   -0.0024658310127725954
-0.01586794030015805   -0.08704358095547128   -0.0024101563779588744
-0.020347019392088717   -0.08661801224454653   -0.0024414755685141726
-0.015657205615187467   -0.09357235671851633   -0.002719620798042696
-0.019957199549295146   -0.08664790901324948   -0.0021252144665922595
-0.012526063191702937   -0.09406873133232997   -0.0024658310127725954
-0.015131721708811875   -0.09362616475755368   -0.002343948338331171
-0.019957199549295146   -0.08664790901324948   -0.0021252144665922595
-0.015657205615187467   -0.09357235671851633   -0.002719620798042696
-0.012526063191702937   -0.09406873133232997   -0.0024658310127725954
-0.019957199549295146   -0.08664790901324948   -0.0021252144665922595
-0.015778098327698366   -0.08704060978931166   -0.0022049559452663884
-0.01586794030015805   -0.08704358095547128   -0.0024101563779588744
-0.012526063191702937   -0.09406873133232997   -0.0024658310127725954
-0.019957199549295146   -0.08664790901324948   -0.0021252144665922595
-0.01586794030015805   -0.08704358095547128   -0.0024101563779588744
-0.015657205615187467   -0.09357235671851633   -0.002719620798042696
0.0005381750449695701   -0.08738248988303035   -0.0015010152925712397
0.0031231954460982985   -0.07812992996394125   -0.0011439961564372854
-0.003695610287736927   -0.08759211353798094   -0.0018993461780463165
0.0008130718623954147   -0.08717971514544644   -0.001724599623647871
0.0031231954460982985   -0.07812992996394125   -0.0011439961564372854
-0.0024783806520935125   -0.07826824677655826   -0.001524163050677393
-0.003695610287736927   -0.08759211353798094   -0.0018993461780463165
-0.0024633364154308677   -0.07810005282123009   -0.0015921290390433034
0.0008130718623954147   -0.08717971514544644   -0.001724599623647871
-0.00362265648476362   -0.08742300980468358   -0.001997542657896847
-0.0024633364154308677   -0.07810005282123009   -0.0015921290390433034
-0.003695610287736927   -0.08759211353798094   -0.0018993461780463165
0.0008130718623954147   -0.08717971514544644   -0.001724599623647871
-0.0024633364154308677   -0.07810005282123009   -0.0015921290390433034
0.003286070786332953   -0.07793209211190785   -0.0013091258722382772
0.0031231954460982985   -0.07812992996394125   -0.0011439961564372854
0.0008130718623954147   -0.08717971514544644   -0.001724599623647871
-0.0024633364154308677   -0.07810005282123009   -0.0015921290390433034
0.0031231954460982985   -0.07812992996394125   -0.0011439961564372854
-0.003695610287736927   -0.08759211353798094   -0.0018993461780463165
0.0008130718623954147   -0.08717971514544644   -0.001724599623647871
0.003286070786332953   -0.07793209211190785   -0.0013091258722382772
-0.00362265648476362   -0.08742300980468358   -0.001997542657896847
0.0010152460057129325   -0.08706221277623011   -0.0019321092877250497
0.003286070786332953   -0.07793209211190785   -0.0013091258722382772
-0.0024633364154308677   -0.07810005282123009   -0.0015921290390433034
-0.00362265648476362   -0.08742300980468358   -0.001997542657896847
-0.0024442214224456786   -0.07797785714143567   -0.001649611302787314
0.0010152460057129325   -0.08706221277623011   -0.0019321092877250497
-0.0035396450079908893   -0.08731228551553037   -0.002084254265635914
-0.0024442214224456786   -0.07797785714143567   -0.001649611302787314
-0.00362265648476362   -0.08742300980468358   -0.001997542657896847
0.0010152460057129325   -0.08706221277623011   -0.0019321092877250497
-0.0024442214224456786   -0.07797785714143567   -0.001649611302787314
0.0033900973224986544   -0.07780196485791845   -0.00145944320920726
0.003286070786332953   -0.07793209211190785   -0.0013091258722382772
0.0010152460057129325   -0.08706221277623011   -0.0019321092877250497
-0.0024442214224456786   -0.07797785714143567   -0.001649611302787314
0.003286070786332953   -0.07793209211190785   -0.0013091258722382772
-0.00362265648476362   -0.08742300980468358   -0.001997542657896847
0.0010152460057129325   -0.08706221277623011   -0.0019321092877250497
0.0033900973224986544   -0.07780196485791845   -0.00145944320920726
-0.0035396450079908893   -0.08731228551553037   -0.002084254265635914
0.001231507290215679   -0.08700379147816817   -0.0021234628343667016
0.0033900973224986544   -0.07780196485791845   -0.00145944320920726
-0.0024442214224456786   -0.07797785714143567   -0.001649611302787314
-0.0035396450079908893   -0.08731228551553037   -0.002084254265635914
-0.002453587548988438   -0.07789776435782579   -0.001697375023130578
0.001231507290215679   -0.08700379147816817   -0.0021234628343667016
-0.003490023492884514   -0.08725667395617225   -0.002160614507184191
-0.002453587548988438   -0.07789776435782579   -0.001697375023130578
-0.0035396450079908893   -0.08731228551553037   -0.002084254265635914
0.001231507290215679   -0.08700379147816817   -0.0021234628343667016
-0.002453587548988438   -0.07789776435782579   -0.001697375023130578
0.0034967387644117775   -0.07771440278515057   -0.0015952562238587403
0.0033900973224986544   -0.07780196485791845   -0.00145944320920726
0.001231507290215679   -0.08700379147816817   -0.0021234628343667016
-0.002453587548988438   -0.07789776435782579   -0.001697375023130578
0.0033900973224986544   -0.07780196485791845   -0.00145944320920726
-0.0035396450079908893   -0.08731228551553037   -0.002084254265635914
-0.003695610287736927   -0.08759211353798094   -0.0018993461780463165
-0.0024783806520935125   -0.07826824677655826   -0.001524163050677393
-0.007790156689543116   -0.08763218042650166   -0.0022277525978753126
-0.00362265648476362   -0.08742300980468358   -0.001997542657896847
-0.0024783806520935125   -0.07826824677655826   -0.001524163050677393
-0.007867717839437568   -0.07826883982354396   -0.0018379522945798875
-0.007790156689543116   -0.08763218042650166   -0.0022277525978753126
-0.007868474273803277   -0.07812645256387009   -0.001831544334906546
-0.00362265648476362   -0.08742300980468358   -0.001997542657896847
-0.007736482121266741   -0.08748696996583281   -0.0022303328592693118
-0.007868474273803277   -0.07812645256387009   -0.001831544334906546
-0.007790156689543116   -0.08763218042650166   -0.0022277525978753126
-0.00362265648476362   -0.08742300980468358   -0.001997542657896847
-0.007868474273803277   -0.07812645256387009   -0.001831544334906546
-0.0024633364154308677   -0.07810005282123009   -0.0015921290390433034
-0.0024783806520935125   -0.07826824677655826   -0.001524163050677393
-0.00362265648476362   -0.08742300980468358   -0.001997542657896847
-0.007868474273803277   -0.07812645256387009   -0.001831544334906546
-0.0024783806520935125   -0.07826824677655826   -0.001524163050677393
-0.007790156689543116   -0.08763218042650166   -0.0022277525978753126
-0.00362265648476362   -0.08742300980468358   -0.001997542657896847
-0.0024633364154308677   -0.07810005282123009   -0.0015921290390433034
-0.007736482121266741   -0.08748696996583281   -0.0022303328592693118
-0.0035396450079908893   -0.08731228551553037   -0.002084254265635914
-0.0024633364154308677   -0.07810005282123009   -0.0015921290390433034
-0.007868474273803277   -0.07812645256387009   -0.001831544334906546
-0.007736482121266741   -0.08748696996583281   -0.0022303328592693118
-0.00786887339223215   -0.07802462026829202   -0.0018146966392421798
-0.0035396450079908893   -0.08731228551553037   -0.002084254265635914
-0.007681297094440904   -0.08739401679969722   -0.0022219123469575577
-0.00786887339223215   -0.07802462026829202   -0.0018146966392421798
-0.007736482121266741   -0.08748696996583281   -0.0022303328592693118
-0.0035396450079908893   -0.08731228551553037   -0.002084254265635914
-0.00786887339223215   -0.07802462026829202   -0.0018146966392421798
-0.0024442214224456786   -0.07797785714143567   -0.001649611302787314
-0.0024633364154308677   -0.07810005282123009   -0.0015921290390433034
-0.0035396450079908893   -0.08731228551553037   -0.002084254265635914
-0.00786887339223215   -0.07802462026829202   -0.0018146966392421798
-0.0024633364154308677   -0.07810005282123009   -0.0015921290390433034
-0.007736482121266741   -0.08748696996583281   -0.0022303328592693118
-0.0035396450079908893   -0.08731228551553037   -0.002084254265635914
-0.0024442214224456786   -0.07797785714143567   -0.001649611302787314
-0.007681297094440904   -0.08739401679969722   -0.0022219123469575577
-0.003490023492884514   -0.08725667395617225   -0.002160614507184191
-0.0024442214224456786   -0.07797785714143567   -0.001649611302787314
-0.00786887339223215   -0.07802462026829202   -0.0018146966392421798
-0.007681297094440904   -0.08739401679969722   -0.0022219123469575577
-0.007876485451617479   -0.07796341327656926   -0.0017879466553609713
-0.003490023492884514   -0.08725667395617225   -0.002160614507184191
-0.007633026480238119   -0.08735245054940655   -0.0022032191022932582
-0.007876485451617479   -0.07796341327656926   -0.0017879466553609713
-0.007681297094440904   -0.08739401679969722   -0.0022219123469575577
-0.003490023492884514   -0.08725667395617225   -0.002160614507184191
-0.007876485451617479   -0.07796341327656926   -0.0017879466553609713
-0.002453587548988438   -0.07789776435782579   -0.001697375023130578
-0.0024442214224456786   -0.07797785714143567   -0.001649611302787314
-0.003490023492884514   -0.08725667395617225   -0.002160614507184191
-0.007876485451617479   -0.07796341327656926   -0.0017879466553609713
-0.0024442214224456786   -0.07797785714143567   -0.001649611302787314
-0.007681297094440904   -0.08739401679969722   -0.0022219123469575577
-0.007790156689543116   -0.08763218042650166   -0.0022277525978753126
-0.007867717839437568   -0.07826883982354396   -0.0018379522945798875
-0.011820082204431499   -0.08750190700110788   -0.002524214522756738
-0.007736482121266741   -0.08748696996583281   -0.0022303328592693118
-0.007867717839437568   -0.07826883982354396   -0.0018379522945798875
-0.013165273828560456   -0.07813479709202063   -0.002112902931579698
-0.011820082204431499   -0.08750190700110788   -0.002524214522756738
-0.013170010093273902   -0.07801510965300089   -0.0020330150095877243
-0.007736482121266741   -0.08748696996583281   -0.0022303328592693118
-0.011770106520527495   -0.08737660409897956   -0.0024334877897969867
-0.013170010093273902   -0.07801510965300089   -0.0020330150095877243
-0.011820082204431499   -0.08750190700110788   -0.002524214522756738
-0.007736482121266741   -0.08748696996583281   -0.0022303328592693118
-0.013170010093273902   -0.07801510965300089   -0.0020330150095877243
-0.007868474273803277   -0.07812645256387009   -0.001831544334906546
-0.007867717839437568   -0.07826883982354396   -0.0018379522945798875
-0.007736482121266741   -0.08748696996583281   -0.0022303328592693118
-0.013170010093273902   -0.07801510965300089   -0.0020330150095877243
-0.007867717839437568   -0.07826883982354396   -0.0018379522945798875
-0.011820082204431499   -0.08750190700110788   -0.002524214522756738
-0.007736482121266741   -0.08748696996583281   -0.0022303328592693118
-0.007868474273803277   -0.07812645256387009   -0.001831544334906546
-0.011770106520527495   -0.08737660409897956   -0.0024334877897969867
-0.007681297094440904   -0.08739401679969722   -0.0022219123469575577
-0.007868474273803277   -0.07812645256387009   -0.001831544334906546
-0.013170010093273902   -0.07801510965300089   -0.0020330150095877243
-0.011770106520527495   -0.08737660409897956   -0.0024334877897969867
-0.013165711041261805   -0.07793561802123411   -0.0019428877873579784
-0.007681297094440904   -0.08739401679969722   -0.0022219123469575577
-0.011709722695672595   -0.08730298230347099   -0.0023319964980849594
-0.013165711041261805   -0.07793561802123411   -0.0019428877873579784
-0.011770106520527495   -0.08737660409897956   -0.0024334877897969867
-0.007681297094440904   -0.08739401679969722   -0.0022219123469575577
-0.013165711041261805   -0.07793561802123411   -0.0019428877873579784
-0.00786887339223215   -0.07802462026829202   -0.0018146966392421798
-0.007868474273803277   -0.07812645256387009   -0.001831544334906546
-0.007681297094440904   -0.08739401679969722   -0.0022219123469575577
-0.013165711041261805   -0.07793561802123411   -0.0019428877873579784
-0.007868474273803277   -0.07812645256387009   -0.001831544334906546
-0.011770106520527495   -0.08737660409897956   -0.0024334877897969867
-0.007681297094440904   -0.08739401679969722   -0.0022219123469575577
-0.00786887339223215   -0.07802462026829202   -0.0018146966392421798
-0.011709722695672595   -0.08730298230347099   -0.0023319964980849594
-0.007633026480238119   -0.08735245054940655   -0.0022032191022932582
-0.00786887339223215   -0.07802462026829202   -0.0018146966392421798
-0.013165711041261805   -0.07793561802123411   -0.0019428877873579784
-0.011709722695672595   -0.08730298230347099   -0.0023319964980849594
-0.01316303132737751   -0.07789561230156242   -0.0018428209060476774
-0.007633026480238119   -0.08735245054940655   -0.0022032191022932582
-0.011650974530017491   -0.08727862487648094   -0.0022200727407291464
-0.01316303132737751   -0.07789561230156242   -0.0018428209060476774
-0.011709722695672595   -0.08730298230347099   -0.0023319964980849594
-0.007633026480238119   -0.08735245054940655   -0.0022032191022932582
-0.01316303132737751   -0.07789561230156242   -0.0018428209060476774
-0.007876485451617479   -0.07796341327656926   -0.0017879466553609713
-0.00786887339223215   -0.07802462026829202   -0.0018146966392421798
-0.007633026480238119   -0.08735245054940655   -0.0022032191022932582
-0.01316303132737751   -0.07789561230156242   -0.0018428209060476774
-0.00786887339223215   -0.07802462026829202   -0.0018146966392421798
-0.011709722695672595   -0.08730298230347099   -0.0023319964980849594
-0.011820082204431499   -0.08750190700110788   -0.002524214522756738
-0.013165273828560456   -0.07813479709202063   -0.002112902931579698
-0.01604363304631298   -0.08720594581671091   -0.0027875469197916163
-0.011770106520527495   -0.08737660409897956   -0.0024334877897969867
-0.013165273828560456   -0.07813479709202063   -0.002112902931579698
-0.018628114164432854   -0.0778712242965907   -0.002349493509790025
-0.01604363304631298   -0.08720594581671091   -0.0027875469197916163
-0.018621772804271915   -0.07777329743813216   -0.0021952617783771683
-0.011770106520527495   -0.08737660409897956   -0.0024334877897969867
-0.01597843073941651   -0.08709967605995454   -0.002603408765582491
-0.018621772804271915   -0.07777329743813216   -0.0021952617783771683
-0.01604363304631298   -0.08720594581671091   -0.0027875469197916163
-0.011770106520527495   -0.08737660409897956   -0.0024334877897969867
-0.018621772804271915   -0.07777329743813216   -0.0021952617783771683
-0.013170010093273902   -0.07801510965300089   -0.0020330150095877243
-0.013165273828560456   -0.07813479709202063   -0.002112902931579698
-0.011770106520527495   -0.08737660409897956   -0.0024334877897969867
-0.018621772804271915   -0.07777329743813216   -0.0021952617783771683
-0.013165273828560456   -0.07813479709202063   -0.002112902931579698
-0.01604363304631298   -0.08720594581671091   -0.0027875469197916163
-0.011770106520527495   -0.08737660409897956   -0.0024334877897969867
-0.013170010093273902   -0.07801510965300089   -0.0020330150095877243
-0.01597843073941651   -0.08709967605995454   -0.002603408765582491
-0.011709722695672595   -0.08730298230347099   -0.0023319964980849594
-0.013170010093273902   -0.07801510965300089   -0.0020330150095877243
-0.018621772804271915   -0.07777329743813216   -0.0021952617783771683
-0.01597843073941651   -0.08709967605995454   -0.002603408765582491
-0.018576095935692958   -0.07771406144309363   -0.0020323327681269344
-0.011709722695672595   -0.08730298230347099   -0.0023319964980849594
-0.01586794030015805   -0.08704358095547128   -0.0024101563779588744
-0.018576095935692958   -0.07771406144309363   -0.0020323327681269344
-0.01597843073941651   -0.08709967605995454   -0.002603408765582491
-0.011709722695672595   -0.08730298230347099   -0.0023319964980849594
-0.018576095935692958   -0.07771406144309363   -0.0020323327681269344
-0.013165711041261805   -0.07793561802123411   -0.0019428877873579784
-0.013170010093273902   -0.07801510965300089   -0.0020330150095877243
-0.011709722695672595   -0.08730298230347099   -0.0023319964980849594
-0.018576095935692958   -0.07771406144309363   -0.0020323327681269344
-0.013170010093273902   -0.07801510965300089   -0.0020330150095877243
-0.01597843073941651   -0.08709967605995454   -0.002603408765582491
-0.011709722695672595   -0.08730298230347099   -0.0023319964980849594
-0.013165711041261805   -0.07793561802123411   -0.0019428877873579784
-0.01586794030015805   -0.08704358095547128   -0.0024101563779588744
-0.011650974530017491   -0.08727862487648094   -0.0022200727407291464
-0.013165711041261805   -0.07793561802123411   -0.0019428877873579784
-0.018576095935692958   -0.07771406144309363   -0.0020323327681269344
-0.01586794030015805   -0.08704358095547128   -0.0024101563779588744
-0.018545536585625917   -0.07769762534317715   -0.0018586677370246135
-0.011650974530017491   -0.08727862487648094   -0.0022200727407291464
-0.015778098327698366   -0.08704060978931166   -0.0022049559452663884
-0.018545536585625917   -0.07769762534317715   -0.0018586677370246135
-0.01586794030015805   -0.08704358095547128   -0.0024101563779588744
-0.011650974530017491   -0.08727862487648094   -0.0022200727407291464
-0.018545536585625917   -0.07769762534317715   -0.0018586677370246135
-0.01316303132737751   -0.07789561230156242   -0.0018428209060476774
-0.013165711041261805   -0.07793561802123411   -0.0019428877873579784
-0.011650974530017491   -0.08727862487648094   -0.0022200727407291464
-0.018545536585625917   -0.07769762534317715   -0.0018586677370246135
-0.013165711041261805   -0.07793561802123411   -0.0019428877873579784
-0.01586794030015805   -0.08704358095547128   -0.0024101563779588744
-0.01604363304631298   -0.08720594581671091   -0.0027875469197916163
-0.018628114164432854   -0.0778712242965907   -0.002349493509790025
-0.02096944487607637   -0.08678006244184851   -0.003032817543067754
-0.01597843073941651   -0.08709967605995454   -0.002603408765582491
-0.018628114164432854   -0.0778712242965907   -0.002349493509790025
-0.02472996086074349   -0.07750824204023925   -0.0025626879303738007
-0.02096944487607637   -0.08678006244184851   -0.003032817543067754
-0.024502569839098164   -0.0774122081025594   -0.002326833132404079
-0.01597843073941651   -0.08709967605995454   -0.002603408765582491
-0.020636310110328196   -0.08666935016355311   -0.0027446546247129307
-0.024502569839098164   -0.0774122081025594   -0.002326833132404079
-0.02096944487607637   -0.08678006244184851   -0.003032817543067754
-0.01597843073941651   -0.08709967605995454   -0.002603408765582491
-0.024502569839098164   -0.0774122081025594   -0.002326833132404079
-0.018621772804271915   -0.07777329743813216   -0.0021952617783771683
-0.018628114164432854   -0.0778712242965907   -0.002349493509790025
-0.01597843073941651   -0.08709967605995454   -0.002603408765582491
-0.024502569839098164   -0.0774122081025594   -0.002326833132404079
-0.018628114164432854   -0.0778712242965907   -0.002349493509790025
-0.02096944487607637   -0.08678006244184851   -0.003032817543067754
-0.01597843073941651   -0.08709967605995454   -0.002603408765582491
-0.018621772804271915   -0.07777329743813216   -0.0021952617783771683
-0.020636310110328196   -0.08666935016355311   -0.0027446546247129307
-0.01586794030015805   -0.08704358095547128   -0.0024101563779588744
-0.018621772804271915   -0.07777329743813216   -0.0021952617783771683
-0.024502569839098164   -0.0774122081025594   -0.002326833132404079
-0.020636310110328196   -0.08666935016355311   -0.0027446546247129307
-0.024307994388312156   -0.07736035634241895   -0.002076369804583989
-0.01586794030015805   -0.08704358095547128   -0.0024101563779588744
-0.020347019392088717   -0.08661801224454653   -0.0024414755685141726
-0.024307994388312156   -0.07736035634241895   -0.002076369804583989
-0.020636310110328196   -0.08666935016355311   -0.0027446546247129307
-0.01586794030015805   -0.08704358095547128   -0.0024101563779588744
-0.024307994388312156   -0.07736035634241895   -0.002076369804583989
-0.018576095935692958   -0.07771406144309363   -0.0020323327681269344
-0.018621772804271915   -0.07777329743813216   -0.0021952617783771683
-0.01586794030015805   -0.08704358095547128   -0.0024101563779588744
-0.024307994388312156   -0.07736035634241895   -0.002076369804583989
-0.018621772804271915   -0.07777329743813216   -0.0021952617783771683
-0.020636310110328196   -0.08666935016355311   -0.0027446546247129307
-0.01586794030015805   -0.08704358095547128   -0.0024101563779588744
-0.018576095935692958   -0.07771406144309363   -0.0020323327681269344
-0.020347019392088717   -0.08661801224454653   -0.0024414755685141726
-0.015778098327698366   -0.08704060978931166   -0.0022049559452663884
-0.018576095935692958   -0.07771406144309363   -0.0020323327681269344
-0.024307994388312156   -0.07736035634241895   -0.002076369804583989
-0.020347019392088717   -0.08661801224454653   -0.0024414755685141726
-0.024027042929423   -0.0773764311596812   -0.0018132956825395942
-0.015778098327698366   -0.08704060978931166   -0.0022049559452663884
-0.019957199549295146   -0.08664790901324948   -0.0021252144665922595
-0.024027042929423   -0.0773764311596812   -0.0018132956825395942
-0.020347019392088717   -0.08661801224454653   -0.0024414755685141726
-0.015778098327698366   -0.08704060978931166   -0.0022049559452663884
-0.024027042929423   -0.0773764311596812   -0.0018132956825395942
-0.018545536585625917   -0.07769762534317715   -0.0018586677370246135
-0.018576095935692958   -0.07771406144309363   -0.0020323327681269344
-0.015778098327698366   -0.08704060978931166   -0.0022049559452663884
-0.024027042929423   -0.0773764311596812   -0.0018132956825395942
-0.018576095935692958   -0.07771406144309363   -0.0020323327681269344
-0.020347019392088717   -0.08661801224454653   -0.0024414755685141726
0.0031231954460982985   -0.07812992996394125   -0.0011439961564372854
0.004901376656776587   -0.06700798661682639   -0.0007619110359326102
-0.0024783806520935125   -0.07826824677655826   -0.001524163050677393
0.003286070786332953   -0.07793209211190785   -0.0013091258722382772
0.004901376656776587   -0.06700798661682639   -0.0007619110359326102
-0.0017407210869370487   -0.06707573582538488   -0.0011196065636931334
-0.0024783806520935125   -0.07826824677655826   -0.001524163050677393
-0.001772216043108819   -0.06691162172910126   -0.0011561155233985347
0.003286070786332953   -0.07793209211190785   -0.0013091258722382772
-0.0024633364154308677   -0.07810005282123009   -0.0015921290390433034
-0.001772216043108819   -0.06691162172910126   -0.0011561155233985347
-0.0024783806520935125   -0.07826824677655826   -0.001524163050677393
0.003286070786332953   -0.07793209211190785   -0.0013091258722382772
-0.001772216043108819   -0.06691162172910126   -0.0011561155233985347
0.0049652358885152   -0.06681738608407924   -0.0008698605826338895
0.004901376656776587   -0.06700798661682639   -0.0007619110359326102
0.003286070786332953   -0.07793209211190785   -0.0013091258722382772
-0.001772216043108819   -0.06691162172910126   -0.0011561155233985347
0.004901376656776587   -0.06700798661682639   -0.0007619110359326102
-0.0024783806520935125   -0.07826824677655826   -0.001524163050677393
0.003286070786332953   -0.07793209211190785   -0.0013091258722382772
0.0049652358885152   -0.06681738608407924   -0.0008698605826338895
-0.0024633364154308677   -0.07810005282123009   -0.0015921290390433034
0.0033900973224986544   -0.07780196485791845   -0.00145944320920726
0.0049652358885152   -0.06681738608407924   -0.0008698605826338895
-0.001772216043108819   -0.06691162172910126   -0.0011561155233985347
-0.0024633364154308677   -0.07810005282123009   -0.0015921290390433034
-0.0018053466926570376   -0.06678154565664858   -0.0011832780410674921
0.0033900973224986544   -0.07780196485791845   -0.00145944320920726
-0.0024442214224456786   -0.07797785714143567   -0.001649611302787314
-0.0018053466926570376   -0.06678154565664858   -0.0011832780410674921
-0.0024633364154308677   -0.07810005282123009   -0.0015921290390433034
0.0033900973224986544   -0.07780196485791845   -0.00145944320920726
-0.0018053466926570376   -0.06678154565664858   -0.0011832780410674921
0.0049842891526157155   -0.06667817604169213   -0.0009640243929973757
0.0049652358885152   -0.06681738608407924   -0.0008698605826338895
0.0033900973224986544   -0.07780196485791845   -0.00145944320920726
-0.0018053466926570376   -0.06678154565664858   -0.0011832780410674921
0.0049652358885152   -0.06681738608407924   -0.0008698605826338895
-0.0024633364154308677   -0.07810005282123009   -0.0015921290390433034
0.0033900973224986544   -0.07780196485791845   -0.00145944320920726
0.0049842891526157155   -0.06667817604169213   -0.0009640243929973757
-0.0024442214224456786   -0.07797785714143567   -0.001649611302787314
0.0034967387644117775   -0.07771440278515057   -0.0015952562238587403
0.0049842891526157155   -0.06667817604169213   -0.0009640243929973757
-0.0018053466926570376   -0.06678154565664858   -0.0011832780410674921
-0.0024442214224456786   -0.07797785714143567   -0.001649611302787314
-0.001861535201745974   -0.06668144080366445   -0.0012014108443243311
0.0034967387644117775   -0.07771440278515057   -0.0015952562238587403
-0.002453587548988438   -0.07789776435782579   -0.001697375023130578
-0.001861535201745974   -0.06668144080366445   -0.0012014108443243311
-0.0024442214224456786   -0.07797785714143567   -0.001649611302787314
0.0034967387644117775   -0.07771440278515057   -0.0015952562238587403
-0.001861535201745974   -0.06668144080366445   -0.0012014108443243311
0.0049945959511076094   -0.06656594524718915   -0.0010450532840019105
0.0049842891526157155   -0.06667817604169213   -0.0009640243929973757
0.0034967387644117775   -0.07771440278515057   -0.0015952562238587403
-0.001861535201745974   -0.06668144080366445   -0.0012014108443243311
0.0049842891526157155   -0.06667817604169213   -0.0009640243929973757
-0.0024442214224456786   -0.07797785714143567   -0.001649611302787314
-0.0024783806520935125   -0.07826824677655826   -0.001524163050677393
-0.0017407210869370487   -0.06707573582538488   -0.0011196065636931334
-0.007867717839437568   -0.07826883982354396   -0.0018379522945798875
-0.0024633364154308677   -0.07810005282123009   -0.0015921290390433034
-0.0017407210869370487   -0.06707573582538488   -0.0011196065636931334
-0.008106700047482058   -0.06704054727323015   -0.0014144619921558153
-0.007867717839437568   -0.07826883982354396   -0.0018379522945798875
-0.008150208740180158   -0.06690327541011869   -0.0013972881020515133
-0.0024633364154308677   -0.07810005282123009   -0.0015921290390433034
-0.007868474273803277   -0.07812645256387009   -0.001831544334906546
-0.008150208740180158   -0.06690327541011869   -0.0013972881020515133
-0.007867717839437568   -0.07826883982354396   -0.0018379522945798875
-0.0024633364154308677   -0.07810005282123009   -0.0015921290390433034
-0.008150208740180158   -0.06690327541011869   -0.0013972881020515133
-0.001772216043108819   -0.06691162172910126   -0.0011561155233985347
-0.0017407210869370487   -0.06707573582538488   -0.0011196065636931334
-0.0024633364154308677   -0.07810005282123009   -0.0015921290390433034
-0.008150208740180158   -0.06690327541011869   -0.0013972881020515133
-0.0017407210869370487   -0.06707573582538488   -0.0011196065636931334
-0.007867717839437568   -0.07826883982354396   -0.0018379522945798875
-0.0024633364154308677   -0.07810005282123009   -0.0015921290390433034
-0.001772216043108819   -0.06691162172910126   -0.0011561155233985347
-0.007868474273803277   -0.07812645256387009   -0.001831544334906546
-0.0024442214224456786   -0.07797785714143567   -0.001649611302787314
-0.001772216043108819   -0.06691162172910126   -0.0011561155233985347
-0.008150208740180158   -0.06690327541011869   -0.0013972881020515133
-0.007868474273803277   -0.07812645256387009   -0.001831544334906546
-0.008194313317248007   -0.06679518435234974   -0.0013704953481713082
-0.0024442214224456786   -0.07797785714143567   -0.001649611302787314
-0.00786887339223215   -0.07802462026829202   -0.0018146966392421798
-0.008194313317248007   -0.06679518435234974   -0.0013704953481713082
-0.007868474273803277   -0.07812645256387009   -0.001831544334906546
-0.0024442214224456786   -0.07797785714143567   -0.001649611302787314
-0.008194313317248007   -0.06679518435234974   -0.0013704953481713082
-0.0018053466926570376   -0.06678154565664858   -0.0011832780410674921
-0.001772216043108819   -0.06691162172910126   -0.0011561155233985347
-0.0024442214224456786   -0.07797785714143567   -0.001649611302787314
-0.008194313317248007   -0.06679518435234974   -0.0013704953481713082
-0.001772216043108819   -0.06691162172910126   -0.0011561155233985347
-0.007868474273803277   -0.07812645256387009   -0.001831544334906546
-0.0024442214224456786   -0.07797785714143567   -0.001649611302787314
-0.0018053466926570376   -0.06678154565664858   -0.0011832780410674921
-0.00786887339223215   -0.07802462026829202   -0.0018146966392421798
-0.002453587548988438   -0.07789776435782579   -0.001697375023130578
-0.0018053466926570376   -0.06678154565664858   -0.0011832780410674921
-0.008194313317248007   -0.06679518435234974   -0.0013704953481713082
-0.00786887339223215   -0.07802462026829202   -0.0018146966392421798
-0.008245259365966196   -0.06671677123915681   -0.0013345435868226255
-0.002453587548988438   -0.07789776435782579   -0.001697375023130578
-0.007876485451617479   -0.07796341327656926   -0.0017879466553609713
-0.008245259365966196   -0.06671677123915681   -0.0013345435868226255
-0.00786887339223215   -0.07802462026829202   -0.0018146966392421798
-0.002453587548988438   -0.07789776435782579   -0.001697375023130578
-0.008245259365966196   -0.06671677123915681   -0.0013345435868226255
-0.001861535201745974   -0.06668144080366445   -0.0012014108443243311
-0.0018053466926570376   -0.06678154565664858   -0.0011832780410674921
-0.002453587548988438   -0.07789776435782579   -0.001697375023130578
-0.008245259365966196   -0.06671677123915681   -0.0013345435868226255
-0.0018053466926570376   -0.06678154565664858   -0.0011832780410674921
-0.00786887339223215   -0.07802462026829202   -0.0018146966392421798
-0.007867717839437568   -0.07826883982354396   -0.0018379522945798875
-0.008106700047482058   -0.06704054727323015   -0.0014144619921558153
-0.013165273828560456   -0.07813479709202063   -0.002112902931579698
-0.007868474273803277   -0.07812645256387009   -0.001831544334906546
-0.008106700047482058   -0.06704054727323015   -0.0014144619921558153
-0.014364896850902814   -0.0669087088710018   -0.0016668968852015871
-0.013165273828560456   -0.07813479709202063   -0.002112902931579698
-0.014411799407255914   -0.06679585170991764   -0.0015962919525149338
-0.007868474273803277   -0.07812645256387009   -0.001831544334906546
-0.013170010093273902   -0.07801510965300089   -0.0020330150095877243
-0.014411799407255914   -0.06679585170991764   -0.0015962919525149338
-0.013165273828560456   -0.07813479709202063   -0.002112902931579698
-0.007868474273803277   -0.07812645256387009   -0.001831544334906546
-0.014411799407255914   -0.06679585170991764   -0.0015962919525149338
-0.008150208740180158   -0.06690327541011869   -0.0013972881020515133
-0.008106700047482058   -0.06704054727323015   -0.0014144619921558153
-0.007868474273803277   -0.07812645256387009   -0.001831544334906546
-0.014411799407255914   -0.06679585170991764   -0.0015962919525149338
-0.008106700047482058   -0.06704054727323015   -0.0014144619921558153
-0.013165273828560456   -0.07813479709202063   -0.002112902931579698
-0.007868474273803277   -0.07812645256387009   -0.001831544334906546
-0.008150208740180158   -0.06690327541011869   -0.0013972881020515133
-0.013170010093273902   -0.07801510965300089   -0.0020330150095877243
-0.00786887339223215   -0.07802462026829202   -0.0018146966392421798
-0.008150208740180158   -0.06690327541011869   -0.0013972881020515133
-0.014411799407255914   -0.06679585170991764   -0.0015962919525149338
-0.013170010093273902   -0.07801510965300089   -0.0020330150095877243
-0.014450685885396462   -0.06671189603128873   -0.0015162364097296597
-0.00786887339223215   -0.07802462026829202   -0.0018146966392421798
-0.013165711041261805   -0.07793561802123411   -0.0019428877873579784
-0.014450685885396462   -0.06671189603128873   -0.0015162364097296597
-0.013170010093273902   -0.07801510965300089   -0.0020330150095877243
-0.00786887339223215   -0.07802462026829202   -0.0018146966392421798
-0.014450685885396462   -0.06671189603128873   -0.0015162364097296597
-0.008194313317248007   -0.06679518435234974   -0.0013704953481713082
-0.008150208740180158   -0.06690327541011869   -0.0013972881020515133
-0.00786887339223215   -0.07802462026829202   -0.0018146966392421798
-0.014450685885396462   -0.06671189603128873   -0.0015162364097296597
-0.008150208740180158   -0.06690327541011869   -0.0013972881020515133
-0.013170010093273902   -0.07801510965300089   -0.0020330150095877243
-0.00786887339223215   -0.07802462026829202   -0.0018146966392421798
-0.008194313317248007   -0.06679518435234974   -0.0013704953481713082
-0.013165711041261805   -0.07793561802123411   -0.0019428877873579784
-0.007876485451617479   -0.07796341327656926   -0.0017879466553609713
-0.008194313317248007   -0.06679518435234974   -0.0013704953481713082
-0.014450685885396462   -0.06671189603128873   -0.0015162364097296597
-0.013165711041261805   -0.07793561802123411   -0.0019428877873579784
-0.014490694060383556   -0.06665672217763337   -0.00142700973823011
-0.007876485451617479   -0.07796341327656926   -0.0017879466553609713
-0.01316303132737751   -0.07789561230156242   -0.0018428209060476774
-0.014490694060383556   -0.06665672217763337   -0.00142700973823011
-0.013165711041261805   -0.07793561802123411   -0.0019428877873579784
-0.007876485451617479   -0.07796341327656926   -0.0017879466553609713
-0.014490694060383556   -0.06665672217763337   -0.00142700973823011
-0.008245259365966196   -0.06671677123915681   -0.0013345435868226255
-0.008194313317248007   -0.06679518435234974   -0.0013704953481713082
-0.007876485451617479   -0.07796341327656926   -0.0017879466553609713
-0.014490694060383556   -0.06665672217763337   -0.00142700973823011
-0.008194313317248007   -0.06679518435234974   -0.0013704953481713082
-0.013165711041261805   -0.07793561802123411   -0.0019428877873579784
-0.013165273828560456   -0.07813479709202063   -0.002112902931579698
-0.014364896850902814   -0.0669087088710018   -0.0016668968852015871
-0.018628114164432854   -0.0778712242965907   -0.002349493509790025
-0.013170010093273902   -0.07801510965300089   -0.0020330150095877243
-0.014364896850902814   -0.0669087088710018   -0.0016668968852015871
-0.02077196644305506   -0.06668286393537269   -0.0018778401749569027
-0.018628114164432854   -0.0778712242965907   -0.002349493509790025
-0.020810840846932598   -0.06659387411722811   -0.0017530805877484024
-0.013170010093273902   -0.07801510965300089   -0.0020330150095877243
-0.018621772804271915   -0.07777329743813216   -0.0021952617783771683
-0.020810840846932598   -0.06659387411722811   -0.0017530805877484024
-0.018628114164432854   -0.0778712242965907   -0.002349493509790025
-0.013170010093273902   -0.07801510965300089   -0.0020330150095877243
-0.020810840846932598   -0.06659387411722811   -0.0017530805877484024
-0.014411799407255914   -0.06679585170991764   -0.0015962919525149338
-0.014364896850902814   -0.0669087088710018   -0.0016668968852015871
-0.013170010093273902   -0.07801510965300089   -0.0020330150095877243
-0.020810840846932598   -0.06659387411722811   -0.0017530805877484024
-0.014364896850902814   -0.0669087088710018   -0.0016668968852015871
-0.018628114164432854   -0.0778712242965907   -0.002349493509790025
-0.013170010093273902   -0.07801510965300089   -0.0020330150095877243
-0.014411799407255914   -0.06679585170991764   -0.0015962919525149338
-0.018621772804271915   -0.07777329743813216   -0.0021952617783771683
-0.013165711041261805   -0.07793561802123411   -0.0019428877873579784
-0.014411799407255914   -0.06679585170991764   -0.0015962919525149338
-0.020810840846932598   -0.06659387411722811   -0.0017530805877484024
-0.018621772804271915   -0.07777329743813216   -0.0021952617783771683
-0.020816065109956285   -0.06653198466367836   -0.0016201787633960956
-0.013165711041261805   -0.07793561802123411   -0.0019428877873579784
-0.018576095935692958   -0.07771406144309363   -0.0020323327681269344
-0.020816065109956285   -0.06653198466367836   -0.0016201787633960956
-0.018621772804271915   -0.07777329743813216   -0.0021952617783771683
-0.013165711041261805   -0.07793561802123411   -0.0019428877873579784
-0.020816065109956285   -0.06653198466367836   -0.0016201787633960956
-0.014450685885396462   -0.06671189603128873   -0.0015162364097296597
-0.014411799407255914   -0.06679585170991764   -0.0015962919525149338
-0.013165711041261805   -0.07793561802123411   -0.0019428877873579784
-0.020816065109956285   -0.06653198466367836   -0.0016201787633960956
-0.014411799407255914   -0.06679585170991764   -0.0015962919525149338
-0.018621772804271915   -0.07777329743813216   -0.0021952617783771683
-0.013165711041261805   -0.07793561802123411   -0.0019428877873579784
-0.014450685885396462   -0.06671189603128873   -0.0015162364097296597
-0.018576095935692958   -0.07771406144309363   -0.0020323327681269344
-0.01316303132737751   -0.07789561230156242   -0.0018428209060476774
-0.014450685885396462   -0.06671189603128873   -0.0015162364097296597
-0.020816065109956285   -0.06653198466367836   -0.0016201787633960956
-0.018576095935692958   -0.07771406144309363   -0.0020323327681269344
-0.020830783929101745   -0.0665014600805621   -0.0014774122921545321
-0.01316303132737751   -0.07789561230156242   -0.0018428209060476774
-0.018545536585625917   -0.07769762534317715   -0.0018586677370246135
-0.020830783929101745   -0.0665014600805621   -0.0014774122921545321
-0.018576095935692958   -0.07771406144309363   -0.0020323327681269344
-0.01316303132737751   -0.07789561230156242   -0.0018428209060476774
-0.020830783929101745   -0.0665014600805621   -0.0014774122921545321
-0.014490694060383556   -0.06665672217763337   -0.00142700973823011
-0.014450685885396462   -0.06671189603128873   -0.0015162364097296597
-0.01316303132737751   -0.07789561230156242   -0.0018428209060476774
-0.020830783929101745   -0.0665014600805621   -0.0014774122921545321
-0.014450685885396462   -0.06671189603128873   -0.0015162364097296597
-0.018576095935692958   -0.07771406144309363   -0.0020323327681269344
-0.018628114164432854   -0.0778712242965907   -0.002349493509790025
-0.02077196644305506   -0.06668286393537269   -0.0018778401749569027
-0.02472996086074349   -0.07750824204023925   -0.0025626879303738007
-0.018621772804271915   -0.07777329743813216   -0.0021952617783771683
-0.02077196644305506   -0.06668286393537269   -0.0018778401749569027
-0.027758353953834542   -0.06638689055889897   -0.002058020925073553
-0.02472996086074349   -0.07750824204023925   -0.0025626879303738007
-0.027625443271980417   -0.06630560494069995   -0.0018760849653549822
-0.018621772804271915   -0.07777329743813216   -0.0021952617783771683
-0.024502569839098164   -0.0774122081025594   -0.002326833132404079
-0.027625443271980417   -0.06630560494069995   -0.0018760849653549822
-0.02472996086074349   -0.07750824204023925   -0.0025626879303738007
-0.018621772804271915   -0.07777329743813216   -0.0021952617783771683
-0.027625443271980417   -0.06630560494069995   -0.0018760849653549822
-0.020810840846932598   -0.06659387411722811   -0.0017530805877484024
-0.02077196644305506   -0.06668286393537269   -0.0018778401749569027
-0.018621772804271915   -0.07777329743813216   -0.0021952617783771683
-0.027625443271980417   -0.06630560494069995   -0.0018760849653549822
-0.02077196644305506   -0.06668286393537269   -0.0018778401749569027
-0.02472996086074349   -0.07750824204023925   -0.0025626879303738007
-0.018621772804271915   -0.07777329743813216   -0.0021952617783771683
-0.020810840846932598   -0.06659387411722811   -0.0017530805877484024
-0.024502569839098164   -0.0774122081025594   -0.002326833132404079
-0.018576095935692958   -0.07771406144309363   -0.0020323327681269344
-0.020810840846932598   -0.06659387411722811   -0.0017530805877484024
-0.027625443271980417   -0.06630560494069995   -0.0018760849653549822
-0.024502569839098164   -0.0774122081025594   -0.002326833132404079
-0.027513339929685774   -0.06625306601122236   -0.0016799389495842617
-0.018576095935692958   -0.07771406144309363   -0.0020323327681269344
-0.024307994388312156   -0.07736035634241895   -0.002076369804583989
-0.027513339929685774   -0.06625306601122236   -0.0016799389495842617
-0.024502569839098164   -0.0774122081025594   -0.002326833132404079
-0.018576095935692958   -0.07771406144309363   -0.0020323327681269344
-0.027513339929685774   -0.06625306601122236   -0.0016799389495842617
-0.020816065109956285   -0.06653198466367836   -0.0016201787633960956
-0.020810840846932598   -0.06659387411722811   -0.0017530805877484024
-0.018576095935692958   -0.07771406144309363   -0.0020323327681269344
-0.027513339929685774   -0.06625306601122236   -0.0016799389495842617
-0.020810840846932598   -0.06659387411722811   -0.0017530805877484024
-0.024502569839098164   -0.0774122081025594   -0.002326833132404079
-0.018576095935692958   -0.07771406144309363   -0.0020323327681269344
-0.020816065109956285   -0.06653198466367836   -0.0016201787633960956
-0.024307994388312156   -0.07736035634241895   -0.002076369804583989
-0.018545536585625917   -0.07769762534317715   -0.0018586677370246135
-0.020816065109956285   -0.06653198466367836   -0.0016201787633960956
-0.027513339929685774   -0.06625306601122236   -0.0016799389495842617
-0.024307994388312156   -0.07736035634241895   -0.002076369804583989
-0.027328090549430546   -0.0662538676108704   -0.0014713525350548633
-0.018545536585625917   -0.07769762534317715   -0.0018586677370246135
-0.024027042929423   -0.0773764311596812   -0.0018132956825395942
-0.027328090549430546   -0.0662538676108704   -0.0014713525350548633
-0.024307994388312156   -0.07736035634241895   -0.002076369804583989
-0.018545536585625917   -0.07769762534317715   -0.0018586677370246135
-0.027328090549430546   -0.0662538676108704   -0.0014713525350548633
-0.020830783929101745   -0.0665014600805621   -0.0014774122921545321
-0.020816065109956285   -0.06653198466367836   -0.0016201787633960956
-0.018545536585625917   -0.07769762534317715   -0.0018586677370246135
-0.027328090549430546   -0.0662538676108704   -0.0014713525350548633
-0.020816065109956285   -0.06653198466367836   -0.0016201787633960956
-0.024307994388312156   -0.07736035634241895   -0.002076369804583989
0.004901376656776587   -0.06700798661682639   -0.0007619110359326102
0.0058856893304826356   -0.054534388756501344   -0.00038760491063586223
-0.0017407210869370487   -0.06707573582538488   -0.0011196065636931334
0.0049652358885152   -0.06681738608407924   -0.0008698605826338895
0.0058856893304826356   -0.054534388756501344   -0.00038760491063586223
-0.0014845817750416522   -0.05453238318465852   -0.0007194020656809525
-0.0017407210869370487   -0.06707573582538488   -0.0011196065636931334
-0.0015508358590124718   -0.05437359847711913   -0.0007240972556588221
0.0049652358885152   -0.06681738608407924   -0.0008698605826338895
-0.001772216043108819   -0.06691162172910126   -0.0011561155233985347
-0.0015508358590124718   -0.05437359847711913   -0.0007240972556588221
-0.0017407210869370487   -0.06707573582538488   -0.0011196065636931334
0.0049652358885152   -0.06681738608407924   -0.0008698605826338895
-0.0015508358590124718   -0.05437359847711913   -0.0007240972556588221
0.0058636675944272925   -0.05435188885145016   -0.0004390897409157089
0.0058856893304826356   -0.054534388756501344   -0.00038760491063586223
0.0049652358885152   -0.06681738608407924   -0.0008698605826338895
-0.0015508358590124718   -0.05437359847711913   -0.0007240972556588221
0.0058856893304826356   -0.054534388756501344   -0.00038760491063586223
-0.0017407210869370487   -0.06707573582538488   -0.0011196065636931334
0.0049652358885152   -0.06681738608407924   -0.0008698605826338895
0.0058636675944272925   -0.05435188885145016   -0.0004390897409157089
-0.001772216043108819   -0.06691162172910126   -0.0011561155233985347
0.0049842891526157155   -0.06667817604169213   -0.0009640243929973757
0.0058636675944272925   -0.05435188885145016   -0.0004390897409157089
-0.0015508358590124718   -0.05437359847711913   -0.0007240972556588221
-0.001772216043108819   -0.06691162172910126   -0.0011561155233985347
-0.001624449914009723   -0.05423670161396482   -0.0007205173453443602
0.0049842891526157155   -0.06667817604169213   -0.0009640243929973757
-0.0018053466926570376   -0.06678154565664858   -0.0011832780410674921
-0.001624449914009723   -0.05423670161396482   -0.0007205173453443602
-0.001772216043108819   -0.06691162172910126   -0.0011561155233985347
0.0049842891526157155   -0.06667817604169213   -0.0009640243929973757
-0.001624449914009723   -0.05423670161396482   -0.0007205173453443602
0.005810036005261104   -0.05420474372978049   -0.0004773111379555005
0.0058636675944272925   -0.05435188885145016   -0.0004390897409157089
0.0049842891526157155   -0.06667817604169213   -0.0009640243929973757
-0.001624449914009723   -0.05423670161396482   -0.0007205173453443602
0.0058636675944272925   -0.05435188885145016   -0.0004390897409157089
-0.001772216043108819   -0.06691162172910126   -0.0011561155233985347
0.0049842891526157155   -0.06667817604169213   -0.0009640243929973757
0.005810036005261104   -0.05420474372978049   -0.0004773111379555005
-0.0018053466926570376   -0.06678154565664858   -0.0011832780410674921
0.0049945959511076094   -0.06656594524718915   -0.0010450532840019105
0.005810036005261104   -0.05420474372978049   -0.0004773111379555005
-0.001624449914009723   -0.05423670161396482   -0.0007205173453443602
-0.0018053466926570376   -0.06678154565664858   -0.0011832780410674921
-0.0017157005013139688   -0.0541181648553207   -0.0007083361051337813
0.0049945959511076094   -0.06656594524718915   -0.0010450532840019105
-0.001861535201745974   -0.06668144080366445   -0.0012014108443243311
-0.0017157005013139688   -0.0541181648553207   -0.0007083361051337813
-0.0018053466926570376   -0.06678154565664858   -0.0011832780410674921
0.0049945959511076094   -0.06656594524718915   -0.0010450532840019105
-0.0017157005013139688   -0.0541181648553207   -0.0007083361051337813
0.005735271375524049   -0.054069092313660326   -0.000503195229832533
0.005810036005261104   -0.05420474372978049   -0.0004773111379555005
0.0049945959511076094   -0.06656594524718915   -0.0010450532840019105
-0.0017157005013139688   -0.0541181648553207   -0.0007083361051337813
0.005810036005261104   -0.05420474372978049   -0.0004773111379555005
-0.0018053466926570376   -0.06678154565664858   -0.0011832780410674921
-0.0017407210869370487   -0.06707573582538488   -0.0011196065636931334
-0.0014845817750416522   -0.05453238318465852   -0.0007194020656809525
-0.008106700047482058   -0.06704054727323015   -0.0014144619921558153
-0.001772216043108819   -0.06691162172910126   -0.0011561155233985347
-0.0014845817750416522   -0.05453238318465852   -0.0007194020656809525
-0.008514167941679593   -0.054465657265577165   -0.000993587765176523
-0.008106700047482058   -0.06704054727323015   -0.0014144619921558153
-0.008588197455067876   -0.05433370177093858   -0.0009647667383930032
-0.001772216043108819   -0.06691162172910126   -0.0011561155233985347
-0.008150208740180158   -0.06690327541011869   -0.0013972881020515133
-0.008588197455067876   -0.05433370177093858   -0.0009647667383930032
-0.008106700047482058   -0.06704054727323015   -0.0014144619921558153
-0.001772216043108819   -0.06691162172910126   -0.0011561155233985347
-0.008588197455067876   -0.05433370177093858   -0.0009647667383930032
-0.0015508358590124718   -0.05437359847711913   -0.0007240972556588221
-0.0014845817750416522   -0.05453238318465852   -0.0007194020656809525
-0.001772216043108819   -0.06691162172910126   -0.0011561155233985347
-0.008588197455067876   -0.05433370177093858   -0.0009647667383930032
-0.0014845817750416522   -0.05453238318465852   -0.0007194020656809525
-0.008106700047482058   -0.06704054727323015   -0.0014144619921558153
-0.001772216043108819   -0.06691162172910126   -0.0011561155233985347
-0.0015508358590124718   -0.05437359847711913   -0.0007240972556588221
-0.008150208740180158   -0.06690327541011869   -0.0013972881020515133
-0.0018053466926570376   -0.06678154565664858   -0.0011832780410674921
-0.0015508358590124718   -0.05437359847711913   -0.0007240972556588221
-0.008588197455067876   -0.05433370177093858   -0.0009647667383930032
-0.008150208740180158   -0.06690327541011869   -0.0013972881020515133
-0.00866370811913908   -0.05421956537674875   -0.0009273292191830857
-0.0018053466926570376   -0.06678154565664858   -0.0011832780410674921
-0.008194313317248007   -0.06679518435234974   -0.0013704953481713082
-0.00866370811913908   -0.05421956537674875   -0.0009273292191830857
-0.008150208740180158   -0.06690327541011869   -0.0013972881020515133
-0.0018053466926570376   -0.06678154565664858   -0.0011832780410674921
-0.00866370811913908   -0.05421956537674875   -0.0009273292191830857
-0.001624449914009723   -0.05423670161396482   -0.0007205173453443602
-0.0015508358590124718   -0.05437359847711913   -0.0007240972556588221
-0.0018053466926570376   -0.06678154565664858   -0.0011832780410674921
-0.00866370811913908   -0.05421956537674875   -0.0009273292191830857
-0.0015508358590124718   -0.05437359847711913   -0.0007240972556588221
-0.008150208740180158   -0.06690327541011869   -0.0013972881020515133
-0.0018053466926570376   -0.06678154565664858   -0.0011832780410674921
-0.001624449914009723   -0.05423670161396482   -0.0007205173453443602
-0.008194313317248007   -0.06679518435234974   -0.0013704953481713082
-0.001861535201745974   -0.06668144080366445   -0.0012014108443243311
-0.001624449914009723   -0.05423670161396482   -0.0007205173453443602
-0.00866370811913908   -0.05421956537674875   -0.0009273292191830857
-0.008194313317248007   -0.06679518435234974   -0.0013704953481713082
-0.00874558487355901   -0.05412431588828791   -0.000881675413751743
-0.001861535201745974   -0.06668144080366445   -0.0012014108443243311
-0.008245259365966196   -0.06671677123915681   -0.0013345435868226255
-0.00874558487355901   -0.05412431588828791   -0.000881675413751743
-0.008194313317248007   -0.06679518435234974   -0.0013704953481713082
-0.001861535201745974   -0.06668144080366445   -0.0012014108443243311
-0.00874558487355901   -0.05412431588828791   -0.000881675413751743
-0.0017157005013139688   -0.0541181648553207   -0.0007083361051337813
-0.001624449914009723   -0.05423670161396482   -0.0007205173453443602
-0.001861535201745974   -0.06668144080366445   -0.0012014108443243311
-0.00874558487355901   -0.05412431588828791   -0.000881675413751743
-0.001624449914009723   -0.05423670161396482   -0.0007205173453443602
-0.008194313317248007   -0.06679518435234974   -0.0013704953481713082
-0.008106700047482058   -0.06704054727323015   -0.0014144619921558153
-0.008514167941679593   -0.054465657265577165   -0.000993587765176523
-0.014364896850902814   -0.0669087088710018   -0.0016668968852015871
-0.008150208740180158   -0.06690327541011869   -0.0013972881020515133
-0.008514167941679593   -0.054465657265577165   -0.000993587765176523
-0.015424876839434396   -0.054341449292109656   -0.0012250966274982018
-0.014364896850902814   -0.0669087088710018   -0.0016668968852015871
-0.015501050999687493   -0.0542342516972123   -0.001162808519958989
-0.008150208740180158   -0.06690327541011869   -0.0013972881020515133
-0.014411799407255914   -0.06679585170991764   -0.0015962919525149338
-0.015501050999687493   -0.0542342516972123   -0.001162808519958989
-0.014364896850902814   -0.0669087088710018   -0.0016668968852015871
-0.008150208740180158   -0.06690327541011869   -0.0013972881020515133
-0.015501050999687493   -0.0542342516972123   -0.001162808519958989
-0.008588197455067876   -0.05433370177093858   -0.0009647667383930032
-0.008514167941679593   -0.054465657265577165   -0.000993587765176523
-0.008150208740180158   -0.06690327541011869   -0.0013972881020515133
-0.015501050999687493   -0.0542342516972123   -0.001162808519958989
-0.008514167941679593   -0.054465657265577165   -0.000993587765176523
-0.014364896850902814   -0.0669087088710018   -0.0016668968852015871
-0.008150208740180158   -0.06690327541011869   -0.0013972881020515133
-0.008588197455067876   -0.05433370177093858   -0.0009647667383930032
-0.014411799407255914   -0.06679585170991764   -0.0015962919525149338
-0.008194313317248007   -0.06679518435234974   -0.0013704953481713082
-0.008588197455067876   -0.05433370177093858   -0.0009647667383930032
-0.015501050999687493   -0.0542342516972123   -0.001162808519958989
-0.014411799407255914   -0.06679585170991764   -0.0015962919525149338
-0.015570173776447241   -0.05414474711997354   -0.0010921035155826882
-0.008194313317248007   -0.06679518435234974   -0.0013704953481713082
-0.014450685885396462   -0.06671189603128873   -0.0015162364097296597
-0.015570173776447241   -0.05414474711997354   -0.0010921035155826882
-0.014411799407255914   -0.06679585170991764   -0.0015962919525149338
-0.008194313317248007   -0.06679518435234974   -0.0013704953481713082
-0.015570173776447241   -0.05414474711997354   -0.0010921035155826882
-0.00866370811913908   -0.05421956537674875   -0.0009273292191830857
-0.008588197455067876   -0.05433370177093858   -0.0009647667383930032
-0.008194313317248007   -0.06679518435234974   -0.0013704953481713082
-0.015570173776447241   -0.05414474711997354   -0.0010921035155826882
-0.008588197455067876   -0.05433370177093858   -0.0009647667383930032
-0.014411799407255914   -0.06679585170991764   -0.0015962919525149338
-0.008194313317248007   -0.06679518435234974   -0.0013704953481713082
-0.00866370811913908   -0.05421956537674875   -0.0009273292191830857
-0.014450685885396462   -0.06671189603128873   -0.0015162364097296597
-0.008245259365966196   -0.06671677123915681   -0.0013345435868226255
-0.00866370811913908   -0.05421956537674875   -0.0009273292191830857
-0.015570173776447241   -0.05414474711997354   -0.0010921035155826882
-0.014450685885396462   -0.06671189603128873   -0.0015162364097296597
-0.01563994939230788   -0.05407308945031985   -0.0010133040076402144
-0.008245259365966196   -0.06671677123915681   -0.0013345435868226255
-0.014490694060383556   -0.06665672217763337   -0.00142700973823011
-0.01563994939230788   -0.05407308945031985   -0.0010133040076402144
-0.014450685885396462   -0.06671189603128873   -0.0015162364097296597
-0.008245259365966196   -0.06671677123915681   -0.0013345435868226255
-0.01563994939230788   -0.05407308945031985   -0.0010133040076402144
-0.00874558487355901   -0.05412431588828791   -0.000881675413751743
-0.00866370811913908   -0.05421956537674875   -0.0009273292191830857
-0.008245259365966196   -0.06671677123915681   -0.0013345435868226255
-0.01563994939230788   -0.05407308945031985   -0.0010133040076402144
-0.00866370811913908   -0.05421956537674875   -0.0009273292191830857
-0.014450685885396462   -0.06671189603128873   -0.0015162364097296597
-0.014364896850902814   -0.0669087088710018   -0.0016668968852015871
-0.015424876839434396   -0.054341449292109656   -0.0012250966274982018
-0.02077196644305506   -0.06668286393537269   -0.0018778401749569027
-0.014411799407255914   -0.06679585170991764   -0.0015962919525149338
-0.015424876839434396   -0.054341449292109656   -0.0012250966274982018
-0.022472373747556788   -0.05415711106206577   -0.0014144256942384156
-0.02077196644305506   -0.06668286393537269   -0.0018778401749569027
-0.022543139170794032   -0.05407489247931038   -0.001318416702294681
-0.014411799407255914   -0.06679585170991764   -0.0015962919525149338
-0.020810840846932598   -0.06659387411722811   -0.0017530805877484024
-0.022543139170794032   -0.05407489247931038   -0.001318416702294681
-0.02077196644305506   -0.06668286393537269   -0.0018778401749569027
-0.014411799407255914   -0.06679585170991764   -0.0015962919525149338
-0.022543139170794032   -0.05407489247931038   -0.001318416702294681
-0.015501050999687493   -0.0542342516972123   -0.001162808519958989
-0.015424876839434396   -0.054341449292109656   -0.0012250966274982018
-0.014411799407255914   -0.06679585170991764   -0.0015962919525149338
-0.022543139170794032   -0.05407489247931038   -0.001318416702294681
-0.015424876839434396   -0.054341449292109656   -0.0012250966274982018
-0.02077196644305506   -0.06668286393537269   -0.0018778401749569027
-0.014411799407255914   -0.06679585170991764   -0.0015962919525149338
-0.015501050999687493   -0.0542342516972123   -0.001162808519958989
-0.020810840846932598   -0.06659387411722811   -0.0017530805877484024
-0.014450685885396462   -0.06671189603128873   -0.0015162364097296597
-0.015501050999687493   -0.0542342516972123   -0.001162808519958989
-0.022543139170794032   -0.05407489247931038   -0.001318416702294681
-0.020810840846932598   -0.06659387411722811   -0.0017530805877484024
-0.022586148745847183   -0.05400808148089307   -0.0012151298465562196
-0.014450685885396462   -0.06671189603128873   -0.0015162364097296597
-0.020816065109956285   -0.06653198466367836   -0.0016201787633960956
-0.022586148745847183   -0.05400808148089307   -0.0012151298465562196
-0.020810840846932598   -0.06659387411722811   -0.0017530805877484024
-0.014450685885396462   -0.06671189603128873   -0.0015162364097296597
-0.022586148745847183   -0.05400808148089307   -0.0012151298465562196
-0.015570173776447241   -0.05414474711997354   -0.0010921035155826882
-0.015501050999687493   -0.0542342516972123   -0.001162808519958989
-0.014450685885396462   -0.06671189603128873   -0.0015162364097296597
-0.022586148745847183   -0.05400808148089307   -0.0012151298465562196
-0.015501050999687493   -0.0542342516972123   -0.001162808519958989
-0.020810840846932598   -0.06659387411722811   -0.0017530805877484024
-0.014450685885396462   -0.06671189603128873   -0.0015162364097296597
-0.015570173776447241   -0.05414474711997354   -0.0010921035155826882
-0.020816065109956285   -0.06653198466367836   -0.0016201787633960956
-0.014490694060383556   -0.06665672217763337   -0.00142700973823011
-0.015570173776447241   -0.05414474711997354   -0.0010921035155826882
-0.022586148745847183   -0.05400808148089307   -0.0012151298465562196
-0.020816065109956285   -0.06653198466367836   -0.0016201787633960956
-0.02263331395558456   -0.05396065808646903   -0.001103058767059325
-0.014490694060383556   -0.06665672217763337   -0.00142700973823011
-0.020830783929101745   -0.0665014600805621   -0.0014774122921545321
-0.02263331395558456   -0.05396065808646903   -0.001103058767059325
-0.020816065109956285   -0.06653198466367836   -0.0016201787633960956
-0.014490694060383556   -0.06665672217763337   -0.00142700973823011
-0.02263331395558456   -0.05396065808646903   -0.001103058767059325
-0.01563994939230788   -0.05407308945031985   -0.0010133040076402144
-0.015570173776447241   -0.05414474711997354   -0.0010921035155826882
-0.014490694060383556   -0.06665672217763337   -0.00142700973823011
-0.02263331395558456   -0.05396065808646903   -0.001103058767059325
-0.015570173776447241   -0.05414474711997354   -0.0010921035155826882
-0.020816065109956285   -0.06653198466367836   -0.0016201787633960956
-0.02077196644305506   -0.06668286393537269   -0.0018778401749569027
-0.022472373747556788   -0.05415711106206577   -0.0014144256942384156
-0.027758353953834542   -0.06638689055889897   -0.002058020925073553
-0.020810840846932598   -0.06659387411722811   -0.0017530805877484024
-0.022472373747556788   -0.05415711106206577   -0.0014144256942384156
-0.030035441921427892   -0.05393059063645672   -0.0015650846097932268
-0.027758353953834542   -0.06638689055889897   -0.002058020925073553
-0.02998424795522681   -0.05386120472925795   -0.001437336411458091
-0.020810840846932598   -0.06659387411722811   -0.0017530805877484024
-0.027625443271980417   -0.06630560494069995   -0.0018760849653549822
-0.02998424795522681   -0.05386120472925795   -0.001437336411458091
-0.027758353953834542   -0.06638689055889897   -0.002058020925073553
-0.020810840846932598   -0.06659387411722811   -0.0017530805877484024
-0.02998424795522681   -0.05386120472925795   -0.001437336411458091
-0.022543139170794032   -0.05407489247931038   -0.001318416702294681
-0.022472373747556788   -0.05415711106206577   -0.0014144256942384156
-0.020810840846932598   -0.06659387411722811   -0.0017530805877484024
-0.02998424795522681   -0.05386120472925795   -0.001437336411458091
-0.022472373747556788   -0.05415711106206577   -0.0014144256942384156
-0.027758353953834542   -0.06638689055889897   -0.002058020925073553
-0.020810840846932598   -0.06659387411722811   -0.0017530805877484024
-0.022543139170794032   -0.05407489247931038   -0.001318416702294681
-0.027625443271980417   -0.06630560494069995   -0.0018760849653549822
-0.020816065109956285   -0.06653198466367836   -0.0016201787633960956
-0.022543139170794032   -0.05407489247931038   -0.001318416702294681
-0.02998424795522681   -0.05386120472925795   -0.001437336411458091
-0.027625443271980417   -0.06630560494069995   -0.0018760849653549822
-0.029942540461218102   -0.05380508144005674   -0.0012962342947179183
-0.020816065109956285   -0.06653198466367836   -0.0016201787633960956
-0.027513339929685774   -0.06625306601122236   -0.0016799389495842617
-0.029942540461218102   -0.05380508144005674   -0.0012962342947179183
-0.027625443271980417   -0.06630560494069995   -0.0018760849653549822
-0.020816065109956285   -0.06653198466367836   -0.0016201787633960956
-0.029942540461218102   -0.05380508144005674   -0.0012962342947179183
-0.022586148745847183   -0.05400808148089307   -0.0012151298465562196
-0.022543139170794032   -0.05407489247931038   -0.001318416702294681
-0.020816065109956285   -0.06653198466367836   -0.0016201787633960956
-0.029942540461218102   -0.05380508144005674   -0.0012962342947179183
-0.022543139170794032   -0.05407489247931038   -0.001318416702294681
-0.027625443271980417   -0.06630560494069995   -0.0018760849653549822
-0.020816065109956285   -0.06653198466367836   -0.0016201787633960956
-0.022586148745847183   -0.05400808148089307   -0.0012151298465562196
-0.027513339929685774   -0.06625306601122236   -0.0016799389495842617
-0.020830783929101745   -0.0665014600805621   -0.0014774122921545321
-0.022586148745847183   -0.05400808148089307   -0.0012151298465562196
-0.029942540461218102   -0.05380508144005674   -0.0012962342947179183
-0.027513339929685774   -0.06625306601122236   -0.0016799389495842617
-0.02984158684303301   -0.053786671713048684   -0.0011433024191346778
-0.020830783929101745   -0.0665014600805621   -0.0014774122921545321
-0.027328090549430546   -0.0662538676108704   -0.0014713525350548633
-0.02984158684303301   -0.053786671713048684   -0.0011433024191346778
-0.027513339929685774   -0.06625306601122236   -0.0016799389495842617
-0.020830783929101745   -0.0665014600805621   -0.0014774122921545321
-0.02984158684303301   -0.053786671713048684   -0.0011433024191346778
-0.02263331395558456   -0.05396065808646903   -0.001103058767059325
-0.022586148745847183   -0.05400808148089307   -0.0012151298465562196
-0.020830783929101745   -0.0665014600805621   -0.0014774122921545321
-0.02984158684303301   -0.053786671713048684   -0.0011433024191346778
-0.022586148745847183   -0.05400808148089307   -0.0012151298465562196
-0.027513339929685774   -0.06625306601122236   -0.0016799389495842617
0.0058856893304826356   -0.054534388756501344   -0.00038760491063586223
0.006077506864645045   -0.04120515392699336   -5.9691048730361754e-05
-0.0014845817750416522   -0.05453238318465852   -0.0007194020656809525
0.0058636675944272925   -0.05435188885145016   -0.0004390897409157089
0.006077506864645045   -0.04120515392699336   -5.9691048730361754e-05
-0.0017078138826388707   -0.04113625852856396   -0.000358201028537655
-0.0014845817750416522   -0.05453238318465852   -0.0007194020656809525
-0.0017986021399764775   -0.04098422542271084   -0.0003311369277562217
0.0058636675944272925   -0.05435188885145016   -0.0004390897409157089
-0.0015508358590124718   -0.05437359847711913   -0.0007240972556588221
-0.0017986021399764775   -0.04098422542271084   -0.0003311369277562217
-0.0014845817750416522   -0.05453238318465852   -0.0007194020656809525
0.0058636675944272925   -0.05435188885145016   -0.0004390897409157089
-0.0017986021399764775   -0.04098422542271084   -0.0003311369277562217
0.005980749610689416   -0.04103100095976968   -5.3796571110077996e-05
0.006077506864645045   -0.04120515392699336   -5.9691048730361754e-05
0.0058636675944272925   -0.05435188885145016   -0.0004390897409157089
-0.0017986021399764775   -0.04098422542271084   -0.0003311369277562217
0.006077506864645045   -0.04120515392699336   -5.9691048730361754e-05
-0.0014845817750416522   -0.05453238318465852   -0.0007194020656809525
0.0058636675944272925   -0.05435188885145016   -0.0004390897409157089
0.005980749610689416   -0.04103100095976968   -5.3796571110077996e-05
-0.0015508358590124718   -0.05437359847711913   -0.0007240972556588221
0.005810036005261104   -0.05420474372978049   -0.0004773111379555005
0.005980749610689416   -0.04103100095976968   -5.3796571110077996e-05
-0.0017986021399764775   -0.04098422542271084   -0.0003311369277562217
-0.0015508358590124718   -0.05437359847711913   -0.0007240972556588221
-0.0019025097630299167   -0.04084056780547032   -0.0002965808199492782
0.005810036005261104   -0.05420474372978049   -0.0004773111379555005
-0.001624449914009723   -0.05423670161396482   -0.0007205173453443602
-0.0019025097630299167   -0.04084056780547032   -0.0002965808199492782
-0.0015508358590124718   -0.05437359847711913   -0.0007240972556588221
0.005810036005261104   -0.05420474372978049   -0.0004773111379555005
-0.0019025097630299167   -0.04084056780547032   -0.0002965808199492782
0.005862303215608409   -0.04087513381726922   -3.258604667845145e-05
0.005980749610689416   -0.04103100095976968   -5.3796571110077996e-05
0.005810036005261104   -0.05420474372978049   -0.0004773111379555005
-0.0019025097630299167   -0.04084056780547032   -0.0002965808199492782
0.005980749610689416   -0.04103100095976968   -5.3796571110077996e-05
-0.0015508358590124718   -0.05437359847711913   -0.0007240972556588221
0.005810036005261104   -0.05420474372978049   -0.0004773111379555005
0.005862303215608409   -0.04087513381726922   -3.258604667845145e-05
-0.001624449914009723   -0.05423670161396482   -0.0007205173453443602
0.005735271375524049   -0.054069092313660326   -0.000503195229832533
0.005862303215608409   -0.04087513381726922   -3.258604667845145e-05
-0.0019025097630299167   -0.04084056780547032   -0.0002965808199492782
-0.001624449914009723   -0.05423670161396482   -0.0007205173453443602
-0.002019054858576379   -0.04070332805627386   -0.0002526531202088824
0.005735271375524049   -0.054069092313660326   -0.000503195229832533
-0.0017157005013139688   -0.0541181648553207   -0.0007083361051337813
-0.002019054858576379   -0.04070332805627386   -0.0002526531202088824
-0.001624449914009723   -0.05423670161396482   -0.0007205173453443602
0.005735271375524049   -0.054069092313660326   -0.000503195229832533
-0.002019054858576379   -0.04070332805627386   -0.0002526531202088824
0.005706252983800594   -0.04071196588924768   3.2450309356867946e-06
0.005862303215608409   -0.04087513381726922   -3.258604667845145e-05
0.005735271375524049   -0.054069092313660326   -0.000503195229832533
-0.002019054858576379   -0.04070332805627386   -0.0002526531202088824
0.005862303215608409   -0.04087513381726922   -3.258604667845145e-05
-0.001624449914009723   -0.05423670161396482   -0.0007205173453443602
-0.0014845817750416522   -0.05453238318465852   -0.0007194020656809525
-0.0017078138826388707   -0.04113625852856396   -0.000358201028537655
-0.008514167941679593   -0.054465657265577165   -0.000993587765176523
-0.0015508358590124718   -0.05437359847711913   -0.0007240972556588221
-0.0017078138826388707   -0.04113625852856396   -0.000358201028537655
-0.009084911894229322   -0.041056398972561574   -0.0006111817548734574
-0.008514167941679593   -0.054465657265577165   -0.000993587765176523
-0.009177414586156316   -0.04092908607743212   -0.0005699982108467592
-0.0015508358590124718   -0.05437359847711913   -0.0007240972556588221
-0.008588197455067876   -0.05433370177093858   -0.0009647667383930032
-0.009177414586156316   -0.04092908607743212   -0.0005699982108467592
-0.008514167941679593   -0.054465657265577165   -0.000993587765176523
-0.0015508358590124718   -0.05437359847711913   -0.0007240972556588221
-0.009177414586156316   -0.04092908607743212   -0.0005699982108467592
-0.0017986021399764775   -0.04098422542271084   -0.0003311369277562217
-0.0017078138826388707   -0.04113625852856396   -0.000358201028537655
-0.0015508358590124718   -0.05437359847711913   -0.0007240972556588221
-0.009177414586156316   -0.04092908607743212   -0.0005699982108467592
-0.0017078138826388707   -0.04113625852856396   -0.000358201028537655
-0.008514167941679593   -0.054465657265577165   -0.000993587765176523
-0.0015508358590124718   -0.05437359847711913   -0.0007240972556588221
-0.0017986021399764775   -0.04098422542271084   -0.0003311369277562217
-0.008588197455067876   -0.05433370177093858   -0.0009647667383930032
-0.001624449914009723   -0.05423670161396482   -0.0007205173453443602
-0.0017986021399764775   -0.04098422542271084   -0.0003311369277562217
-0.009177414586156316   -0.04092908607743212   -0.0005699982108467592
-0.008588197455067876   -0.05433370177093858   -0.0009647667383930032
-0.009271975072165286   -0.040808278075088446   -0.0005216814495801865
-0.001624449914009723   -0.05423670161396482   -0.0007205173453443602
-0.00866370811913908   -0.05421956537674875   -0.0009273292191830857
-0.009271975072165286   -0.040808278075088446   -0.0005216814495801865
-0.008588197455067876   -0.05433370177093858   -0.0009647667383930032
-0.001624449914009723   -0.05423670161396482   -0.0007205173453443602
-0.009271975072165286   -0.040808278075088446   -0.0005216814495801865
-0.0019025097630299167   -0.04084056780547032   -0.0002965808199492782
-0.0017986021399764775   -0.04098422542271084   -0.0003311369277562217
-0.001624449914009723   -0.05423670161396482   -0.0007205173453443602
-0.009271975072165286   -0.040808278075088446   -0.0005216814495801865
-0.0017986021399764775   -0.04098422542271084   -0.0003311369277562217
-0.008588197455067876   -0.05433370177093858   -0.0009647667383930032
-0.001624449914009723   -0.05423670161396482   -0.0007205173453443602
-0.0019025097630299167   -0.04084056780547032   -0.0002965808199492782
-0.00866370811913908   -0.05421956537674875   -0.0009273292191830857
-0.0017157005013139688   -0.0541181648553207   -0.0007083361051337813
-0.0019025097630299167   -0.04084056780547032   -0.0002965808199492782
-0.009271975072165286   -0.040808278075088446   -0.0005216814495801865
-0.00866370811913908   -0.05421956537674875   -0.0009273292191830857
-0.009372527531561805   -0.04069582567279784   -0.00046614933375375604
-0.0017157005013139688   -0.0541181648553207   -0.0007083361051337813
-0.00874558487355901   -0.05412431588828791   -0.000881675413751743
-0.009372527531561805   -0.04069582567279784   -0.00046614933375375604
-0.00866370811913908   -0.05421956537674875   -0.0009273292191830857
-0.0017157005013139688   -0.0541181648553207   -0.0007083361051337813
-0.009372527531561805   -0.04069582567279784   -0.00046614933375375604
-0.002019054858576379   -0.04070332805627386   -0.0002526531202088824
-0.0019025097630299167   -0.04084056780547032   -0.0002965808199492782
-0.0017157005013139688   -0.0541181648553207   -0.0007083361051337813
-0.009372527531561805   -0.04069582567279784   -0.00046614933375375604
-0.0019025097630299167   -0.04084056780547032   -0.0002965808199492782
-0.00866370811913908   -0.05421956537674875   -0.0009273292191830857
-0.008514167941679593   -0.054465657265577165   -0.000993587765176523
-0.009084911894229322   -0.041056398972561574   -0.0006111817548734574
-0.015424876839434396   -0.054341449292109656   -0.0012250966274982018
-0.008588197455067876   -0.05433370177093858   -0.0009647667383930032
-0.009084911894229322   -0.041056398972561574   -0.0006111817548734574
-0.016342226271615343   -0.040960833592616   -0.0008262344595358632
-0.015424876839434396   -0.054341449292109656   -0.0012250966274982018
-0.016434015732628683   -0.04085645308510334   -0.000770924120607423
-0.008588197455067876   -0.05433370177093858   -0.0009647667383930032
-0.015501050999687493   -0.0542342516972123   -0.001162808519958989
-0.016434015732628683   -0.04085645308510334   -0.000770924120607423
-0.015424876839434396   -0.054341449292109656   -0.0012250966274982018
-0.008588197455067876   -0.05433370177093858   -0.0009647667383930032
-0.016434015732628683   -0.04085645308510334   -0.000770924120607423
-0.009177414586156316   -0.04092908607743212   -0.0005699982108467592
-0.009084911894229322   -0.041056398972561574   -0.0006111817548734574
-0.008588197455067876   -0.05433370177093858   -0.0009647667383930032
-0.016434015732628683   -0.04085645308510334   -0.000770924120607423
-0.009084911894229322   -0.041056398972561574   -0.0006111817548734574
-0.015424876839434396   -0.054341449292109656   -0.0012250966274982018
-0.008588197455067876   -0.05433370177093858   -0.0009647667383930032
-0.009177414586156316   -0.04092908607743212   -0.0005699982108467592
-0.015501050999687493   -0.0542342516972123   -0.001162808519958989
-0.00866370811913908   -0.05421956537674875   -0.0009273292191830857
-0.009177414586156316   -0.04092908607743212   -0.0005699982108467592
-0.016434015732628683   -0.04085645308510334   -0.000770924120607423
-0.015501050999687493   -0.0542342516972123   -0.001162808519958989
-0.016519878871297546   -0.040758954884187584   -0.0007087247669131756
-0.00866370811913908   -0.05421956537674875   -0.0009273292191830857
-0.015570173776447241   -0.05414474711997354   -0.0010921035155826882
-0.016519878871297546   -0.040758954884187584   -0.0007087247669131756
-0.015501050999687493   -0.0542342516972123   -0.001162808519958989
-0.00866370811913908   -0.05421956537674875   -0.0009273292191830857
-0.016519878871297546   -0.040758954884187584   -0.0007087247669131756
-0.009271975072165286   -0.040808278075088446   -0.0005216814495801865
-0.009177414586156316   -0.04092908607743212   -0.0005699982108467592
-0.00866370811913908   -0.05421956537674875   -0.0009273292191830857
-0.016519878871297546   -0.040758954884187584   -0.0007087247669131756
-0.009177414586156316   -0.04092908607743212   -0.0005699982108467592
-0.015501050999687493   -0.0542342516972123   -0.001162808519958989
-0.00866370811913908   -0.05421956537674875   -0.0009273292191830857
-0.009271975072165286   -0.040808278075088446   -0.0005216814495801865
-0.015570173776447241   -0.05414474711997354   -0.0010921035155826882
-0.00874558487355901   -0.05412431588828791   -0.000881675413751743
-0.009271975072165286   -0.040808278075088446   -0.0005216814495801865
-0.016519878871297546   -0.040758954884187584   -0.0007087247669131756
-0.015570173776447241   -0.05414474711997354   -0.0010921035155826882
-0.016606048730083568   -0.04066861225038064   -0.0006399791226548223
-0.00874558487355901   -0.05412431588828791   -0.000881675413751743
-0.01563994939230788   -0.05407308945031985   -0.0010133040076402144
-0.016606048730083568   -0.04066861225038064   -0.0006399791226548223
-0.015570173776447241   -0.05414474711997354   -0.0010921035155826882
-0.00874558487355901   -0.05412431588828791   -0.000881675413751743
-0.016606048730083568   -0.04066861225038064   -0.0006399791226548223
-0.009372527531561805   -0.04069582567279784   -0.00046614933375375604
-0.009271975072165286   -0.040808278075088446   -0.0005216814495801865
-0.00874558487355901   -0.05412431588828791   -0.000881675413751743
-0.016606048730083568   -0.04066861225038064   -0.0006399791226548223
-0.009271975072165286   -0.040808278075088446   -0.0005216814495801865
-0.015570173776447241   -0.05414474711997354   -0.0010921035155826882
-0.015424876839434396   -0.054341449292109656   -0.0012250966274982018
-0.016342226271615343   -0.040960833592616   -0.0008262344595358632
-0.022472373747556788   -0.05415711106206577   -0.0014144256942384156
-0.015501050999687493   -0.0542342516972123   -0.001162808519958989
-0.016342226271615343   -0.040960833592616   -0.0008262344595358632
-0.023730488165974912   -0.040831769475314895   -0.0010015245535232873
-0.022472373747556788   -0.05415711106206577   -0.0014144256942384156
-0.023818404697781285   -0.040751518722675587   -0.0009322544237042136
-0.015501050999687493   -0.0542342516972123   -0.001162808519958989
-0.022543139170794032   -0.05407489247931038   -0.001318416702294681
-0.023818404697781285   -0.040751518722675587   -0.0009322544237042136
-0.022472373747556788   -0.05415711106206577   -0.0014144256942384156
-0.015501050999687493   -0.0542342516972123   -0.001162808519958989
-0.023818404697781285   -0.040751518722675587   -0.0009322544237042136
-0.016434015732628683   -0.04085645308510334   -0.000770924120607423
-0.016342226271615343   -0.040960833592616   -0.0008262344595358632
-0.015501050999687493   -0.0542342516972123   -0.001162808519958989
-0.023818404697781285   -0.040751518722675587   -0.0009322544237042136
-0.016342226271615343   -0.040960833592616   -0.0008262344595358632
-0.022472373747556788   -0.05415711106206577   -0.0014144256942384156
-0.015501050999687493   -0.0542342516972123   -0.001162808519958989
-0.016434015732628683   -0.04085645308510334   -0.000770924120607423
-0.022543139170794032   -0.05407489247931038   -0.001318416702294681
-0.015570173776447241   -0.05414474711997354   -0.0010921035155826882
-0.016434015732628683   -0.04085645308510334   -0.000770924120607423
-0.023818404697781285   -0.040751518722675587   -0.0009322544237042136
-0.022543139170794032   -0.05407489247931038   -0.001318416702294681
-0.023885155494171244   -0.04067547440009015   -0.0008572392588825808
-0.015570173776447241   -0.05414474711997354   -0.0010921035155826882
-0.022586148745847183   -0.05400808148089307   -0.0012151298465562196
-0.023885155494171244   -0.04067547440009015   -0.0008572392588825808
-0.022543139170794032   -0.05407489247931038   -0.001318416702294681
-0.015570173776447241   -0.05414474711997354   -0.0010921035155826882
-0.023885155494171244   -0.04067547440009015   -0.0008572392588825808
-0.016519878871297546   -0.040758954884187584   -0.0007087247669131756
-0.016434015732628683   -0.04085645308510334   -0.000770924120607423
-0.015570173776447241   -0.05414474711997354   -0.0010921035155826882
-0.023885155494171244   -0.04067547440009015   -0.0008572392588825808
-0.016434015732628683   -0.04085645308510334   -0.000770924120607423
-0.022543139170794032   -0.05407489247931038   -0.001318416702294681
-0.015570173776447241   -0.05414474711997354   -0.0010921035155826882
-0.016519878871297546   -0.040758954884187584   -0.0007087247669131756
-0.022586148745847183   -0.05400808148089307   -0.0012151298465562196
-0.01563994939230788   -0.05407308945031985   -0.0010133040076402144
-0.016519878871297546   -0.040758954884187584   -0.0007087247669131756
-0.023885155494171244   -0.04067547440009015   -0.0008572392588825808
-0.022586148745847183   -0.05400808148089307   -0.0012151298465562196
-0.023951362488147422   -0.04060697329701048   -0.0007749739707812654
-0.01563994939230788   -0.05407308945031985   -0.0010133040076402144
-0.02263331395558456   -0.05396065808646903   -0.001103058767059325
-0.023951362488147422   -0.04060697329701048   -0.0007749739707812654
-0.022586148745847183   -0.05400808148089307   -0.0012151298465562196
-0.01563994939230788   -0.05407308945031985   -0.0010133040076402144
-0.023951362488147422   -0.04060697329701048   -0.0007749739707812654
-0.016606048730083568   -0.04066861225038064   -0.0006399791226548223
-0.016519878871297546   -0.040758954884187584   -0.0007087247669131756
-0.01563994939230788   -0.05407308945031985   -0.0010133040076402144
-0.023951362488147422   -0.04060697329701048   -0.0007749739707812654
-0.016519878871297546   -0.040758954884187584   -0.0007087247669131756
-0.022586148745847183   -0.05400808148089307   -0.0012151298465562196
-0.022472373747556788   -0.05415711106206577   -0.0014144256942384156
-0.023730488165974912   -0.040831769475314895   -0.0010015245535232873
-0.030035441921427892   -0.05393059063645672   -0.0015650846097932268
-0.022543139170794032   -0.05407489247931038   -0.001318416702294681
-0.023730488165974912   -0.040831769475314895   -0.0010015245535232873
-0.031560038290537246   -0.04067951137223972   -0.0011318645687908749
-0.030035441921427892   -0.05393059063645672   -0.0015650846097932268
-0.03157405816414121   -0.040615320671684746   -0.0010555195458568803
-0.022543139170794032   -0.05407489247931038   -0.001318416702294681
-0.02998424795522681   -0.05386120472925795   -0.001437336411458091
-0.03157405816414121   -0.040615320671684746   -0.0010555195458568803
-0.030035441921427892   -0.05393059063645672   -0.0015650846097932268
-0.022543139170794032   -0.05407489247931038   -0.001318416702294681
-0.03157405816414121   -0.040615320671684746   -0.0010555195458568803
-0.023818404697781285   -0.040751518722675587   -0.0009322544237042136
-0.023730488165974912   -0.040831769475314895   -0.0010015245535232873
-0.022543139170794032   -0.05407489247931038   -0.001318416702294681
-0.03157405816414121   -0.040615320671684746   -0.0010555195458568803
-0.023730488165974912   -0.040831769475314895   -0.0010015245535232873
-0.030035441921427892   -0.05393059063645672   -0.0015650846097932268
-0.022543139170794032   -0.05407489247931038   -0.001318416702294681
-0.023818404697781285   -0.040751518722675587   -0.0009322544237042136
-0.02998424795522681   -0.05386120472925795   -0.001437336411458091
-0.022586148745847183   -0.05400808148089307   -0.0012151298465562196
-0.023818404697781285   -0.040751518722675587   -0.0009322544237042136
-0.03157405816414121   -0.040615320671684746   -0.0010555195458568803
-0.02998424795522681   -0.05386120472925795   -0.001437336411458091
-0.03158836917173078   -0.04055029295832069   -0.0009675992118662163
-0.022586148745847183   -0.05400808148089307   -0.0012151298465562196
-0.029942540461218102   -0.05380508144005674   -0.0012962342947179183
-0.03158836917173078   -0.04055029295832069   -0.0009675992118662163
-0.02998424795522681   -0.05386120472925795   -0.001437336411458091
-0.022586148745847183   -0.05400808148089307   -0.0012151298465562196
-0.03158836917173078   -0.04055029295832069   -0.0009675992118662163
-0.023885155494171244   -0.04067547440009015   -0.0008572392588825808
-0.023818404697781285   -0.040751518722675587   -0.0009322544237042136
-0.022586148745847183   -0.05400808148089307   -0.0012151298465562196
-0.03158836917173078   -0.04055029295832069   -0.0009675992118662163
-0.023818404697781285   -0.040751518722675587   -0.0009322544237042136
-0.02998424795522681   -0.05386120472925795   -0.001437336411458091
-0.022586148745847183   -0.05400808148089307   -0.0012151298465562196
-0.023885155494171244   -0.04067547440009015   -0.0008572392588825808
-0.029942540461218102   -0.05380508144005674   -0.0012962342947179183
-0.02263331395558456   -0.05396065808646903   -0.001103058767059325
-0.023885155494171244   -0.04067547440009015   -0.0008572392588825808
-0.03158836917173078   -0.04055029295832069   -0.0009675992118662163
-0.029942540461218102   -0.05380508144005674   -0.0012962342947179183
-0.0315588113901206   -0.04050702514984041   -0.000869481438627376
-0.02263331395558456   -0.05396065808646903   -0.001103058767059325
-0.02984158684303301   -0.053786671713048684   -0.0011433024191346778
-0.0315588113901206   -0.04050702514984041   -0.000869481438627376
-0.029942540461218102   -0.05380508144005674   -0.0012962342947179183
-0.02263331395558456   -0.05396065808646903   -0.001103058767059325
-0.0315588113901206   -0.04050702514984041   -0.000869481438627376
-0.023951362488147422   -0.04060697329701048   -0.0007749739707812654
-0.023885155494171244   -0.04067547440009015   -0.0008572392588825808
-0.02263331395558456   -0.05396065808646903   -0.001103058767059325
-0.0315588113901206   -0.04050702514984041   -0.000869481438627376
-0.023885155494171244   -0.04067547440009015   -0.0008572392588825808
-0.029942540461218102   -0.05380508144005674   -0.0012962342947179183
0.006077506864645045   -0.04120515392699336   -5.9691048730361754e-05
0.005443432770397443   -0.027485567277258188   0.00016657689135456778
-0.0017078138826388707   -0.04113625852856396   -0.000358201028537655
0.005980749610689416   -0.04103100095976968   -5.3796571110077996e-05
0.005443432770397443   -0.027485567277258188   0.00016657689135456778
-0.0023968935458061665   -0.027355912845775942   -7.103436466053634e-05
-0.0017078138826388707   -0.04113625852856396   -0.000358201028537655
-0.002505185565048103   -0.02721817577654991   -1.4793944748343625e-05
0.005980749610689416   -0.04103100095976968   -5.3796571110077996e-05
-0.0017986021399764775   -0.04098422542271084   -0.0003311369277562217
-0.002505185565048103   -0.02721817577654991   -1.4793944748343625e-05
-0.0017078138826388707   -0.04113625852856396   -0.000358201028537655
0.005980749610689416   -0.04103100095976968   -5.3796571110077996e-05
-0.002505185565048103   -0.02721817577654991   -1.4793944748343625e-05
0.005272583426016373   -0.027319564999412817   0.00023681831909769152
0.005443432770397443   -0.027485567277258188   0.00016657689135456778
0.005980749610689416   -0.04103100095976968   -5.3796571110077996e-05
-0.002505185565048103   -0.02721817577654991   -1.4793944748343625e-05
0.005443432770397443   -0.027485567277258188   0.00016657689135456778
-0.0017078138826388707   -0.04113625852856396   -0.000358201028537655
0.005980749610689416   -0.04103100095976968   -5.3796571110077996e-05
0.005272583426016373   -0.027319564999412817   0.00023681831909769152
-0.0017986021399764775   -0.04098422542271084   -0.0003311369277562217
0.005862303215608409   -0.04087513381726922   -3.258604667845145e-05
0.005272583426016373   -0.027319564999412817   0.00023681831909769152
-0.002505185565048103   -0.02721817577654991   -1.4793944748343625e-05
-0.0017986021399764775   -0.04098422542271084   -0.0003311369277562217
-0.002631819714791414   -0.027072744559133867   5.1413904971093835e-05
0.005862303215608409   -0.04087513381726922   -3.258604667845145e-05
-0.0019025097630299167   -0.04084056780547032   -0.0002965808199492782
-0.002631819714791414   -0.027072744559133867   5.1413904971093835e-05
-0.0017986021399764775   -0.04098422542271084   -0.0003311369277562217
0.005862303215608409   -0.04087513381726922   -3.258604667845145e-05
-0.002631819714791414   -0.027072744559133867   5.1413904971093835e-05
0.005082125966073402   -0.027154556875766515   0.00033748918849302686
0.005272583426016373   -0.027319564999412817   0.00023681831909769152
0.005862303215608409   -0.04087513381726922   -3.258604667845145e-05
-0.002631819714791414   -0.027072744559133867   5.1413904971093835e-05
0.005272583426016373   -0.027319564999412817   0.00023681831909769152
-0.0017986021399764775   -0.04098422542271084   -0.0003311369277562217
0.005862303215608409   -0.04087513381726922   -3.258604667845145e-05
0.005082125966073402   -0.027154556875766515   0.00033748918849302686
-0.0019025097630299167   -0.04084056780547032   -0.0002965808199492782
0.005706252983800594   -0.04071196588924768   3.2450309356867946e-06
0.005082125966073402   -0.027154556875766515   0.00033748918849302686
-0.002631819714791414   -0.027072744559133867   5.1413904971093835e-05
-0.0019025097630299167   -0.04084056780547032   -0.0002965808199492782
-0.0027627503184028536   -0.02691827186198132   0.0001274483744012784
0.005706252983800594   -0.04071196588924768   3.2450309356867946e-06
-0.002019054858576379   -0.04070332805627386   -0.0002526531202088824
-0.0027627503184028536   -0.02691827186198132   0.0001274483744012784
-0.0019025097630299167   -0.04084056780547032   -0.0002965808199492782
0.005706252983800594   -0.04071196588924768   3.2450309356867946e-06
-0.0027627503184028536   -0.02691827186198132   0.0001274483744012784
0.004849435600312656   -0.026951912397564115   0.0004482261105763894
0.005082125966073402   -0.027154556875766515   0.00033748918849302686
0.005706252983800594   -0.04071196588924768   3.2450309356867946e-06
-0.0027627503184028536   -0.02691827186198132   0.0001274483744012784
0.005082125966073402   -0.027154556875766515   0.00033748918849302686
-0.0019025097630299167   -0.04084056780547032   -0.0002965808199492782
-0.0017078138826388707   -0.04113625852856396   -0.000358201028537655
-0.0023968935458061665   -0.027355912845775942   -7.103436466053634e-05
-0.009084911894229322   -0.041056398972561574   -0.0006111817548734574
-0.0017986021399764775   -0.04098422542271084   -0.0003311369277562217
-0.0023968935458061665   -0.027355912845775942   -7.103436466053634e-05
-0.009780735211949903   -0.027322377197012606   -0.00030023336206378765
-0.009084911894229322   -0.041056398972561574   -0.0006111817548734574
-0.00987853137760036   -0.027202031959362508   -0.00024802365272587204
-0.0017986021399764775   -0.04098422542271084   -0.0003311369277562217
-0.009177414586156316   -0.04092908607743212   -0.0005699982108467592
-0.00987853137760036   -0.027202031959362508   -0.00024802365272587204
-0.009084911894229322   -0.041056398972561574   -0.0006111817548734574
-0.0017986021399764775   -0.04098422542271084   -0.0003311369277562217
-0.00987853137760036   -0.027202031959362508   -0.00024802365272587204
-0.002505185565048103   -0.02721817577654991   -1.4793944748343625e-05
-0.0023968935458061665   -0.027355912845775942   -7.103436466053634e-05
-0.0017986021399764775   -0.04098422542271084   -0.0003311369277562217
-0.00987853137760036   -0.027202031959362508   -0.00024802365272587204
-0.0023968935458061665   -0.027355912845775942   -7.103436466053634e-05
-0.009084911894229322   -0.041056398972561574   -0.0006111817548734574
-0.0017986021399764775   -0.04098422542271084   -0.0003311369277562217
-0.002505185565048103   -0.02721817577654991   -1.4793944748343625e-05
-0.009177414586156316   -0.04092908607743212   -0.0005699982108467592
-0.0019025097630299167   -0.04084056780547032   -0.0002965808199492782
-0.002505185565048103   -0.02721817577654991   -1.4793944748343625e-05
-0.00987853137760036   -0.027202031959362508   -0.00024802365272587204
-0.009177414586156316   -0.04092908607743212   -0.0005699982108467592
-0.009979673556936491   -0.02707682625859302   -0.000190656936032747
-0.0019025097630299167   -0.04084056780547032   -0.0002965808199492782
-0.009271975072165286   -0.040808278075088446   -0.0005216814495801865
-0.009979673556936491   -0.02707682625859302   -0.000190656936032747
-0.009177414586156316   -0.04092908607743212   -0.0005699982108467592
-0.0019025097630299167   -0.04084056780547032   -0.0002965808199492782
-0.009979673556936491   -0.02707682625859302   -0.000190656936032747
-0.002631819714791414   -0.027072744559133867   5.1413904971093835e-05
-0.002505185565048103   -0.02721817577654991   -1.4793944748343625e-05
-0.0019025097630299167   -0.04084056780547032   -0.0002965808199492782
-0.009979673556936491   -0.02707682625859302   -0.000190656936032747
-0.002505185565048103   -0.02721817577654991   -1.4793944748343625e-05
-0.009177414586156316   -0.04092908607743212   -0.0005699982108467592
-0.0019025097630299167   -0.04084056780547032   -0.0002965808199492782
-0.002631819714791414   -0.027072744559133867   5.1413904971093835e-05
-0.009271975072165286   -0.040808278075088446   -0.0005216814495801865
-0.002019054858576379   -0.04070332805627386   -0.0002526531202088824
-0.002631819714791414   -0.027072744559133867   5.1413904971093835e-05
-0.009979673556936491   -0.02707682625859302   -0.000190656936032747
-0.009271975072165286   -0.040808278075088446   -0.0005216814495801865
-0.010084947482242592   -0.026948967552380628   -0.00012709735685666868
-0.002019054858576379   -0.04070332805627386   -0.0002526531202088824
-0.009372527531561805   -0.04069582567279784   -0.00046614933375375604
-0.010084947482242592   -0.026948967552380628   -0.00012709735685666868
-0.009271975072165286   -0.040808278075088446   -0.0005216814495801865
-0.002019054858576379   -0.04070332805627386   -0.0002526531202088824
-0.010084947482242592   -0.026948967552380628   -0.00012709735685666868
-0.0027627503184028536   -0.02691827186198132   0.0001274483744012784
-0.002631819714791414   -0.027072744559133867   5.1413904971093835e-05
-0.002019054858576379   -0.04070332805627386   -0.0002526531202088824
-0.010084947482242592   -0.026948967552380628   -0.00012709735685666868
-0.002631819714791414   -0.027072744559133867   5.1413904971093835e-05
-0.009271975072165286   -0.040808278075088446   -0.0005216814495801865
-0.009084911894229322   -0.041056398972561574   -0.0006111817548734574
-0.009780735211949903   -0.027322377197012606   -0.00030023336206378765
-0.016342226271615343   -0.040960833592616   -0.0008262344595358632
-0.009177414586156316   -0.04092908607743212   -0.0005699982108467592
-0.009780735211949903   -0.027322377197012606   -0.00030023336206378765
-0.01708942946187405   -0.02731308111145444   -0.0005075106927930315
-0.016342226271615343   -0.040960833592616   -0.0008262344595358632
-0.01718287740692617   -0.027207463047382592   -0.00045780450820635674
-0.009177414586156316   -0.04092908607743212   -0.0005699982108467592
-0.016434015732628683   -0.04085645308510334   -0.000770924120607423
-0.01718287740692617   -0.027207463047382592   -0.00045780450820635674
-0.016342226271615343   -0.040960833592616   -0.0008262344595358632
-0.009177414586156316   -0.04092908607743212   -0.0005699982108467592
-0.01718287740692617   -0.027207463047382592   -0.00045780450820635674
-0.00987853137760036   -0.027202031959362508   -0.00024802365272587204
-0.009780735211949903   -0.027322377197012606   -0.00030023336206378765
-0.009177414586156316   -0.04092908607743212   -0.0005699982108467592
-0.01718287740692617   -0.027207463047382592   -0.00045780450820635674
-0.009780735211949903   -0.027322377197012606   -0.00030023336206378765
-0.016342226271615343   -0.040960833592616   -0.0008262344595358632
-0.009177414586156316   -0.04092908607743212   -0.0005699982108467592
-0.00987853137760036   -0.027202031959362508   -0.00024802365272587204
-0.016434015732628683   -0.04085645308510334   -0.000770924120607423
-0.009271975072165286   -0.040808278075088446   -0.0005216814495801865
-0.00987853137760036   -0.027202031959362508   -0.00024802365272587204
-0.01718287740692617   -0.027207463047382592   -0.00045780450820635674
-0.016434015732628683   -0.04085645308510334   -0.000770924120607423
-0.017271893828313813   -0.027099895410827385   -0.00040359278718633774
-0.009271975072165286   -0.040808278075088446   -0.0005216814495801865
-0.016519878871297546   -0.040758954884187584   -0.0007087247669131756
-0.017271893828313813   -0.027099895410827385   -0.00040359278718633774
-0.016434015732628683   -0.04085645308510334   -0.000770924120607423
-0.009271975072165286   -0.040808278075088446   -0.0005216814495801865
-0.017271893828313813   -0.027099895410827385   -0.00040359278718633774
-0.009979673556936491   -0.02707682625859302   -0.000190656936032747
-0.00987853137760036   -0.027202031959362508   -0.00024802365272587204
-0.009271975072165286   -0.040808278075088446   -0.0005216814495801865
-0.017271893828313813   -0.027099895410827385   -0.00040359278718633774
-0.00987853137760036   -0.027202031959362508   -0.00024802365272587204
-0.016434015732628683   -0.04085645308510334   -0.000770924120607423
-0.009271975072165286   -0.040808278075088446   -0.0005216814495801865
-0.009979673556936491   -0.02707682625859302   -0.000190656936032747
-0.016519878871297546   -0.040758954884187584   -0.0007087247669131756
-0.009372527531561805   -0.04069582567279784   -0.00046614933375375604
-0.009979673556936491   -0.02707682625859302   -0.000190656936032747
-0.017271893828313813   -0.027099895410827385   -0.00040359278718633774
-0.016519878871297546   -0.040758954884187584   -0.0007087247669131756
-0.017360012234751927   -0.026989770761947644   -0.00034513459089614276
-0.009372527531561805   -0.04069582567279784   -0.00046614933375375604
-0.016606048730083568   -0.04066861225038064   -0.0006399791226548223
-0.017360012234751927   -0.026989770761947644   -0.00034513459089614276
-0.016519878871297546   -0.040758954884187584   -0.0007087247669131756
-0.009372527531561805   -0.04069582567279784   -0.00046614933375375604
-0.017360012234751927   -0.026989770761947644   -0.00034513459089614276
-0.010084947482242592   -0.026948967552380628   -0.00012709735685666868
-0.009979673556936491   -0.02707682625859302   -0.000190656936032747
-0.009372527531561805   -0.04069582567279784   -0.00046614933375375604
-0.017360012234751927   -0.026989770761947644   -0.00034513459089614276
-0.009979673556936491   -0.02707682625859302   -0.000190656936032747
-0.016519878871297546   -0.040758954884187584   -0.0007087247669131756
-0.016342226271615343   -0.040960833592616   -0.0008262344595358632
-0.01708942946187405   -0.02731308111145444   -0.0005075106927930315
-0.023730488165974912   -0.040831769475314895   -0.0010015245535232873
-0.016434015732628683   -0.04085645308510334   -0.000770924120607423
-0.01708942946187405   -0.02731308111145444   -0.0005075106927930315
-0.024552866321897127   -0.02727076125642135   -0.0006818264272246603
-0.023730488165974912   -0.040831769475314895   -0.0010015245535232873
-0.024641953896632464   -0.02718453351868113   -0.000634861837025455
-0.016434015732628683   -0.04085645308510334   -0.000770924120607423
-0.023818404697781285   -0.040751518722675587   -0.0009322544237042136
-0.024641953896632464   -0.02718453351868113   -0.000634861837025455
-0.023730488165974912   -0.040831769475314895   -0.0010015245535232873
-0.016434015732628683   -0.04085645308510334   -0.000770924120607423
-0.024641953896632464   -0.02718453351868113   -0.000634861837025455
-0.01718287740692617   -0.027207463047382592   -0.00045780450820635674
-0.01708942946187405   -0.02731308111145444   -0.0005075106927930315
-0.016434015732628683   -0.04085645308510334   -0.000770924120607423
-0.024641953896632464   -0.02718453351868113   -0.000634861837025455
-0.01708942946187405   -0.02731308111145444   -0.0005075106927930315
-0.023730488165974912   -0.040831769475314895   -0.0010015245535232873
-0.016434015732628683   -0.04085645308510334   -0.000770924120607423
-0.01718287740692617   -0.027207463047382592   -0.00045780450820635674
-0.023818404697781285   -0.040751518722675587   -0.0009322544237042136
-0.016519878871297546   -0.040758954884187584   -0.0007087247669131756
-0.01718287740692617   -0.027207463047382592   -0.00045780450820635674
-0.024641953896632464   -0.02718453351868113   -0.000634861837025455
-0.023818404697781285   -0.040751518722675587   -0.0009322544237042136
-0.024717489091081946   -0.02709356228016534   -0.0005847092324908571
-0.016519878871297546   -0.040758954884187584   -0.0007087247669131756
-0.023885155494171244   -0.04067547440009015   -0.0008572392588825808
-0.024717489091081946   -0.02709356228016534   -0.0005847092324908571
-0.023818404697781285   -0.040751518722675587   -0.0009322544237042136
-0.016519878871297546   -0.040758954884187584   -0.0007087247669131756
-0.024717489091081946   -0.02709356228016534   -0.0005847092324908571
-0.017271893828313813   -0.027099895410827385   -0.00040359278718633774
-0.01718287740692617   -0.027207463047382592   -0.00045780450820635674
-0.016519878871297546   -0.040758954884187584   -0.0007087247669131756
-0.024717489091081946   -0.02709356228016534   -0.0005847092324908571
-0.01718287740692617   -0.027207463047382592   -0.00045780450820635674
-0.023818404697781285   -0.040751518722675587   -0.0009322544237042136
-0.016519878871297546   -0.040758954884187584   -0.0007087247669131756
-0.017271893828313813   -0.027099895410827385   -0.00040359278718633774
-0.023885155494171244   -0.04067547440009015   -0.0008572392588825808
-0.016606048730083568   -0.04066861225038064   -0.0006399791226548223
-0.017271893828313813   -0.027099895410827385   -0.00040359278718633774
-0.024717489091081946   -0.02709356228016534   -0.0005847092324908571
-0.023885155494171244   -0.04067547440009015   -0.0008572392588825808
-0.024788883874196612   -0.027000163166339856   -0.0005299691317732407
-0.016606048730083568   -0.04066861225038064   -0.0006399791226548223
-0.023951362488147422   -0.04060697329701048   -0.0007749739707812654
-0.024788883874196612   -0.027000163166339856   -0.0005299691317732407
-0.023885155494171244   -0.04067547440009015   -0.0008572392588825808
-0.016606048730083568   -0.04066861225038064   -0.0006399791226548223
-0.024788883874196612   -0.027000163166339856   -0.0005299691317732407
-0.017360012234751927   -0.026989770761947644   -0.00034513459089614276
-0.017271893828313813   -0.027099895410827385   -0.00040359278718633774
-0.016606048730083568   -0.04066861225038064   -0.0006399791226548223
-0.024788883874196612   -0.027000163166339856   -0.0005299691317732407
-0.017271893828313813   -0.027099895410827385   -0.00040359278718633774
-0.023885155494171244   -0.04067547440009015   -0.0008572392588825808
-0.023730488165974912   -0.040831769475314895   -0.0010015245535232873
-0.024552866321897127   -0.02727076125642135   -0.0006818264272246603
-0.031560038290537246   -0.04067951137223972   -0.0011318645687908749
-0.023818404697781285   -0.040751518722675587   -0.0009322544237042136
-0.024552866321897127   -0.02727076125642135   -0.0006818264272246603
-0.03236972165089697   -0.02720118838032571   -0.0008111310288575855
-0.031560038290537246   -0.04067951137223972   -0.0011318645687908749
-0.03242536469472377   -0.02712866060886668   -0.0007760693042463493
-0.023818404697781285   -0.040751518722675587   -0.0009322544237042136
-0.03157405816414121   -0.040615320671684746   -0.0010555195458568803
-0.03242536469472377   -0.02712866060886668   -0.0007760693042463493
-0.031560038290537246   -0.04067951137223972   -0.0011318645687908749
-0.023818404697781285   -0.040751518722675587   -0.0009322544237042136
-0.03242536469472377   -0.02712866060886668   -0.0007760693042463493
-0.024641953896632464   -0.02718453351868113   -0.000634861837025455
-0.024552866321897127   -0.02727076125642135   -0.0006818264272246603
-0.023818404697781285   -0.040751518722675587   -0.0009322544237042136
-0.03242536469472377   -0.02712866060886668   -0.0007760693042463493
-0.024552866321897127   -0.02727076125642135   -0.0006818264272246603
-0.031560038290537246   -0.04067951137223972   -0.0011318645687908749
-0.023818404697781285   -0.040751518722675587   -0.0009322544237042136
-0.024641953896632464   -0.02718453351868113   -0.000634861837025455
-0.03157405816414121   -0.040615320671684746   -0.0010555195458568803
-0.023885155494171244   -0.04067547440009015   -0.0008572392588825808
-0.024641953896632464   -0.02718453351868113   -0.000634861837025455
-0.03242536469472377   -0.02712866060886668   -0.0007760693042463493
-0.03157405816414121   -0.040615320671684746   -0.0010555195458568803
-0.03247624366464156   -0.027046653118627608   -0.0007331633926985179
-0.023885155494171244   -0.04067547440009015   -0.0008572392588825808
-0.03158836917173078   -0.04055029295832069   -0.0009675992118662163
-0.03247624366464156   -0.027046653118627608   -0.0007331633926985179
-0.03157405816414121   -0.040615320671684746   -0.0010555195458568803
-0.023885155494171244   -0.04067547440009015   -0.0008572392588825808
-0.03247624366464156   -0.027046653118627608   -0.0007331633926985179
-0.024717489091081946   -0.02709356228016534   -0.0005847092324908571
-0.024641953896632464   -0.02718453351868113   -0.000634861837025455
-0.023885155494171244   -0.04067547440009015   -0.0008572392588825808
-0.03247624366464156   -0.027046653118627608   -0.0007331633926985179
-0.024641953896632464   -0.02718453351868113   -0.000634861837025455
-0.03157405816414121   -0.040615320671684746   -0.0010555195458568803
-0.023885155494171244   -0.04067547440009015   -0.0008572392588825808
-0.024717489091081946   -0.02709356228016534   -0.0005847092324908571
-0.03158836917173078   -0.04055029295832069   -0.0009675992118662163
-0.023951362488147422   -0.04060697329701048   -0.0007749739707812654
-0.024717489091081946   -0.02709356228016534   -0.0005847092324908571
-0.03247624366464156   -0.027046653118627608   -0.0007331633926985179
-0.03158836917173078   -0.04055029295832069   -0.0009675992118662163
-0.0325012099762128   -0.02697121688845909   -0.0006843872898036034
-0.023951362488147422   -0.04060697329701048   -0.0007749739707812654
-0.0315588113901206   -0.04050702514984041   -0.000869481438627376
-0.0325012099762128   -0.02697121688845909   -0.0006843872898036034
-0.03158836917173078   -0.04055029295832069   -0.0009675992118662163
-0.023951362488147422   -0.04060697329701048   -0.0007749739707812654
-0.0325012099762128   -0.02697121688845909   -0.0006843872898036034
-0.024788883874196612   -0.027000163166339856   -0.0005299691317732407
-0.024717489091081946   -0.02709356228016534   -0.0005847092324908571
-0.023951362488147422   -0.04060697329701048   -0.0007749739707812654
-0.0325012099762128   -0.02697121688845909   -0.0006843872898036034
-0.024717489091081946   -0.02709356228016534   -0.0005847092324908571
-0.03158836917173078   -0.04055029295832069   -0.0009675992118662163
0.005443432770397443   -0.027485567277258188   0.00016657689135456778
0.003811120212724717   -0.013797603758863821   0.0001786454301382841
-0.0023968935458061665   -0.027355912845775942   -7.103436466053634e-05
0.005272583426016373   -0.027319564999412817   0.00023681831909769152
0.003811120212724717   -0.013797603758863821   0.0001786454301382841
-0.003496673068357076   -0.013617909851353858   8.955530836209704e-05
-0.0023968935458061665   -0.027355912845775942   -7.103436466053634e-05
-0.003604282976497585   -0.013547970581000223   0.00016752347927960612
0.005272583426016373   -0.027319564999412817   0.00023681831909769152
-0.002505185565048103   -0.02721817577654991   -1.4793944748343625e-05
-0.003604282976497585   -0.013547970581000223   0.00016752347927960612
-0.0023968935458061665   -0.027355912845775942   -7.103436466053634e-05
0.005272583426016373   -0.027319564999412817   0.00023681831909769152
-0.003604282976497585   -0.013547970581000223   0.00016752347927960612
0.003475839582649984   -0.01362144998628572   0.00037181801378874727
0.003811120212724717   -0.013797603758863821   0.0001786454301382841
0.005272583426016373   -0.027319564999412817   0.00023681831909769152
-0.003604282976497585   -0.013547970581000223   0.00016752347927960612
0.003811120212724717   -0.013797603758863821   0.0001786454301382841
-0.0023968935458061665   -0.027355912845775942   -7.103436466053634e-05
0.005272583426016373   -0.027319564999412817   0.00023681831909769152
0.003475839582649984   -0.01362144998628572   0.00037181801378874727
-0.002505185565048103   -0.02721817577654991   -1.4793944748343625e-05
0.005082125966073402   -0.027154556875766515   0.00033748918849302686
0.003475839582649984   -0.01362144998628572   0.00037181801378874727
-0.003604282976497585   -0.013547970581000223   0.00016752347927960612
-0.002505185565048103   -0.02721817577654991   -1.4793944748343625e-05
-0.0037455130440520825   -0.01342407887650709   0.00026214250823643426
0.005082125966073402   -0.027154556875766515   0.00033748918849302686
-0.002631819714791414   -0.027072744559133867   5.1413904971093835e-05
-0.0037455130440520825   -0.01342407887650709   0.00026214250823643426
-0.002505185565048103   -0.02721817577654991   -1.4793944748343625e-05
0.005082125966073402   -0.027154556875766515   0.00033748918849302686
-0.0037455130440520825   -0.01342407887650709   0.00026214250823643426
0.003279418697394437   -0.013477049082491255   0.0005160852303081386
0.003475839582649984   -0.01362144998628572   0.00037181801378874727
0.005082125966073402   -0.027154556875766515   0.00033748918849302686
-0.0037455130440520825   -0.01342407887650709   0.00026214250823643426
0.003475839582649984   -0.01362144998628572   0.00037181801378874727
-0.002505185565048103   -0.02721817577654991   -1.4793944748343625e-05
0.005082125966073402   -0.027154556875766515   0.00033748918849302686
0.003279418697394437   -0.013477049082491255   0.0005160852303081386
-0.002631819714791414   -0.027072744559133867   5.1413904971093835e-05
0.004849435600312656   -0.026951912397564115   0.0004482261105763894
0.003279418697394437   -0.013477049082491255   0.0005160852303081386
-0.0037455130440520825   -0.01342407887650709   0.00026214250823643426
-0.002631819714791414   -0.027072744559133867   5.1413904971093835e-05
-0.0038641639251321943   -0.013290748254129632   0.0003454464088810952
0.004849435600312656   -0.026951912397564115   0.0004482261105763894
-0.0027627503184028536   -0.02691827186198132   0.0001274483744012784
-0.0038641639251321943   -0.013290748254129632   0.0003454464088810952
-0.002631819714791414   -0.027072744559133867   5.1413904971093835e-05
0.004849435600312656   -0.026951912397564115   0.0004482261105763894
-0.0038641639251321943   -0.013290748254129632   0.0003454464088810952
0.0030278394359709478   -0.013256644073104522   0.0006812253735738173
0.003279418697394437   -0.013477049082491255   0.0005160852303081386
0.004849435600312656   -0.026951912397564115   0.0004482261105763894
-0.0038641639251321943   -0.013290748254129632   0.0003454464088810952
0.003279418697394437   -0.013477049082491255   0.0005160852303081386
-0.002631819714791414   -0.027072744559133867   5.1413904971093835e-05
-0.0023968935458061665   -0.027355912845775942   -7.103436466053634e-05
-0.003496673068357076   -0.013617909851353858   8.955530836209704e-05
-0.009780735211949903   -0.027322377197012606   -0.00030023336206378765
-0.002505185565048103   -0.02721817577654991   -1.4793944748343625e-05
-0.003496673068357076   -0.013617909851353858   8.955530836209704e-05
-0.010454482497332915   -0.013818623036335909   -9.32435452839191e-05
-0.009780735211949903   -0.027322377197012606   -0.00030023336206378765
-0.010553393491984501   -0.013712139819697752   -3.808639779741406e-05
-0.002505185565048103   -0.02721817577654991   -1.4793944748343625e-05
-0.00987853137760036   -0.027202031959362508   -0.00024802365272587204
-0.010553393491984501   -0.013712139819697752   -3.808639779741406e-05
-0.009780735211949903   -0.027322377197012606   -0.00030023336206378765
-0.002505185565048103   -0.02721817577654991   -1.4793944748343625e-05
-0.010553393491984501   -0.013712139819697752   -3.808639779741406e-05
-0.003604282976497585   -0.013547970581000223   0.00016752347927960612
-0.003496673068357076   -0.013617909851353858   8.955530836209704e-05
-0.002505185565048103   -0.02721817577654991   -1.4793944748343625e-05
-0.010553393491984501   -0.013712139819697752   -3.808639779741406e-05
-0.003496673068357076   -0.013617909851353858   8.955530836209704e-05
-0.009780735211949903   -0.027322377197012606   -0.00030023336206378765
-0.002505185565048103   -0.02721817577654991   -1.4793944748343625e-05
-0.003604282976497585   -0.013547970581000223   0.00016752347927960612
-0.00987853137760036   -0.027202031959362508   -0.00024802365272587204
-0.002631819714791414   -0.027072744559133867   5.1413904971093835e-05
-0.003604282976497585   -0.013547970581000223   0.00016752347927960612
-0.010553393491984501   -0.013712139819697752   -3.808639779741406e-05
-0.00987853137760036   -0.027202031959362508   -0.00024802365272587204
-0.010656831610904673   -0.013592031354618686   2.02396506535048e-05
-0.002631819714791414   -0.027072744559133867   5.1413904971093835e-05
-0.009979673556936491   -0.02707682625859302   -0.000190656936032747
-0.010656831610904673   -0.013592031354618686   2.02396506535048e-05
-0.00987853137760036   -0.027202031959362508   -0.00024802365272587204
-0.002631819714791414   -0.027072744559133867   5.1413904971093835e-05
-0.010656831610904673   -0.013592031354618686   2.02396506535048e-05
-0.0037455130440520825   -0.01342407887650709   0.00026214250823643426
-0.003604282976497585   -0.013547970581000223   0.00016752347927960612
-0.002631819714791414   -0.027072744559133867   5.1413904971093835e-05
-0.010656831610904673   -0.013592031354618686   2.02396506535048e-05
-0.003604282976497585   -0.013547970581000223   0.00016752347927960612
-0.00987853137760036   -0.027202031959362508   -0.00024802365272587204
-0.002631819714791414   -0.027072744559133867   5.1413904971093835e-05
-0.0037455130440520825   -0.01342407887650709   0.00026214250823643426
-0.009979673556936491   -0.02707682625859302   -0.000190656936032747
-0.0027627503184028536   -0.02691827186198132   0.0001274483744012784
-0.0037455130440520825   -0.01342407887650709   0.00026214250823643426
-0.010656831610904673   -0.013592031354618686   2.02396506535048e-05
-0.009979673556936491   -0.02707682625859302   -0.000190656936032747
-0.01075506986598298   -0.013460393971433946   8.453583116590779e-05
-0.0027627503184028536   -0.02691827186198132   0.0001274483744012784
-0.010084947482242592   -0.026948967552380628   -0.00012709735685666868
-0.01075506986598298   -0.013460393971433946   8.453583116590779e-05
-0.009979673556936491   -0.02707682625859302   -0.000190656936032747
-0.0027627503184028536   -0.02691827186198132   0.0001274483744012784
-0.01075506986598298   -0.013460393971433946   8.453583116590779e-05
-0.0038641639251321943   -0.013290748254129632   0.0003454464088810952
-0.0037455130440520825   -0.01342407887650709   0.00026214250823643426
-0.0027627503184028536   -0.02691827186198132   0.0001274483744012784
-0.01075506986598298   -0.013460393971433946   8.453583116590779e-05
-0.0037455130440520825   -0.01342407887650709   0.00026214250823643426
-0.009979673556936491   -0.02707682625859302   -0.000190656936032747
-0.009780735211949903   -0.027322377197012606   -0.00030023336206378765
-0.010454482497332915   -0.013818623036335909   -9.32435452839191e-05
-0.01708942946187405   -0.02731308111145444   -0.0005075106927930315
-0.00987853137760036   -0.027202031959362508   -0.00024802365272587204
-0.010454482497332915   -0.013818623036335909   -9.32435452839191e-05
-0.0175840136961002   -0.013975399508119846   -0.00029553870062485607
-0.01708942946187405   -0.02731308111145444   -0.0005075106927930315
-0.017672773307808462   -0.013866111778335747   -0.0002528583295509682
-0.00987853137760036   -0.027202031959362508   -0.00024802365272587204
-0.01718287740692617   -0.027207463047382592   -0.00045780450820635674
-0.017672773307808462   -0.013866111778335747   -0.0002528583295509682
-0.01708942946187405   -0.02731308111145444   -0.0005075106927930315
-0.00987853137760036   -0.027202031959362508   -0.00024802365272587204
-0.017672773307808462   -0.013866111778335747   -0.0002528583295509682
-0.010553393491984501   -0.013712139819697752   -3.808639779741406e-05
-0.010454482497332915   -0.013818623036335909   -9.32435452839191e-05
-0.00987853137760036   -0.027202031959362508   -0.00024802365272587204
-0.017672773307808462   -0.013866111778335747   -0.0002528583295509682
-0.010454482497332915   -0.013818623036335909   -9.32435452839191e-05
-0.01708942946187405   -0.02731308111145444   -0.0005075106927930315
-0.00987853137760036   -0.027202031959362508   -0.00024802365272587204
-0.010553393491984501   -0.013712139819697752   -3.808639779741406e-05
-0.01718287740692617   -0.027207463047382592   -0.00045780450820635674
-0.009979673556936491   -0.02707682625859302   -0.000190656936032747
-0.010553393491984501   -0.013712139819697752   -3.808639779741406e-05
-0.017672773307808462   -0.013866111778335747   -0.0002528583295509682
-0.01718287740692617   -0.027207463047382592   -0.00045780450820635674
-0.017757677407272736   -0.013750739393922254   -0.00021035162385684545
-0.009979673556936491   -0.02707682625859302   -0.000190656936032747
-0.017271893828313813   -0.027099895410827385   -0.00040359278718633774
-0.017757677407272736   -0.013750739393922254   -0.00021035162385684545
-0.01718287740692617   -0.027207463047382592   -0.00045780450820635674
-0.009979673556936491   -0.02707682625859302   -0.000190656936032747
-0.017757677407272736   -0.013750739393922254   -0.00021035162385684545
-0.010656831610904673   -0.013592031354618686   2.02396506535048e-05
-0.010553393491984501   -0.013712139819697752   -3.808639779741406e-05
-0.009979673556936491   -0.02707682625859302   -0.000190656936032747
-0.017757677407272736   -0.013750739393922254   -0.00021035162385684545
-0.010553393491984501   -0.013712139819697752   -3.808639779741406e-05
-0.01718287740692617   -0.027207463047382592   -0.00045780450820635674
-0.009979673556936491   -0.02707682625859302   -0.000190656936032747
-0.010656831610904673   -0.013592031354618686   2.02396506535048e-05
-0.017271893828313813   -0.027099895410827385   -0.00040359278718633774
-0.010084947482242592   -0.026948967552380628   -0.00012709735685666868
-0.010656831610904673   -0.013592031354618686   2.02396506535048e-05
-0.017757677407272736   -0.013750739393922254   -0.00021035162385684545
-0.017271893828313813   -0.027099895410827385   -0.00040359278718633774
-0.017835892646484018   -0.013625868011878428   -0.00016411165667642346
-0.010084947482242592   -0.026948967552380628   -0.00012709735685666868
-0.017360012234751927   -0.026989770761947644   -0.00034513459089614276
-0.017835892646484018   -0.013625868011878428   -0.00016411165667642346
-0.017271893828313813   -0.027099895410827385   -0.00040359278718633774
-0.010084947482242592   -0.026948967552380628   -0.00012709735685666868
-0.017835892646484018   -0.013625868011878428   -0.00016411165667642346
-0.01075506986598298   -0.013460393971433946   8.453583116590779e-05
-0.010656831610904673   -0.013592031354618686   2.02396506535048e-05
-0.010084947482242592   -0.026948967552380628   -0.00012709735685666868
-0.017835892646484018   -0.013625868011878428   -0.00016411165667642346
-0.010656831610904673   -0.013592031354618686   2.02396506535048e-05
-0.017271893828313813   -0.027099895410827385   -0.00040359278718633774
-0.01708942946187405   -0.02731308111145444   -0.0005075106927930315
-0.0175840136961002   -0.013975399508119846   -0.00029553870062485607
-0.024552866321897127   -0.02727076125642135   -0.0006818264272246603
-0.01718287740692617   -0.027207463047382592   -0.00045780450820635674
-0.0175840136961002   -0.013975399508119846   -0.00029553870062485607
-0.02496394326283052   -0.014039664292194522   -0.00048236822670677385
-0.024552866321897127   -0.02727076125642135   -0.0006818264272246603
-0.02504389130844172   -0.013941401525320233   -0.0004513081875514215
-0.01718287740692617   -0.027207463047382592   -0.00045780450820635674
-0.024641953896632464   -0.02718453351868113   -0.000634861837025455
-0.02504389130844172   -0.013941401525320233   -0.0004513081875514215
-0.024552866321897127   -0.02727076125642135   -0.0006818264272246603
-0.01718287740692617   -0.027207463047382592   -0.00045780450820635674
-0.02504389130844172   -0.013941401525320233   -0.0004513081875514215
-0.017672773307808462   -0.013866111778335747   -0.0002528583295509682
-0.0175840136961002   -0.013975399508119846   -0.00029553870062485607
-0.01718287740692617   -0.027207463047382592   -0.00045780450820635674
-0.02504389130844172   -0.013941401525320233   -0.0004513081875514215
-0.0175840136961002   -0.013975399508119846   -0.00029553870062485607
-0.024552866321897127   -0.02727076125642135   -0.0006818264272246603
-0.01718287740692617   -0.027207463047382592   -0.00045780450820635674
-0.017672773307808462   -0.013866111778335747   -0.0002528583295509682
-0.024641953896632464   -0.02718453351868113   -0.000634861837025455
-0.017271893828313813   -0.027099895410827385   -0.00040359278718633774
-0.017672773307808462   -0.013866111778335747   -0.0002528583295509682
-0.02504389130844172   -0.013941401525320233   -0.0004513081875514215
-0.024641953896632464   -0.02718453351868113   -0.000634861837025455
-0.02511513019093132   -0.013834453698616082   -0.0004211663986094193
-0.017271893828313813   -0.027099895410827385   -0.00040359278718633774
-0.024717489091081946   -0.02709356228016534   -0.0005847092324908571
-0.02511513019093132   -0.013834453698616082   -0.0004211663986094193
-0.024641953896632464   -0.02718453351868113   -0.000634861837025455
-0.017271893828313813   -0.027099895410827385   -0.00040359278718633774
-0.02511513019093132   -0.013834453698616082   -0.0004211663986094193
-0.017757677407272736   -0.013750739393922254   -0.00021035162385684545
-0.017672773307808462   -0.013866111778335747   -0.0002528583295509682
-0.017271893828313813   -0.027099895410827385   -0.00040359278718633774
-0.02511513019093132   -0.013834453698616082   -0.0004211663986094193
-0.017672773307808462   -0.013866111778335747   -0.0002528583295509682
-0.024641953896632464   -0.02718453351868113   -0.000634861837025455
-0.017271893828313813   -0.027099895410827385   -0.00040359278718633774
-0.017757677407272736   -0.013750739393922254   -0.00021035162385684545
-0.024717489091081946   -0.02709356228016534   -0.0005847092324908571
-0.017360012234751927   -0.026989770761947644   -0.00034513459089614276
-0.017757677407272736   -0.013750739393922254   -0.00021035162385684545
-0.02511513019093132   -0.013834453698616082   -0.0004211663986094193
-0.024717489091081946   -0.02709356228016534   -0.0005847092324908571
-0.025179625040676057   -0.013720646724753129   -0.00039016793437600747
-0.017360012234751927   -0.026989770761947644   -0.00034513459089614276
-0.024788883874196612   -0.027000163166339856   -0.0005299691317732407
-0.025179625040676057   -0.013720646724753129   -0.00039016793437600747
-0.024717489091081946   -0.02709356228016534   -0.0005847092324908571
-0.017360012234751927   -0.026989770761947644   -0.00034513459089614276
-0.025179625040676057   -0.013720646724753129   -0.00039016793437600747
-0.017835892646484018   -0.013625868011878428   -0.00016411165667642346
-0.017757677407272736   -0.013750739393922254   -0.00021035162385684545
-0.017360012234751927   -0.026989770761947644   -0.00034513459089614276
-0.025179625040676057   -0.013720646724753129   -0.00039016793437600747
-0.017757677407272736   -0.013750739393922254   -0.00021035162385684545
-0.024717489091081946   -0.02709356228016534   -0.0005847092324908571
-0.024552866321897127   -0.02727076125642135   -0.0006818264272246603
-0.02496394326283052   -0.014039664292194522   -0.00048236822670677385
-0.03236972165089697   -0.02720118838032571   -0.0008111310288575855
-0.024641953896632464   -0.02718453351868113   -0.000634861837025455
-0.02496394326283052   -0.014039664292194522   -0.00048236822670677385
-0.03260548190573909   -0.014046963666793543   -0.000637727151507669
-0.03236972165089697   -0.02720118838032571   -0.0008111310288575855
-0.03267427250428661   -0.013951533431194168   -0.0006244961209773351
-0.024641953896632464   -0.02718453351868113   -0.000634861837025455
-0.03242536469472377   -0.02712866060886668   -0.0007760693042463493
-0.03267427250428661   -0.013951533431194168   -0.0006244961209773351
-0.03236972165089697   -0.02720118838032571   -0.0008111310288575855
-0.024641953896632464   -0.02718453351868113   -0.000634861837025455
-0.03267427250428661   -0.013951533431194168   -0.0006244961209773351
-0.02504389130844172   -0.013941401525320233   -0.0004513081875514215
-0.02496394326283052   -0.014039664292194522   -0.00048236822670677385
-0.024641953896632464   -0.02718453351868113   -0.000634861837025455
-0.03267427250428661   -0.013951533431194168   -0.0006244961209773351
-0.02496394326283052   -0.014039664292194522   -0.00048236822670677385
-0.03236972165089697   -0.02720118838032571   -0.0008111310288575855
-0.024641953896632464   -0.02718453351868113   -0.000634861837025455
-0.02504389130844172   -0.013941401525320233   -0.0004513081875514215
-0.03242536469472377   -0.02712866060886668   -0.0007760693042463493
-0.024717489091081946   -0.02709356228016534   -0.0005847092324908571
-0.02504389130844172   -0.013941401525320233   -0.0004513081875514215
-0.03267427250428661   -0.013951533431194168   -0.0006244961209773351
-0.03242536469472377   -0.02712866060886668   -0.0007760693042463493
-0.03273590273128902   -0.013848435133015067   -0.0006090409385226423
-0.024717489091081946   -0.02709356228016534   -0.0005847092324908571
-0.03247624366464156   -0.027046653118627608   -0.0007331633926985179
-0.03273590273128902   -0.013848435133015067   -0.0006090409385226423
-0.03242536469472377   -0.02712866060886668   -0.0007760693042463493
-0.024717489091081946   -0.02709356228016534   -0.0005847092324908571
-0.03273590273128902   -0.013848435133015067   -0.0006090409385226423
-0.02511513019093132   -0.013834453698616082   -0.0004211663986094193
-0.02504389130844172   -0.013941401525320233   -0.0004513081875514215
-0.024717489091081946   -0.02709356228016534   -0.0005847092324908571
-0.03273590273128902   -0.013848435133015067   -0.0006090409385226423
-0.02504389130844172   -0.013941401525320233   -0.0004513081875514215
-0.03242536469472377   -0.02712866060886668   -0.0007760693042463493
-0.024717489091081946   -0.02709356228016534   -0.0005847092324908571
-0.02511513019093132   -0.013834453698616082   -0.0004211663986094193
-0.03247624366464156   -0.027046653118627608   -0.0007331633926985179
-0.024788883874196612   -0.027000163166339856   -0.0005299691317732407
-0.02511513019093132   -0.013834453698616082   -0.0004211663986094193
-0.03273590273128902   -0.013848435133015067   -0.0006090409385226423
-0.03247624366464156   -0.027046653118627608   -0.0007331633926985179
-0.03278785672122443   -0.013739248534363762   -0.0005947329971077988
-0.024788883874196612   -0.027000163166339856   -0.0005299691317732407
-0.0325012099762128   -0.02697121688845909   -0.0006843872898036034
-0.03278785672122443   -0.013739248534363762   -0.0005947329971077988
-0.03247624366464156   -0.027046653118627608   -0.0007331633926985179
-0.024788883874196612   -0.027000163166339856   -0.0005299691317732407
-0.03278785672122443   -0.013739248534363762   -0.0005947329971077988
-0.025179625040676057   -0.013720646724753129   -0.00039016793437600747
-0.02511513019093132   -0.013834453698616082   -0.0004211663986094193
-0.024788883874196612   -0.027000163166339856   -0.0005299691317732407
-0.03278785672122443   -0.013739248534363762   -0.0005947329971077988
-0.02511513019093132   -0.013834453698616082   -0.0004211663986094193
-0.03247624366464156   -0.027046653118627608   -0.0007331633926985179
0.003811120212724717   -0.013797603758863821   0.0001786454301382841
0.0   0.0   0.0
-0.003496673068357076   -0.013617909851353858   8.955530836209704e-05
0.003475839582649984   -0.01362144998628572   0.00037181801378874727
0.0   0.0   0.0
-0.004394380192575516   -0.0011061876909769313   -3.8919849140787176e-05
-0.003496673068357076   -0.013617909851353858   8.955530836209704e-05
-0.0046567622359917574   -0.000858091739316531   0.00011164145516901694
0.003475839582649984   -0.01362144998628572   0.00037181801378874727
-0.003604282976497585   -0.013547970581000223   0.00016752347927960612
-0.0046567622359917574   -0.000858091739316531   0.00011164145516901694
-0.003496673068357076   -0.013617909851353858   8.955530836209704e-05
0.003475839582649984   -0.01362144998628572   0.00037181801378874727
-0.0046567622359917574   -0.000858091739316531   0.00011164145516901694
0.0   0.0   0.0
0.0   0.0   0.0
0.003475839582649984   -0.01362144998628572   0.00037181801378874727
-0.0046567622359917574   -0.000858091739316531   0.00011164145516901694
0.0   0.0   0.0
-0.003496673068357076   -0.013617909851353858   8.955530836209704e-05
0.003475839582649984   -0.01362144998628572   0.00037181801378874727
0.0   0.0   0.0
-0.003604282976497585   -0.013547970581000223   0.00016752347927960612
0.003279418697394437   -0.013477049082491255   0.0005160852303081386
0.0   0.0   0.0
-0.0046567622359917574   -0.000858091739316531   0.00011164145516901694
-0.003604282976497585   -0.013547970581000223   0.00016752347927960612
-0.004821191285722899   -0.0007383196864949562   0.0001982868120880722
0.003279418697394437   -0.013477049082491255   0.0005160852303081386
-0.0037455130440520825   -0.01342407887650709   0.00026214250823643426
-0.004821191285722899   -0.0007383196864949562   0.0001982868120880722
-0.003604282976497585   -0.013547970581000223   0.00016752347927960612
0.003279418697394437   -0.013477049082491255   0.0005160852303081386
-0.004821191285722899   -0.0007383196864949562   0.0001982868120880722
0.0   0.0   0.0
0.0   0.0   0.0
0.003279418697394437   -0.013477049082491255   0.0005160852303081386
-0.004821191285722899   -0.0007383196864949562   0.0001982868120880722
0.0   0.0   0.0
-0.003604282976497585   -0.013547970581000223   0.00016752347927960612
0.003279418697394437   -0.013477049082491255   0.0005160852303081386
0.0   0.0   0.0
-0.0037455130440520825   -0.01342407887650709   0.00026214250823643426
0.0030278394359709478   -0.013256644073104522   0.0006812253735738173
0.0   0.0   0.0
-0.004821191285722899   -0.0007383196864949562   0.0001982868120880722
-0.0037455130440520825   -0.01342407887650709   0.00026214250823643426
-0.005041226132522009   -0.0005794079333187316   0.0002976901284987712
0.0030278394359709478   -0.013256644073104522   0.0006812253735738173
-0.0038641639251321943   -0.013290748254129632   0.0003454464088810952
-0.005041226132522009   -0.0005794079333187316   0.0002976901284987712
-0.0037455130440520825   -0.01342407887650709   0.00026214250823643426
0.0030278394359709478   -0.013256644073104522   0.0006812253735738173
-0.005041226132522009   -0.0005794079333187316   0.0002976901284987712
0.0   0.0   0.0
0.0   0.0   0.0
0.0030278394359709478   -0.013256644073104522   0.0006812253735738173
-0.005041226132522009   -0.0005794079333187316   0.0002976901284987712
0.0   0.0   0.0
-0.0037455130440520825   -0.01342407887650709   0.00026214250823643426
-0.003496673068357076   -0.013617909851353858   8.955530836209704e-05
-0.004394380192575516   -0.0011061876909769313   -3.8919849140787176e-05
-0.010454482497332915   -0.013818623036335909   -9.32435452839191e-05
-0.003604282976497585   -0.013547970581000223   0.00016752347927960612
-0.004394380192575516   -0.0011061876909769313   -3.8919849140787176e-05
-0.010767703939948907   -0.0014460093793990637   -3.950021351402713e-05
-0.010454482497332915   -0.013818623036335909   -9.32435452839191e-05
-0.010902588697971921   -0.0013099299705536208   -1.2911144103149505e-06
-0.003604282976497585   -0.013547970581000223   0.00016752347927960612
-0.010553393491984501   -0.013712139819697752   -3.808639779741406e-05
-0.010902588697971921   -0.0013099299705536208   -1.2911144103149505e-06
-0.010454482497332915   -0.013818623036335909   -9.32435452839191e-05
-0.003604282976497585   -0.013547970581000223   0.00016752347927960612
-0.010902588697971921   -0.0013099299705536208   -1.2911144103149505e-06
-0.0046567622359917574   -0.000858091739316531   0.00011164145516901694
-0.004394380192575516   -0.0011061876909769313   -3.8919849140787176e-05
-0.003604282976497585   -0.013547970581000223   0.00016752347927960612
-0.010902588697971921   -0.0013099299705536208   -1.2911144103149505e-06
-0.004394380192575516   -0.0011061876909769313   -3.8919849140787176e-05
-0.010454482497332915   -0.013818623036335909   -9.32435452839191e-05
-0.003604282976497585   -0.013547970581000223   0.00016752347927960612
-0.0046567622359917574   -0.000858091739316531   0.00011164145516901694
-0.010553393491984501   -0.013712139819697752   -3.808639779741406e-05
-0.0037455130440520825   -0.01342407887650709   0.00026214250823643426
-0.0046567622359917574   -0.000858091739316531   0.00011164145516901694
-0.010902588697971921   -0.0013099299705536208   -1.2911144103149505e-06
-0.010553393491984501   -0.013712139819697752   -3.808639779741406e-05
-0.011036793214910499   -0.0011508417264229616   6.744434038242746e-05
-0.0037455130440520825   -0.01342407887650709   0.00026214250823643426
-0.010656831610904673   -0.013592031354618686   2.02396506535048e-05
-0.011036793214910499   -0.0011508417264229616   6.744434038242746e-05
-0.010553393491984501   -0.013712139819697752   -3.808639779741406e-05
-0.0037455130440520825   -0.01342407887650709   0.00026214250823643426
-0.011036793214910499   -0.0011508417264229616   6.744434038242746e-05
-0.004821191285722899   -0.0007383196864949562   0.0001982868120880722
-0.0046567622359917574   -0.000858091739316531   0.00011164145516901694
-0.0037455130440520825   -0.01342407887650709   0.00026214250823643426
-0.011036793214910499   -0.0011508417264229616   6.744434038242746e-05
-0.0046567622359917574   -0.000858091739316531   0.00011164145516901694
-0.010553393491984501   -0.013712139819697752   -3.808639779741406e-05
-0.0037455130440520825   -0.01342407887650709   0.00026214250823643426
-0.004821191285722899   -0.0007383196864949562   0.0001982868120880722
-0.010656831610904673   -0.013592031354618686   2.02396506535048e-05
-0.0038641639251321943   -0.013290748254129632   0.0003454464088810952
-0.004821191285722899   -0.0007383196864949562   0.0001982868120880722
-0.011036793214910499   -0.0011508417264229616   6.744434038242746e-05
-0.010656831610904673   -0.013592031354618686   2.02396506535048e-05
-0.01118496030003798   -0.0009672080423789927   0.00013307525213379214
-0.0038641639251321943   -0.013290748254129632   0.0003454464088810952
-0.01075506986598298   -0.013460393971433946   8.453583116590779e-05
-0.01118496030003798   -0.0009672080423789927   0.00013307525213379214
-0.010656831610904673   -0.013592031354618686   2.02396506535048e-05
-0.0038641639251321943   -0.013290748254129632   0.0003454464088810952
-0.01118496030003798   -0.0009672080423789927   0.00013307525213379214
-0.005041226132522009   -0.0005794079333187316   0.0002976901284987712
-0.004821191285722899   -0.0007383196864949562   0.0001982868120880722
-0.0038641639251321943   -0.013290748254129632   0.0003454464088810952
-0.01118496030003798   -0.0009672080423789927   0.00013307525213379214
-0.004821191285722899   -0.0007383196864949562   0.0001982868120880722
-0.010656831610904673   -0.013592031354618686   2.02396506535048e-05
-0.010454482497332915   -0.013818623036335909   -9.32435452839191e-05
-0.010767703939948907   -0.0014460093793990637   -3.950021351402713e-05
-0.0175840136961002   -0.013975399508119846   -0.00029553870062485607
-0.010553393491984501   -0.013712139819697752   -3.808639779741406e-05
-0.010767703939948907   -0.0014460093793990637   -3.950021351402713e-05
-0.01775845043474647   -0.0015391995696667018   -0.0001686117647524403
-0.0175840136961002   -0.013975399508119846   -0.00029553870062485607
-0.017840078187785935   -0.0014324867408458451   -0.0001582462703690024
-0.010553393491984501   -0.013712139819697752   -3.808639779741406e-05
-0.017672773307808462   -0.013866111778335747   -0.0002528583295509682
-0.017840078187785935   -0.0014324867408458451   -0.0001582462703690024
-0.0175840136961002   -0.013975399508119846   -0.00029553870062485607
-0.010553393491984501   -0.013712139819697752   -3.808639779741406e-05
-0.017840078187785935   -0.0014324867408458451   -0.0001582462703690024
-0.010902588697971921   -0.0013099299705536208   -1.2911144103149505e-06
-0.010767703939948907   -0.0014460093793990637   -3.950021351402713e-05
-0.010553393491984501   -0.013712139819697752   -3.808639779741406e-05
-0.017840078187785935   -0.0014324867408458451   -0.0001582462703690024
-0.010767703939948907   -0.0014460093793990637   -3.950021351402713e-05
-0.0175840136961002   -0.013975399508119846   -0.00029553870062485607
-0.010553393491984501   -0.013712139819697752   -3.808639779741406e-05
-0.010902588697971921   -0.0013099299705536208   -1.2911144103149505e-06
-0.017672773307808462   -0.013866111778335747   -0.0002528583295509682
-0.010656831610904673   -0.013592031354618686   2.02396506535048e-05
-0.010902588697971921   -0.0013099299705536208   -1.2911144103149505e-06
-0.017840078187785935   -0.0014324867408458451   -0.0001582462703690024
-0.017672773307808462   -0.013866111778335747   -0.0002528583295509682
-0.01792491733728768   -0.0013089293301008329   -0.0001399299956951034
-0.010656831610904673   -0.013592031354618686   2.02396506535048e-05
-0.017757677407272736   -0.013750739393922254   -0.00021035162385684545
-0.01792491733728768   -0.0013089293301008329   -0.0001399299956951034
-0.017672773307808462   -0.013866111778335747   -0.0002528583295509682
-0.010656831610904673   -0.013592031354618686   2.02396506535048e-05
-0.01792491733728768   -0.0013089293301008329   -0.0001399299956951034
-0.011036793214910499   -0.0011508417264229616   6.744434038242746e-05
-0.010902588697971921   -0.0013099299705536208   -1.2911144103149505e-06
-0.010656831610904673   -0.013592031354618686   2.02396506535048e-05
-0.01792491733728768   -0.0013089293301008329   -0.0001399299956951034
-0.010902588697971921   -0.0013099299705536208   -1.2911144103149505e-06
-0.017672773307808462   -0.013866111778335747   -0.0002528583295509682
-0.010656831610904673   -0.013592031354618686   2.02396506535048e-05
-0.011036793214910499   -0.0011508417264229616   6.744434038242746e-05
-0.017757677407272736   -0.013750739393922254   -0.00021035162385684545
-0.01075506986598298   -0.013460393971433946   8.453583116590779e-05
-0.011036793214910499   -0.0011508417264229616   6.744434038242746e-05
-0.01792491733728768   -0.0013089293301008329   -0.0001399299956951034
-0.017757677407272736   -0.013750739393922254   -0.00021035162385684545
-0.01800504869173979   -0.00115909442671758   -0.00011569662627813151
-0.01075506986598298   -0.013460393971433946   8.453583116590779e-05
-0.017835892646484018   -0.013625868011878428   -0.00016411165667642346
-0.01800504869173979   -0.00115909442671758   -0.00011569662627813151
-0.017757677407272736   -0.013750739393922254   -0.00021035162385684545
-0.01075506986598298   -0.013460393971433946   8.453583116590779e-05
-0.01800504869173979   -0.00115909442671758   -0.00011569662627813151
-0.01118496030003798   -0.0009672080423789927   0.00013307525213379214
-0.011036793214910499   -0.0011508417264229616   6.744434038242746e-05
-0.01075506986598298   -0.013460393971433946   8.453583116590779e-05
-0.01800504869173979   -0.00115909442671758   -0.00011569662627813151
-0.011036793214910499   -0.0011508417264229616   6.744434038242746e-05
-0.017757677407272736   -0.013750739393922254   -0.00021035162385684545
-0.0175840136961002   -0.013975399508119846   -0.00029553870062485607
-0.01775845043474647   -0.0015391995696667018   -0.0001686117647524403
-0.02496394326283052   -0.014039664292194522   -0.00048236822670677385
-0.017672773307808462   -0.013866111778335747   -0.0002528583295509682
-0.01775845043474647   -0.0015391995696667018   -0.0001686117647524403
-0.025092814883720605   -0.001521165822666651   -0.00035277072768425993
-0.02496394326283052   -0.014039664292194522   -0.00048236822670677385
-0.025147892600892816   -0.0014248247251407973   -0.0003483658919097116
-0.017672773307808462   -0.013866111778335747   -0.0002528583295509682
-0.02504389130844172   -0.013941401525320233   -0.0004513081875514215
-0.025147892600892816   -0.0014248247251407973   -0.0003483658919097116
-0.02496394326283052   -0.014039664292194522   -0.00048236822670677385
-0.017672773307808462   -0.013866111778335747   -0.0002528583295509682
-0.025147892600892816   -0.0014248247251407973   -0.0003483658919097116
-0.017840078187785935   -0.0014324867408458451   -0.0001582462703690024
-0.01775845043474647   -0.0015391995696667018   -0.0001686117647524403
-0.017672773307808462   -0.013866111778335747   -0.0002528583295509682
-0.025147892600892816   -0.0014248247251407973   -0.0003483658919097116
-0.01775845043474647   -0.0015391995696667018   -0.0001686117647524403
-0.02496394326283052   -0.014039664292194522   -0.00048236822670677385
-0.017672773307808462   -0.013866111778335747   -0.0002528583295509682
-0.017840078187785935   -0.0014324867408458451   -0.0001582462703690024
-0.02504389130844172   -0.013941401525320233   -0.0004513081875514215
-0.017757677407272736   -0.013750739393922254   -0.00021035162385684545
-0.017840078187785935   -0.0014324867408458451   -0.0001582462703690024
-0.025147892600892816   -0.0014248247251407973   -0.0003483658919097116
-0.02504389130844172   -0.013941401525320233   -0.0004513081875514215
-0.025205367690965524   -0.0013178800052980842   -0.0003454859766522185
-0.017757677407272736   -0.013750739393922254   -0.00021035162385684545
-0.02511513019093132   -0.013834453698616082   -0.0004211663986094193
-0.025205367690965524   -0.0013178800052980842   -0.0003454859766522185
-0.02504389130844172   -0.013941401525320233   -0.0004513081875514215
-0.017757677407272736   -0.013750739393922254   -0.00021035162385684545
-0.025205367690965524   -0.0013178800052980842   -0.0003454859766522185
-0.01792491733728768   -0.0013089293301008329   -0.0001399299956951034
-0.017840078187785935   -0.0014324867408458451   -0.0001582462703690024
-0.017757677407272736   -0.013750739393922254   -0.00021035162385684545
-0.025205367690965524   -0.0013178800052980842   -0.0003454859766522185
-0.017840078187785935   -0.0014324867408458451   -0.0001582462703690024
-0.02504389130844172   -0.013941401525320233   -0.0004513081875514215
-0.017757677407272736   -0.013750739393922254   -0.00021035162385684545
-0.01792491733728768   -0.0013089293301008329   -0.0001399299956951034
-0.02511513019093132   -0.013834453698616082   -0.0004211663986094193
-0.017835892646484018   -0.013625868011878428   -0.00016411165667642346
-0.01792491733728768   -0.0013089293301008329   -0.0001399299956951034
-0.025205367690965524   -0.0013178800052980842   -0.0003454859766522185
-0.02511513019093132   -0.013834453698616082   -0.0004211663986094193
-0.025248733679525997   -0.0012023793667731545   -0.00034439305672291214
-0.017835892646484018   -0.013625868011878428   -0.00016411165667642346
-0.025179625040676057   -0.013720646724753129   -0.00039016793437600747
-0.025248733679525997   -0.0012023793667731545   -0.00034439305672291214
-0.02511513019093132   -0.013834453698616082   -0.0004211663986094193
-0.017835892646484018   -0.013625868011878428   -0.00016411165667642346
-0.025248733679525997   -0.0012023793667731545   -0.00034439305672291214
-0.01800504869173979   -0.00115909442671758   -0.00011569662627813151
-0.01792491733728768   -0.0013089293301008329   -0.0001399299956951034
-0.017835892646484018   -0.013625868011878428   -0.00016411165667642346
-0.025248733679525997   -0.0012023793667731545   -0.00034439305672291214
-0.01792491733728768   -0.0013089293301008329   -0.0001399299956951034
-0.02511513019093132   -0.013834453698616082   -0.0004211663986094193
-0.02496394326283052   -0.014039664292194522   -0.00048236822670677385
-0.025092814883720605   -0.001521165822666651   -0.00035277072768425993
-0.03260548190573909   -0.014046963666793543   -0.000637727151507669
-0.02504389130844172   -0.013941401525320233   -0.0004513081875514215
-0.025092814883720605   -0.001521165822666651   -0.00035277072768425993
-0.03262875057694518   -0.0015099245475205163   -0.0005339234956259606
-0.03260548190573909   -0.014046963666793543   -0.000637727151507669
-0.032673093228780294   -0.001405309930235634   -0.0005339354506723056
-0.02504389130844172   -0.013941401525320233   -0.0004513081875514215
-0.03267427250428661   -0.013951533431194168   -0.0006244961209773351
-0.032673093228780294   -0.001405309930235634   -0.0005339354506723056
-0.03260548190573909   -0.014046963666793543   -0.000637727151507669
-0.02504389130844172   -0.013941401525320233   -0.0004513081875514215
-0.032673093228780294   -0.001405309930235634   -0.0005339354506723056
-0.025147892600892816   -0.0014248247251407973   -0.0003483658919097116
-0.025092814883720605   -0.001521165822666651   -0.00035277072768425993
-0.02504389130844172   -0.013941401525320233   -0.0004513081875514215
-0.032673093228780294   -0.001405309930235634   -0.0005339354506723056
-0.025092814883720605   -0.001521165822666651   -0.00035277072768425993
-0.03260548190573909   -0.014046963666793543   -0.000637727151507669
-0.02504389130844172   -0.013941401525320233   -0.0004513081875514215
-0.025147892600892816   -0.0014248247251407973   -0.0003483658919097116
-0.03267427250428661   -0.013951533431194168   -0.0006244961209773351
-0.02511513019093132   -0.013834453698616082   -0.0004211663986094193
-0.025147892600892816   -0.0014248247251407973   -0.0003483658919097116
-0.032673093228780294   -0.001405309930235634   -0.0005339354506723056
-0.03267427250428661   -0.013951533431194168   -0.0006244961209773351
-0.03272179515380739   -0.0013009931701672113   -0.0005421001489711569
-0.02511513019093132   -0.013834453698616082   -0.0004211663986094193
-0.03273590273128902   -0.013848435133015067   -0.0006090409385226423
-0.03272179515380739   -0.0013009931701672113   -0.0005421001489711569
-0.03267427250428661   -0.013951533431194168   -0.0006244961209773351
-0.02511513019093132   -0.013834453698616082   -0.0004211663986094193
-0.03272179515380739   -0.0013009931701672113   -0.0005421001489711569
-0.025205367690965524   -0.0013178800052980842   -0.0003454859766522185
-0.025147892600892816   -0.0014248247251407973   -0.0003483658919097116
-0.02511513019093132   -0.013834453698616082   -0.0004211663986094193
-0.03272179515380739   -0.0013009931701672113   -0.0005421001489711569
-0.025147892600892816   -0.0014248247251407973   -0.0003483658919097116
-0.03267427250428661   -0.013951533431194168   -0.0006244961209773351
-0.02511513019093132   -0.013834453698616082   -0.0004211663986094193
-0.025205367690965524   -0.0013178800052980842   -0.0003454859766522185
-0.03273590273128902   -0.013848435133015067   -0.0006090409385226423
-0.025179625040676057   -0.013720646724753129   -0.00039016793437600747
-0.025205367690965524   -0.0013178800052980842   -0.0003454859766522185
-0.03272179515380739   -0.0013009931701672113   -0.0005421001489711569
-0.03273590273128902   -0.013848435133015067   -0.0006090409385226423
-0.03275758109464501   -0.0011875577427910959   -0.0005508270127899951
-0.025179625040676057   -0.013720646724753129   -0.00039016793437600747
-0.03278785672122443   -0.013739248534363762   -0.0005947329971077988
-0.03275758109464501   -0.0011875577427910959   -0.0005508270127899951
-0.03273590273128902   -0.013848435133015067   -0.0006090409385226423
-0.025179625040676057   -0.013720646724753129   -0.00039016793437600747
-0.03275758109464501   -0.0011875577427910959   -0.0005508270127899951
-0.025248733679525997   -0.0012023793667731545   -0.00034439305672291214
-0.025205367690965524   -0.0013178800052980842   -0.0003454859766522185
-0.025179625040676057   -0.013720646724753129   -0.00039016793437600747
-0.03275758109464501   -0.0011875577427910959   -0.0005508270127899951
-0.025205367690965524   -0.0013178800052980842   -0.0003454859766522185
-0.03273590273128902   -0.013848435133015067   -0.0006090409385226423
              </DataArray>   
          </PointData>  
       </Piece>  
   </UnstructuredGrid> 
</VTKFile> 
