<?xml version="1.0"?> 
<VTKFile type="UnstructuredGrid"> 
   <UnstructuredGrid> 
      <Piece NumberOfPoints="6000"  NumberOfCells="1500">  
          <Points>  
             <DataArray type="Float64" NumberOfComponents="3" format="ascii">   
-500.0   0.0   0.0
-450.0   0.0   0.0
-500.0   30.0   0.0
-500.0   0.0   16.666666666666668
-450.0   0.0   0.0
-450.0   30.0   0.0
-500.0   30.0   0.0
-450.0   30.0   16.666666666666668
-500.0   0.0   16.666666666666668
-500.0   30.0   16.666666666666668
-450.0   30.0   16.666666666666668
-500.0   30.0   0.0
-500.0   0.0   16.666666666666668
-450.0   30.0   16.666666666666668
-450.0   0.0   16.666666666666668
-450.0   0.0   0.0
-500.0   0.0   16.666666666666668
-450.0   30.0   16.666666666666668
-450.0   0.0   0.0
-500.0   30.0   0.0
-500.0   0.0   16.666666666666668
-450.0   0.0   16.666666666666668
-500.0   30.0   16.666666666666668
-500.0   0.0   33.333333333333336
-450.0   0.0   16.666666666666668
-450.0   30.0   16.666666666666668
-500.0   30.0   16.666666666666668
-450.0   30.0   33.333333333333336
-500.0   0.0   33.333333333333336
-500.0   30.0   33.333333333333336
-450.0   30.0   33.333333333333336
-500.0   30.0   16.666666666666668
-500.0   0.0   33.333333333333336
-450.0   30.0   33.333333333333336
-450.0   0.0   33.333333333333336
-450.0   0.0   16.666666666666668
-500.0   0.0   33.333333333333336
-450.0   30.0   33.333333333333336
-450.0   0.0   16.666666666666668
-500.0   30.0   16.666666666666668
-500.0   0.0   33.333333333333336
-450.0   0.0   33.333333333333336
-500.0   30.0   33.333333333333336
-500.0   0.0   50.0
-450.0   0.0   33.333333333333336
-450.0   30.0   33.333333333333336
-500.0   30.0   33.333333333333336
-450.0   30.0   50.0
-500.0   0.0   50.0
-500.0   30.0   50.0
-450.0   30.0   50.0
-500.0   30.0   33.333333333333336
-500.0   0.0   50.0
-450.0   30.0   50.0
-450.0   0.0   50.0
-450.0   0.0   33.333333333333336
-500.0   0.0   50.0
-450.0   30.0   50.0
-450.0   0.0   33.333333333333336
-500.0   30.0   33.333333333333336
-500.0   30.0   0.0
-450.0   30.0   0.0
-500.0   60.0   0.0
-500.0   30.0   16.666666666666668
-450.0   30.0   0.0
-450.0   60.0   0.0
-500.0   60.0   0.0
-450.0   60.0   16.666666666666668
-500.0   30.0   16.666666666666668
-500.0   60.0   16.666666666666668
-450.0   60.0   16.666666666666668
-500.0   60.0   0.0
-500.0   30.0   16.666666666666668
-450.0   60.0   16.666666666666668
-450.0   30.0   16.666666666666668
-450.0   30.0   0.0
-500.0   30.0   16.666666666666668
-450.0   60.0   16.666666666666668
-450.0   30.0   0.0
-500.0   60.0   0.0
-500.0   30.0   16.666666666666668
-450.0   30.0   16.666666666666668
-500.0   60.0   16.666666666666668
-500.0   30.0   33.333333333333336
-450.0   30.0   16.666666666666668
-450.0   60.0   16.666666666666668
-500.0   60.0   16.666666666666668
-450.0   60.0   33.333333333333336
-500.0   30.0   33.333333333333336
-500.0   60.0   33.333333333333336
-450.0   60.0   33.333333333333336
-500.0   60.0   16.666666666666668
-500.0   30.0   33.333333333333336
-450.0   60.0   33.333333333333336
-450.0   30.0   33.333333333333336
-450.0   30.0   16.666666666666668
-500.0   30.0   33.333333333333336
-450.0   60.0   33.333333333333336
-450.0   30.0   16.666666666666668
-500.0   60.0   16.666666666666668
-500.0   30.0   33.333333333333336
-450.0   30.0   33.333333333333336
-500.0   60.0   33.333333333333336
-500.0   30.0   50.0
-450.0   30.0   33.333333333333336
-450.0   60.0   33.333333333333336
-500.0   60.0   33.333333333333336
-450.0   60.0   50.0
-500.0   30.0   50.0
-500.0   60.0   50.0
-450.0   60.0   50.0
-500.0   60.0   33.333333333333336
-500.0   30.0   50.0
-450.0   60.0   50.0
-450.0   30.0   50.0
-450.0   30.0   33.333333333333336
-500.0   30.0   50.0
-450.0   60.0   50.0
-450.0   30.0   33.333333333333336
-500.0   60.0   33.333333333333336
-500.0   60.0   0.0
-450.0   60.0   0.0
-500.0   90.0   0.0
-500.0   60.0   16.666666666666668
-450.0   60.0   0.0
-450.0   90.0   0.0
-500.0   90.0   0.0
-450.0   90.0   16.666666666666668
-500.0   60.0   16.666666666666668
-500.0   90.0   16.666666666666668
-450.0   90.0   16.666666666666668
-500.0   90.0   0.0
-500.0   60.0   16.666666666666668
-450.0   90.0   16.666666666666668
-450.0   60.0   16.666666666666668
-450.0   60.0   0.0
-500.0   60.0   16.666666666666668
-450.0   90.0   16.666666666666668
-450.0   60.0   0.0
-500.0   90.0   0.0
-500.0   60.0   16.666666666666668
-450.0   60.0   16.666666666666668
-500.0   90.0   16.666666666666668
-500.0   60.0   33.333333333333336
-450.0   60.0   16.666666666666668
-450.0   90.0   16.666666666666668
-500.0   90.0   16.666666666666668
-450.0   90.0   33.333333333333336
-500.0   60.0   33.333333333333336
-500.0   90.0   33.333333333333336
-450.0   90.0   33.333333333333336
-500.0   90.0   16.666666666666668
-500.0   60.0   33.333333333333336
-450.0   90.0   33.333333333333336
-450.0   60.0   33.333333333333336
-450.0   60.0   16.666666666666668
-500.0   60.0   33.333333333333336
-450.0   90.0   33.333333333333336
-450.0   60.0   16.666666666666668
-500.0   90.0   16.666666666666668
-500.0   60.0   33.333333333333336
-450.0   60.0   33.333333333333336
-500.0   90.0   33.333333333333336
-500.0   60.0   50.0
-450.0   60.0   33.333333333333336
-450.0   90.0   33.333333333333336
-500.0   90.0   33.333333333333336
-450.0   90.0   50.0
-500.0   60.0   50.0
-500.0   90.0   50.0
-450.0   90.0   50.0
-500.0   90.0   33.333333333333336
-500.0   60.0   50.0
-450.0   90.0   50.0
-450.0   60.0   50.0
-450.0   60.0   33.333333333333336
-500.0   60.0   50.0
-450.0   90.0   50.0
-450.0   60.0   33.333333333333336
-500.0   90.0   33.333333333333336
-500.0   90.0   0.0
-450.0   90.0   0.0
-500.0   120.0   0.0
-500.0   90.0   16.666666666666668
-450.0   90.0   0.0
-450.0   120.0   0.0
-500.0   120.0   0.0
-450.0   120.0   16.666666666666668
-500.0   90.0   16.666666666666668
-500.0   120.0   16.666666666666668
-450.0   120.0   16.666666666666668
-500.0   120.0   0.0
-500.0   90.0   16.666666666666668
-450.0   120.0   16.666666666666668
-450.0   90.0   16.666666666666668
-450.0   90.0   0.0
-500.0   90.0   16.666666666666668
-450.0   120.0   16.666666666666668
-450.0   90.0   0.0
-500.0   120.0   0.0
-500.0   90.0   16.666666666666668
-450.0   90.0   16.666666666666668
-500.0   120.0   16.666666666666668
-500.0   90.0   33.333333333333336
-450.0   90.0   16.666666666666668
-450.0   120.0   16.666666666666668
-500.0   120.0   16.666666666666668
-450.0   120.0   33.333333333333336
-500.0   90.0   33.333333333333336
-500.0   120.0   33.333333333333336
-450.0   120.0   33.333333333333336
-500.0   120.0   16.666666666666668
-500.0   90.0   33.333333333333336
-450.0   120.0   33.333333333333336
-450.0   90.0   33.333333333333336
-450.0   90.0   16.666666666666668
-500.0   90.0   33.333333333333336
-450.0   120.0   33.333333333333336
-450.0   90.0   16.666666666666668
-500.0   120.0   16.666666666666668
-500.0   90.0   33.333333333333336
-450.0   90.0   33.333333333333336
-500.0   120.0   33.333333333333336
-500.0   90.0   50.0
-450.0   90.0   33.333333333333336
-450.0   120.0   33.333333333333336
-500.0   120.0   33.333333333333336
-450.0   120.0   50.0
-500.0   90.0   50.0
-500.0   120.0   50.0
-450.0   120.0   50.0
-500.0   120.0   33.333333333333336
-500.0   90.0   50.0
-450.0   120.0   50.0
-450.0   90.0   50.0
-450.0   90.0   33.333333333333336
-500.0   90.0   50.0
-450.0   120.0   50.0
-450.0   90.0   33.333333333333336
-500.0   120.0   33.333333333333336
-500.0   120.0   0.0
-450.0   120.0   0.0
-500.0   150.0   0.0
-500.0   120.0   16.666666666666668
-450.0   120.0   0.0
-450.0   150.0   0.0
-500.0   150.0   0.0
-450.0   150.0   16.666666666666668
-500.0   120.0   16.666666666666668
-500.0   150.0   16.666666666666668
-450.0   150.0   16.666666666666668
-500.0   150.0   0.0
-500.0   120.0   16.666666666666668
-450.0   150.0   16.666666666666668
-450.0   120.0   16.666666666666668
-450.0   120.0   0.0
-500.0   120.0   16.666666666666668
-450.0   150.0   16.666666666666668
-450.0   120.0   0.0
-500.0   150.0   0.0
-500.0   120.0   16.666666666666668
-450.0   120.0   16.666666666666668
-500.0   150.0   16.666666666666668
-500.0   120.0   33.333333333333336
-450.0   120.0   16.666666666666668
-450.0   150.0   16.666666666666668
-500.0   150.0   16.666666666666668
-450.0   150.0   33.333333333333336
-500.0   120.0   33.333333333333336
-500.0   150.0   33.333333333333336
-450.0   150.0   33.333333333333336
-500.0   150.0   16.666666666666668
-500.0   120.0   33.333333333333336
-450.0   150.0   33.333333333333336
-450.0   120.0   33.333333333333336
-450.0   120.0   16.666666666666668
-500.0   120.0   33.333333333333336
-450.0   150.0   33.333333333333336
-450.0   120.0   16.666666666666668
-500.0   150.0   16.666666666666668
-500.0   120.0   33.333333333333336
-450.0   120.0   33.333333333333336
-500.0   150.0   33.333333333333336
-500.0   120.0   50.0
-450.0   120.0   33.333333333333336
-450.0   150.0   33.333333333333336
-500.0   150.0   33.333333333333336
-450.0   150.0   50.0
-500.0   120.0   50.0
-500.0   150.0   50.0
-450.0   150.0   50.0
-500.0   150.0   33.333333333333336
-500.0   120.0   50.0
-450.0   150.0   50.0
-450.0   120.0   50.0
-450.0   120.0   33.333333333333336
-500.0   120.0   50.0
-450.0   150.0   50.0
-450.0   120.0   33.333333333333336
-500.0   150.0   33.333333333333336
-450.0   0.0   0.0
-400.0   0.0   0.0
-450.0   30.0   0.0
-450.0   0.0   16.666666666666668
-400.0   0.0   0.0
-400.0   30.0   0.0
-450.0   30.0   0.0
-400.0   30.0   16.666666666666668
-450.0   0.0   16.666666666666668
-450.0   30.0   16.666666666666668
-400.0   30.0   16.666666666666668
-450.0   30.0   0.0
-450.0   0.0   16.666666666666668
-400.0   30.0   16.666666666666668
-400.0   0.0   16.666666666666668
-400.0   0.0   0.0
-450.0   0.0   16.666666666666668
-400.0   30.0   16.666666666666668
-400.0   0.0   0.0
-450.0   30.0   0.0
-450.0   0.0   16.666666666666668
-400.0   0.0   16.666666666666668
-450.0   30.0   16.666666666666668
-450.0   0.0   33.333333333333336
-400.0   0.0   16.666666666666668
-400.0   30.0   16.666666666666668
-450.0   30.0   16.666666666666668
-400.0   30.0   33.333333333333336
-450.0   0.0   33.333333333333336
-450.0   30.0   33.333333333333336
-400.0   30.0   33.333333333333336
-450.0   30.0   16.666666666666668
-450.0   0.0   33.333333333333336
-400.0   30.0   33.333333333333336
-400.0   0.0   33.333333333333336
-400.0   0.0   16.666666666666668
-450.0   0.0   33.333333333333336
-400.0   30.0   33.333333333333336
-400.0   0.0   16.666666666666668
-450.0   30.0   16.666666666666668
-450.0   0.0   33.333333333333336
-400.0   0.0   33.333333333333336
-450.0   30.0   33.333333333333336
-450.0   0.0   50.0
-400.0   0.0   33.333333333333336
-400.0   30.0   33.333333333333336
-450.0   30.0   33.333333333333336
-400.0   30.0   50.0
-450.0   0.0   50.0
-450.0   30.0   50.0
-400.0   30.0   50.0
-450.0   30.0   33.333333333333336
-450.0   0.0   50.0
-400.0   30.0   50.0
-400.0   0.0   50.0
-400.0   0.0   33.333333333333336
-450.0   0.0   50.0
-400.0   30.0   50.0
-400.0   0.0   33.333333333333336
-450.0   30.0   33.333333333333336
-450.0   30.0   0.0
-400.0   30.0   0.0
-450.0   60.0   0.0
-450.0   30.0   16.666666666666668
-400.0   30.0   0.0
-400.0   60.0   0.0
-450.0   60.0   0.0
-400.0   60.0   16.666666666666668
-450.0   30.0   16.666666666666668
-450.0   60.0   16.666666666666668
-400.0   60.0   16.666666666666668
-450.0   60.0   0.0
-450.0   30.0   16.666666666666668
-400.0   60.0   16.666666666666668
-400.0   30.0   16.666666666666668
-400.0   30.0   0.0
-450.0   30.0   16.666666666666668
-400.0   60.0   16.666666666666668
-400.0   30.0   0.0
-450.0   60.0   0.0
-450.0   30.0   16.666666666666668
-400.0   30.0   16.666666666666668
-450.0   60.0   16.666666666666668
-450.0   30.0   33.333333333333336
-400.0   30.0   16.666666666666668
-400.0   60.0   16.666666666666668
-450.0   60.0   16.666666666666668
-400.0   60.0   33.333333333333336
-450.0   30.0   33.333333333333336
-450.0   60.0   33.333333333333336
-400.0   60.0   33.333333333333336
-450.0   60.0   16.666666666666668
-450.0   30.0   33.333333333333336
-400.0   60.0   33.333333333333336
-400.0   30.0   33.333333333333336
-400.0   30.0   16.666666666666668
-450.0   30.0   33.333333333333336
-400.0   60.0   33.333333333333336
-400.0   30.0   16.666666666666668
-450.0   60.0   16.666666666666668
-450.0   30.0   33.333333333333336
-400.0   30.0   33.333333333333336
-450.0   60.0   33.333333333333336
-450.0   30.0   50.0
-400.0   30.0   33.333333333333336
-400.0   60.0   33.333333333333336
-450.0   60.0   33.333333333333336
-400.0   60.0   50.0
-450.0   30.0   50.0
-450.0   60.0   50.0
-400.0   60.0   50.0
-450.0   60.0   33.333333333333336
-450.0   30.0   50.0
-400.0   60.0   50.0
-400.0   30.0   50.0
-400.0   30.0   33.333333333333336
-450.0   30.0   50.0
-400.0   60.0   50.0
-400.0   30.0   33.333333333333336
-450.0   60.0   33.333333333333336
-450.0   60.0   0.0
-400.0   60.0   0.0
-450.0   90.0   0.0
-450.0   60.0   16.666666666666668
-400.0   60.0   0.0
-400.0   90.0   0.0
-450.0   90.0   0.0
-400.0   90.0   16.666666666666668
-450.0   60.0   16.666666666666668
-450.0   90.0   16.666666666666668
-400.0   90.0   16.666666666666668
-450.0   90.0   0.0
-450.0   60.0   16.666666666666668
-400.0   90.0   16.666666666666668
-400.0   60.0   16.666666666666668
-400.0   60.0   0.0
-450.0   60.0   16.666666666666668
-400.0   90.0   16.666666666666668
-400.0   60.0   0.0
-450.0   90.0   0.0
-450.0   60.0   16.666666666666668
-400.0   60.0   16.666666666666668
-450.0   90.0   16.666666666666668
-450.0   60.0   33.333333333333336
-400.0   60.0   16.666666666666668
-400.0   90.0   16.666666666666668
-450.0   90.0   16.666666666666668
-400.0   90.0   33.333333333333336
-450.0   60.0   33.333333333333336
-450.0   90.0   33.333333333333336
-400.0   90.0   33.333333333333336
-450.0   90.0   16.666666666666668
-450.0   60.0   33.333333333333336
-400.0   90.0   33.333333333333336
-400.0   60.0   33.333333333333336
-400.0   60.0   16.666666666666668
-450.0   60.0   33.333333333333336
-400.0   90.0   33.333333333333336
-400.0   60.0   16.666666666666668
-450.0   90.0   16.666666666666668
-450.0   60.0   33.333333333333336
-400.0   60.0   33.333333333333336
-450.0   90.0   33.333333333333336
-450.0   60.0   50.0
-400.0   60.0   33.333333333333336
-400.0   90.0   33.333333333333336
-450.0   90.0   33.333333333333336
-400.0   90.0   50.0
-450.0   60.0   50.0
-450.0   90.0   50.0
-400.0   90.0   50.0
-450.0   90.0   33.333333333333336
-450.0   60.0   50.0
-400.0   90.0   50.0
-400.0   60.0   50.0
-400.0   60.0   33.333333333333336
-450.0   60.0   50.0
-400.0   90.0   50.0
-400.0   60.0   33.333333333333336
-450.0   90.0   33.333333333333336
-450.0   90.0   0.0
-400.0   90.0   0.0
-450.0   120.0   0.0
-450.0   90.0   16.666666666666668
-400.0   90.0   0.0
-400.0   120.0   0.0
-450.0   120.0   0.0
-400.0   120.0   16.666666666666668
-450.0   90.0   16.666666666666668
-450.0   120.0   16.666666666666668
-400.0   120.0   16.666666666666668
-450.0   120.0   0.0
-450.0   90.0   16.666666666666668
-400.0   120.0   16.666666666666668
-400.0   90.0   16.666666666666668
-400.0   90.0   0.0
-450.0   90.0   16.666666666666668
-400.0   120.0   16.666666666666668
-400.0   90.0   0.0
-450.0   120.0   0.0
-450.0   90.0   16.666666666666668
-400.0   90.0   16.666666666666668
-450.0   120.0   16.666666666666668
-450.0   90.0   33.333333333333336
-400.0   90.0   16.666666666666668
-400.0   120.0   16.666666666666668
-450.0   120.0   16.666666666666668
-400.0   120.0   33.333333333333336
-450.0   90.0   33.333333333333336
-450.0   120.0   33.333333333333336
-400.0   120.0   33.333333333333336
-450.0   120.0   16.666666666666668
-450.0   90.0   33.333333333333336
-400.0   120.0   33.333333333333336
-400.0   90.0   33.333333333333336
-400.0   90.0   16.666666666666668
-450.0   90.0   33.333333333333336
-400.0   120.0   33.333333333333336
-400.0   90.0   16.666666666666668
-450.0   120.0   16.666666666666668
-450.0   90.0   33.333333333333336
-400.0   90.0   33.333333333333336
-450.0   120.0   33.333333333333336
-450.0   90.0   50.0
-400.0   90.0   33.333333333333336
-400.0   120.0   33.333333333333336
-450.0   120.0   33.333333333333336
-400.0   120.0   50.0
-450.0   90.0   50.0
-450.0   120.0   50.0
-400.0   120.0   50.0
-450.0   120.0   33.333333333333336
-450.0   90.0   50.0
-400.0   120.0   50.0
-400.0   90.0   50.0
-400.0   90.0   33.333333333333336
-450.0   90.0   50.0
-400.0   120.0   50.0
-400.0   90.0   33.333333333333336
-450.0   120.0   33.333333333333336
-450.0   120.0   0.0
-400.0   120.0   0.0
-450.0   150.0   0.0
-450.0   120.0   16.666666666666668
-400.0   120.0   0.0
-400.0   150.0   0.0
-450.0   150.0   0.0
-400.0   150.0   16.666666666666668
-450.0   120.0   16.666666666666668
-450.0   150.0   16.666666666666668
-400.0   150.0   16.666666666666668
-450.0   150.0   0.0
-450.0   120.0   16.666666666666668
-400.0   150.0   16.666666666666668
-400.0   120.0   16.666666666666668
-400.0   120.0   0.0
-450.0   120.0   16.666666666666668
-400.0   150.0   16.666666666666668
-400.0   120.0   0.0
-450.0   150.0   0.0
-450.0   120.0   16.666666666666668
-400.0   120.0   16.666666666666668
-450.0   150.0   16.666666666666668
-450.0   120.0   33.333333333333336
-400.0   120.0   16.666666666666668
-400.0   150.0   16.666666666666668
-450.0   150.0   16.666666666666668
-400.0   150.0   33.333333333333336
-450.0   120.0   33.333333333333336
-450.0   150.0   33.333333333333336
-400.0   150.0   33.333333333333336
-450.0   150.0   16.666666666666668
-450.0   120.0   33.333333333333336
-400.0   150.0   33.333333333333336
-400.0   120.0   33.333333333333336
-400.0   120.0   16.666666666666668
-450.0   120.0   33.333333333333336
-400.0   150.0   33.333333333333336
-400.0   120.0   16.666666666666668
-450.0   150.0   16.666666666666668
-450.0   120.0   33.333333333333336
-400.0   120.0   33.333333333333336
-450.0   150.0   33.333333333333336
-450.0   120.0   50.0
-400.0   120.0   33.333333333333336
-400.0   150.0   33.333333333333336
-450.0   150.0   33.333333333333336
-400.0   150.0   50.0
-450.0   120.0   50.0
-450.0   150.0   50.0
-400.0   150.0   50.0
-450.0   150.0   33.333333333333336
-450.0   120.0   50.0
-400.0   150.0   50.0
-400.0   120.0   50.0
-400.0   120.0   33.333333333333336
-450.0   120.0   50.0
-400.0   150.0   50.0
-400.0   120.0   33.333333333333336
-450.0   150.0   33.333333333333336
-400.0   0.0   0.0
-350.0   0.0   0.0
-400.0   30.0   0.0
-400.0   0.0   16.666666666666668
-350.0   0.0   0.0
-350.0   30.0   0.0
-400.0   30.0   0.0
-350.0   30.0   16.666666666666668
-400.0   0.0   16.666666666666668
-400.0   30.0   16.666666666666668
-350.0   30.0   16.666666666666668
-400.0   30.0   0.0
-400.0   0.0   16.666666666666668
-350.0   30.0   16.666666666666668
-350.0   0.0   16.666666666666668
-350.0   0.0   0.0
-400.0   0.0   16.666666666666668
-350.0   30.0   16.666666666666668
-350.0   0.0   0.0
-400.0   30.0   0.0
-400.0   0.0   16.666666666666668
-350.0   0.0   16.666666666666668
-400.0   30.0   16.666666666666668
-400.0   0.0   33.333333333333336
-350.0   0.0   16.666666666666668
-350.0   30.0   16.666666666666668
-400.0   30.0   16.666666666666668
-350.0   30.0   33.333333333333336
-400.0   0.0   33.333333333333336
-400.0   30.0   33.333333333333336
-350.0   30.0   33.333333333333336
-400.0   30.0   16.666666666666668
-400.0   0.0   33.333333333333336
-350.0   30.0   33.333333333333336
-350.0   0.0   33.333333333333336
-350.0   0.0   16.666666666666668
-400.0   0.0   33.333333333333336
-350.0   30.0   33.333333333333336
-350.0   0.0   16.666666666666668
-400.0   30.0   16.666666666666668
-400.0   0.0   33.333333333333336
-350.0   0.0   33.333333333333336
-400.0   30.0   33.333333333333336
-400.0   0.0   50.0
-350.0   0.0   33.333333333333336
-350.0   30.0   33.333333333333336
-400.0   30.0   33.333333333333336
-350.0   30.0   50.0
-400.0   0.0   50.0
-400.0   30.0   50.0
-350.0   30.0   50.0
-400.0   30.0   33.333333333333336
-400.0   0.0   50.0
-350.0   30.0   50.0
-350.0   0.0   50.0
-350.0   0.0   33.333333333333336
-400.0   0.0   50.0
-350.0   30.0   50.0
-350.0   0.0   33.333333333333336
-400.0   30.0   33.333333333333336
-400.0   30.0   0.0
-350.0   30.0   0.0
-400.0   60.0   0.0
-400.0   30.0   16.666666666666668
-350.0   30.0   0.0
-350.0   60.0   0.0
-400.0   60.0   0.0
-350.0   60.0   16.666666666666668
-400.0   30.0   16.666666666666668
-400.0   60.0   16.666666666666668
-350.0   60.0   16.666666666666668
-400.0   60.0   0.0
-400.0   30.0   16.666666666666668
-350.0   60.0   16.666666666666668
-350.0   30.0   16.666666666666668
-350.0   30.0   0.0
-400.0   30.0   16.666666666666668
-350.0   60.0   16.666666666666668
-350.0   30.0   0.0
-400.0   60.0   0.0
-400.0   30.0   16.666666666666668
-350.0   30.0   16.666666666666668
-400.0   60.0   16.666666666666668
-400.0   30.0   33.333333333333336
-350.0   30.0   16.666666666666668
-350.0   60.0   16.666666666666668
-400.0   60.0   16.666666666666668
-350.0   60.0   33.333333333333336
-400.0   30.0   33.333333333333336
-400.0   60.0   33.333333333333336
-350.0   60.0   33.333333333333336
-400.0   60.0   16.666666666666668
-400.0   30.0   33.333333333333336
-350.0   60.0   33.333333333333336
-350.0   30.0   33.333333333333336
-350.0   30.0   16.666666666666668
-400.0   30.0   33.333333333333336
-350.0   60.0   33.333333333333336
-350.0   30.0   16.666666666666668
-400.0   60.0   16.666666666666668
-400.0   30.0   33.333333333333336
-350.0   30.0   33.333333333333336
-400.0   60.0   33.333333333333336
-400.0   30.0   50.0
-350.0   30.0   33.333333333333336
-350.0   60.0   33.333333333333336
-400.0   60.0   33.333333333333336
-350.0   60.0   50.0
-400.0   30.0   50.0
-400.0   60.0   50.0
-350.0   60.0   50.0
-400.0   60.0   33.333333333333336
-400.0   30.0   50.0
-350.0   60.0   50.0
-350.0   30.0   50.0
-350.0   30.0   33.333333333333336
-400.0   30.0   50.0
-350.0   60.0   50.0
-350.0   30.0   33.333333333333336
-400.0   60.0   33.333333333333336
-400.0   60.0   0.0
-350.0   60.0   0.0
-400.0   90.0   0.0
-400.0   60.0   16.666666666666668
-350.0   60.0   0.0
-350.0   90.0   0.0
-400.0   90.0   0.0
-350.0   90.0   16.666666666666668
-400.0   60.0   16.666666666666668
-400.0   90.0   16.666666666666668
-350.0   90.0   16.666666666666668
-400.0   90.0   0.0
-400.0   60.0   16.666666666666668
-350.0   90.0   16.666666666666668
-350.0   60.0   16.666666666666668
-350.0   60.0   0.0
-400.0   60.0   16.666666666666668
-350.0   90.0   16.666666666666668
-350.0   60.0   0.0
-400.0   90.0   0.0
-400.0   60.0   16.666666666666668
-350.0   60.0   16.666666666666668
-400.0   90.0   16.666666666666668
-400.0   60.0   33.333333333333336
-350.0   60.0   16.666666666666668
-350.0   90.0   16.666666666666668
-400.0   90.0   16.666666666666668
-350.0   90.0   33.333333333333336
-400.0   60.0   33.333333333333336
-400.0   90.0   33.333333333333336
-350.0   90.0   33.333333333333336
-400.0   90.0   16.666666666666668
-400.0   60.0   33.333333333333336
-350.0   90.0   33.333333333333336
-350.0   60.0   33.333333333333336
-350.0   60.0   16.666666666666668
-400.0   60.0   33.333333333333336
-350.0   90.0   33.333333333333336
-350.0   60.0   16.666666666666668
-400.0   90.0   16.666666666666668
-400.0   60.0   33.333333333333336
-350.0   60.0   33.333333333333336
-400.0   90.0   33.333333333333336
-400.0   60.0   50.0
-350.0   60.0   33.333333333333336
-350.0   90.0   33.333333333333336
-400.0   90.0   33.333333333333336
-350.0   90.0   50.0
-400.0   60.0   50.0
-400.0   90.0   50.0
-350.0   90.0   50.0
-400.0   90.0   33.333333333333336
-400.0   60.0   50.0
-350.0   90.0   50.0
-350.0   60.0   50.0
-350.0   60.0   33.333333333333336
-400.0   60.0   50.0
-350.0   90.0   50.0
-350.0   60.0   33.333333333333336
-400.0   90.0   33.333333333333336
-400.0   90.0   0.0
-350.0   90.0   0.0
-400.0   120.0   0.0
-400.0   90.0   16.666666666666668
-350.0   90.0   0.0
-350.0   120.0   0.0
-400.0   120.0   0.0
-350.0   120.0   16.666666666666668
-400.0   90.0   16.666666666666668
-400.0   120.0   16.666666666666668
-350.0   120.0   16.666666666666668
-400.0   120.0   0.0
-400.0   90.0   16.666666666666668
-350.0   120.0   16.666666666666668
-350.0   90.0   16.666666666666668
-350.0   90.0   0.0
-400.0   90.0   16.666666666666668
-350.0   120.0   16.666666666666668
-350.0   90.0   0.0
-400.0   120.0   0.0
-400.0   90.0   16.666666666666668
-350.0   90.0   16.666666666666668
-400.0   120.0   16.666666666666668
-400.0   90.0   33.333333333333336
-350.0   90.0   16.666666666666668
-350.0   120.0   16.666666666666668
-400.0   120.0   16.666666666666668
-350.0   120.0   33.333333333333336
-400.0   90.0   33.333333333333336
-400.0   120.0   33.333333333333336
-350.0   120.0   33.333333333333336
-400.0   120.0   16.666666666666668
-400.0   90.0   33.333333333333336
-350.0   120.0   33.333333333333336
-350.0   90.0   33.333333333333336
-350.0   90.0   16.666666666666668
-400.0   90.0   33.333333333333336
-350.0   120.0   33.333333333333336
-350.0   90.0   16.666666666666668
-400.0   120.0   16.666666666666668
-400.0   90.0   33.333333333333336
-350.0   90.0   33.333333333333336
-400.0   120.0   33.333333333333336
-400.0   90.0   50.0
-350.0   90.0   33.333333333333336
-350.0   120.0   33.333333333333336
-400.0   120.0   33.333333333333336
-350.0   120.0   50.0
-400.0   90.0   50.0
-400.0   120.0   50.0
-350.0   120.0   50.0
-400.0   120.0   33.333333333333336
-400.0   90.0   50.0
-350.0   120.0   50.0
-350.0   90.0   50.0
-350.0   90.0   33.333333333333336
-400.0   90.0   50.0
-350.0   120.0   50.0
-350.0   90.0   33.333333333333336
-400.0   120.0   33.333333333333336
-400.0   120.0   0.0
-350.0   120.0   0.0
-400.0   150.0   0.0
-400.0   120.0   16.666666666666668
-350.0   120.0   0.0
-350.0   150.0   0.0
-400.0   150.0   0.0
-350.0   150.0   16.666666666666668
-400.0   120.0   16.666666666666668
-400.0   150.0   16.666666666666668
-350.0   150.0   16.666666666666668
-400.0   150.0   0.0
-400.0   120.0   16.666666666666668
-350.0   150.0   16.666666666666668
-350.0   120.0   16.666666666666668
-350.0   120.0   0.0
-400.0   120.0   16.666666666666668
-350.0   150.0   16.666666666666668
-350.0   120.0   0.0
-400.0   150.0   0.0
-400.0   120.0   16.666666666666668
-350.0   120.0   16.666666666666668
-400.0   150.0   16.666666666666668
-400.0   120.0   33.333333333333336
-350.0   120.0   16.666666666666668
-350.0   150.0   16.666666666666668
-400.0   150.0   16.666666666666668
-350.0   150.0   33.333333333333336
-400.0   120.0   33.333333333333336
-400.0   150.0   33.333333333333336
-350.0   150.0   33.333333333333336
-400.0   150.0   16.666666666666668
-400.0   120.0   33.333333333333336
-350.0   150.0   33.333333333333336
-350.0   120.0   33.333333333333336
-350.0   120.0   16.666666666666668
-400.0   120.0   33.333333333333336
-350.0   150.0   33.333333333333336
-350.0   120.0   16.666666666666668
-400.0   150.0   16.666666666666668
-400.0   120.0   33.333333333333336
-350.0   120.0   33.333333333333336
-400.0   150.0   33.333333333333336
-400.0   120.0   50.0
-350.0   120.0   33.333333333333336
-350.0   150.0   33.333333333333336
-400.0   150.0   33.333333333333336
-350.0   150.0   50.0
-400.0   120.0   50.0
-400.0   150.0   50.0
-350.0   150.0   50.0
-400.0   150.0   33.333333333333336
-400.0   120.0   50.0
-350.0   150.0   50.0
-350.0   120.0   50.0
-350.0   120.0   33.333333333333336
-400.0   120.0   50.0
-350.0   150.0   50.0
-350.0   120.0   33.333333333333336
-400.0   150.0   33.333333333333336
-350.0   0.0   0.0
-300.0   0.0   0.0
-350.0   30.0   0.0
-350.0   0.0   16.666666666666668
-300.0   0.0   0.0
-300.0   30.0   0.0
-350.0   30.0   0.0
-300.0   30.0   16.666666666666668
-350.0   0.0   16.666666666666668
-350.0   30.0   16.666666666666668
-300.0   30.0   16.666666666666668
-350.0   30.0   0.0
-350.0   0.0   16.666666666666668
-300.0   30.0   16.666666666666668
-300.0   0.0   16.666666666666668
-300.0   0.0   0.0
-350.0   0.0   16.666666666666668
-300.0   30.0   16.666666666666668
-300.0   0.0   0.0
-350.0   30.0   0.0
-350.0   0.0   16.666666666666668
-300.0   0.0   16.666666666666668
-350.0   30.0   16.666666666666668
-350.0   0.0   33.333333333333336
-300.0   0.0   16.666666666666668
-300.0   30.0   16.666666666666668
-350.0   30.0   16.666666666666668
-300.0   30.0   33.333333333333336
-350.0   0.0   33.333333333333336
-350.0   30.0   33.333333333333336
-300.0   30.0   33.333333333333336
-350.0   30.0   16.666666666666668
-350.0   0.0   33.333333333333336
-300.0   30.0   33.333333333333336
-300.0   0.0   33.333333333333336
-300.0   0.0   16.666666666666668
-350.0   0.0   33.333333333333336
-300.0   30.0   33.333333333333336
-300.0   0.0   16.666666666666668
-350.0   30.0   16.666666666666668
-350.0   0.0   33.333333333333336
-300.0   0.0   33.333333333333336
-350.0   30.0   33.333333333333336
-350.0   0.0   50.0
-300.0   0.0   33.333333333333336
-300.0   30.0   33.333333333333336
-350.0   30.0   33.333333333333336
-300.0   30.0   50.0
-350.0   0.0   50.0
-350.0   30.0   50.0
-300.0   30.0   50.0
-350.0   30.0   33.333333333333336
-350.0   0.0   50.0
-300.0   30.0   50.0
-300.0   0.0   50.0
-300.0   0.0   33.333333333333336
-350.0   0.0   50.0
-300.0   30.0   50.0
-300.0   0.0   33.333333333333336
-350.0   30.0   33.333333333333336
-350.0   30.0   0.0
-300.0   30.0   0.0
-350.0   60.0   0.0
-350.0   30.0   16.666666666666668
-300.0   30.0   0.0
-300.0   60.0   0.0
-350.0   60.0   0.0
-300.0   60.0   16.666666666666668
-350.0   30.0   16.666666666666668
-350.0   60.0   16.666666666666668
-300.0   60.0   16.666666666666668
-350.0   60.0   0.0
-350.0   30.0   16.666666666666668
-300.0   60.0   16.666666666666668
-300.0   30.0   16.666666666666668
-300.0   30.0   0.0
-350.0   30.0   16.666666666666668
-300.0   60.0   16.666666666666668
-300.0   30.0   0.0
-350.0   60.0   0.0
-350.0   30.0   16.666666666666668
-300.0   30.0   16.666666666666668
-350.0   60.0   16.666666666666668
-350.0   30.0   33.333333333333336
-300.0   30.0   16.666666666666668
-300.0   60.0   16.666666666666668
-350.0   60.0   16.666666666666668
-300.0   60.0   33.333333333333336
-350.0   30.0   33.333333333333336
-350.0   60.0   33.333333333333336
-300.0   60.0   33.333333333333336
-350.0   60.0   16.666666666666668
-350.0   30.0   33.333333333333336
-300.0   60.0   33.333333333333336
-300.0   30.0   33.333333333333336
-300.0   30.0   16.666666666666668
-350.0   30.0   33.333333333333336
-300.0   60.0   33.333333333333336
-300.0   30.0   16.666666666666668
-350.0   60.0   16.666666666666668
-350.0   30.0   33.333333333333336
-300.0   30.0   33.333333333333336
-350.0   60.0   33.333333333333336
-350.0   30.0   50.0
-300.0   30.0   33.333333333333336
-300.0   60.0   33.333333333333336
-350.0   60.0   33.333333333333336
-300.0   60.0   50.0
-350.0   30.0   50.0
-350.0   60.0   50.0
-300.0   60.0   50.0
-350.0   60.0   33.333333333333336
-350.0   30.0   50.0
-300.0   60.0   50.0
-300.0   30.0   50.0
-300.0   30.0   33.333333333333336
-350.0   30.0   50.0
-300.0   60.0   50.0
-300.0   30.0   33.333333333333336
-350.0   60.0   33.333333333333336
-350.0   60.0   0.0
-300.0   60.0   0.0
-350.0   90.0   0.0
-350.0   60.0   16.666666666666668
-300.0   60.0   0.0
-300.0   90.0   0.0
-350.0   90.0   0.0
-300.0   90.0   16.666666666666668
-350.0   60.0   16.666666666666668
-350.0   90.0   16.666666666666668
-300.0   90.0   16.666666666666668
-350.0   90.0   0.0
-350.0   60.0   16.666666666666668
-300.0   90.0   16.666666666666668
-300.0   60.0   16.666666666666668
-300.0   60.0   0.0
-350.0   60.0   16.666666666666668
-300.0   90.0   16.666666666666668
-300.0   60.0   0.0
-350.0   90.0   0.0
-350.0   60.0   16.666666666666668
-300.0   60.0   16.666666666666668
-350.0   90.0   16.666666666666668
-350.0   60.0   33.333333333333336
-300.0   60.0   16.666666666666668
-300.0   90.0   16.666666666666668
-350.0   90.0   16.666666666666668
-300.0   90.0   33.333333333333336
-350.0   60.0   33.333333333333336
-350.0   90.0   33.333333333333336
-300.0   90.0   33.333333333333336
-350.0   90.0   16.666666666666668
-350.0   60.0   33.333333333333336
-300.0   90.0   33.333333333333336
-300.0   60.0   33.333333333333336
-300.0   60.0   16.666666666666668
-350.0   60.0   33.333333333333336
-300.0   90.0   33.333333333333336
-300.0   60.0   16.666666666666668
-350.0   90.0   16.666666666666668
-350.0   60.0   33.333333333333336
-300.0   60.0   33.333333333333336
-350.0   90.0   33.333333333333336
-350.0   60.0   50.0
-300.0   60.0   33.333333333333336
-300.0   90.0   33.333333333333336
-350.0   90.0   33.333333333333336
-300.0   90.0   50.0
-350.0   60.0   50.0
-350.0   90.0   50.0
-300.0   90.0   50.0
-350.0   90.0   33.333333333333336
-350.0   60.0   50.0
-300.0   90.0   50.0
-300.0   60.0   50.0
-300.0   60.0   33.333333333333336
-350.0   60.0   50.0
-300.0   90.0   50.0
-300.0   60.0   33.333333333333336
-350.0   90.0   33.333333333333336
-350.0   90.0   0.0
-300.0   90.0   0.0
-350.0   120.0   0.0
-350.0   90.0   16.666666666666668
-300.0   90.0   0.0
-300.0   120.0   0.0
-350.0   120.0   0.0
-300.0   120.0   16.666666666666668
-350.0   90.0   16.666666666666668
-350.0   120.0   16.666666666666668
-300.0   120.0   16.666666666666668
-350.0   120.0   0.0
-350.0   90.0   16.666666666666668
-300.0   120.0   16.666666666666668
-300.0   90.0   16.666666666666668
-300.0   90.0   0.0
-350.0   90.0   16.666666666666668
-300.0   120.0   16.666666666666668
-300.0   90.0   0.0
-350.0   120.0   0.0
-350.0   90.0   16.666666666666668
-300.0   90.0   16.666666666666668
-350.0   120.0   16.666666666666668
-350.0   90.0   33.333333333333336
-300.0   90.0   16.666666666666668
-300.0   120.0   16.666666666666668
-350.0   120.0   16.666666666666668
-300.0   120.0   33.333333333333336
-350.0   90.0   33.333333333333336
-350.0   120.0   33.333333333333336
-300.0   120.0   33.333333333333336
-350.0   120.0   16.666666666666668
-350.0   90.0   33.333333333333336
-300.0   120.0   33.333333333333336
-300.0   90.0   33.333333333333336
-300.0   90.0   16.666666666666668
-350.0   90.0   33.333333333333336
-300.0   120.0   33.333333333333336
-300.0   90.0   16.666666666666668
-350.0   120.0   16.666666666666668
-350.0   90.0   33.333333333333336
-300.0   90.0   33.333333333333336
-350.0   120.0   33.333333333333336
-350.0   90.0   50.0
-300.0   90.0   33.333333333333336
-300.0   120.0   33.333333333333336
-350.0   120.0   33.333333333333336
-300.0   120.0   50.0
-350.0   90.0   50.0
-350.0   120.0   50.0
-300.0   120.0   50.0
-350.0   120.0   33.333333333333336
-350.0   90.0   50.0
-300.0   120.0   50.0
-300.0   90.0   50.0
-300.0   90.0   33.333333333333336
-350.0   90.0   50.0
-300.0   120.0   50.0
-300.0   90.0   33.333333333333336
-350.0   120.0   33.333333333333336
-350.0   120.0   0.0
-300.0   120.0   0.0
-350.0   150.0   0.0
-350.0   120.0   16.666666666666668
-300.0   120.0   0.0
-300.0   150.0   0.0
-350.0   150.0   0.0
-300.0   150.0   16.666666666666668
-350.0   120.0   16.666666666666668
-350.0   150.0   16.666666666666668
-300.0   150.0   16.666666666666668
-350.0   150.0   0.0
-350.0   120.0   16.666666666666668
-300.0   150.0   16.666666666666668
-300.0   120.0   16.666666666666668
-300.0   120.0   0.0
-350.0   120.0   16.666666666666668
-300.0   150.0   16.666666666666668
-300.0   120.0   0.0
-350.0   150.0   0.0
-350.0   120.0   16.666666666666668
-300.0   120.0   16.666666666666668
-350.0   150.0   16.666666666666668
-350.0   120.0   33.333333333333336
-300.0   120.0   16.666666666666668
-300.0   150.0   16.666666666666668
-350.0   150.0   16.666666666666668
-300.0   150.0   33.333333333333336
-350.0   120.0   33.333333333333336
-350.0   150.0   33.333333333333336
-300.0   150.0   33.333333333333336
-350.0   150.0   16.666666666666668
-350.0   120.0   33.333333333333336
-300.0   150.0   33.333333333333336
-300.0   120.0   33.333333333333336
-300.0   120.0   16.666666666666668
-350.0   120.0   33.333333333333336
-300.0   150.0   33.333333333333336
-300.0   120.0   16.666666666666668
-350.0   150.0   16.666666666666668
-350.0   120.0   33.333333333333336
-300.0   120.0   33.333333333333336
-350.0   150.0   33.333333333333336
-350.0   120.0   50.0
-300.0   120.0   33.333333333333336
-300.0   150.0   33.333333333333336
-350.0   150.0   33.333333333333336
-300.0   150.0   50.0
-350.0   120.0   50.0
-350.0   150.0   50.0
-300.0   150.0   50.0
-350.0   150.0   33.333333333333336
-350.0   120.0   50.0
-300.0   150.0   50.0
-300.0   120.0   50.0
-300.0   120.0   33.333333333333336
-350.0   120.0   50.0
-300.0   150.0   50.0
-300.0   120.0   33.333333333333336
-350.0   150.0   33.333333333333336
-300.0   0.0   0.0
-250.0   0.0   0.0
-300.0   30.0   0.0
-300.0   0.0   16.666666666666668
-250.0   0.0   0.0
-250.0   30.0   0.0
-300.0   30.0   0.0
-250.0   30.0   16.666666666666668
-300.0   0.0   16.666666666666668
-300.0   30.0   16.666666666666668
-250.0   30.0   16.666666666666668
-300.0   30.0   0.0
-300.0   0.0   16.666666666666668
-250.0   30.0   16.666666666666668
-250.0   0.0   16.666666666666668
-250.0   0.0   0.0
-300.0   0.0   16.666666666666668
-250.0   30.0   16.666666666666668
-250.0   0.0   0.0
-300.0   30.0   0.0
-300.0   0.0   16.666666666666668
-250.0   0.0   16.666666666666668
-300.0   30.0   16.666666666666668
-300.0   0.0   33.333333333333336
-250.0   0.0   16.666666666666668
-250.0   30.0   16.666666666666668
-300.0   30.0   16.666666666666668
-250.0   30.0   33.333333333333336
-300.0   0.0   33.333333333333336
-300.0   30.0   33.333333333333336
-250.0   30.0   33.333333333333336
-300.0   30.0   16.666666666666668
-300.0   0.0   33.333333333333336
-250.0   30.0   33.333333333333336
-250.0   0.0   33.333333333333336
-250.0   0.0   16.666666666666668
-300.0   0.0   33.333333333333336
-250.0   30.0   33.333333333333336
-250.0   0.0   16.666666666666668
-300.0   30.0   16.666666666666668
-300.0   0.0   33.333333333333336
-250.0   0.0   33.333333333333336
-300.0   30.0   33.333333333333336
-300.0   0.0   50.0
-250.0   0.0   33.333333333333336
-250.0   30.0   33.333333333333336
-300.0   30.0   33.333333333333336
-250.0   30.0   50.0
-300.0   0.0   50.0
-300.0   30.0   50.0
-250.0   30.0   50.0
-300.0   30.0   33.333333333333336
-300.0   0.0   50.0
-250.0   30.0   50.0
-250.0   0.0   50.0
-250.0   0.0   33.333333333333336
-300.0   0.0   50.0
-250.0   30.0   50.0
-250.0   0.0   33.333333333333336
-300.0   30.0   33.333333333333336
-300.0   30.0   0.0
-250.0   30.0   0.0
-300.0   60.0   0.0
-300.0   30.0   16.666666666666668
-250.0   30.0   0.0
-250.0   60.0   0.0
-300.0   60.0   0.0
-250.0   60.0   16.666666666666668
-300.0   30.0   16.666666666666668
-300.0   60.0   16.666666666666668
-250.0   60.0   16.666666666666668
-300.0   60.0   0.0
-300.0   30.0   16.666666666666668
-250.0   60.0   16.666666666666668
-250.0   30.0   16.666666666666668
-250.0   30.0   0.0
-300.0   30.0   16.666666666666668
-250.0   60.0   16.666666666666668
-250.0   30.0   0.0
-300.0   60.0   0.0
-300.0   30.0   16.666666666666668
-250.0   30.0   16.666666666666668
-300.0   60.0   16.666666666666668
-300.0   30.0   33.333333333333336
-250.0   30.0   16.666666666666668
-250.0   60.0   16.666666666666668
-300.0   60.0   16.666666666666668
-250.0   60.0   33.333333333333336
-300.0   30.0   33.333333333333336
-300.0   60.0   33.333333333333336
-250.0   60.0   33.333333333333336
-300.0   60.0   16.666666666666668
-300.0   30.0   33.333333333333336
-250.0   60.0   33.333333333333336
-250.0   30.0   33.333333333333336
-250.0   30.0   16.666666666666668
-300.0   30.0   33.333333333333336
-250.0   60.0   33.333333333333336
-250.0   30.0   16.666666666666668
-300.0   60.0   16.666666666666668
-300.0   30.0   33.333333333333336
-250.0   30.0   33.333333333333336
-300.0   60.0   33.333333333333336
-300.0   30.0   50.0
-250.0   30.0   33.333333333333336
-250.0   60.0   33.333333333333336
-300.0   60.0   33.333333333333336
-250.0   60.0   50.0
-300.0   30.0   50.0
-300.0   60.0   50.0
-250.0   60.0   50.0
-300.0   60.0   33.333333333333336
-300.0   30.0   50.0
-250.0   60.0   50.0
-250.0   30.0   50.0
-250.0   30.0   33.333333333333336
-300.0   30.0   50.0
-250.0   60.0   50.0
-250.0   30.0   33.333333333333336
-300.0   60.0   33.333333333333336
-300.0   60.0   0.0
-250.0   60.0   0.0
-300.0   90.0   0.0
-300.0   60.0   16.666666666666668
-250.0   60.0   0.0
-250.0   90.0   0.0
-300.0   90.0   0.0
-250.0   90.0   16.666666666666668
-300.0   60.0   16.666666666666668
-300.0   90.0   16.666666666666668
-250.0   90.0   16.666666666666668
-300.0   90.0   0.0
-300.0   60.0   16.666666666666668
-250.0   90.0   16.666666666666668
-250.0   60.0   16.666666666666668
-250.0   60.0   0.0
-300.0   60.0   16.666666666666668
-250.0   90.0   16.666666666666668
-250.0   60.0   0.0
-300.0   90.0   0.0
-300.0   60.0   16.666666666666668
-250.0   60.0   16.666666666666668
-300.0   90.0   16.666666666666668
-300.0   60.0   33.333333333333336
-250.0   60.0   16.666666666666668
-250.0   90.0   16.666666666666668
-300.0   90.0   16.666666666666668
-250.0   90.0   33.333333333333336
-300.0   60.0   33.333333333333336
-300.0   90.0   33.333333333333336
-250.0   90.0   33.333333333333336
-300.0   90.0   16.666666666666668
-300.0   60.0   33.333333333333336
-250.0   90.0   33.333333333333336
-250.0   60.0   33.333333333333336
-250.0   60.0   16.666666666666668
-300.0   60.0   33.333333333333336
-250.0   90.0   33.333333333333336
-250.0   60.0   16.666666666666668
-300.0   90.0   16.666666666666668
-300.0   60.0   33.333333333333336
-250.0   60.0   33.333333333333336
-300.0   90.0   33.333333333333336
-300.0   60.0   50.0
-250.0   60.0   33.333333333333336
-250.0   90.0   33.333333333333336
-300.0   90.0   33.333333333333336
-250.0   90.0   50.0
-300.0   60.0   50.0
-300.0   90.0   50.0
-250.0   90.0   50.0
-300.0   90.0   33.333333333333336
-300.0   60.0   50.0
-250.0   90.0   50.0
-250.0   60.0   50.0
-250.0   60.0   33.333333333333336
-300.0   60.0   50.0
-250.0   90.0   50.0
-250.0   60.0   33.333333333333336
-300.0   90.0   33.333333333333336
-300.0   90.0   0.0
-250.0   90.0   0.0
-300.0   120.0   0.0
-300.0   90.0   16.666666666666668
-250.0   90.0   0.0
-250.0   120.0   0.0
-300.0   120.0   0.0
-250.0   120.0   16.666666666666668
-300.0   90.0   16.666666666666668
-300.0   120.0   16.666666666666668
-250.0   120.0   16.666666666666668
-300.0   120.0   0.0
-300.0   90.0   16.666666666666668
-250.0   120.0   16.666666666666668
-250.0   90.0   16.666666666666668
-250.0   90.0   0.0
-300.0   90.0   16.666666666666668
-250.0   120.0   16.666666666666668
-250.0   90.0   0.0
-300.0   120.0   0.0
-300.0   90.0   16.666666666666668
-250.0   90.0   16.666666666666668
-300.0   120.0   16.666666666666668
-300.0   90.0   33.333333333333336
-250.0   90.0   16.666666666666668
-250.0   120.0   16.666666666666668
-300.0   120.0   16.666666666666668
-250.0   120.0   33.333333333333336
-300.0   90.0   33.333333333333336
-300.0   120.0   33.333333333333336
-250.0   120.0   33.333333333333336
-300.0   120.0   16.666666666666668
-300.0   90.0   33.333333333333336
-250.0   120.0   33.333333333333336
-250.0   90.0   33.333333333333336
-250.0   90.0   16.666666666666668
-300.0   90.0   33.333333333333336
-250.0   120.0   33.333333333333336
-250.0   90.0   16.666666666666668
-300.0   120.0   16.666666666666668
-300.0   90.0   33.333333333333336
-250.0   90.0   33.333333333333336
-300.0   120.0   33.333333333333336
-300.0   90.0   50.0
-250.0   90.0   33.333333333333336
-250.0   120.0   33.333333333333336
-300.0   120.0   33.333333333333336
-250.0   120.0   50.0
-300.0   90.0   50.0
-300.0   120.0   50.0
-250.0   120.0   50.0
-300.0   120.0   33.333333333333336
-300.0   90.0   50.0
-250.0   120.0   50.0
-250.0   90.0   50.0
-250.0   90.0   33.333333333333336
-300.0   90.0   50.0
-250.0   120.0   50.0
-250.0   90.0   33.333333333333336
-300.0   120.0   33.333333333333336
-300.0   120.0   0.0
-250.0   120.0   0.0
-300.0   150.0   0.0
-300.0   120.0   16.666666666666668
-250.0   120.0   0.0
-250.0   150.0   0.0
-300.0   150.0   0.0
-250.0   150.0   16.666666666666668
-300.0   120.0   16.666666666666668
-300.0   150.0   16.666666666666668
-250.0   150.0   16.666666666666668
-300.0   150.0   0.0
-300.0   120.0   16.666666666666668
-250.0   150.0   16.666666666666668
-250.0   120.0   16.666666666666668
-250.0   120.0   0.0
-300.0   120.0   16.666666666666668
-250.0   150.0   16.666666666666668
-250.0   120.0   0.0
-300.0   150.0   0.0
-300.0   120.0   16.666666666666668
-250.0   120.0   16.666666666666668
-300.0   150.0   16.666666666666668
-300.0   120.0   33.333333333333336
-250.0   120.0   16.666666666666668
-250.0   150.0   16.666666666666668
-300.0   150.0   16.666666666666668
-250.0   150.0   33.333333333333336
-300.0   120.0   33.333333333333336
-300.0   150.0   33.333333333333336
-250.0   150.0   33.333333333333336
-300.0   150.0   16.666666666666668
-300.0   120.0   33.333333333333336
-250.0   150.0   33.333333333333336
-250.0   120.0   33.333333333333336
-250.0   120.0   16.666666666666668
-300.0   120.0   33.333333333333336
-250.0   150.0   33.333333333333336
-250.0   120.0   16.666666666666668
-300.0   150.0   16.666666666666668
-300.0   120.0   33.333333333333336
-250.0   120.0   33.333333333333336
-300.0   150.0   33.333333333333336
-300.0   120.0   50.0
-250.0   120.0   33.333333333333336
-250.0   150.0   33.333333333333336
-300.0   150.0   33.333333333333336
-250.0   150.0   50.0
-300.0   120.0   50.0
-300.0   150.0   50.0
-250.0   150.0   50.0
-300.0   150.0   33.333333333333336
-300.0   120.0   50.0
-250.0   150.0   50.0
-250.0   120.0   50.0
-250.0   120.0   33.333333333333336
-300.0   120.0   50.0
-250.0   150.0   50.0
-250.0   120.0   33.333333333333336
-300.0   150.0   33.333333333333336
-250.0   0.0   0.0
-200.0   0.0   0.0
-250.0   30.0   0.0
-250.0   0.0   16.666666666666668
-200.0   0.0   0.0
-200.0   30.0   0.0
-250.0   30.0   0.0
-200.0   30.0   16.666666666666668
-250.0   0.0   16.666666666666668
-250.0   30.0   16.666666666666668
-200.0   30.0   16.666666666666668
-250.0   30.0   0.0
-250.0   0.0   16.666666666666668
-200.0   30.0   16.666666666666668
-200.0   0.0   16.666666666666668
-200.0   0.0   0.0
-250.0   0.0   16.666666666666668
-200.0   30.0   16.666666666666668
-200.0   0.0   0.0
-250.0   30.0   0.0
-250.0   0.0   16.666666666666668
-200.0   0.0   16.666666666666668
-250.0   30.0   16.666666666666668
-250.0   0.0   33.333333333333336
-200.0   0.0   16.666666666666668
-200.0   30.0   16.666666666666668
-250.0   30.0   16.666666666666668
-200.0   30.0   33.333333333333336
-250.0   0.0   33.333333333333336
-250.0   30.0   33.333333333333336
-200.0   30.0   33.333333333333336
-250.0   30.0   16.666666666666668
-250.0   0.0   33.333333333333336
-200.0   30.0   33.333333333333336
-200.0   0.0   33.333333333333336
-200.0   0.0   16.666666666666668
-250.0   0.0   33.333333333333336
-200.0   30.0   33.333333333333336
-200.0   0.0   16.666666666666668
-250.0   30.0   16.666666666666668
-250.0   0.0   33.333333333333336
-200.0   0.0   33.333333333333336
-250.0   30.0   33.333333333333336
-250.0   0.0   50.0
-200.0   0.0   33.333333333333336
-200.0   30.0   33.333333333333336
-250.0   30.0   33.333333333333336
-200.0   30.0   50.0
-250.0   0.0   50.0
-250.0   30.0   50.0
-200.0   30.0   50.0
-250.0   30.0   33.333333333333336
-250.0   0.0   50.0
-200.0   30.0   50.0
-200.0   0.0   50.0
-200.0   0.0   33.333333333333336
-250.0   0.0   50.0
-200.0   30.0   50.0
-200.0   0.0   33.333333333333336
-250.0   30.0   33.333333333333336
-250.0   30.0   0.0
-200.0   30.0   0.0
-250.0   60.0   0.0
-250.0   30.0   16.666666666666668
-200.0   30.0   0.0
-200.0   60.0   0.0
-250.0   60.0   0.0
-200.0   60.0   16.666666666666668
-250.0   30.0   16.666666666666668
-250.0   60.0   16.666666666666668
-200.0   60.0   16.666666666666668
-250.0   60.0   0.0
-250.0   30.0   16.666666666666668
-200.0   60.0   16.666666666666668
-200.0   30.0   16.666666666666668
-200.0   30.0   0.0
-250.0   30.0   16.666666666666668
-200.0   60.0   16.666666666666668
-200.0   30.0   0.0
-250.0   60.0   0.0
-250.0   30.0   16.666666666666668
-200.0   30.0   16.666666666666668
-250.0   60.0   16.666666666666668
-250.0   30.0   33.333333333333336
-200.0   30.0   16.666666666666668
-200.0   60.0   16.666666666666668
-250.0   60.0   16.666666666666668
-200.0   60.0   33.333333333333336
-250.0   30.0   33.333333333333336
-250.0   60.0   33.333333333333336
-200.0   60.0   33.333333333333336
-250.0   60.0   16.666666666666668
-250.0   30.0   33.333333333333336
-200.0   60.0   33.333333333333336
-200.0   30.0   33.333333333333336
-200.0   30.0   16.666666666666668
-250.0   30.0   33.333333333333336
-200.0   60.0   33.333333333333336
-200.0   30.0   16.666666666666668
-250.0   60.0   16.666666666666668
-250.0   30.0   33.333333333333336
-200.0   30.0   33.333333333333336
-250.0   60.0   33.333333333333336
-250.0   30.0   50.0
-200.0   30.0   33.333333333333336
-200.0   60.0   33.333333333333336
-250.0   60.0   33.333333333333336
-200.0   60.0   50.0
-250.0   30.0   50.0
-250.0   60.0   50.0
-200.0   60.0   50.0
-250.0   60.0   33.333333333333336
-250.0   30.0   50.0
-200.0   60.0   50.0
-200.0   30.0   50.0
-200.0   30.0   33.333333333333336
-250.0   30.0   50.0
-200.0   60.0   50.0
-200.0   30.0   33.333333333333336
-250.0   60.0   33.333333333333336
-250.0   60.0   0.0
-200.0   60.0   0.0
-250.0   90.0   0.0
-250.0   60.0   16.666666666666668
-200.0   60.0   0.0
-200.0   90.0   0.0
-250.0   90.0   0.0
-200.0   90.0   16.666666666666668
-250.0   60.0   16.666666666666668
-250.0   90.0   16.666666666666668
-200.0   90.0   16.666666666666668
-250.0   90.0   0.0
-250.0   60.0   16.666666666666668
-200.0   90.0   16.666666666666668
-200.0   60.0   16.666666666666668
-200.0   60.0   0.0
-250.0   60.0   16.666666666666668
-200.0   90.0   16.666666666666668
-200.0   60.0   0.0
-250.0   90.0   0.0
-250.0   60.0   16.666666666666668
-200.0   60.0   16.666666666666668
-250.0   90.0   16.666666666666668
-250.0   60.0   33.333333333333336
-200.0   60.0   16.666666666666668
-200.0   90.0   16.666666666666668
-250.0   90.0   16.666666666666668
-200.0   90.0   33.333333333333336
-250.0   60.0   33.333333333333336
-250.0   90.0   33.333333333333336
-200.0   90.0   33.333333333333336
-250.0   90.0   16.666666666666668
-250.0   60.0   33.333333333333336
-200.0   90.0   33.333333333333336
-200.0   60.0   33.333333333333336
-200.0   60.0   16.666666666666668
-250.0   60.0   33.333333333333336
-200.0   90.0   33.333333333333336
-200.0   60.0   16.666666666666668
-250.0   90.0   16.666666666666668
-250.0   60.0   33.333333333333336
-200.0   60.0   33.333333333333336
-250.0   90.0   33.333333333333336
-250.0   60.0   50.0
-200.0   60.0   33.333333333333336
-200.0   90.0   33.333333333333336
-250.0   90.0   33.333333333333336
-200.0   90.0   50.0
-250.0   60.0   50.0
-250.0   90.0   50.0
-200.0   90.0   50.0
-250.0   90.0   33.333333333333336
-250.0   60.0   50.0
-200.0   90.0   50.0
-200.0   60.0   50.0
-200.0   60.0   33.333333333333336
-250.0   60.0   50.0
-200.0   90.0   50.0
-200.0   60.0   33.333333333333336
-250.0   90.0   33.333333333333336
-250.0   90.0   0.0
-200.0   90.0   0.0
-250.0   120.0   0.0
-250.0   90.0   16.666666666666668
-200.0   90.0   0.0
-200.0   120.0   0.0
-250.0   120.0   0.0
-200.0   120.0   16.666666666666668
-250.0   90.0   16.666666666666668
-250.0   120.0   16.666666666666668
-200.0   120.0   16.666666666666668
-250.0   120.0   0.0
-250.0   90.0   16.666666666666668
-200.0   120.0   16.666666666666668
-200.0   90.0   16.666666666666668
-200.0   90.0   0.0
-250.0   90.0   16.666666666666668
-200.0   120.0   16.666666666666668
-200.0   90.0   0.0
-250.0   120.0   0.0
-250.0   90.0   16.666666666666668
-200.0   90.0   16.666666666666668
-250.0   120.0   16.666666666666668
-250.0   90.0   33.333333333333336
-200.0   90.0   16.666666666666668
-200.0   120.0   16.666666666666668
-250.0   120.0   16.666666666666668
-200.0   120.0   33.333333333333336
-250.0   90.0   33.333333333333336
-250.0   120.0   33.333333333333336
-200.0   120.0   33.333333333333336
-250.0   120.0   16.666666666666668
-250.0   90.0   33.333333333333336
-200.0   120.0   33.333333333333336
-200.0   90.0   33.333333333333336
-200.0   90.0   16.666666666666668
-250.0   90.0   33.333333333333336
-200.0   120.0   33.333333333333336
-200.0   90.0   16.666666666666668
-250.0   120.0   16.666666666666668
-250.0   90.0   33.333333333333336
-200.0   90.0   33.333333333333336
-250.0   120.0   33.333333333333336
-250.0   90.0   50.0
-200.0   90.0   33.333333333333336
-200.0   120.0   33.333333333333336
-250.0   120.0   33.333333333333336
-200.0   120.0   50.0
-250.0   90.0   50.0
-250.0   120.0   50.0
-200.0   120.0   50.0
-250.0   120.0   33.333333333333336
-250.0   90.0   50.0
-200.0   120.0   50.0
-200.0   90.0   50.0
-200.0   90.0   33.333333333333336
-250.0   90.0   50.0
-200.0   120.0   50.0
-200.0   90.0   33.333333333333336
-250.0   120.0   33.333333333333336
-250.0   120.0   0.0
-200.0   120.0   0.0
-250.0   150.0   0.0
-250.0   120.0   16.666666666666668
-200.0   120.0   0.0
-200.0   150.0   0.0
-250.0   150.0   0.0
-200.0   150.0   16.666666666666668
-250.0   120.0   16.666666666666668
-250.0   150.0   16.666666666666668
-200.0   150.0   16.666666666666668
-250.0   150.0   0.0
-250.0   120.0   16.666666666666668
-200.0   150.0   16.666666666666668
-200.0   120.0   16.666666666666668
-200.0   120.0   0.0
-250.0   120.0   16.666666666666668
-200.0   150.0   16.666666666666668
-200.0   120.0   0.0
-250.0   150.0   0.0
-250.0   120.0   16.666666666666668
-200.0   120.0   16.666666666666668
-250.0   150.0   16.666666666666668
-250.0   120.0   33.333333333333336
-200.0   120.0   16.666666666666668
-200.0   150.0   16.666666666666668
-250.0   150.0   16.666666666666668
-200.0   150.0   33.333333333333336
-250.0   120.0   33.333333333333336
-250.0   150.0   33.333333333333336
-200.0   150.0   33.333333333333336
-250.0   150.0   16.666666666666668
-250.0   120.0   33.333333333333336
-200.0   150.0   33.333333333333336
-200.0   120.0   33.333333333333336
-200.0   120.0   16.666666666666668
-250.0   120.0   33.333333333333336
-200.0   150.0   33.333333333333336
-200.0   120.0   16.666666666666668
-250.0   150.0   16.666666666666668
-250.0   120.0   33.333333333333336
-200.0   120.0   33.333333333333336
-250.0   150.0   33.333333333333336
-250.0   120.0   50.0
-200.0   120.0   33.333333333333336
-200.0   150.0   33.333333333333336
-250.0   150.0   33.333333333333336
-200.0   150.0   50.0
-250.0   120.0   50.0
-250.0   150.0   50.0
-200.0   150.0   50.0
-250.0   150.0   33.333333333333336
-250.0   120.0   50.0
-200.0   150.0   50.0
-200.0   120.0   50.0
-200.0   120.0   33.333333333333336
-250.0   120.0   50.0
-200.0   150.0   50.0
-200.0   120.0   33.333333333333336
-250.0   150.0   33.333333333333336
-200.0   0.0   0.0
-150.0   0.0   0.0
-200.0   30.0   0.0
-200.0   0.0   16.666666666666668
-150.0   0.0   0.0
-150.0   30.0   0.0
-200.0   30.0   0.0
-150.0   30.0   16.666666666666668
-200.0   0.0   16.666666666666668
-200.0   30.0   16.666666666666668
-150.0   30.0   16.666666666666668
-200.0   30.0   0.0
-200.0   0.0   16.666666666666668
-150.0   30.0   16.666666666666668
-150.0   0.0   16.666666666666668
-150.0   0.0   0.0
-200.0   0.0   16.666666666666668
-150.0   30.0   16.666666666666668
-150.0   0.0   0.0
-200.0   30.0   0.0
-200.0   0.0   16.666666666666668
-150.0   0.0   16.666666666666668
-200.0   30.0   16.666666666666668
-200.0   0.0   33.333333333333336
-150.0   0.0   16.666666666666668
-150.0   30.0   16.666666666666668
-200.0   30.0   16.666666666666668
-150.0   30.0   33.333333333333336
-200.0   0.0   33.333333333333336
-200.0   30.0   33.333333333333336
-150.0   30.0   33.333333333333336
-200.0   30.0   16.666666666666668
-200.0   0.0   33.333333333333336
-150.0   30.0   33.333333333333336
-150.0   0.0   33.333333333333336
-150.0   0.0   16.666666666666668
-200.0   0.0   33.333333333333336
-150.0   30.0   33.333333333333336
-150.0   0.0   16.666666666666668
-200.0   30.0   16.666666666666668
-200.0   0.0   33.333333333333336
-150.0   0.0   33.333333333333336
-200.0   30.0   33.333333333333336
-200.0   0.0   50.0
-150.0   0.0   33.333333333333336
-150.0   30.0   33.333333333333336
-200.0   30.0   33.333333333333336
-150.0   30.0   50.0
-200.0   0.0   50.0
-200.0   30.0   50.0
-150.0   30.0   50.0
-200.0   30.0   33.333333333333336
-200.0   0.0   50.0
-150.0   30.0   50.0
-150.0   0.0   50.0
-150.0   0.0   33.333333333333336
-200.0   0.0   50.0
-150.0   30.0   50.0
-150.0   0.0   33.333333333333336
-200.0   30.0   33.333333333333336
-200.0   30.0   0.0
-150.0   30.0   0.0
-200.0   60.0   0.0
-200.0   30.0   16.666666666666668
-150.0   30.0   0.0
-150.0   60.0   0.0
-200.0   60.0   0.0
-150.0   60.0   16.666666666666668
-200.0   30.0   16.666666666666668
-200.0   60.0   16.666666666666668
-150.0   60.0   16.666666666666668
-200.0   60.0   0.0
-200.0   30.0   16.666666666666668
-150.0   60.0   16.666666666666668
-150.0   30.0   16.666666666666668
-150.0   30.0   0.0
-200.0   30.0   16.666666666666668
-150.0   60.0   16.666666666666668
-150.0   30.0   0.0
-200.0   60.0   0.0
-200.0   30.0   16.666666666666668
-150.0   30.0   16.666666666666668
-200.0   60.0   16.666666666666668
-200.0   30.0   33.333333333333336
-150.0   30.0   16.666666666666668
-150.0   60.0   16.666666666666668
-200.0   60.0   16.666666666666668
-150.0   60.0   33.333333333333336
-200.0   30.0   33.333333333333336
-200.0   60.0   33.333333333333336
-150.0   60.0   33.333333333333336
-200.0   60.0   16.666666666666668
-200.0   30.0   33.333333333333336
-150.0   60.0   33.333333333333336
-150.0   30.0   33.333333333333336
-150.0   30.0   16.666666666666668
-200.0   30.0   33.333333333333336
-150.0   60.0   33.333333333333336
-150.0   30.0   16.666666666666668
-200.0   60.0   16.666666666666668
-200.0   30.0   33.333333333333336
-150.0   30.0   33.333333333333336
-200.0   60.0   33.333333333333336
-200.0   30.0   50.0
-150.0   30.0   33.333333333333336
-150.0   60.0   33.333333333333336
-200.0   60.0   33.333333333333336
-150.0   60.0   50.0
-200.0   30.0   50.0
-200.0   60.0   50.0
-150.0   60.0   50.0
-200.0   60.0   33.333333333333336
-200.0   30.0   50.0
-150.0   60.0   50.0
-150.0   30.0   50.0
-150.0   30.0   33.333333333333336
-200.0   30.0   50.0
-150.0   60.0   50.0
-150.0   30.0   33.333333333333336
-200.0   60.0   33.333333333333336
-200.0   60.0   0.0
-150.0   60.0   0.0
-200.0   90.0   0.0
-200.0   60.0   16.666666666666668
-150.0   60.0   0.0
-150.0   90.0   0.0
-200.0   90.0   0.0
-150.0   90.0   16.666666666666668
-200.0   60.0   16.666666666666668
-200.0   90.0   16.666666666666668
-150.0   90.0   16.666666666666668
-200.0   90.0   0.0
-200.0   60.0   16.666666666666668
-150.0   90.0   16.666666666666668
-150.0   60.0   16.666666666666668
-150.0   60.0   0.0
-200.0   60.0   16.666666666666668
-150.0   90.0   16.666666666666668
-150.0   60.0   0.0
-200.0   90.0   0.0
-200.0   60.0   16.666666666666668
-150.0   60.0   16.666666666666668
-200.0   90.0   16.666666666666668
-200.0   60.0   33.333333333333336
-150.0   60.0   16.666666666666668
-150.0   90.0   16.666666666666668
-200.0   90.0   16.666666666666668
-150.0   90.0   33.333333333333336
-200.0   60.0   33.333333333333336
-200.0   90.0   33.333333333333336
-150.0   90.0   33.333333333333336
-200.0   90.0   16.666666666666668
-200.0   60.0   33.333333333333336
-150.0   90.0   33.333333333333336
-150.0   60.0   33.333333333333336
-150.0   60.0   16.666666666666668
-200.0   60.0   33.333333333333336
-150.0   90.0   33.333333333333336
-150.0   60.0   16.666666666666668
-200.0   90.0   16.666666666666668
-200.0   60.0   33.333333333333336
-150.0   60.0   33.333333333333336
-200.0   90.0   33.333333333333336
-200.0   60.0   50.0
-150.0   60.0   33.333333333333336
-150.0   90.0   33.333333333333336
-200.0   90.0   33.333333333333336
-150.0   90.0   50.0
-200.0   60.0   50.0
-200.0   90.0   50.0
-150.0   90.0   50.0
-200.0   90.0   33.333333333333336
-200.0   60.0   50.0
-150.0   90.0   50.0
-150.0   60.0   50.0
-150.0   60.0   33.333333333333336
-200.0   60.0   50.0
-150.0   90.0   50.0
-150.0   60.0   33.333333333333336
-200.0   90.0   33.333333333333336
-200.0   90.0   0.0
-150.0   90.0   0.0
-200.0   120.0   0.0
-200.0   90.0   16.666666666666668
-150.0   90.0   0.0
-150.0   120.0   0.0
-200.0   120.0   0.0
-150.0   120.0   16.666666666666668
-200.0   90.0   16.666666666666668
-200.0   120.0   16.666666666666668
-150.0   120.0   16.666666666666668
-200.0   120.0   0.0
-200.0   90.0   16.666666666666668
-150.0   120.0   16.666666666666668
-150.0   90.0   16.666666666666668
-150.0   90.0   0.0
-200.0   90.0   16.666666666666668
-150.0   120.0   16.666666666666668
-150.0   90.0   0.0
-200.0   120.0   0.0
-200.0   90.0   16.666666666666668
-150.0   90.0   16.666666666666668
-200.0   120.0   16.666666666666668
-200.0   90.0   33.333333333333336
-150.0   90.0   16.666666666666668
-150.0   120.0   16.666666666666668
-200.0   120.0   16.666666666666668
-150.0   120.0   33.333333333333336
-200.0   90.0   33.333333333333336
-200.0   120.0   33.333333333333336
-150.0   120.0   33.333333333333336
-200.0   120.0   16.666666666666668
-200.0   90.0   33.333333333333336
-150.0   120.0   33.333333333333336
-150.0   90.0   33.333333333333336
-150.0   90.0   16.666666666666668
-200.0   90.0   33.333333333333336
-150.0   120.0   33.333333333333336
-150.0   90.0   16.666666666666668
-200.0   120.0   16.666666666666668
-200.0   90.0   33.333333333333336
-150.0   90.0   33.333333333333336
-200.0   120.0   33.333333333333336
-200.0   90.0   50.0
-150.0   90.0   33.333333333333336
-150.0   120.0   33.333333333333336
-200.0   120.0   33.333333333333336
-150.0   120.0   50.0
-200.0   90.0   50.0
-200.0   120.0   50.0
-150.0   120.0   50.0
-200.0   120.0   33.333333333333336
-200.0   90.0   50.0
-150.0   120.0   50.0
-150.0   90.0   50.0
-150.0   90.0   33.333333333333336
-200.0   90.0   50.0
-150.0   120.0   50.0
-150.0   90.0   33.333333333333336
-200.0   120.0   33.333333333333336
-200.0   120.0   0.0
-150.0   120.0   0.0
-200.0   150.0   0.0
-200.0   120.0   16.666666666666668
-150.0   120.0   0.0
-150.0   150.0   0.0
-200.0   150.0   0.0
-150.0   150.0   16.666666666666668
-200.0   120.0   16.666666666666668
-200.0   150.0   16.666666666666668
-150.0   150.0   16.666666666666668
-200.0   150.0   0.0
-200.0   120.0   16.666666666666668
-150.0   150.0   16.666666666666668
-150.0   120.0   16.666666666666668
-150.0   120.0   0.0
-200.0   120.0   16.666666666666668
-150.0   150.0   16.666666666666668
-150.0   120.0   0.0
-200.0   150.0   0.0
-200.0   120.0   16.666666666666668
-150.0   120.0   16.666666666666668
-200.0   150.0   16.666666666666668
-200.0   120.0   33.333333333333336
-150.0   120.0   16.666666666666668
-150.0   150.0   16.666666666666668
-200.0   150.0   16.666666666666668
-150.0   150.0   33.333333333333336
-200.0   120.0   33.333333333333336
-200.0   150.0   33.333333333333336
-150.0   150.0   33.333333333333336
-200.0   150.0   16.666666666666668
-200.0   120.0   33.333333333333336
-150.0   150.0   33.333333333333336
-150.0   120.0   33.333333333333336
-150.0   120.0   16.666666666666668
-200.0   120.0   33.333333333333336
-150.0   150.0   33.333333333333336
-150.0   120.0   16.666666666666668
-200.0   150.0   16.666666666666668
-200.0   120.0   33.333333333333336
-150.0   120.0   33.333333333333336
-200.0   150.0   33.333333333333336
-200.0   120.0   50.0
-150.0   120.0   33.333333333333336
-150.0   150.0   33.333333333333336
-200.0   150.0   33.333333333333336
-150.0   150.0   50.0
-200.0   120.0   50.0
-200.0   150.0   50.0
-150.0   150.0   50.0
-200.0   150.0   33.333333333333336
-200.0   120.0   50.0
-150.0   150.0   50.0
-150.0   120.0   50.0
-150.0   120.0   33.333333333333336
-200.0   120.0   50.0
-150.0   150.0   50.0
-150.0   120.0   33.333333333333336
-200.0   150.0   33.333333333333336
-150.0   0.0   0.0
-100.0   0.0   0.0
-150.0   30.0   0.0
-150.0   0.0   16.666666666666668
-100.0   0.0   0.0
-100.0   30.0   0.0
-150.0   30.0   0.0
-100.0   30.0   16.666666666666668
-150.0   0.0   16.666666666666668
-150.0   30.0   16.666666666666668
-100.0   30.0   16.666666666666668
-150.0   30.0   0.0
-150.0   0.0   16.666666666666668
-100.0   30.0   16.666666666666668
-100.0   0.0   16.666666666666668
-100.0   0.0   0.0
-150.0   0.0   16.666666666666668
-100.0   30.0   16.666666666666668
-100.0   0.0   0.0
-150.0   30.0   0.0
-150.0   0.0   16.666666666666668
-100.0   0.0   16.666666666666668
-150.0   30.0   16.666666666666668
-150.0   0.0   33.333333333333336
-100.0   0.0   16.666666666666668
-100.0   30.0   16.666666666666668
-150.0   30.0   16.666666666666668
-100.0   30.0   33.333333333333336
-150.0   0.0   33.333333333333336
-150.0   30.0   33.333333333333336
-100.0   30.0   33.333333333333336
-150.0   30.0   16.666666666666668
-150.0   0.0   33.333333333333336
-100.0   30.0   33.333333333333336
-100.0   0.0   33.333333333333336
-100.0   0.0   16.666666666666668
-150.0   0.0   33.333333333333336
-100.0   30.0   33.333333333333336
-100.0   0.0   16.666666666666668
-150.0   30.0   16.666666666666668
-150.0   0.0   33.333333333333336
-100.0   0.0   33.333333333333336
-150.0   30.0   33.333333333333336
-150.0   0.0   50.0
-100.0   0.0   33.333333333333336
-100.0   30.0   33.333333333333336
-150.0   30.0   33.333333333333336
-100.0   30.0   50.0
-150.0   0.0   50.0
-150.0   30.0   50.0
-100.0   30.0   50.0
-150.0   30.0   33.333333333333336
-150.0   0.0   50.0
-100.0   30.0   50.0
-100.0   0.0   50.0
-100.0   0.0   33.333333333333336
-150.0   0.0   50.0
-100.0   30.0   50.0
-100.0   0.0   33.333333333333336
-150.0   30.0   33.333333333333336
-150.0   30.0   0.0
-100.0   30.0   0.0
-150.0   60.0   0.0
-150.0   30.0   16.666666666666668
-100.0   30.0   0.0
-100.0   60.0   0.0
-150.0   60.0   0.0
-100.0   60.0   16.666666666666668
-150.0   30.0   16.666666666666668
-150.0   60.0   16.666666666666668
-100.0   60.0   16.666666666666668
-150.0   60.0   0.0
-150.0   30.0   16.666666666666668
-100.0   60.0   16.666666666666668
-100.0   30.0   16.666666666666668
-100.0   30.0   0.0
-150.0   30.0   16.666666666666668
-100.0   60.0   16.666666666666668
-100.0   30.0   0.0
-150.0   60.0   0.0
-150.0   30.0   16.666666666666668
-100.0   30.0   16.666666666666668
-150.0   60.0   16.666666666666668
-150.0   30.0   33.333333333333336
-100.0   30.0   16.666666666666668
-100.0   60.0   16.666666666666668
-150.0   60.0   16.666666666666668
-100.0   60.0   33.333333333333336
-150.0   30.0   33.333333333333336
-150.0   60.0   33.333333333333336
-100.0   60.0   33.333333333333336
-150.0   60.0   16.666666666666668
-150.0   30.0   33.333333333333336
-100.0   60.0   33.333333333333336
-100.0   30.0   33.333333333333336
-100.0   30.0   16.666666666666668
-150.0   30.0   33.333333333333336
-100.0   60.0   33.333333333333336
-100.0   30.0   16.666666666666668
-150.0   60.0   16.666666666666668
-150.0   30.0   33.333333333333336
-100.0   30.0   33.333333333333336
-150.0   60.0   33.333333333333336
-150.0   30.0   50.0
-100.0   30.0   33.333333333333336
-100.0   60.0   33.333333333333336
-150.0   60.0   33.333333333333336
-100.0   60.0   50.0
-150.0   30.0   50.0
-150.0   60.0   50.0
-100.0   60.0   50.0
-150.0   60.0   33.333333333333336
-150.0   30.0   50.0
-100.0   60.0   50.0
-100.0   30.0   50.0
-100.0   30.0   33.333333333333336
-150.0   30.0   50.0
-100.0   60.0   50.0
-100.0   30.0   33.333333333333336
-150.0   60.0   33.333333333333336
-150.0   60.0   0.0
-100.0   60.0   0.0
-150.0   90.0   0.0
-150.0   60.0   16.666666666666668
-100.0   60.0   0.0
-100.0   90.0   0.0
-150.0   90.0   0.0
-100.0   90.0   16.666666666666668
-150.0   60.0   16.666666666666668
-150.0   90.0   16.666666666666668
-100.0   90.0   16.666666666666668
-150.0   90.0   0.0
-150.0   60.0   16.666666666666668
-100.0   90.0   16.666666666666668
-100.0   60.0   16.666666666666668
-100.0   60.0   0.0
-150.0   60.0   16.666666666666668
-100.0   90.0   16.666666666666668
-100.0   60.0   0.0
-150.0   90.0   0.0
-150.0   60.0   16.666666666666668
-100.0   60.0   16.666666666666668
-150.0   90.0   16.666666666666668
-150.0   60.0   33.333333333333336
-100.0   60.0   16.666666666666668
-100.0   90.0   16.666666666666668
-150.0   90.0   16.666666666666668
-100.0   90.0   33.333333333333336
-150.0   60.0   33.333333333333336
-150.0   90.0   33.333333333333336
-100.0   90.0   33.333333333333336
-150.0   90.0   16.666666666666668
-150.0   60.0   33.333333333333336
-100.0   90.0   33.333333333333336
-100.0   60.0   33.333333333333336
-100.0   60.0   16.666666666666668
-150.0   60.0   33.333333333333336
-100.0   90.0   33.333333333333336
-100.0   60.0   16.666666666666668
-150.0   90.0   16.666666666666668
-150.0   60.0   33.333333333333336
-100.0   60.0   33.333333333333336
-150.0   90.0   33.333333333333336
-150.0   60.0   50.0
-100.0   60.0   33.333333333333336
-100.0   90.0   33.333333333333336
-150.0   90.0   33.333333333333336
-100.0   90.0   50.0
-150.0   60.0   50.0
-150.0   90.0   50.0
-100.0   90.0   50.0
-150.0   90.0   33.333333333333336
-150.0   60.0   50.0
-100.0   90.0   50.0
-100.0   60.0   50.0
-100.0   60.0   33.333333333333336
-150.0   60.0   50.0
-100.0   90.0   50.0
-100.0   60.0   33.333333333333336
-150.0   90.0   33.333333333333336
-150.0   90.0   0.0
-100.0   90.0   0.0
-150.0   120.0   0.0
-150.0   90.0   16.666666666666668
-100.0   90.0   0.0
-100.0   120.0   0.0
-150.0   120.0   0.0
-100.0   120.0   16.666666666666668
-150.0   90.0   16.666666666666668
-150.0   120.0   16.666666666666668
-100.0   120.0   16.666666666666668
-150.0   120.0   0.0
-150.0   90.0   16.666666666666668
-100.0   120.0   16.666666666666668
-100.0   90.0   16.666666666666668
-100.0   90.0   0.0
-150.0   90.0   16.666666666666668
-100.0   120.0   16.666666666666668
-100.0   90.0   0.0
-150.0   120.0   0.0
-150.0   90.0   16.666666666666668
-100.0   90.0   16.666666666666668
-150.0   120.0   16.666666666666668
-150.0   90.0   33.333333333333336
-100.0   90.0   16.666666666666668
-100.0   120.0   16.666666666666668
-150.0   120.0   16.666666666666668
-100.0   120.0   33.333333333333336
-150.0   90.0   33.333333333333336
-150.0   120.0   33.333333333333336
-100.0   120.0   33.333333333333336
-150.0   120.0   16.666666666666668
-150.0   90.0   33.333333333333336
-100.0   120.0   33.333333333333336
-100.0   90.0   33.333333333333336
-100.0   90.0   16.666666666666668
-150.0   90.0   33.333333333333336
-100.0   120.0   33.333333333333336
-100.0   90.0   16.666666666666668
-150.0   120.0   16.666666666666668
-150.0   90.0   33.333333333333336
-100.0   90.0   33.333333333333336
-150.0   120.0   33.333333333333336
-150.0   90.0   50.0
-100.0   90.0   33.333333333333336
-100.0   120.0   33.333333333333336
-150.0   120.0   33.333333333333336
-100.0   120.0   50.0
-150.0   90.0   50.0
-150.0   120.0   50.0
-100.0   120.0   50.0
-150.0   120.0   33.333333333333336
-150.0   90.0   50.0
-100.0   120.0   50.0
-100.0   90.0   50.0
-100.0   90.0   33.333333333333336
-150.0   90.0   50.0
-100.0   120.0   50.0
-100.0   90.0   33.333333333333336
-150.0   120.0   33.333333333333336
-150.0   120.0   0.0
-100.0   120.0   0.0
-150.0   150.0   0.0
-150.0   120.0   16.666666666666668
-100.0   120.0   0.0
-100.0   150.0   0.0
-150.0   150.0   0.0
-100.0   150.0   16.666666666666668
-150.0   120.0   16.666666666666668
-150.0   150.0   16.666666666666668
-100.0   150.0   16.666666666666668
-150.0   150.0   0.0
-150.0   120.0   16.666666666666668
-100.0   150.0   16.666666666666668
-100.0   120.0   16.666666666666668
-100.0   120.0   0.0
-150.0   120.0   16.666666666666668
-100.0   150.0   16.666666666666668
-100.0   120.0   0.0
-150.0   150.0   0.0
-150.0   120.0   16.666666666666668
-100.0   120.0   16.666666666666668
-150.0   150.0   16.666666666666668
-150.0   120.0   33.333333333333336
-100.0   120.0   16.666666666666668
-100.0   150.0   16.666666666666668
-150.0   150.0   16.666666666666668
-100.0   150.0   33.333333333333336
-150.0   120.0   33.333333333333336
-150.0   150.0   33.333333333333336
-100.0   150.0   33.333333333333336
-150.0   150.0   16.666666666666668
-150.0   120.0   33.333333333333336
-100.0   150.0   33.333333333333336
-100.0   120.0   33.333333333333336
-100.0   120.0   16.666666666666668
-150.0   120.0   33.333333333333336
-100.0   150.0   33.333333333333336
-100.0   120.0   16.666666666666668
-150.0   150.0   16.666666666666668
-150.0   120.0   33.333333333333336
-100.0   120.0   33.333333333333336
-150.0   150.0   33.333333333333336
-150.0   120.0   50.0
-100.0   120.0   33.333333333333336
-100.0   150.0   33.333333333333336
-150.0   150.0   33.333333333333336
-100.0   150.0   50.0
-150.0   120.0   50.0
-150.0   150.0   50.0
-100.0   150.0   50.0
-150.0   150.0   33.333333333333336
-150.0   120.0   50.0
-100.0   150.0   50.0
-100.0   120.0   50.0
-100.0   120.0   33.333333333333336
-150.0   120.0   50.0
-100.0   150.0   50.0
-100.0   120.0   33.333333333333336
-150.0   150.0   33.333333333333336
-100.0   0.0   0.0
-50.0   0.0   0.0
-100.0   30.0   0.0
-100.0   0.0   16.666666666666668
-50.0   0.0   0.0
-50.0   30.0   0.0
-100.0   30.0   0.0
-50.0   30.0   16.666666666666668
-100.0   0.0   16.666666666666668
-100.0   30.0   16.666666666666668
-50.0   30.0   16.666666666666668
-100.0   30.0   0.0
-100.0   0.0   16.666666666666668
-50.0   30.0   16.666666666666668
-50.0   0.0   16.666666666666668
-50.0   0.0   0.0
-100.0   0.0   16.666666666666668
-50.0   30.0   16.666666666666668
-50.0   0.0   0.0
-100.0   30.0   0.0
-100.0   0.0   16.666666666666668
-50.0   0.0   16.666666666666668
-100.0   30.0   16.666666666666668
-100.0   0.0   33.333333333333336
-50.0   0.0   16.666666666666668
-50.0   30.0   16.666666666666668
-100.0   30.0   16.666666666666668
-50.0   30.0   33.333333333333336
-100.0   0.0   33.333333333333336
-100.0   30.0   33.333333333333336
-50.0   30.0   33.333333333333336
-100.0   30.0   16.666666666666668
-100.0   0.0   33.333333333333336
-50.0   30.0   33.333333333333336
-50.0   0.0   33.333333333333336
-50.0   0.0   16.666666666666668
-100.0   0.0   33.333333333333336
-50.0   30.0   33.333333333333336
-50.0   0.0   16.666666666666668
-100.0   30.0   16.666666666666668
-100.0   0.0   33.333333333333336
-50.0   0.0   33.333333333333336
-100.0   30.0   33.333333333333336
-100.0   0.0   50.0
-50.0   0.0   33.333333333333336
-50.0   30.0   33.333333333333336
-100.0   30.0   33.333333333333336
-50.0   30.0   50.0
-100.0   0.0   50.0
-100.0   30.0   50.0
-50.0   30.0   50.0
-100.0   30.0   33.333333333333336
-100.0   0.0   50.0
-50.0   30.0   50.0
-50.0   0.0   50.0
-50.0   0.0   33.333333333333336
-100.0   0.0   50.0
-50.0   30.0   50.0
-50.0   0.0   33.333333333333336
-100.0   30.0   33.333333333333336
-100.0   30.0   0.0
-50.0   30.0   0.0
-100.0   60.0   0.0
-100.0   30.0   16.666666666666668
-50.0   30.0   0.0
-50.0   60.0   0.0
-100.0   60.0   0.0
-50.0   60.0   16.666666666666668
-100.0   30.0   16.666666666666668
-100.0   60.0   16.666666666666668
-50.0   60.0   16.666666666666668
-100.0   60.0   0.0
-100.0   30.0   16.666666666666668
-50.0   60.0   16.666666666666668
-50.0   30.0   16.666666666666668
-50.0   30.0   0.0
-100.0   30.0   16.666666666666668
-50.0   60.0   16.666666666666668
-50.0   30.0   0.0
-100.0   60.0   0.0
-100.0   30.0   16.666666666666668
-50.0   30.0   16.666666666666668
-100.0   60.0   16.666666666666668
-100.0   30.0   33.333333333333336
-50.0   30.0   16.666666666666668
-50.0   60.0   16.666666666666668
-100.0   60.0   16.666666666666668
-50.0   60.0   33.333333333333336
-100.0   30.0   33.333333333333336
-100.0   60.0   33.333333333333336
-50.0   60.0   33.333333333333336
-100.0   60.0   16.666666666666668
-100.0   30.0   33.333333333333336
-50.0   60.0   33.333333333333336
-50.0   30.0   33.333333333333336
-50.0   30.0   16.666666666666668
-100.0   30.0   33.333333333333336
-50.0   60.0   33.333333333333336
-50.0   30.0   16.666666666666668
-100.0   60.0   16.666666666666668
-100.0   30.0   33.333333333333336
-50.0   30.0   33.333333333333336
-100.0   60.0   33.333333333333336
-100.0   30.0   50.0
-50.0   30.0   33.333333333333336
-50.0   60.0   33.333333333333336
-100.0   60.0   33.333333333333336
-50.0   60.0   50.0
-100.0   30.0   50.0
-100.0   60.0   50.0
-50.0   60.0   50.0
-100.0   60.0   33.333333333333336
-100.0   30.0   50.0
-50.0   60.0   50.0
-50.0   30.0   50.0
-50.0   30.0   33.333333333333336
-100.0   30.0   50.0
-50.0   60.0   50.0
-50.0   30.0   33.333333333333336
-100.0   60.0   33.333333333333336
-100.0   60.0   0.0
-50.0   60.0   0.0
-100.0   90.0   0.0
-100.0   60.0   16.666666666666668
-50.0   60.0   0.0
-50.0   90.0   0.0
-100.0   90.0   0.0
-50.0   90.0   16.666666666666668
-100.0   60.0   16.666666666666668
-100.0   90.0   16.666666666666668
-50.0   90.0   16.666666666666668
-100.0   90.0   0.0
-100.0   60.0   16.666666666666668
-50.0   90.0   16.666666666666668
-50.0   60.0   16.666666666666668
-50.0   60.0   0.0
-100.0   60.0   16.666666666666668
-50.0   90.0   16.666666666666668
-50.0   60.0   0.0
-100.0   90.0   0.0
-100.0   60.0   16.666666666666668
-50.0   60.0   16.666666666666668
-100.0   90.0   16.666666666666668
-100.0   60.0   33.333333333333336
-50.0   60.0   16.666666666666668
-50.0   90.0   16.666666666666668
-100.0   90.0   16.666666666666668
-50.0   90.0   33.333333333333336
-100.0   60.0   33.333333333333336
-100.0   90.0   33.333333333333336
-50.0   90.0   33.333333333333336
-100.0   90.0   16.666666666666668
-100.0   60.0   33.333333333333336
-50.0   90.0   33.333333333333336
-50.0   60.0   33.333333333333336
-50.0   60.0   16.666666666666668
-100.0   60.0   33.333333333333336
-50.0   90.0   33.333333333333336
-50.0   60.0   16.666666666666668
-100.0   90.0   16.666666666666668
-100.0   60.0   33.333333333333336
-50.0   60.0   33.333333333333336
-100.0   90.0   33.333333333333336
-100.0   60.0   50.0
-50.0   60.0   33.333333333333336
-50.0   90.0   33.333333333333336
-100.0   90.0   33.333333333333336
-50.0   90.0   50.0
-100.0   60.0   50.0
-100.0   90.0   50.0
-50.0   90.0   50.0
-100.0   90.0   33.333333333333336
-100.0   60.0   50.0
-50.0   90.0   50.0
-50.0   60.0   50.0
-50.0   60.0   33.333333333333336
-100.0   60.0   50.0
-50.0   90.0   50.0
-50.0   60.0   33.333333333333336
-100.0   90.0   33.333333333333336
-100.0   90.0   0.0
-50.0   90.0   0.0
-100.0   120.0   0.0
-100.0   90.0   16.666666666666668
-50.0   90.0   0.0
-50.0   120.0   0.0
-100.0   120.0   0.0
-50.0   120.0   16.666666666666668
-100.0   90.0   16.666666666666668
-100.0   120.0   16.666666666666668
-50.0   120.0   16.666666666666668
-100.0   120.0   0.0
-100.0   90.0   16.666666666666668
-50.0   120.0   16.666666666666668
-50.0   90.0   16.666666666666668
-50.0   90.0   0.0
-100.0   90.0   16.666666666666668
-50.0   120.0   16.666666666666668
-50.0   90.0   0.0
-100.0   120.0   0.0
-100.0   90.0   16.666666666666668
-50.0   90.0   16.666666666666668
-100.0   120.0   16.666666666666668
-100.0   90.0   33.333333333333336
-50.0   90.0   16.666666666666668
-50.0   120.0   16.666666666666668
-100.0   120.0   16.666666666666668
-50.0   120.0   33.333333333333336
-100.0   90.0   33.333333333333336
-100.0   120.0   33.333333333333336
-50.0   120.0   33.333333333333336
-100.0   120.0   16.666666666666668
-100.0   90.0   33.333333333333336
-50.0   120.0   33.333333333333336
-50.0   90.0   33.333333333333336
-50.0   90.0   16.666666666666668
-100.0   90.0   33.333333333333336
-50.0   120.0   33.333333333333336
-50.0   90.0   16.666666666666668
-100.0   120.0   16.666666666666668
-100.0   90.0   33.333333333333336
-50.0   90.0   33.333333333333336
-100.0   120.0   33.333333333333336
-100.0   90.0   50.0
-50.0   90.0   33.333333333333336
-50.0   120.0   33.333333333333336
-100.0   120.0   33.333333333333336
-50.0   120.0   50.0
-100.0   90.0   50.0
-100.0   120.0   50.0
-50.0   120.0   50.0
-100.0   120.0   33.333333333333336
-100.0   90.0   50.0
-50.0   120.0   50.0
-50.0   90.0   50.0
-50.0   90.0   33.333333333333336
-100.0   90.0   50.0
-50.0   120.0   50.0
-50.0   90.0   33.333333333333336
-100.0   120.0   33.333333333333336
-100.0   120.0   0.0
-50.0   120.0   0.0
-100.0   150.0   0.0
-100.0   120.0   16.666666666666668
-50.0   120.0   0.0
-50.0   150.0   0.0
-100.0   150.0   0.0
-50.0   150.0   16.666666666666668
-100.0   120.0   16.666666666666668
-100.0   150.0   16.666666666666668
-50.0   150.0   16.666666666666668
-100.0   150.0   0.0
-100.0   120.0   16.666666666666668
-50.0   150.0   16.666666666666668
-50.0   120.0   16.666666666666668
-50.0   120.0   0.0
-100.0   120.0   16.666666666666668
-50.0   150.0   16.666666666666668
-50.0   120.0   0.0
-100.0   150.0   0.0
-100.0   120.0   16.666666666666668
-50.0   120.0   16.666666666666668
-100.0   150.0   16.666666666666668
-100.0   120.0   33.333333333333336
-50.0   120.0   16.666666666666668
-50.0   150.0   16.666666666666668
-100.0   150.0   16.666666666666668
-50.0   150.0   33.333333333333336
-100.0   120.0   33.333333333333336
-100.0   150.0   33.333333333333336
-50.0   150.0   33.333333333333336
-100.0   150.0   16.666666666666668
-100.0   120.0   33.333333333333336
-50.0   150.0   33.333333333333336
-50.0   120.0   33.333333333333336
-50.0   120.0   16.666666666666668
-100.0   120.0   33.333333333333336
-50.0   150.0   33.333333333333336
-50.0   120.0   16.666666666666668
-100.0   150.0   16.666666666666668
-100.0   120.0   33.333333333333336
-50.0   120.0   33.333333333333336
-100.0   150.0   33.333333333333336
-100.0   120.0   50.0
-50.0   120.0   33.333333333333336
-50.0   150.0   33.333333333333336
-100.0   150.0   33.333333333333336
-50.0   150.0   50.0
-100.0   120.0   50.0
-100.0   150.0   50.0
-50.0   150.0   50.0
-100.0   150.0   33.333333333333336
-100.0   120.0   50.0
-50.0   150.0   50.0
-50.0   120.0   50.0
-50.0   120.0   33.333333333333336
-100.0   120.0   50.0
-50.0   150.0   50.0
-50.0   120.0   33.333333333333336
-100.0   150.0   33.333333333333336
-50.0   0.0   0.0
0.0   0.0   0.0
-50.0   30.0   0.0
-50.0   0.0   16.666666666666668
0.0   0.0   0.0
0.0   30.0   0.0
-50.0   30.0   0.0
0.0   30.0   16.666666666666668
-50.0   0.0   16.666666666666668
-50.0   30.0   16.666666666666668
0.0   30.0   16.666666666666668
-50.0   30.0   0.0
-50.0   0.0   16.666666666666668
0.0   30.0   16.666666666666668
0.0   0.0   16.666666666666668
0.0   0.0   0.0
-50.0   0.0   16.666666666666668
0.0   30.0   16.666666666666668
0.0   0.0   0.0
-50.0   30.0   0.0
-50.0   0.0   16.666666666666668
0.0   0.0   16.666666666666668
-50.0   30.0   16.666666666666668
-50.0   0.0   33.333333333333336
0.0   0.0   16.666666666666668
0.0   30.0   16.666666666666668
-50.0   30.0   16.666666666666668
0.0   30.0   33.333333333333336
-50.0   0.0   33.333333333333336
-50.0   30.0   33.333333333333336
0.0   30.0   33.333333333333336
-50.0   30.0   16.666666666666668
-50.0   0.0   33.333333333333336
0.0   30.0   33.333333333333336
0.0   0.0   33.333333333333336
0.0   0.0   16.666666666666668
-50.0   0.0   33.333333333333336
0.0   30.0   33.333333333333336
0.0   0.0   16.666666666666668
-50.0   30.0   16.666666666666668
-50.0   0.0   33.333333333333336
0.0   0.0   33.333333333333336
-50.0   30.0   33.333333333333336
-50.0   0.0   50.0
0.0   0.0   33.333333333333336
0.0   30.0   33.333333333333336
-50.0   30.0   33.333333333333336
0.0   30.0   50.0
-50.0   0.0   50.0
-50.0   30.0   50.0
0.0   30.0   50.0
-50.0   30.0   33.333333333333336
-50.0   0.0   50.0
0.0   30.0   50.0
0.0   0.0   50.0
0.0   0.0   33.333333333333336
-50.0   0.0   50.0
0.0   30.0   50.0
0.0   0.0   33.333333333333336
-50.0   30.0   33.333333333333336
-50.0   30.0   0.0
0.0   30.0   0.0
-50.0   60.0   0.0
-50.0   30.0   16.666666666666668
0.0   30.0   0.0
0.0   60.0   0.0
-50.0   60.0   0.0
0.0   60.0   16.666666666666668
-50.0   30.0   16.666666666666668
-50.0   60.0   16.666666666666668
0.0   60.0   16.666666666666668
-50.0   60.0   0.0
-50.0   30.0   16.666666666666668
0.0   60.0   16.666666666666668
0.0   30.0   16.666666666666668
0.0   30.0   0.0
-50.0   30.0   16.666666666666668
0.0   60.0   16.666666666666668
0.0   30.0   0.0
-50.0   60.0   0.0
-50.0   30.0   16.666666666666668
0.0   30.0   16.666666666666668
-50.0   60.0   16.666666666666668
-50.0   30.0   33.333333333333336
0.0   30.0   16.666666666666668
0.0   60.0   16.666666666666668
-50.0   60.0   16.666666666666668
0.0   60.0   33.333333333333336
-50.0   30.0   33.333333333333336
-50.0   60.0   33.333333333333336
0.0   60.0   33.333333333333336
-50.0   60.0   16.666666666666668
-50.0   30.0   33.333333333333336
0.0   60.0   33.333333333333336
0.0   30.0   33.333333333333336
0.0   30.0   16.666666666666668
-50.0   30.0   33.333333333333336
0.0   60.0   33.333333333333336
0.0   30.0   16.666666666666668
-50.0   60.0   16.666666666666668
-50.0   30.0   33.333333333333336
0.0   30.0   33.333333333333336
-50.0   60.0   33.333333333333336
-50.0   30.0   50.0
0.0   30.0   33.333333333333336
0.0   60.0   33.333333333333336
-50.0   60.0   33.333333333333336
0.0   60.0   50.0
-50.0   30.0   50.0
-50.0   60.0   50.0
0.0   60.0   50.0
-50.0   60.0   33.333333333333336
-50.0   30.0   50.0
0.0   60.0   50.0
0.0   30.0   50.0
0.0   30.0   33.333333333333336
-50.0   30.0   50.0
0.0   60.0   50.0
0.0   30.0   33.333333333333336
-50.0   60.0   33.333333333333336
-50.0   60.0   0.0
0.0   60.0   0.0
-50.0   90.0   0.0
-50.0   60.0   16.666666666666668
0.0   60.0   0.0
0.0   90.0   0.0
-50.0   90.0   0.0
0.0   90.0   16.666666666666668
-50.0   60.0   16.666666666666668
-50.0   90.0   16.666666666666668
0.0   90.0   16.666666666666668
-50.0   90.0   0.0
-50.0   60.0   16.666666666666668
0.0   90.0   16.666666666666668
0.0   60.0   16.666666666666668
0.0   60.0   0.0
-50.0   60.0   16.666666666666668
0.0   90.0   16.666666666666668
0.0   60.0   0.0
-50.0   90.0   0.0
-50.0   60.0   16.666666666666668
0.0   60.0   16.666666666666668
-50.0   90.0   16.666666666666668
-50.0   60.0   33.333333333333336
0.0   60.0   16.666666666666668
0.0   90.0   16.666666666666668
-50.0   90.0   16.666666666666668
0.0   90.0   33.333333333333336
-50.0   60.0   33.333333333333336
-50.0   90.0   33.333333333333336
0.0   90.0   33.333333333333336
-50.0   90.0   16.666666666666668
-50.0   60.0   33.333333333333336
0.0   90.0   33.333333333333336
0.0   60.0   33.333333333333336
0.0   60.0   16.666666666666668
-50.0   60.0   33.333333333333336
0.0   90.0   33.333333333333336
0.0   60.0   16.666666666666668
-50.0   90.0   16.666666666666668
-50.0   60.0   33.333333333333336
0.0   60.0   33.333333333333336
-50.0   90.0   33.333333333333336
-50.0   60.0   50.0
0.0   60.0   33.333333333333336
0.0   90.0   33.333333333333336
-50.0   90.0   33.333333333333336
0.0   90.0   50.0
-50.0   60.0   50.0
-50.0   90.0   50.0
0.0   90.0   50.0
-50.0   90.0   33.333333333333336
-50.0   60.0   50.0
0.0   90.0   50.0
0.0   60.0   50.0
0.0   60.0   33.333333333333336
-50.0   60.0   50.0
0.0   90.0   50.0
0.0   60.0   33.333333333333336
-50.0   90.0   33.333333333333336
-50.0   90.0   0.0
0.0   90.0   0.0
-50.0   120.0   0.0
-50.0   90.0   16.666666666666668
0.0   90.0   0.0
0.0   120.0   0.0
-50.0   120.0   0.0
0.0   120.0   16.666666666666668
-50.0   90.0   16.666666666666668
-50.0   120.0   16.666666666666668
0.0   120.0   16.666666666666668
-50.0   120.0   0.0
-50.0   90.0   16.666666666666668
0.0   120.0   16.666666666666668
0.0   90.0   16.666666666666668
0.0   90.0   0.0
-50.0   90.0   16.666666666666668
0.0   120.0   16.666666666666668
0.0   90.0   0.0
-50.0   120.0   0.0
-50.0   90.0   16.666666666666668
0.0   90.0   16.666666666666668
-50.0   120.0   16.666666666666668
-50.0   90.0   33.333333333333336
0.0   90.0   16.666666666666668
0.0   120.0   16.666666666666668
-50.0   120.0   16.666666666666668
0.0   120.0   33.333333333333336
-50.0   90.0   33.333333333333336
-50.0   120.0   33.333333333333336
0.0   120.0   33.333333333333336
-50.0   120.0   16.666666666666668
-50.0   90.0   33.333333333333336
0.0   120.0   33.333333333333336
0.0   90.0   33.333333333333336
0.0   90.0   16.666666666666668
-50.0   90.0   33.333333333333336
0.0   120.0   33.333333333333336
0.0   90.0   16.666666666666668
-50.0   120.0   16.666666666666668
-50.0   90.0   33.333333333333336
0.0   90.0   33.333333333333336
-50.0   120.0   33.333333333333336
-50.0   90.0   50.0
0.0   90.0   33.333333333333336
0.0   120.0   33.333333333333336
-50.0   120.0   33.333333333333336
0.0   120.0   50.0
-50.0   90.0   50.0
-50.0   120.0   50.0
0.0   120.0   50.0
-50.0   120.0   33.333333333333336
-50.0   90.0   50.0
0.0   120.0   50.0
0.0   90.0   50.0
0.0   90.0   33.333333333333336
-50.0   90.0   50.0
0.0   120.0   50.0
0.0   90.0   33.333333333333336
-50.0   120.0   33.333333333333336
-50.0   120.0   0.0
0.0   120.0   0.0
-50.0   150.0   0.0
-50.0   120.0   16.666666666666668
0.0   120.0   0.0
0.0   150.0   0.0
-50.0   150.0   0.0
0.0   150.0   16.666666666666668
-50.0   120.0   16.666666666666668
-50.0   150.0   16.666666666666668
0.0   150.0   16.666666666666668
-50.0   150.0   0.0
-50.0   120.0   16.666666666666668
0.0   150.0   16.666666666666668
0.0   120.0   16.666666666666668
0.0   120.0   0.0
-50.0   120.0   16.666666666666668
0.0   150.0   16.666666666666668
0.0   120.0   0.0
-50.0   150.0   0.0
-50.0   120.0   16.666666666666668
0.0   120.0   16.666666666666668
-50.0   150.0   16.666666666666668
-50.0   120.0   33.333333333333336
0.0   120.0   16.666666666666668
0.0   150.0   16.666666666666668
-50.0   150.0   16.666666666666668
0.0   150.0   33.333333333333336
-50.0   120.0   33.333333333333336
-50.0   150.0   33.333333333333336
0.0   150.0   33.333333333333336
-50.0   150.0   16.666666666666668
-50.0   120.0   33.333333333333336
0.0   150.0   33.333333333333336
0.0   120.0   33.333333333333336
0.0   120.0   16.666666666666668
-50.0   120.0   33.333333333333336
0.0   150.0   33.333333333333336
0.0   120.0   16.666666666666668
-50.0   150.0   16.666666666666668
-50.0   120.0   33.333333333333336
0.0   120.0   33.333333333333336
-50.0   150.0   33.333333333333336
-50.0   120.0   50.0
0.0   120.0   33.333333333333336
0.0   150.0   33.333333333333336
-50.0   150.0   33.333333333333336
0.0   150.0   50.0
-50.0   120.0   50.0
-50.0   150.0   50.0
0.0   150.0   50.0
-50.0   150.0   33.333333333333336
-50.0   120.0   50.0
0.0   150.0   50.0
0.0   120.0   50.0
0.0   120.0   33.333333333333336
-50.0   120.0   50.0
0.0   150.0   50.0
0.0   120.0   33.333333333333336
-50.0   150.0   33.333333333333336
0.0   0.0   0.0
50.0   0.0   0.0
0.0   30.0   0.0
0.0   0.0   16.666666666666668
50.0   0.0   0.0
50.0   30.0   0.0
0.0   30.0   0.0
50.0   30.0   16.666666666666668
0.0   0.0   16.666666666666668
0.0   30.0   16.666666666666668
50.0   30.0   16.666666666666668
0.0   30.0   0.0
0.0   0.0   16.666666666666668
50.0   30.0   16.666666666666668
50.0   0.0   16.666666666666668
50.0   0.0   0.0
0.0   0.0   16.666666666666668
50.0   30.0   16.666666666666668
50.0   0.0   0.0
0.0   30.0   0.0
0.0   0.0   16.666666666666668
50.0   0.0   16.666666666666668
0.0   30.0   16.666666666666668
0.0   0.0   33.333333333333336
50.0   0.0   16.666666666666668
50.0   30.0   16.666666666666668
0.0   30.0   16.666666666666668
50.0   30.0   33.333333333333336
0.0   0.0   33.333333333333336
0.0   30.0   33.333333333333336
50.0   30.0   33.333333333333336
0.0   30.0   16.666666666666668
0.0   0.0   33.333333333333336
50.0   30.0   33.333333333333336
50.0   0.0   33.333333333333336
50.0   0.0   16.666666666666668
0.0   0.0   33.333333333333336
50.0   30.0   33.333333333333336
50.0   0.0   16.666666666666668
0.0   30.0   16.666666666666668
0.0   0.0   33.333333333333336
50.0   0.0   33.333333333333336
0.0   30.0   33.333333333333336
0.0   0.0   50.0
50.0   0.0   33.333333333333336
50.0   30.0   33.333333333333336
0.0   30.0   33.333333333333336
50.0   30.0   50.0
0.0   0.0   50.0
0.0   30.0   50.0
50.0   30.0   50.0
0.0   30.0   33.333333333333336
0.0   0.0   50.0
50.0   30.0   50.0
50.0   0.0   50.0
50.0   0.0   33.333333333333336
0.0   0.0   50.0
50.0   30.0   50.0
50.0   0.0   33.333333333333336
0.0   30.0   33.333333333333336
0.0   30.0   0.0
50.0   30.0   0.0
0.0   60.0   0.0
0.0   30.0   16.666666666666668
50.0   30.0   0.0
50.0   60.0   0.0
0.0   60.0   0.0
50.0   60.0   16.666666666666668
0.0   30.0   16.666666666666668
0.0   60.0   16.666666666666668
50.0   60.0   16.666666666666668
0.0   60.0   0.0
0.0   30.0   16.666666666666668
50.0   60.0   16.666666666666668
50.0   30.0   16.666666666666668
50.0   30.0   0.0
0.0   30.0   16.666666666666668
50.0   60.0   16.666666666666668
50.0   30.0   0.0
0.0   60.0   0.0
0.0   30.0   16.666666666666668
50.0   30.0   16.666666666666668
0.0   60.0   16.666666666666668
0.0   30.0   33.333333333333336
50.0   30.0   16.666666666666668
50.0   60.0   16.666666666666668
0.0   60.0   16.666666666666668
50.0   60.0   33.333333333333336
0.0   30.0   33.333333333333336
0.0   60.0   33.333333333333336
50.0   60.0   33.333333333333336
0.0   60.0   16.666666666666668
0.0   30.0   33.333333333333336
50.0   60.0   33.333333333333336
50.0   30.0   33.333333333333336
50.0   30.0   16.666666666666668
0.0   30.0   33.333333333333336
50.0   60.0   33.333333333333336
50.0   30.0   16.666666666666668
0.0   60.0   16.666666666666668
0.0   30.0   33.333333333333336
50.0   30.0   33.333333333333336
0.0   60.0   33.333333333333336
0.0   30.0   50.0
50.0   30.0   33.333333333333336
50.0   60.0   33.333333333333336
0.0   60.0   33.333333333333336
50.0   60.0   50.0
0.0   30.0   50.0
0.0   60.0   50.0
50.0   60.0   50.0
0.0   60.0   33.333333333333336
0.0   30.0   50.0
50.0   60.0   50.0
50.0   30.0   50.0
50.0   30.0   33.333333333333336
0.0   30.0   50.0
50.0   60.0   50.0
50.0   30.0   33.333333333333336
0.0   60.0   33.333333333333336
0.0   60.0   0.0
50.0   60.0   0.0
0.0   90.0   0.0
0.0   60.0   16.666666666666668
50.0   60.0   0.0
50.0   90.0   0.0
0.0   90.0   0.0
50.0   90.0   16.666666666666668
0.0   60.0   16.666666666666668
0.0   90.0   16.666666666666668
50.0   90.0   16.666666666666668
0.0   90.0   0.0
0.0   60.0   16.666666666666668
50.0   90.0   16.666666666666668
50.0   60.0   16.666666666666668
50.0   60.0   0.0
0.0   60.0   16.666666666666668
50.0   90.0   16.666666666666668
50.0   60.0   0.0
0.0   90.0   0.0
0.0   60.0   16.666666666666668
50.0   60.0   16.666666666666668
0.0   90.0   16.666666666666668
0.0   60.0   33.333333333333336
50.0   60.0   16.666666666666668
50.0   90.0   16.666666666666668
0.0   90.0   16.666666666666668
50.0   90.0   33.333333333333336
0.0   60.0   33.333333333333336
0.0   90.0   33.333333333333336
50.0   90.0   33.333333333333336
0.0   90.0   16.666666666666668
0.0   60.0   33.333333333333336
50.0   90.0   33.333333333333336
50.0   60.0   33.333333333333336
50.0   60.0   16.666666666666668
0.0   60.0   33.333333333333336
50.0   90.0   33.333333333333336
50.0   60.0   16.666666666666668
0.0   90.0   16.666666666666668
0.0   60.0   33.333333333333336
50.0   60.0   33.333333333333336
0.0   90.0   33.333333333333336
0.0   60.0   50.0
50.0   60.0   33.333333333333336
50.0   90.0   33.333333333333336
0.0   90.0   33.333333333333336
50.0   90.0   50.0
0.0   60.0   50.0
0.0   90.0   50.0
50.0   90.0   50.0
0.0   90.0   33.333333333333336
0.0   60.0   50.0
50.0   90.0   50.0
50.0   60.0   50.0
50.0   60.0   33.333333333333336
0.0   60.0   50.0
50.0   90.0   50.0
50.0   60.0   33.333333333333336
0.0   90.0   33.333333333333336
0.0   90.0   0.0
50.0   90.0   0.0
0.0   120.0   0.0
0.0   90.0   16.666666666666668
50.0   90.0   0.0
50.0   120.0   0.0
0.0   120.0   0.0
50.0   120.0   16.666666666666668
0.0   90.0   16.666666666666668
0.0   120.0   16.666666666666668
50.0   120.0   16.666666666666668
0.0   120.0   0.0
0.0   90.0   16.666666666666668
50.0   120.0   16.666666666666668
50.0   90.0   16.666666666666668
50.0   90.0   0.0
0.0   90.0   16.666666666666668
50.0   120.0   16.666666666666668
50.0   90.0   0.0
0.0   120.0   0.0
0.0   90.0   16.666666666666668
50.0   90.0   16.666666666666668
0.0   120.0   16.666666666666668
0.0   90.0   33.333333333333336
50.0   90.0   16.666666666666668
50.0   120.0   16.666666666666668
0.0   120.0   16.666666666666668
50.0   120.0   33.333333333333336
0.0   90.0   33.333333333333336
0.0   120.0   33.333333333333336
50.0   120.0   33.333333333333336
0.0   120.0   16.666666666666668
0.0   90.0   33.333333333333336
50.0   120.0   33.333333333333336
50.0   90.0   33.333333333333336
50.0   90.0   16.666666666666668
0.0   90.0   33.333333333333336
50.0   120.0   33.333333333333336
50.0   90.0   16.666666666666668
0.0   120.0   16.666666666666668
0.0   90.0   33.333333333333336
50.0   90.0   33.333333333333336
0.0   120.0   33.333333333333336
0.0   90.0   50.0
50.0   90.0   33.333333333333336
50.0   120.0   33.333333333333336
0.0   120.0   33.333333333333336
50.0   120.0   50.0
0.0   90.0   50.0
0.0   120.0   50.0
50.0   120.0   50.0
0.0   120.0   33.333333333333336
0.0   90.0   50.0
50.0   120.0   50.0
50.0   90.0   50.0
50.0   90.0   33.333333333333336
0.0   90.0   50.0
50.0   120.0   50.0
50.0   90.0   33.333333333333336
0.0   120.0   33.333333333333336
0.0   120.0   0.0
50.0   120.0   0.0
0.0   150.0   0.0
0.0   120.0   16.666666666666668
50.0   120.0   0.0
50.0   150.0   0.0
0.0   150.0   0.0
50.0   150.0   16.666666666666668
0.0   120.0   16.666666666666668
0.0   150.0   16.666666666666668
50.0   150.0   16.666666666666668
0.0   150.0   0.0
0.0   120.0   16.666666666666668
50.0   150.0   16.666666666666668
50.0   120.0   16.666666666666668
50.0   120.0   0.0
0.0   120.0   16.666666666666668
50.0   150.0   16.666666666666668
50.0   120.0   0.0
0.0   150.0   0.0
0.0   120.0   16.666666666666668
50.0   120.0   16.666666666666668
0.0   150.0   16.666666666666668
0.0   120.0   33.333333333333336
50.0   120.0   16.666666666666668
50.0   150.0   16.666666666666668
0.0   150.0   16.666666666666668
50.0   150.0   33.333333333333336
0.0   120.0   33.333333333333336
0.0   150.0   33.333333333333336
50.0   150.0   33.333333333333336
0.0   150.0   16.666666666666668
0.0   120.0   33.333333333333336
50.0   150.0   33.333333333333336
50.0   120.0   33.333333333333336
50.0   120.0   16.666666666666668
0.0   120.0   33.333333333333336
50.0   150.0   33.333333333333336
50.0   120.0   16.666666666666668
0.0   150.0   16.666666666666668
0.0   120.0   33.333333333333336
50.0   120.0   33.333333333333336
0.0   150.0   33.333333333333336
0.0   120.0   50.0
50.0   120.0   33.333333333333336
50.0   150.0   33.333333333333336
0.0   150.0   33.333333333333336
50.0   150.0   50.0
0.0   120.0   50.0
0.0   150.0   50.0
50.0   150.0   50.0
0.0   150.0   33.333333333333336
0.0   120.0   50.0
50.0   150.0   50.0
50.0   120.0   50.0
50.0   120.0   33.333333333333336
0.0   120.0   50.0
50.0   150.0   50.0
50.0   120.0   33.333333333333336
0.0   150.0   33.333333333333336
50.0   0.0   0.0
100.0   0.0   0.0
50.0   30.0   0.0
50.0   0.0   16.666666666666668
100.0   0.0   0.0
100.0   30.0   0.0
50.0   30.0   0.0
100.0   30.0   16.666666666666668
50.0   0.0   16.666666666666668
50.0   30.0   16.666666666666668
100.0   30.0   16.666666666666668
50.0   30.0   0.0
50.0   0.0   16.666666666666668
100.0   30.0   16.666666666666668
100.0   0.0   16.666666666666668
100.0   0.0   0.0
50.0   0.0   16.666666666666668
100.0   30.0   16.666666666666668
100.0   0.0   0.0
50.0   30.0   0.0
50.0   0.0   16.666666666666668
100.0   0.0   16.666666666666668
50.0   30.0   16.666666666666668
50.0   0.0   33.333333333333336
100.0   0.0   16.666666666666668
100.0   30.0   16.666666666666668
50.0   30.0   16.666666666666668
100.0   30.0   33.333333333333336
50.0   0.0   33.333333333333336
50.0   30.0   33.333333333333336
100.0   30.0   33.333333333333336
50.0   30.0   16.666666666666668
50.0   0.0   33.333333333333336
100.0   30.0   33.333333333333336
100.0   0.0   33.333333333333336
100.0   0.0   16.666666666666668
50.0   0.0   33.333333333333336
100.0   30.0   33.333333333333336
100.0   0.0   16.666666666666668
50.0   30.0   16.666666666666668
50.0   0.0   33.333333333333336
100.0   0.0   33.333333333333336
50.0   30.0   33.333333333333336
50.0   0.0   50.0
100.0   0.0   33.333333333333336
100.0   30.0   33.333333333333336
50.0   30.0   33.333333333333336
100.0   30.0   50.0
50.0   0.0   50.0
50.0   30.0   50.0
100.0   30.0   50.0
50.0   30.0   33.333333333333336
50.0   0.0   50.0
100.0   30.0   50.0
100.0   0.0   50.0
100.0   0.0   33.333333333333336
50.0   0.0   50.0
100.0   30.0   50.0
100.0   0.0   33.333333333333336
50.0   30.0   33.333333333333336
50.0   30.0   0.0
100.0   30.0   0.0
50.0   60.0   0.0
50.0   30.0   16.666666666666668
100.0   30.0   0.0
100.0   60.0   0.0
50.0   60.0   0.0
100.0   60.0   16.666666666666668
50.0   30.0   16.666666666666668
50.0   60.0   16.666666666666668
100.0   60.0   16.666666666666668
50.0   60.0   0.0
50.0   30.0   16.666666666666668
100.0   60.0   16.666666666666668
100.0   30.0   16.666666666666668
100.0   30.0   0.0
50.0   30.0   16.666666666666668
100.0   60.0   16.666666666666668
100.0   30.0   0.0
50.0   60.0   0.0
50.0   30.0   16.666666666666668
100.0   30.0   16.666666666666668
50.0   60.0   16.666666666666668
50.0   30.0   33.333333333333336
100.0   30.0   16.666666666666668
100.0   60.0   16.666666666666668
50.0   60.0   16.666666666666668
100.0   60.0   33.333333333333336
50.0   30.0   33.333333333333336
50.0   60.0   33.333333333333336
100.0   60.0   33.333333333333336
50.0   60.0   16.666666666666668
50.0   30.0   33.333333333333336
100.0   60.0   33.333333333333336
100.0   30.0   33.333333333333336
100.0   30.0   16.666666666666668
50.0   30.0   33.333333333333336
100.0   60.0   33.333333333333336
100.0   30.0   16.666666666666668
50.0   60.0   16.666666666666668
50.0   30.0   33.333333333333336
100.0   30.0   33.333333333333336
50.0   60.0   33.333333333333336
50.0   30.0   50.0
100.0   30.0   33.333333333333336
100.0   60.0   33.333333333333336
50.0   60.0   33.333333333333336
100.0   60.0   50.0
50.0   30.0   50.0
50.0   60.0   50.0
100.0   60.0   50.0
50.0   60.0   33.333333333333336
50.0   30.0   50.0
100.0   60.0   50.0
100.0   30.0   50.0
100.0   30.0   33.333333333333336
50.0   30.0   50.0
100.0   60.0   50.0
100.0   30.0   33.333333333333336
50.0   60.0   33.333333333333336
50.0   60.0   0.0
100.0   60.0   0.0
50.0   90.0   0.0
50.0   60.0   16.666666666666668
100.0   60.0   0.0
100.0   90.0   0.0
50.0   90.0   0.0
100.0   90.0   16.666666666666668
50.0   60.0   16.666666666666668
50.0   90.0   16.666666666666668
100.0   90.0   16.666666666666668
50.0   90.0   0.0
50.0   60.0   16.666666666666668
100.0   90.0   16.666666666666668
100.0   60.0   16.666666666666668
100.0   60.0   0.0
50.0   60.0   16.666666666666668
100.0   90.0   16.666666666666668
100.0   60.0   0.0
50.0   90.0   0.0
50.0   60.0   16.666666666666668
100.0   60.0   16.666666666666668
50.0   90.0   16.666666666666668
50.0   60.0   33.333333333333336
100.0   60.0   16.666666666666668
100.0   90.0   16.666666666666668
50.0   90.0   16.666666666666668
100.0   90.0   33.333333333333336
50.0   60.0   33.333333333333336
50.0   90.0   33.333333333333336
100.0   90.0   33.333333333333336
50.0   90.0   16.666666666666668
50.0   60.0   33.333333333333336
100.0   90.0   33.333333333333336
100.0   60.0   33.333333333333336
100.0   60.0   16.666666666666668
50.0   60.0   33.333333333333336
100.0   90.0   33.333333333333336
100.0   60.0   16.666666666666668
50.0   90.0   16.666666666666668
50.0   60.0   33.333333333333336
100.0   60.0   33.333333333333336
50.0   90.0   33.333333333333336
50.0   60.0   50.0
100.0   60.0   33.333333333333336
100.0   90.0   33.333333333333336
50.0   90.0   33.333333333333336
100.0   90.0   50.0
50.0   60.0   50.0
50.0   90.0   50.0
100.0   90.0   50.0
50.0   90.0   33.333333333333336
50.0   60.0   50.0
100.0   90.0   50.0
100.0   60.0   50.0
100.0   60.0   33.333333333333336
50.0   60.0   50.0
100.0   90.0   50.0
100.0   60.0   33.333333333333336
50.0   90.0   33.333333333333336
50.0   90.0   0.0
100.0   90.0   0.0
50.0   120.0   0.0
50.0   90.0   16.666666666666668
100.0   90.0   0.0
100.0   120.0   0.0
50.0   120.0   0.0
100.0   120.0   16.666666666666668
50.0   90.0   16.666666666666668
50.0   120.0   16.666666666666668
100.0   120.0   16.666666666666668
50.0   120.0   0.0
50.0   90.0   16.666666666666668
100.0   120.0   16.666666666666668
100.0   90.0   16.666666666666668
100.0   90.0   0.0
50.0   90.0   16.666666666666668
100.0   120.0   16.666666666666668
100.0   90.0   0.0
50.0   120.0   0.0
50.0   90.0   16.666666666666668
100.0   90.0   16.666666666666668
50.0   120.0   16.666666666666668
50.0   90.0   33.333333333333336
100.0   90.0   16.666666666666668
100.0   120.0   16.666666666666668
50.0   120.0   16.666666666666668
100.0   120.0   33.333333333333336
50.0   90.0   33.333333333333336
50.0   120.0   33.333333333333336
100.0   120.0   33.333333333333336
50.0   120.0   16.666666666666668
50.0   90.0   33.333333333333336
100.0   120.0   33.333333333333336
100.0   90.0   33.333333333333336
100.0   90.0   16.666666666666668
50.0   90.0   33.333333333333336
100.0   120.0   33.333333333333336
100.0   90.0   16.666666666666668
50.0   120.0   16.666666666666668
50.0   90.0   33.333333333333336
100.0   90.0   33.333333333333336
50.0   120.0   33.333333333333336
50.0   90.0   50.0
100.0   90.0   33.333333333333336
100.0   120.0   33.333333333333336
50.0   120.0   33.333333333333336
100.0   120.0   50.0
50.0   90.0   50.0
50.0   120.0   50.0
100.0   120.0   50.0
50.0   120.0   33.333333333333336
50.0   90.0   50.0
100.0   120.0   50.0
100.0   90.0   50.0
100.0   90.0   33.333333333333336
50.0   90.0   50.0
100.0   120.0   50.0
100.0   90.0   33.333333333333336
50.0   120.0   33.333333333333336
50.0   120.0   0.0
100.0   120.0   0.0
50.0   150.0   0.0
50.0   120.0   16.666666666666668
100.0   120.0   0.0
100.0   150.0   0.0
50.0   150.0   0.0
100.0   150.0   16.666666666666668
50.0   120.0   16.666666666666668
50.0   150.0   16.666666666666668
100.0   150.0   16.666666666666668
50.0   150.0   0.0
50.0   120.0   16.666666666666668
100.0   150.0   16.666666666666668
100.0   120.0   16.666666666666668
100.0   120.0   0.0
50.0   120.0   16.666666666666668
100.0   150.0   16.666666666666668
100.0   120.0   0.0
50.0   150.0   0.0
50.0   120.0   16.666666666666668
100.0   120.0   16.666666666666668
50.0   150.0   16.666666666666668
50.0   120.0   33.333333333333336
100.0   120.0   16.666666666666668
100.0   150.0   16.666666666666668
50.0   150.0   16.666666666666668
100.0   150.0   33.333333333333336
50.0   120.0   33.333333333333336
50.0   150.0   33.333333333333336
100.0   150.0   33.333333333333336
50.0   150.0   16.666666666666668
50.0   120.0   33.333333333333336
100.0   150.0   33.333333333333336
100.0   120.0   33.333333333333336
100.0   120.0   16.666666666666668
50.0   120.0   33.333333333333336
100.0   150.0   33.333333333333336
100.0   120.0   16.666666666666668
50.0   150.0   16.666666666666668
50.0   120.0   33.333333333333336
100.0   120.0   33.333333333333336
50.0   150.0   33.333333333333336
50.0   120.0   50.0
100.0   120.0   33.333333333333336
100.0   150.0   33.333333333333336
50.0   150.0   33.333333333333336
100.0   150.0   50.0
50.0   120.0   50.0
50.0   150.0   50.0
100.0   150.0   50.0
50.0   150.0   33.333333333333336
50.0   120.0   50.0
100.0   150.0   50.0
100.0   120.0   50.0
100.0   120.0   33.333333333333336
50.0   120.0   50.0
100.0   150.0   50.0
100.0   120.0   33.333333333333336
50.0   150.0   33.333333333333336
100.0   0.0   0.0
150.0   0.0   0.0
100.0   30.0   0.0
100.0   0.0   16.666666666666668
150.0   0.0   0.0
150.0   30.0   0.0
100.0   30.0   0.0
150.0   30.0   16.666666666666668
100.0   0.0   16.666666666666668
100.0   30.0   16.666666666666668
150.0   30.0   16.666666666666668
100.0   30.0   0.0
100.0   0.0   16.666666666666668
150.0   30.0   16.666666666666668
150.0   0.0   16.666666666666668
150.0   0.0   0.0
100.0   0.0   16.666666666666668
150.0   30.0   16.666666666666668
150.0   0.0   0.0
100.0   30.0   0.0
100.0   0.0   16.666666666666668
150.0   0.0   16.666666666666668
100.0   30.0   16.666666666666668
100.0   0.0   33.333333333333336
150.0   0.0   16.666666666666668
150.0   30.0   16.666666666666668
100.0   30.0   16.666666666666668
150.0   30.0   33.333333333333336
100.0   0.0   33.333333333333336
100.0   30.0   33.333333333333336
150.0   30.0   33.333333333333336
100.0   30.0   16.666666666666668
100.0   0.0   33.333333333333336
150.0   30.0   33.333333333333336
150.0   0.0   33.333333333333336
150.0   0.0   16.666666666666668
100.0   0.0   33.333333333333336
150.0   30.0   33.333333333333336
150.0   0.0   16.666666666666668
100.0   30.0   16.666666666666668
100.0   0.0   33.333333333333336
150.0   0.0   33.333333333333336
100.0   30.0   33.333333333333336
100.0   0.0   50.0
150.0   0.0   33.333333333333336
150.0   30.0   33.333333333333336
100.0   30.0   33.333333333333336
150.0   30.0   50.0
100.0   0.0   50.0
100.0   30.0   50.0
150.0   30.0   50.0
100.0   30.0   33.333333333333336
100.0   0.0   50.0
150.0   30.0   50.0
150.0   0.0   50.0
150.0   0.0   33.333333333333336
100.0   0.0   50.0
150.0   30.0   50.0
150.0   0.0   33.333333333333336
100.0   30.0   33.333333333333336
100.0   30.0   0.0
150.0   30.0   0.0
100.0   60.0   0.0
100.0   30.0   16.666666666666668
150.0   30.0   0.0
150.0   60.0   0.0
100.0   60.0   0.0
150.0   60.0   16.666666666666668
100.0   30.0   16.666666666666668
100.0   60.0   16.666666666666668
150.0   60.0   16.666666666666668
100.0   60.0   0.0
100.0   30.0   16.666666666666668
150.0   60.0   16.666666666666668
150.0   30.0   16.666666666666668
150.0   30.0   0.0
100.0   30.0   16.666666666666668
150.0   60.0   16.666666666666668
150.0   30.0   0.0
100.0   60.0   0.0
100.0   30.0   16.666666666666668
150.0   30.0   16.666666666666668
100.0   60.0   16.666666666666668
100.0   30.0   33.333333333333336
150.0   30.0   16.666666666666668
150.0   60.0   16.666666666666668
100.0   60.0   16.666666666666668
150.0   60.0   33.333333333333336
100.0   30.0   33.333333333333336
100.0   60.0   33.333333333333336
150.0   60.0   33.333333333333336
100.0   60.0   16.666666666666668
100.0   30.0   33.333333333333336
150.0   60.0   33.333333333333336
150.0   30.0   33.333333333333336
150.0   30.0   16.666666666666668
100.0   30.0   33.333333333333336
150.0   60.0   33.333333333333336
150.0   30.0   16.666666666666668
100.0   60.0   16.666666666666668
100.0   30.0   33.333333333333336
150.0   30.0   33.333333333333336
100.0   60.0   33.333333333333336
100.0   30.0   50.0
150.0   30.0   33.333333333333336
150.0   60.0   33.333333333333336
100.0   60.0   33.333333333333336
150.0   60.0   50.0
100.0   30.0   50.0
100.0   60.0   50.0
150.0   60.0   50.0
100.0   60.0   33.333333333333336
100.0   30.0   50.0
150.0   60.0   50.0
150.0   30.0   50.0
150.0   30.0   33.333333333333336
100.0   30.0   50.0
150.0   60.0   50.0
150.0   30.0   33.333333333333336
100.0   60.0   33.333333333333336
100.0   60.0   0.0
150.0   60.0   0.0
100.0   90.0   0.0
100.0   60.0   16.666666666666668
150.0   60.0   0.0
150.0   90.0   0.0
100.0   90.0   0.0
150.0   90.0   16.666666666666668
100.0   60.0   16.666666666666668
100.0   90.0   16.666666666666668
150.0   90.0   16.666666666666668
100.0   90.0   0.0
100.0   60.0   16.666666666666668
150.0   90.0   16.666666666666668
150.0   60.0   16.666666666666668
150.0   60.0   0.0
100.0   60.0   16.666666666666668
150.0   90.0   16.666666666666668
150.0   60.0   0.0
100.0   90.0   0.0
100.0   60.0   16.666666666666668
150.0   60.0   16.666666666666668
100.0   90.0   16.666666666666668
100.0   60.0   33.333333333333336
150.0   60.0   16.666666666666668
150.0   90.0   16.666666666666668
100.0   90.0   16.666666666666668
150.0   90.0   33.333333333333336
100.0   60.0   33.333333333333336
100.0   90.0   33.333333333333336
150.0   90.0   33.333333333333336
100.0   90.0   16.666666666666668
100.0   60.0   33.333333333333336
150.0   90.0   33.333333333333336
150.0   60.0   33.333333333333336
150.0   60.0   16.666666666666668
100.0   60.0   33.333333333333336
150.0   90.0   33.333333333333336
150.0   60.0   16.666666666666668
100.0   90.0   16.666666666666668
100.0   60.0   33.333333333333336
150.0   60.0   33.333333333333336
100.0   90.0   33.333333333333336
100.0   60.0   50.0
150.0   60.0   33.333333333333336
150.0   90.0   33.333333333333336
100.0   90.0   33.333333333333336
150.0   90.0   50.0
100.0   60.0   50.0
100.0   90.0   50.0
150.0   90.0   50.0
100.0   90.0   33.333333333333336
100.0   60.0   50.0
150.0   90.0   50.0
150.0   60.0   50.0
150.0   60.0   33.333333333333336
100.0   60.0   50.0
150.0   90.0   50.0
150.0   60.0   33.333333333333336
100.0   90.0   33.333333333333336
100.0   90.0   0.0
150.0   90.0   0.0
100.0   120.0   0.0
100.0   90.0   16.666666666666668
150.0   90.0   0.0
150.0   120.0   0.0
100.0   120.0   0.0
150.0   120.0   16.666666666666668
100.0   90.0   16.666666666666668
100.0   120.0   16.666666666666668
150.0   120.0   16.666666666666668
100.0   120.0   0.0
100.0   90.0   16.666666666666668
150.0   120.0   16.666666666666668
150.0   90.0   16.666666666666668
150.0   90.0   0.0
100.0   90.0   16.666666666666668
150.0   120.0   16.666666666666668
150.0   90.0   0.0
100.0   120.0   0.0
100.0   90.0   16.666666666666668
150.0   90.0   16.666666666666668
100.0   120.0   16.666666666666668
100.0   90.0   33.333333333333336
150.0   90.0   16.666666666666668
150.0   120.0   16.666666666666668
100.0   120.0   16.666666666666668
150.0   120.0   33.333333333333336
100.0   90.0   33.333333333333336
100.0   120.0   33.333333333333336
150.0   120.0   33.333333333333336
100.0   120.0   16.666666666666668
100.0   90.0   33.333333333333336
150.0   120.0   33.333333333333336
150.0   90.0   33.333333333333336
150.0   90.0   16.666666666666668
100.0   90.0   33.333333333333336
150.0   120.0   33.333333333333336
150.0   90.0   16.666666666666668
100.0   120.0   16.666666666666668
100.0   90.0   33.333333333333336
150.0   90.0   33.333333333333336
100.0   120.0   33.333333333333336
100.0   90.0   50.0
150.0   90.0   33.333333333333336
150.0   120.0   33.333333333333336
100.0   120.0   33.333333333333336
150.0   120.0   50.0
100.0   90.0   50.0
100.0   120.0   50.0
150.0   120.0   50.0
100.0   120.0   33.333333333333336
100.0   90.0   50.0
150.0   120.0   50.0
150.0   90.0   50.0
150.0   90.0   33.333333333333336
100.0   90.0   50.0
150.0   120.0   50.0
150.0   90.0   33.333333333333336
100.0   120.0   33.333333333333336
100.0   120.0   0.0
150.0   120.0   0.0
100.0   150.0   0.0
100.0   120.0   16.666666666666668
150.0   120.0   0.0
150.0   150.0   0.0
100.0   150.0   0.0
150.0   150.0   16.666666666666668
100.0   120.0   16.666666666666668
100.0   150.0   16.666666666666668
150.0   150.0   16.666666666666668
100.0   150.0   0.0
100.0   120.0   16.666666666666668
150.0   150.0   16.666666666666668
150.0   120.0   16.666666666666668
150.0   120.0   0.0
100.0   120.0   16.666666666666668
150.0   150.0   16.666666666666668
150.0   120.0   0.0
100.0   150.0   0.0
100.0   120.0   16.666666666666668
150.0   120.0   16.666666666666668
100.0   150.0   16.666666666666668
100.0   120.0   33.333333333333336
150.0   120.0   16.666666666666668
150.0   150.0   16.666666666666668
100.0   150.0   16.666666666666668
150.0   150.0   33.333333333333336
100.0   120.0   33.333333333333336
100.0   150.0   33.333333333333336
150.0   150.0   33.333333333333336
100.0   150.0   16.666666666666668
100.0   120.0   33.333333333333336
150.0   150.0   33.333333333333336
150.0   120.0   33.333333333333336
150.0   120.0   16.666666666666668
100.0   120.0   33.333333333333336
150.0   150.0   33.333333333333336
150.0   120.0   16.666666666666668
100.0   150.0   16.666666666666668
100.0   120.0   33.333333333333336
150.0   120.0   33.333333333333336
100.0   150.0   33.333333333333336
100.0   120.0   50.0
150.0   120.0   33.333333333333336
150.0   150.0   33.333333333333336
100.0   150.0   33.333333333333336
150.0   150.0   50.0
100.0   120.0   50.0
100.0   150.0   50.0
150.0   150.0   50.0
100.0   150.0   33.333333333333336
100.0   120.0   50.0
150.0   150.0   50.0
150.0   120.0   50.0
150.0   120.0   33.333333333333336
100.0   120.0   50.0
150.0   150.0   50.0
150.0   120.0   33.333333333333336
100.0   150.0   33.333333333333336
150.0   0.0   0.0
200.0   0.0   0.0
150.0   30.0   0.0
150.0   0.0   16.666666666666668
200.0   0.0   0.0
200.0   30.0   0.0
150.0   30.0   0.0
200.0   30.0   16.666666666666668
150.0   0.0   16.666666666666668
150.0   30.0   16.666666666666668
200.0   30.0   16.666666666666668
150.0   30.0   0.0
150.0   0.0   16.666666666666668
200.0   30.0   16.666666666666668
200.0   0.0   16.666666666666668
200.0   0.0   0.0
150.0   0.0   16.666666666666668
200.0   30.0   16.666666666666668
200.0   0.0   0.0
150.0   30.0   0.0
150.0   0.0   16.666666666666668
200.0   0.0   16.666666666666668
150.0   30.0   16.666666666666668
150.0   0.0   33.333333333333336
200.0   0.0   16.666666666666668
200.0   30.0   16.666666666666668
150.0   30.0   16.666666666666668
200.0   30.0   33.333333333333336
150.0   0.0   33.333333333333336
150.0   30.0   33.333333333333336
200.0   30.0   33.333333333333336
150.0   30.0   16.666666666666668
150.0   0.0   33.333333333333336
200.0   30.0   33.333333333333336
200.0   0.0   33.333333333333336
200.0   0.0   16.666666666666668
150.0   0.0   33.333333333333336
200.0   30.0   33.333333333333336
200.0   0.0   16.666666666666668
150.0   30.0   16.666666666666668
150.0   0.0   33.333333333333336
200.0   0.0   33.333333333333336
150.0   30.0   33.333333333333336
150.0   0.0   50.0
200.0   0.0   33.333333333333336
200.0   30.0   33.333333333333336
150.0   30.0   33.333333333333336
200.0   30.0   50.0
150.0   0.0   50.0
150.0   30.0   50.0
200.0   30.0   50.0
150.0   30.0   33.333333333333336
150.0   0.0   50.0
200.0   30.0   50.0
200.0   0.0   50.0
200.0   0.0   33.333333333333336
150.0   0.0   50.0
200.0   30.0   50.0
200.0   0.0   33.333333333333336
150.0   30.0   33.333333333333336
150.0   30.0   0.0
200.0   30.0   0.0
150.0   60.0   0.0
150.0   30.0   16.666666666666668
200.0   30.0   0.0
200.0   60.0   0.0
150.0   60.0   0.0
200.0   60.0   16.666666666666668
150.0   30.0   16.666666666666668
150.0   60.0   16.666666666666668
200.0   60.0   16.666666666666668
150.0   60.0   0.0
150.0   30.0   16.666666666666668
200.0   60.0   16.666666666666668
200.0   30.0   16.666666666666668
200.0   30.0   0.0
150.0   30.0   16.666666666666668
200.0   60.0   16.666666666666668
200.0   30.0   0.0
150.0   60.0   0.0
150.0   30.0   16.666666666666668
200.0   30.0   16.666666666666668
150.0   60.0   16.666666666666668
150.0   30.0   33.333333333333336
200.0   30.0   16.666666666666668
200.0   60.0   16.666666666666668
150.0   60.0   16.666666666666668
200.0   60.0   33.333333333333336
150.0   30.0   33.333333333333336
150.0   60.0   33.333333333333336
200.0   60.0   33.333333333333336
150.0   60.0   16.666666666666668
150.0   30.0   33.333333333333336
200.0   60.0   33.333333333333336
200.0   30.0   33.333333333333336
200.0   30.0   16.666666666666668
150.0   30.0   33.333333333333336
200.0   60.0   33.333333333333336
200.0   30.0   16.666666666666668
150.0   60.0   16.666666666666668
150.0   30.0   33.333333333333336
200.0   30.0   33.333333333333336
150.0   60.0   33.333333333333336
150.0   30.0   50.0
200.0   30.0   33.333333333333336
200.0   60.0   33.333333333333336
150.0   60.0   33.333333333333336
200.0   60.0   50.0
150.0   30.0   50.0
150.0   60.0   50.0
200.0   60.0   50.0
150.0   60.0   33.333333333333336
150.0   30.0   50.0
200.0   60.0   50.0
200.0   30.0   50.0
200.0   30.0   33.333333333333336
150.0   30.0   50.0
200.0   60.0   50.0
200.0   30.0   33.333333333333336
150.0   60.0   33.333333333333336
150.0   60.0   0.0
200.0   60.0   0.0
150.0   90.0   0.0
150.0   60.0   16.666666666666668
200.0   60.0   0.0
200.0   90.0   0.0
150.0   90.0   0.0
200.0   90.0   16.666666666666668
150.0   60.0   16.666666666666668
150.0   90.0   16.666666666666668
200.0   90.0   16.666666666666668
150.0   90.0   0.0
150.0   60.0   16.666666666666668
200.0   90.0   16.666666666666668
200.0   60.0   16.666666666666668
200.0   60.0   0.0
150.0   60.0   16.666666666666668
200.0   90.0   16.666666666666668
200.0   60.0   0.0
150.0   90.0   0.0
150.0   60.0   16.666666666666668
200.0   60.0   16.666666666666668
150.0   90.0   16.666666666666668
150.0   60.0   33.333333333333336
200.0   60.0   16.666666666666668
200.0   90.0   16.666666666666668
150.0   90.0   16.666666666666668
200.0   90.0   33.333333333333336
150.0   60.0   33.333333333333336
150.0   90.0   33.333333333333336
200.0   90.0   33.333333333333336
150.0   90.0   16.666666666666668
150.0   60.0   33.333333333333336
200.0   90.0   33.333333333333336
200.0   60.0   33.333333333333336
200.0   60.0   16.666666666666668
150.0   60.0   33.333333333333336
200.0   90.0   33.333333333333336
200.0   60.0   16.666666666666668
150.0   90.0   16.666666666666668
150.0   60.0   33.333333333333336
200.0   60.0   33.333333333333336
150.0   90.0   33.333333333333336
150.0   60.0   50.0
200.0   60.0   33.333333333333336
200.0   90.0   33.333333333333336
150.0   90.0   33.333333333333336
200.0   90.0   50.0
150.0   60.0   50.0
150.0   90.0   50.0
200.0   90.0   50.0
150.0   90.0   33.333333333333336
150.0   60.0   50.0
200.0   90.0   50.0
200.0   60.0   50.0
200.0   60.0   33.333333333333336
150.0   60.0   50.0
200.0   90.0   50.0
200.0   60.0   33.333333333333336
150.0   90.0   33.333333333333336
150.0   90.0   0.0
200.0   90.0   0.0
150.0   120.0   0.0
150.0   90.0   16.666666666666668
200.0   90.0   0.0
200.0   120.0   0.0
150.0   120.0   0.0
200.0   120.0   16.666666666666668
150.0   90.0   16.666666666666668
150.0   120.0   16.666666666666668
200.0   120.0   16.666666666666668
150.0   120.0   0.0
150.0   90.0   16.666666666666668
200.0   120.0   16.666666666666668
200.0   90.0   16.666666666666668
200.0   90.0   0.0
150.0   90.0   16.666666666666668
200.0   120.0   16.666666666666668
200.0   90.0   0.0
150.0   120.0   0.0
150.0   90.0   16.666666666666668
200.0   90.0   16.666666666666668
150.0   120.0   16.666666666666668
150.0   90.0   33.333333333333336
200.0   90.0   16.666666666666668
200.0   120.0   16.666666666666668
150.0   120.0   16.666666666666668
200.0   120.0   33.333333333333336
150.0   90.0   33.333333333333336
150.0   120.0   33.333333333333336
200.0   120.0   33.333333333333336
150.0   120.0   16.666666666666668
150.0   90.0   33.333333333333336
200.0   120.0   33.333333333333336
200.0   90.0   33.333333333333336
200.0   90.0   16.666666666666668
150.0   90.0   33.333333333333336
200.0   120.0   33.333333333333336
200.0   90.0   16.666666666666668
150.0   120.0   16.666666666666668
150.0   90.0   33.333333333333336
200.0   90.0   33.333333333333336
150.0   120.0   33.333333333333336
150.0   90.0   50.0
200.0   90.0   33.333333333333336
200.0   120.0   33.333333333333336
150.0   120.0   33.333333333333336
200.0   120.0   50.0
150.0   90.0   50.0
150.0   120.0   50.0
200.0   120.0   50.0
150.0   120.0   33.333333333333336
150.0   90.0   50.0
200.0   120.0   50.0
200.0   90.0   50.0
200.0   90.0   33.333333333333336
150.0   90.0   50.0
200.0   120.0   50.0
200.0   90.0   33.333333333333336
150.0   120.0   33.333333333333336
150.0   120.0   0.0
200.0   120.0   0.0
150.0   150.0   0.0
150.0   120.0   16.666666666666668
200.0   120.0   0.0
200.0   150.0   0.0
150.0   150.0   0.0
200.0   150.0   16.666666666666668
150.0   120.0   16.666666666666668
150.0   150.0   16.666666666666668
200.0   150.0   16.666666666666668
150.0   150.0   0.0
150.0   120.0   16.666666666666668
200.0   150.0   16.666666666666668
200.0   120.0   16.666666666666668
200.0   120.0   0.0
150.0   120.0   16.666666666666668
200.0   150.0   16.666666666666668
200.0   120.0   0.0
150.0   150.0   0.0
150.0   120.0   16.666666666666668
200.0   120.0   16.666666666666668
150.0   150.0   16.666666666666668
150.0   120.0   33.333333333333336
200.0   120.0   16.666666666666668
200.0   150.0   16.666666666666668
150.0   150.0   16.666666666666668
200.0   150.0   33.333333333333336
150.0   120.0   33.333333333333336
150.0   150.0   33.333333333333336
200.0   150.0   33.333333333333336
150.0   150.0   16.666666666666668
150.0   120.0   33.333333333333336
200.0   150.0   33.333333333333336
200.0   120.0   33.333333333333336
200.0   120.0   16.666666666666668
150.0   120.0   33.333333333333336
200.0   150.0   33.333333333333336
200.0   120.0   16.666666666666668
150.0   150.0   16.666666666666668
150.0   120.0   33.333333333333336
200.0   120.0   33.333333333333336
150.0   150.0   33.333333333333336
150.0   120.0   50.0
200.0   120.0   33.333333333333336
200.0   150.0   33.333333333333336
150.0   150.0   33.333333333333336
200.0   150.0   50.0
150.0   120.0   50.0
150.0   150.0   50.0
200.0   150.0   50.0
150.0   150.0   33.333333333333336
150.0   120.0   50.0
200.0   150.0   50.0
200.0   120.0   50.0
200.0   120.0   33.333333333333336
150.0   120.0   50.0
200.0   150.0   50.0
200.0   120.0   33.333333333333336
150.0   150.0   33.333333333333336
200.0   0.0   0.0
250.0   0.0   0.0
200.0   30.0   0.0
200.0   0.0   16.666666666666668
250.0   0.0   0.0
250.0   30.0   0.0
200.0   30.0   0.0
250.0   30.0   16.666666666666668
200.0   0.0   16.666666666666668
200.0   30.0   16.666666666666668
250.0   30.0   16.666666666666668
200.0   30.0   0.0
200.0   0.0   16.666666666666668
250.0   30.0   16.666666666666668
250.0   0.0   16.666666666666668
250.0   0.0   0.0
200.0   0.0   16.666666666666668
250.0   30.0   16.666666666666668
250.0   0.0   0.0
200.0   30.0   0.0
200.0   0.0   16.666666666666668
250.0   0.0   16.666666666666668
200.0   30.0   16.666666666666668
200.0   0.0   33.333333333333336
250.0   0.0   16.666666666666668
250.0   30.0   16.666666666666668
200.0   30.0   16.666666666666668
250.0   30.0   33.333333333333336
200.0   0.0   33.333333333333336
200.0   30.0   33.333333333333336
250.0   30.0   33.333333333333336
200.0   30.0   16.666666666666668
200.0   0.0   33.333333333333336
250.0   30.0   33.333333333333336
250.0   0.0   33.333333333333336
250.0   0.0   16.666666666666668
200.0   0.0   33.333333333333336
250.0   30.0   33.333333333333336
250.0   0.0   16.666666666666668
200.0   30.0   16.666666666666668
200.0   0.0   33.333333333333336
250.0   0.0   33.333333333333336
200.0   30.0   33.333333333333336
200.0   0.0   50.0
250.0   0.0   33.333333333333336
250.0   30.0   33.333333333333336
200.0   30.0   33.333333333333336
250.0   30.0   50.0
200.0   0.0   50.0
200.0   30.0   50.0
250.0   30.0   50.0
200.0   30.0   33.333333333333336
200.0   0.0   50.0
250.0   30.0   50.0
250.0   0.0   50.0
250.0   0.0   33.333333333333336
200.0   0.0   50.0
250.0   30.0   50.0
250.0   0.0   33.333333333333336
200.0   30.0   33.333333333333336
200.0   30.0   0.0
250.0   30.0   0.0
200.0   60.0   0.0
200.0   30.0   16.666666666666668
250.0   30.0   0.0
250.0   60.0   0.0
200.0   60.0   0.0
250.0   60.0   16.666666666666668
200.0   30.0   16.666666666666668
200.0   60.0   16.666666666666668
250.0   60.0   16.666666666666668
200.0   60.0   0.0
200.0   30.0   16.666666666666668
250.0   60.0   16.666666666666668
250.0   30.0   16.666666666666668
250.0   30.0   0.0
200.0   30.0   16.666666666666668
250.0   60.0   16.666666666666668
250.0   30.0   0.0
200.0   60.0   0.0
200.0   30.0   16.666666666666668
250.0   30.0   16.666666666666668
200.0   60.0   16.666666666666668
200.0   30.0   33.333333333333336
250.0   30.0   16.666666666666668
250.0   60.0   16.666666666666668
200.0   60.0   16.666666666666668
250.0   60.0   33.333333333333336
200.0   30.0   33.333333333333336
200.0   60.0   33.333333333333336
250.0   60.0   33.333333333333336
200.0   60.0   16.666666666666668
200.0   30.0   33.333333333333336
250.0   60.0   33.333333333333336
250.0   30.0   33.333333333333336
250.0   30.0   16.666666666666668
200.0   30.0   33.333333333333336
250.0   60.0   33.333333333333336
250.0   30.0   16.666666666666668
200.0   60.0   16.666666666666668
200.0   30.0   33.333333333333336
250.0   30.0   33.333333333333336
200.0   60.0   33.333333333333336
200.0   30.0   50.0
250.0   30.0   33.333333333333336
250.0   60.0   33.333333333333336
200.0   60.0   33.333333333333336
250.0   60.0   50.0
200.0   30.0   50.0
200.0   60.0   50.0
250.0   60.0   50.0
200.0   60.0   33.333333333333336
200.0   30.0   50.0
250.0   60.0   50.0
250.0   30.0   50.0
250.0   30.0   33.333333333333336
200.0   30.0   50.0
250.0   60.0   50.0
250.0   30.0   33.333333333333336
200.0   60.0   33.333333333333336
200.0   60.0   0.0
250.0   60.0   0.0
200.0   90.0   0.0
200.0   60.0   16.666666666666668
250.0   60.0   0.0
250.0   90.0   0.0
200.0   90.0   0.0
250.0   90.0   16.666666666666668
200.0   60.0   16.666666666666668
200.0   90.0   16.666666666666668
250.0   90.0   16.666666666666668
200.0   90.0   0.0
200.0   60.0   16.666666666666668
250.0   90.0   16.666666666666668
250.0   60.0   16.666666666666668
250.0   60.0   0.0
200.0   60.0   16.666666666666668
250.0   90.0   16.666666666666668
250.0   60.0   0.0
200.0   90.0   0.0
200.0   60.0   16.666666666666668
250.0   60.0   16.666666666666668
200.0   90.0   16.666666666666668
200.0   60.0   33.333333333333336
250.0   60.0   16.666666666666668
250.0   90.0   16.666666666666668
200.0   90.0   16.666666666666668
250.0   90.0   33.333333333333336
200.0   60.0   33.333333333333336
200.0   90.0   33.333333333333336
250.0   90.0   33.333333333333336
200.0   90.0   16.666666666666668
200.0   60.0   33.333333333333336
250.0   90.0   33.333333333333336
250.0   60.0   33.333333333333336
250.0   60.0   16.666666666666668
200.0   60.0   33.333333333333336
250.0   90.0   33.333333333333336
250.0   60.0   16.666666666666668
200.0   90.0   16.666666666666668
200.0   60.0   33.333333333333336
250.0   60.0   33.333333333333336
200.0   90.0   33.333333333333336
200.0   60.0   50.0
250.0   60.0   33.333333333333336
250.0   90.0   33.333333333333336
200.0   90.0   33.333333333333336
250.0   90.0   50.0
200.0   60.0   50.0
200.0   90.0   50.0
250.0   90.0   50.0
200.0   90.0   33.333333333333336
200.0   60.0   50.0
250.0   90.0   50.0
250.0   60.0   50.0
250.0   60.0   33.333333333333336
200.0   60.0   50.0
250.0   90.0   50.0
250.0   60.0   33.333333333333336
200.0   90.0   33.333333333333336
200.0   90.0   0.0
250.0   90.0   0.0
200.0   120.0   0.0
200.0   90.0   16.666666666666668
250.0   90.0   0.0
250.0   120.0   0.0
200.0   120.0   0.0
250.0   120.0   16.666666666666668
200.0   90.0   16.666666666666668
200.0   120.0   16.666666666666668
250.0   120.0   16.666666666666668
200.0   120.0   0.0
200.0   90.0   16.666666666666668
250.0   120.0   16.666666666666668
250.0   90.0   16.666666666666668
250.0   90.0   0.0
200.0   90.0   16.666666666666668
250.0   120.0   16.666666666666668
250.0   90.0   0.0
200.0   120.0   0.0
200.0   90.0   16.666666666666668
250.0   90.0   16.666666666666668
200.0   120.0   16.666666666666668
200.0   90.0   33.333333333333336
250.0   90.0   16.666666666666668
250.0   120.0   16.666666666666668
200.0   120.0   16.666666666666668
250.0   120.0   33.333333333333336
200.0   90.0   33.333333333333336
200.0   120.0   33.333333333333336
250.0   120.0   33.333333333333336
200.0   120.0   16.666666666666668
200.0   90.0   33.333333333333336
250.0   120.0   33.333333333333336
250.0   90.0   33.333333333333336
250.0   90.0   16.666666666666668
200.0   90.0   33.333333333333336
250.0   120.0   33.333333333333336
250.0   90.0   16.666666666666668
200.0   120.0   16.666666666666668
200.0   90.0   33.333333333333336
250.0   90.0   33.333333333333336
200.0   120.0   33.333333333333336
200.0   90.0   50.0
250.0   90.0   33.333333333333336
250.0   120.0   33.333333333333336
200.0   120.0   33.333333333333336
250.0   120.0   50.0
200.0   90.0   50.0
200.0   120.0   50.0
250.0   120.0   50.0
200.0   120.0   33.333333333333336
200.0   90.0   50.0
250.0   120.0   50.0
250.0   90.0   50.0
250.0   90.0   33.333333333333336
200.0   90.0   50.0
250.0   120.0   50.0
250.0   90.0   33.333333333333336
200.0   120.0   33.333333333333336
200.0   120.0   0.0
250.0   120.0   0.0
200.0   150.0   0.0
200.0   120.0   16.666666666666668
250.0   120.0   0.0
250.0   150.0   0.0
200.0   150.0   0.0
250.0   150.0   16.666666666666668
200.0   120.0   16.666666666666668
200.0   150.0   16.666666666666668
250.0   150.0   16.666666666666668
200.0   150.0   0.0
200.0   120.0   16.666666666666668
250.0   150.0   16.666666666666668
250.0   120.0   16.666666666666668
250.0   120.0   0.0
200.0   120.0   16.666666666666668
250.0   150.0   16.666666666666668
250.0   120.0   0.0
200.0   150.0   0.0
200.0   120.0   16.666666666666668
250.0   120.0   16.666666666666668
200.0   150.0   16.666666666666668
200.0   120.0   33.333333333333336
250.0   120.0   16.666666666666668
250.0   150.0   16.666666666666668
200.0   150.0   16.666666666666668
250.0   150.0   33.333333333333336
200.0   120.0   33.333333333333336
200.0   150.0   33.333333333333336
250.0   150.0   33.333333333333336
200.0   150.0   16.666666666666668
200.0   120.0   33.333333333333336
250.0   150.0   33.333333333333336
250.0   120.0   33.333333333333336
250.0   120.0   16.666666666666668
200.0   120.0   33.333333333333336
250.0   150.0   33.333333333333336
250.0   120.0   16.666666666666668
200.0   150.0   16.666666666666668
200.0   120.0   33.333333333333336
250.0   120.0   33.333333333333336
200.0   150.0   33.333333333333336
200.0   120.0   50.0
250.0   120.0   33.333333333333336
250.0   150.0   33.333333333333336
200.0   150.0   33.333333333333336
250.0   150.0   50.0
200.0   120.0   50.0
200.0   150.0   50.0
250.0   150.0   50.0
200.0   150.0   33.333333333333336
200.0   120.0   50.0
250.0   150.0   50.0
250.0   120.0   50.0
250.0   120.0   33.333333333333336
200.0   120.0   50.0
250.0   150.0   50.0
250.0   120.0   33.333333333333336
200.0   150.0   33.333333333333336
250.0   0.0   0.0
300.0   0.0   0.0
250.0   30.0   0.0
250.0   0.0   16.666666666666668
300.0   0.0   0.0
300.0   30.0   0.0
250.0   30.0   0.0
300.0   30.0   16.666666666666668
250.0   0.0   16.666666666666668
250.0   30.0   16.666666666666668
300.0   30.0   16.666666666666668
250.0   30.0   0.0
250.0   0.0   16.666666666666668
300.0   30.0   16.666666666666668
300.0   0.0   16.666666666666668
300.0   0.0   0.0
250.0   0.0   16.666666666666668
300.0   30.0   16.666666666666668
300.0   0.0   0.0
250.0   30.0   0.0
250.0   0.0   16.666666666666668
300.0   0.0   16.666666666666668
250.0   30.0   16.666666666666668
250.0   0.0   33.333333333333336
300.0   0.0   16.666666666666668
300.0   30.0   16.666666666666668
250.0   30.0   16.666666666666668
300.0   30.0   33.333333333333336
250.0   0.0   33.333333333333336
250.0   30.0   33.333333333333336
300.0   30.0   33.333333333333336
250.0   30.0   16.666666666666668
250.0   0.0   33.333333333333336
300.0   30.0   33.333333333333336
300.0   0.0   33.333333333333336
300.0   0.0   16.666666666666668
250.0   0.0   33.333333333333336
300.0   30.0   33.333333333333336
300.0   0.0   16.666666666666668
250.0   30.0   16.666666666666668
250.0   0.0   33.333333333333336
300.0   0.0   33.333333333333336
250.0   30.0   33.333333333333336
250.0   0.0   50.0
300.0   0.0   33.333333333333336
300.0   30.0   33.333333333333336
250.0   30.0   33.333333333333336
300.0   30.0   50.0
250.0   0.0   50.0
250.0   30.0   50.0
300.0   30.0   50.0
250.0   30.0   33.333333333333336
250.0   0.0   50.0
300.0   30.0   50.0
300.0   0.0   50.0
300.0   0.0   33.333333333333336
250.0   0.0   50.0
300.0   30.0   50.0
300.0   0.0   33.333333333333336
250.0   30.0   33.333333333333336
250.0   30.0   0.0
300.0   30.0   0.0
250.0   60.0   0.0
250.0   30.0   16.666666666666668
300.0   30.0   0.0
300.0   60.0   0.0
250.0   60.0   0.0
300.0   60.0   16.666666666666668
250.0   30.0   16.666666666666668
250.0   60.0   16.666666666666668
300.0   60.0   16.666666666666668
250.0   60.0   0.0
250.0   30.0   16.666666666666668
300.0   60.0   16.666666666666668
300.0   30.0   16.666666666666668
300.0   30.0   0.0
250.0   30.0   16.666666666666668
300.0   60.0   16.666666666666668
300.0   30.0   0.0
250.0   60.0   0.0
250.0   30.0   16.666666666666668
300.0   30.0   16.666666666666668
250.0   60.0   16.666666666666668
250.0   30.0   33.333333333333336
300.0   30.0   16.666666666666668
300.0   60.0   16.666666666666668
250.0   60.0   16.666666666666668
300.0   60.0   33.333333333333336
250.0   30.0   33.333333333333336
250.0   60.0   33.333333333333336
300.0   60.0   33.333333333333336
250.0   60.0   16.666666666666668
250.0   30.0   33.333333333333336
300.0   60.0   33.333333333333336
300.0   30.0   33.333333333333336
300.0   30.0   16.666666666666668
250.0   30.0   33.333333333333336
300.0   60.0   33.333333333333336
300.0   30.0   16.666666666666668
250.0   60.0   16.666666666666668
250.0   30.0   33.333333333333336
300.0   30.0   33.333333333333336
250.0   60.0   33.333333333333336
250.0   30.0   50.0
300.0   30.0   33.333333333333336
300.0   60.0   33.333333333333336
250.0   60.0   33.333333333333336
300.0   60.0   50.0
250.0   30.0   50.0
250.0   60.0   50.0
300.0   60.0   50.0
250.0   60.0   33.333333333333336
250.0   30.0   50.0
300.0   60.0   50.0
300.0   30.0   50.0
300.0   30.0   33.333333333333336
250.0   30.0   50.0
300.0   60.0   50.0
300.0   30.0   33.333333333333336
250.0   60.0   33.333333333333336
250.0   60.0   0.0
300.0   60.0   0.0
250.0   90.0   0.0
250.0   60.0   16.666666666666668
300.0   60.0   0.0
300.0   90.0   0.0
250.0   90.0   0.0
300.0   90.0   16.666666666666668
250.0   60.0   16.666666666666668
250.0   90.0   16.666666666666668
300.0   90.0   16.666666666666668
250.0   90.0   0.0
250.0   60.0   16.666666666666668
300.0   90.0   16.666666666666668
300.0   60.0   16.666666666666668
300.0   60.0   0.0
250.0   60.0   16.666666666666668
300.0   90.0   16.666666666666668
300.0   60.0   0.0
250.0   90.0   0.0
250.0   60.0   16.666666666666668
300.0   60.0   16.666666666666668
250.0   90.0   16.666666666666668
250.0   60.0   33.333333333333336
300.0   60.0   16.666666666666668
300.0   90.0   16.666666666666668
250.0   90.0   16.666666666666668
300.0   90.0   33.333333333333336
250.0   60.0   33.333333333333336
250.0   90.0   33.333333333333336
300.0   90.0   33.333333333333336
250.0   90.0   16.666666666666668
250.0   60.0   33.333333333333336
300.0   90.0   33.333333333333336
300.0   60.0   33.333333333333336
300.0   60.0   16.666666666666668
250.0   60.0   33.333333333333336
300.0   90.0   33.333333333333336
300.0   60.0   16.666666666666668
250.0   90.0   16.666666666666668
250.0   60.0   33.333333333333336
300.0   60.0   33.333333333333336
250.0   90.0   33.333333333333336
250.0   60.0   50.0
300.0   60.0   33.333333333333336
300.0   90.0   33.333333333333336
250.0   90.0   33.333333333333336
300.0   90.0   50.0
250.0   60.0   50.0
250.0   90.0   50.0
300.0   90.0   50.0
250.0   90.0   33.333333333333336
250.0   60.0   50.0
300.0   90.0   50.0
300.0   60.0   50.0
300.0   60.0   33.333333333333336
250.0   60.0   50.0
300.0   90.0   50.0
300.0   60.0   33.333333333333336
250.0   90.0   33.333333333333336
250.0   90.0   0.0
300.0   90.0   0.0
250.0   120.0   0.0
250.0   90.0   16.666666666666668
300.0   90.0   0.0
300.0   120.0   0.0
250.0   120.0   0.0
300.0   120.0   16.666666666666668
250.0   90.0   16.666666666666668
250.0   120.0   16.666666666666668
300.0   120.0   16.666666666666668
250.0   120.0   0.0
250.0   90.0   16.666666666666668
300.0   120.0   16.666666666666668
300.0   90.0   16.666666666666668
300.0   90.0   0.0
250.0   90.0   16.666666666666668
300.0   120.0   16.666666666666668
300.0   90.0   0.0
250.0   120.0   0.0
250.0   90.0   16.666666666666668
300.0   90.0   16.666666666666668
250.0   120.0   16.666666666666668
250.0   90.0   33.333333333333336
300.0   90.0   16.666666666666668
300.0   120.0   16.666666666666668
250.0   120.0   16.666666666666668
300.0   120.0   33.333333333333336
250.0   90.0   33.333333333333336
250.0   120.0   33.333333333333336
300.0   120.0   33.333333333333336
250.0   120.0   16.666666666666668
250.0   90.0   33.333333333333336
300.0   120.0   33.333333333333336
300.0   90.0   33.333333333333336
300.0   90.0   16.666666666666668
250.0   90.0   33.333333333333336
300.0   120.0   33.333333333333336
300.0   90.0   16.666666666666668
250.0   120.0   16.666666666666668
250.0   90.0   33.333333333333336
300.0   90.0   33.333333333333336
250.0   120.0   33.333333333333336
250.0   90.0   50.0
300.0   90.0   33.333333333333336
300.0   120.0   33.333333333333336
250.0   120.0   33.333333333333336
300.0   120.0   50.0
250.0   90.0   50.0
250.0   120.0   50.0
300.0   120.0   50.0
250.0   120.0   33.333333333333336
250.0   90.0   50.0
300.0   120.0   50.0
300.0   90.0   50.0
300.0   90.0   33.333333333333336
250.0   90.0   50.0
300.0   120.0   50.0
300.0   90.0   33.333333333333336
250.0   120.0   33.333333333333336
250.0   120.0   0.0
300.0   120.0   0.0
250.0   150.0   0.0
250.0   120.0   16.666666666666668
300.0   120.0   0.0
300.0   150.0   0.0
250.0   150.0   0.0
300.0   150.0   16.666666666666668
250.0   120.0   16.666666666666668
250.0   150.0   16.666666666666668
300.0   150.0   16.666666666666668
250.0   150.0   0.0
250.0   120.0   16.666666666666668
300.0   150.0   16.666666666666668
300.0   120.0   16.666666666666668
300.0   120.0   0.0
250.0   120.0   16.666666666666668
300.0   150.0   16.666666666666668
300.0   120.0   0.0
250.0   150.0   0.0
250.0   120.0   16.666666666666668
300.0   120.0   16.666666666666668
250.0   150.0   16.666666666666668
250.0   120.0   33.333333333333336
300.0   120.0   16.666666666666668
300.0   150.0   16.666666666666668
250.0   150.0   16.666666666666668
300.0   150.0   33.333333333333336
250.0   120.0   33.333333333333336
250.0   150.0   33.333333333333336
300.0   150.0   33.333333333333336
250.0   150.0   16.666666666666668
250.0   120.0   33.333333333333336
300.0   150.0   33.333333333333336
300.0   120.0   33.333333333333336
300.0   120.0   16.666666666666668
250.0   120.0   33.333333333333336
300.0   150.0   33.333333333333336
300.0   120.0   16.666666666666668
250.0   150.0   16.666666666666668
250.0   120.0   33.333333333333336
300.0   120.0   33.333333333333336
250.0   150.0   33.333333333333336
250.0   120.0   50.0
300.0   120.0   33.333333333333336
300.0   150.0   33.333333333333336
250.0   150.0   33.333333333333336
300.0   150.0   50.0
250.0   120.0   50.0
250.0   150.0   50.0
300.0   150.0   50.0
250.0   150.0   33.333333333333336
250.0   120.0   50.0
300.0   150.0   50.0
300.0   120.0   50.0
300.0   120.0   33.333333333333336
250.0   120.0   50.0
300.0   150.0   50.0
300.0   120.0   33.333333333333336
250.0   150.0   33.333333333333336
300.0   0.0   0.0
350.0   0.0   0.0
300.0   30.0   0.0
300.0   0.0   16.666666666666668
350.0   0.0   0.0
350.0   30.0   0.0
300.0   30.0   0.0
350.0   30.0   16.666666666666668
300.0   0.0   16.666666666666668
300.0   30.0   16.666666666666668
350.0   30.0   16.666666666666668
300.0   30.0   0.0
300.0   0.0   16.666666666666668
350.0   30.0   16.666666666666668
350.0   0.0   16.666666666666668
350.0   0.0   0.0
300.0   0.0   16.666666666666668
350.0   30.0   16.666666666666668
350.0   0.0   0.0
300.0   30.0   0.0
300.0   0.0   16.666666666666668
350.0   0.0   16.666666666666668
300.0   30.0   16.666666666666668
300.0   0.0   33.333333333333336
350.0   0.0   16.666666666666668
350.0   30.0   16.666666666666668
300.0   30.0   16.666666666666668
350.0   30.0   33.333333333333336
300.0   0.0   33.333333333333336
300.0   30.0   33.333333333333336
350.0   30.0   33.333333333333336
300.0   30.0   16.666666666666668
300.0   0.0   33.333333333333336
350.0   30.0   33.333333333333336
350.0   0.0   33.333333333333336
350.0   0.0   16.666666666666668
300.0   0.0   33.333333333333336
350.0   30.0   33.333333333333336
350.0   0.0   16.666666666666668
300.0   30.0   16.666666666666668
300.0   0.0   33.333333333333336
350.0   0.0   33.333333333333336
300.0   30.0   33.333333333333336
300.0   0.0   50.0
350.0   0.0   33.333333333333336
350.0   30.0   33.333333333333336
300.0   30.0   33.333333333333336
350.0   30.0   50.0
300.0   0.0   50.0
300.0   30.0   50.0
350.0   30.0   50.0
300.0   30.0   33.333333333333336
300.0   0.0   50.0
350.0   30.0   50.0
350.0   0.0   50.0
350.0   0.0   33.333333333333336
300.0   0.0   50.0
350.0   30.0   50.0
350.0   0.0   33.333333333333336
300.0   30.0   33.333333333333336
300.0   30.0   0.0
350.0   30.0   0.0
300.0   60.0   0.0
300.0   30.0   16.666666666666668
350.0   30.0   0.0
350.0   60.0   0.0
300.0   60.0   0.0
350.0   60.0   16.666666666666668
300.0   30.0   16.666666666666668
300.0   60.0   16.666666666666668
350.0   60.0   16.666666666666668
300.0   60.0   0.0
300.0   30.0   16.666666666666668
350.0   60.0   16.666666666666668
350.0   30.0   16.666666666666668
350.0   30.0   0.0
300.0   30.0   16.666666666666668
350.0   60.0   16.666666666666668
350.0   30.0   0.0
300.0   60.0   0.0
300.0   30.0   16.666666666666668
350.0   30.0   16.666666666666668
300.0   60.0   16.666666666666668
300.0   30.0   33.333333333333336
350.0   30.0   16.666666666666668
350.0   60.0   16.666666666666668
300.0   60.0   16.666666666666668
350.0   60.0   33.333333333333336
300.0   30.0   33.333333333333336
300.0   60.0   33.333333333333336
350.0   60.0   33.333333333333336
300.0   60.0   16.666666666666668
300.0   30.0   33.333333333333336
350.0   60.0   33.333333333333336
350.0   30.0   33.333333333333336
350.0   30.0   16.666666666666668
300.0   30.0   33.333333333333336
350.0   60.0   33.333333333333336
350.0   30.0   16.666666666666668
300.0   60.0   16.666666666666668
300.0   30.0   33.333333333333336
350.0   30.0   33.333333333333336
300.0   60.0   33.333333333333336
300.0   30.0   50.0
350.0   30.0   33.333333333333336
350.0   60.0   33.333333333333336
300.0   60.0   33.333333333333336
350.0   60.0   50.0
300.0   30.0   50.0
300.0   60.0   50.0
350.0   60.0   50.0
300.0   60.0   33.333333333333336
300.0   30.0   50.0
350.0   60.0   50.0
350.0   30.0   50.0
350.0   30.0   33.333333333333336
300.0   30.0   50.0
350.0   60.0   50.0
350.0   30.0   33.333333333333336
300.0   60.0   33.333333333333336
300.0   60.0   0.0
350.0   60.0   0.0
300.0   90.0   0.0
300.0   60.0   16.666666666666668
350.0   60.0   0.0
350.0   90.0   0.0
300.0   90.0   0.0
350.0   90.0   16.666666666666668
300.0   60.0   16.666666666666668
300.0   90.0   16.666666666666668
350.0   90.0   16.666666666666668
300.0   90.0   0.0
300.0   60.0   16.666666666666668
350.0   90.0   16.666666666666668
350.0   60.0   16.666666666666668
350.0   60.0   0.0
300.0   60.0   16.666666666666668
350.0   90.0   16.666666666666668
350.0   60.0   0.0
300.0   90.0   0.0
300.0   60.0   16.666666666666668
350.0   60.0   16.666666666666668
300.0   90.0   16.666666666666668
300.0   60.0   33.333333333333336
350.0   60.0   16.666666666666668
350.0   90.0   16.666666666666668
300.0   90.0   16.666666666666668
350.0   90.0   33.333333333333336
300.0   60.0   33.333333333333336
300.0   90.0   33.333333333333336
350.0   90.0   33.333333333333336
300.0   90.0   16.666666666666668
300.0   60.0   33.333333333333336
350.0   90.0   33.333333333333336
350.0   60.0   33.333333333333336
350.0   60.0   16.666666666666668
300.0   60.0   33.333333333333336
350.0   90.0   33.333333333333336
350.0   60.0   16.666666666666668
300.0   90.0   16.666666666666668
300.0   60.0   33.333333333333336
350.0   60.0   33.333333333333336
300.0   90.0   33.333333333333336
300.0   60.0   50.0
350.0   60.0   33.333333333333336
350.0   90.0   33.333333333333336
300.0   90.0   33.333333333333336
350.0   90.0   50.0
300.0   60.0   50.0
300.0   90.0   50.0
350.0   90.0   50.0
300.0   90.0   33.333333333333336
300.0   60.0   50.0
350.0   90.0   50.0
350.0   60.0   50.0
350.0   60.0   33.333333333333336
300.0   60.0   50.0
350.0   90.0   50.0
350.0   60.0   33.333333333333336
300.0   90.0   33.333333333333336
300.0   90.0   0.0
350.0   90.0   0.0
300.0   120.0   0.0
300.0   90.0   16.666666666666668
350.0   90.0   0.0
350.0   120.0   0.0
300.0   120.0   0.0
350.0   120.0   16.666666666666668
300.0   90.0   16.666666666666668
300.0   120.0   16.666666666666668
350.0   120.0   16.666666666666668
300.0   120.0   0.0
300.0   90.0   16.666666666666668
350.0   120.0   16.666666666666668
350.0   90.0   16.666666666666668
350.0   90.0   0.0
300.0   90.0   16.666666666666668
350.0   120.0   16.666666666666668
350.0   90.0   0.0
300.0   120.0   0.0
300.0   90.0   16.666666666666668
350.0   90.0   16.666666666666668
300.0   120.0   16.666666666666668
300.0   90.0   33.333333333333336
350.0   90.0   16.666666666666668
350.0   120.0   16.666666666666668
300.0   120.0   16.666666666666668
350.0   120.0   33.333333333333336
300.0   90.0   33.333333333333336
300.0   120.0   33.333333333333336
350.0   120.0   33.333333333333336
300.0   120.0   16.666666666666668
300.0   90.0   33.333333333333336
350.0   120.0   33.333333333333336
350.0   90.0   33.333333333333336
350.0   90.0   16.666666666666668
300.0   90.0   33.333333333333336
350.0   120.0   33.333333333333336
350.0   90.0   16.666666666666668
300.0   120.0   16.666666666666668
300.0   90.0   33.333333333333336
350.0   90.0   33.333333333333336
300.0   120.0   33.333333333333336
300.0   90.0   50.0
350.0   90.0   33.333333333333336
350.0   120.0   33.333333333333336
300.0   120.0   33.333333333333336
350.0   120.0   50.0
300.0   90.0   50.0
300.0   120.0   50.0
350.0   120.0   50.0
300.0   120.0   33.333333333333336
300.0   90.0   50.0
350.0   120.0   50.0
350.0   90.0   50.0
350.0   90.0   33.333333333333336
300.0   90.0   50.0
350.0   120.0   50.0
350.0   90.0   33.333333333333336
300.0   120.0   33.333333333333336
300.0   120.0   0.0
350.0   120.0   0.0
300.0   150.0   0.0
300.0   120.0   16.666666666666668
350.0   120.0   0.0
350.0   150.0   0.0
300.0   150.0   0.0
350.0   150.0   16.666666666666668
300.0   120.0   16.666666666666668
300.0   150.0   16.666666666666668
350.0   150.0   16.666666666666668
300.0   150.0   0.0
300.0   120.0   16.666666666666668
350.0   150.0   16.666666666666668
350.0   120.0   16.666666666666668
350.0   120.0   0.0
300.0   120.0   16.666666666666668
350.0   150.0   16.666666666666668
350.0   120.0   0.0
300.0   150.0   0.0
300.0   120.0   16.666666666666668
350.0   120.0   16.666666666666668
300.0   150.0   16.666666666666668
300.0   120.0   33.333333333333336
350.0   120.0   16.666666666666668
350.0   150.0   16.666666666666668
300.0   150.0   16.666666666666668
350.0   150.0   33.333333333333336
300.0   120.0   33.333333333333336
300.0   150.0   33.333333333333336
350.0   150.0   33.333333333333336
300.0   150.0   16.666666666666668
300.0   120.0   33.333333333333336
350.0   150.0   33.333333333333336
350.0   120.0   33.333333333333336
350.0   120.0   16.666666666666668
300.0   120.0   33.333333333333336
350.0   150.0   33.333333333333336
350.0   120.0   16.666666666666668
300.0   150.0   16.666666666666668
300.0   120.0   33.333333333333336
350.0   120.0   33.333333333333336
300.0   150.0   33.333333333333336
300.0   120.0   50.0
350.0   120.0   33.333333333333336
350.0   150.0   33.333333333333336
300.0   150.0   33.333333333333336
350.0   150.0   50.0
300.0   120.0   50.0
300.0   150.0   50.0
350.0   150.0   50.0
300.0   150.0   33.333333333333336
300.0   120.0   50.0
350.0   150.0   50.0
350.0   120.0   50.0
350.0   120.0   33.333333333333336
300.0   120.0   50.0
350.0   150.0   50.0
350.0   120.0   33.333333333333336
300.0   150.0   33.333333333333336
350.0   0.0   0.0
400.0   0.0   0.0
350.0   30.0   0.0
350.0   0.0   16.666666666666668
400.0   0.0   0.0
400.0   30.0   0.0
350.0   30.0   0.0
400.0   30.0   16.666666666666668
350.0   0.0   16.666666666666668
350.0   30.0   16.666666666666668
400.0   30.0   16.666666666666668
350.0   30.0   0.0
350.0   0.0   16.666666666666668
400.0   30.0   16.666666666666668
400.0   0.0   16.666666666666668
400.0   0.0   0.0
350.0   0.0   16.666666666666668
400.0   30.0   16.666666666666668
400.0   0.0   0.0
350.0   30.0   0.0
350.0   0.0   16.666666666666668
400.0   0.0   16.666666666666668
350.0   30.0   16.666666666666668
350.0   0.0   33.333333333333336
400.0   0.0   16.666666666666668
400.0   30.0   16.666666666666668
350.0   30.0   16.666666666666668
400.0   30.0   33.333333333333336
350.0   0.0   33.333333333333336
350.0   30.0   33.333333333333336
400.0   30.0   33.333333333333336
350.0   30.0   16.666666666666668
350.0   0.0   33.333333333333336
400.0   30.0   33.333333333333336
400.0   0.0   33.333333333333336
400.0   0.0   16.666666666666668
350.0   0.0   33.333333333333336
400.0   30.0   33.333333333333336
400.0   0.0   16.666666666666668
350.0   30.0   16.666666666666668
350.0   0.0   33.333333333333336
400.0   0.0   33.333333333333336
350.0   30.0   33.333333333333336
350.0   0.0   50.0
400.0   0.0   33.333333333333336
400.0   30.0   33.333333333333336
350.0   30.0   33.333333333333336
400.0   30.0   50.0
350.0   0.0   50.0
350.0   30.0   50.0
400.0   30.0   50.0
350.0   30.0   33.333333333333336
350.0   0.0   50.0
400.0   30.0   50.0
400.0   0.0   50.0
400.0   0.0   33.333333333333336
350.0   0.0   50.0
400.0   30.0   50.0
400.0   0.0   33.333333333333336
350.0   30.0   33.333333333333336
350.0   30.0   0.0
400.0   30.0   0.0
350.0   60.0   0.0
350.0   30.0   16.666666666666668
400.0   30.0   0.0
400.0   60.0   0.0
350.0   60.0   0.0
400.0   60.0   16.666666666666668
350.0   30.0   16.666666666666668
350.0   60.0   16.666666666666668
400.0   60.0   16.666666666666668
350.0   60.0   0.0
350.0   30.0   16.666666666666668
400.0   60.0   16.666666666666668
400.0   30.0   16.666666666666668
400.0   30.0   0.0
350.0   30.0   16.666666666666668
400.0   60.0   16.666666666666668
400.0   30.0   0.0
350.0   60.0   0.0
350.0   30.0   16.666666666666668
400.0   30.0   16.666666666666668
350.0   60.0   16.666666666666668
350.0   30.0   33.333333333333336
400.0   30.0   16.666666666666668
400.0   60.0   16.666666666666668
350.0   60.0   16.666666666666668
400.0   60.0   33.333333333333336
350.0   30.0   33.333333333333336
350.0   60.0   33.333333333333336
400.0   60.0   33.333333333333336
350.0   60.0   16.666666666666668
350.0   30.0   33.333333333333336
400.0   60.0   33.333333333333336
400.0   30.0   33.333333333333336
400.0   30.0   16.666666666666668
350.0   30.0   33.333333333333336
400.0   60.0   33.333333333333336
400.0   30.0   16.666666666666668
350.0   60.0   16.666666666666668
350.0   30.0   33.333333333333336
400.0   30.0   33.333333333333336
350.0   60.0   33.333333333333336
350.0   30.0   50.0
400.0   30.0   33.333333333333336
400.0   60.0   33.333333333333336
350.0   60.0   33.333333333333336
400.0   60.0   50.0
350.0   30.0   50.0
350.0   60.0   50.0
400.0   60.0   50.0
350.0   60.0   33.333333333333336
350.0   30.0   50.0
400.0   60.0   50.0
400.0   30.0   50.0
400.0   30.0   33.333333333333336
350.0   30.0   50.0
400.0   60.0   50.0
400.0   30.0   33.333333333333336
350.0   60.0   33.333333333333336
350.0   60.0   0.0
400.0   60.0   0.0
350.0   90.0   0.0
350.0   60.0   16.666666666666668
400.0   60.0   0.0
400.0   90.0   0.0
350.0   90.0   0.0
400.0   90.0   16.666666666666668
350.0   60.0   16.666666666666668
350.0   90.0   16.666666666666668
400.0   90.0   16.666666666666668
350.0   90.0   0.0
350.0   60.0   16.666666666666668
400.0   90.0   16.666666666666668
400.0   60.0   16.666666666666668
400.0   60.0   0.0
350.0   60.0   16.666666666666668
400.0   90.0   16.666666666666668
400.0   60.0   0.0
350.0   90.0   0.0
350.0   60.0   16.666666666666668
400.0   60.0   16.666666666666668
350.0   90.0   16.666666666666668
350.0   60.0   33.333333333333336
400.0   60.0   16.666666666666668
400.0   90.0   16.666666666666668
350.0   90.0   16.666666666666668
400.0   90.0   33.333333333333336
350.0   60.0   33.333333333333336
350.0   90.0   33.333333333333336
400.0   90.0   33.333333333333336
350.0   90.0   16.666666666666668
350.0   60.0   33.333333333333336
400.0   90.0   33.333333333333336
400.0   60.0   33.333333333333336
400.0   60.0   16.666666666666668
350.0   60.0   33.333333333333336
400.0   90.0   33.333333333333336
400.0   60.0   16.666666666666668
350.0   90.0   16.666666666666668
350.0   60.0   33.333333333333336
400.0   60.0   33.333333333333336
350.0   90.0   33.333333333333336
350.0   60.0   50.0
400.0   60.0   33.333333333333336
400.0   90.0   33.333333333333336
350.0   90.0   33.333333333333336
400.0   90.0   50.0
350.0   60.0   50.0
350.0   90.0   50.0
400.0   90.0   50.0
350.0   90.0   33.333333333333336
350.0   60.0   50.0
400.0   90.0   50.0
400.0   60.0   50.0
400.0   60.0   33.333333333333336
350.0   60.0   50.0
400.0   90.0   50.0
400.0   60.0   33.333333333333336
350.0   90.0   33.333333333333336
350.0   90.0   0.0
400.0   90.0   0.0
350.0   120.0   0.0
350.0   90.0   16.666666666666668
400.0   90.0   0.0
400.0   120.0   0.0
350.0   120.0   0.0
400.0   120.0   16.666666666666668
350.0   90.0   16.666666666666668
350.0   120.0   16.666666666666668
400.0   120.0   16.666666666666668
350.0   120.0   0.0
350.0   90.0   16.666666666666668
400.0   120.0   16.666666666666668
400.0   90.0   16.666666666666668
400.0   90.0   0.0
350.0   90.0   16.666666666666668
400.0   120.0   16.666666666666668
400.0   90.0   0.0
350.0   120.0   0.0
350.0   90.0   16.666666666666668
400.0   90.0   16.666666666666668
350.0   120.0   16.666666666666668
350.0   90.0   33.333333333333336
400.0   90.0   16.666666666666668
400.0   120.0   16.666666666666668
350.0   120.0   16.666666666666668
400.0   120.0   33.333333333333336
350.0   90.0   33.333333333333336
350.0   120.0   33.333333333333336
400.0   120.0   33.333333333333336
350.0   120.0   16.666666666666668
350.0   90.0   33.333333333333336
400.0   120.0   33.333333333333336
400.0   90.0   33.333333333333336
400.0   90.0   16.666666666666668
350.0   90.0   33.333333333333336
400.0   120.0   33.333333333333336
400.0   90.0   16.666666666666668
350.0   120.0   16.666666666666668
350.0   90.0   33.333333333333336
400.0   90.0   33.333333333333336
350.0   120.0   33.333333333333336
350.0   90.0   50.0
400.0   90.0   33.333333333333336
400.0   120.0   33.333333333333336
350.0   120.0   33.333333333333336
400.0   120.0   50.0
350.0   90.0   50.0
350.0   120.0   50.0
400.0   120.0   50.0
350.0   120.0   33.333333333333336
350.0   90.0   50.0
400.0   120.0   50.0
400.0   90.0   50.0
400.0   90.0   33.333333333333336
350.0   90.0   50.0
400.0   120.0   50.0
400.0   90.0   33.333333333333336
350.0   120.0   33.333333333333336
350.0   120.0   0.0
400.0   120.0   0.0
350.0   150.0   0.0
350.0   120.0   16.666666666666668
400.0   120.0   0.0
400.0   150.0   0.0
350.0   150.0   0.0
400.0   150.0   16.666666666666668
350.0   120.0   16.666666666666668
350.0   150.0   16.666666666666668
400.0   150.0   16.666666666666668
350.0   150.0   0.0
350.0   120.0   16.666666666666668
400.0   150.0   16.666666666666668
400.0   120.0   16.666666666666668
400.0   120.0   0.0
350.0   120.0   16.666666666666668
400.0   150.0   16.666666666666668
400.0   120.0   0.0
350.0   150.0   0.0
350.0   120.0   16.666666666666668
400.0   120.0   16.666666666666668
350.0   150.0   16.666666666666668
350.0   120.0   33.333333333333336
400.0   120.0   16.666666666666668
400.0   150.0   16.666666666666668
350.0   150.0   16.666666666666668
400.0   150.0   33.333333333333336
350.0   120.0   33.333333333333336
350.0   150.0   33.333333333333336
400.0   150.0   33.333333333333336
350.0   150.0   16.666666666666668
350.0   120.0   33.333333333333336
400.0   150.0   33.333333333333336
400.0   120.0   33.333333333333336
400.0   120.0   16.666666666666668
350.0   120.0   33.333333333333336
400.0   150.0   33.333333333333336
400.0   120.0   16.666666666666668
350.0   150.0   16.666666666666668
350.0   120.0   33.333333333333336
400.0   120.0   33.333333333333336
350.0   150.0   33.333333333333336
350.0   120.0   50.0
400.0   120.0   33.333333333333336
400.0   150.0   33.333333333333336
350.0   150.0   33.333333333333336
400.0   150.0   50.0
350.0   120.0   50.0
350.0   150.0   50.0
400.0   150.0   50.0
350.0   150.0   33.333333333333336
350.0   120.0   50.0
400.0   150.0   50.0
400.0   120.0   50.0
400.0   120.0   33.333333333333336
350.0   120.0   50.0
400.0   150.0   50.0
400.0   120.0   33.333333333333336
350.0   150.0   33.333333333333336
400.0   0.0   0.0
450.0   0.0   0.0
400.0   30.0   0.0
400.0   0.0   16.666666666666668
450.0   0.0   0.0
450.0   30.0   0.0
400.0   30.0   0.0
450.0   30.0   16.666666666666668
400.0   0.0   16.666666666666668
400.0   30.0   16.666666666666668
450.0   30.0   16.666666666666668
400.0   30.0   0.0
400.0   0.0   16.666666666666668
450.0   30.0   16.666666666666668
450.0   0.0   16.666666666666668
450.0   0.0   0.0
400.0   0.0   16.666666666666668
450.0   30.0   16.666666666666668
450.0   0.0   0.0
400.0   30.0   0.0
400.0   0.0   16.666666666666668
450.0   0.0   16.666666666666668
400.0   30.0   16.666666666666668
400.0   0.0   33.333333333333336
450.0   0.0   16.666666666666668
450.0   30.0   16.666666666666668
400.0   30.0   16.666666666666668
450.0   30.0   33.333333333333336
400.0   0.0   33.333333333333336
400.0   30.0   33.333333333333336
450.0   30.0   33.333333333333336
400.0   30.0   16.666666666666668
400.0   0.0   33.333333333333336
450.0   30.0   33.333333333333336
450.0   0.0   33.333333333333336
450.0   0.0   16.666666666666668
400.0   0.0   33.333333333333336
450.0   30.0   33.333333333333336
450.0   0.0   16.666666666666668
400.0   30.0   16.666666666666668
400.0   0.0   33.333333333333336
450.0   0.0   33.333333333333336
400.0   30.0   33.333333333333336
400.0   0.0   50.0
450.0   0.0   33.333333333333336
450.0   30.0   33.333333333333336
400.0   30.0   33.333333333333336
450.0   30.0   50.0
400.0   0.0   50.0
400.0   30.0   50.0
450.0   30.0   50.0
400.0   30.0   33.333333333333336
400.0   0.0   50.0
450.0   30.0   50.0
450.0   0.0   50.0
450.0   0.0   33.333333333333336
400.0   0.0   50.0
450.0   30.0   50.0
450.0   0.0   33.333333333333336
400.0   30.0   33.333333333333336
400.0   30.0   0.0
450.0   30.0   0.0
400.0   60.0   0.0
400.0   30.0   16.666666666666668
450.0   30.0   0.0
450.0   60.0   0.0
400.0   60.0   0.0
450.0   60.0   16.666666666666668
400.0   30.0   16.666666666666668
400.0   60.0   16.666666666666668
450.0   60.0   16.666666666666668
400.0   60.0   0.0
400.0   30.0   16.666666666666668
450.0   60.0   16.666666666666668
450.0   30.0   16.666666666666668
450.0   30.0   0.0
400.0   30.0   16.666666666666668
450.0   60.0   16.666666666666668
450.0   30.0   0.0
400.0   60.0   0.0
400.0   30.0   16.666666666666668
450.0   30.0   16.666666666666668
400.0   60.0   16.666666666666668
400.0   30.0   33.333333333333336
450.0   30.0   16.666666666666668
450.0   60.0   16.666666666666668
400.0   60.0   16.666666666666668
450.0   60.0   33.333333333333336
400.0   30.0   33.333333333333336
400.0   60.0   33.333333333333336
450.0   60.0   33.333333333333336
400.0   60.0   16.666666666666668
400.0   30.0   33.333333333333336
450.0   60.0   33.333333333333336
450.0   30.0   33.333333333333336
450.0   30.0   16.666666666666668
400.0   30.0   33.333333333333336
450.0   60.0   33.333333333333336
450.0   30.0   16.666666666666668
400.0   60.0   16.666666666666668
400.0   30.0   33.333333333333336
450.0   30.0   33.333333333333336
400.0   60.0   33.333333333333336
400.0   30.0   50.0
450.0   30.0   33.333333333333336
450.0   60.0   33.333333333333336
400.0   60.0   33.333333333333336
450.0   60.0   50.0
400.0   30.0   50.0
400.0   60.0   50.0
450.0   60.0   50.0
400.0   60.0   33.333333333333336
400.0   30.0   50.0
450.0   60.0   50.0
450.0   30.0   50.0
450.0   30.0   33.333333333333336
400.0   30.0   50.0
450.0   60.0   50.0
450.0   30.0   33.333333333333336
400.0   60.0   33.333333333333336
400.0   60.0   0.0
450.0   60.0   0.0
400.0   90.0   0.0
400.0   60.0   16.666666666666668
450.0   60.0   0.0
450.0   90.0   0.0
400.0   90.0   0.0
450.0   90.0   16.666666666666668
400.0   60.0   16.666666666666668
400.0   90.0   16.666666666666668
450.0   90.0   16.666666666666668
400.0   90.0   0.0
400.0   60.0   16.666666666666668
450.0   90.0   16.666666666666668
450.0   60.0   16.666666666666668
450.0   60.0   0.0
400.0   60.0   16.666666666666668
450.0   90.0   16.666666666666668
450.0   60.0   0.0
400.0   90.0   0.0
400.0   60.0   16.666666666666668
450.0   60.0   16.666666666666668
400.0   90.0   16.666666666666668
400.0   60.0   33.333333333333336
450.0   60.0   16.666666666666668
450.0   90.0   16.666666666666668
400.0   90.0   16.666666666666668
450.0   90.0   33.333333333333336
400.0   60.0   33.333333333333336
400.0   90.0   33.333333333333336
450.0   90.0   33.333333333333336
400.0   90.0   16.666666666666668
400.0   60.0   33.333333333333336
450.0   90.0   33.333333333333336
450.0   60.0   33.333333333333336
450.0   60.0   16.666666666666668
400.0   60.0   33.333333333333336
450.0   90.0   33.333333333333336
450.0   60.0   16.666666666666668
400.0   90.0   16.666666666666668
400.0   60.0   33.333333333333336
450.0   60.0   33.333333333333336
400.0   90.0   33.333333333333336
400.0   60.0   50.0
450.0   60.0   33.333333333333336
450.0   90.0   33.333333333333336
400.0   90.0   33.333333333333336
450.0   90.0   50.0
400.0   60.0   50.0
400.0   90.0   50.0
450.0   90.0   50.0
400.0   90.0   33.333333333333336
400.0   60.0   50.0
450.0   90.0   50.0
450.0   60.0   50.0
450.0   60.0   33.333333333333336
400.0   60.0   50.0
450.0   90.0   50.0
450.0   60.0   33.333333333333336
400.0   90.0   33.333333333333336
400.0   90.0   0.0
450.0   90.0   0.0
400.0   120.0   0.0
400.0   90.0   16.666666666666668
450.0   90.0   0.0
450.0   120.0   0.0
400.0   120.0   0.0
450.0   120.0   16.666666666666668
400.0   90.0   16.666666666666668
400.0   120.0   16.666666666666668
450.0   120.0   16.666666666666668
400.0   120.0   0.0
400.0   90.0   16.666666666666668
450.0   120.0   16.666666666666668
450.0   90.0   16.666666666666668
450.0   90.0   0.0
400.0   90.0   16.666666666666668
450.0   120.0   16.666666666666668
450.0   90.0   0.0
400.0   120.0   0.0
400.0   90.0   16.666666666666668
450.0   90.0   16.666666666666668
400.0   120.0   16.666666666666668
400.0   90.0   33.333333333333336
450.0   90.0   16.666666666666668
450.0   120.0   16.666666666666668
400.0   120.0   16.666666666666668
450.0   120.0   33.333333333333336
400.0   90.0   33.333333333333336
400.0   120.0   33.333333333333336
450.0   120.0   33.333333333333336
400.0   120.0   16.666666666666668
400.0   90.0   33.333333333333336
450.0   120.0   33.333333333333336
450.0   90.0   33.333333333333336
450.0   90.0   16.666666666666668
400.0   90.0   33.333333333333336
450.0   120.0   33.333333333333336
450.0   90.0   16.666666666666668
400.0   120.0   16.666666666666668
400.0   90.0   33.333333333333336
450.0   90.0   33.333333333333336
400.0   120.0   33.333333333333336
400.0   90.0   50.0
450.0   90.0   33.333333333333336
450.0   120.0   33.333333333333336
400.0   120.0   33.333333333333336
450.0   120.0   50.0
400.0   90.0   50.0
400.0   120.0   50.0
450.0   120.0   50.0
400.0   120.0   33.333333333333336
400.0   90.0   50.0
450.0   120.0   50.0
450.0   90.0   50.0
450.0   90.0   33.333333333333336
400.0   90.0   50.0
450.0   120.0   50.0
450.0   90.0   33.333333333333336
400.0   120.0   33.333333333333336
400.0   120.0   0.0
450.0   120.0   0.0
400.0   150.0   0.0
400.0   120.0   16.666666666666668
450.0   120.0   0.0
450.0   150.0   0.0
400.0   150.0   0.0
450.0   150.0   16.666666666666668
400.0   120.0   16.666666666666668
400.0   150.0   16.666666666666668
450.0   150.0   16.666666666666668
400.0   150.0   0.0
400.0   120.0   16.666666666666668
450.0   150.0   16.666666666666668
450.0   120.0   16.666666666666668
450.0   120.0   0.0
400.0   120.0   16.666666666666668
450.0   150.0   16.666666666666668
450.0   120.0   0.0
400.0   150.0   0.0
400.0   120.0   16.666666666666668
450.0   120.0   16.666666666666668
400.0   150.0   16.666666666666668
400.0   120.0   33.333333333333336
450.0   120.0   16.666666666666668
450.0   150.0   16.666666666666668
400.0   150.0   16.666666666666668
450.0   150.0   33.333333333333336
400.0   120.0   33.333333333333336
400.0   150.0   33.333333333333336
450.0   150.0   33.333333333333336
400.0   150.0   16.666666666666668
400.0   120.0   33.333333333333336
450.0   150.0   33.333333333333336
450.0   120.0   33.333333333333336
450.0   120.0   16.666666666666668
400.0   120.0   33.333333333333336
450.0   150.0   33.333333333333336
450.0   120.0   16.666666666666668
400.0   150.0   16.666666666666668
400.0   120.0   33.333333333333336
450.0   120.0   33.333333333333336
400.0   150.0   33.333333333333336
400.0   120.0   50.0
450.0   120.0   33.333333333333336
450.0   150.0   33.333333333333336
400.0   150.0   33.333333333333336
450.0   150.0   50.0
400.0   120.0   50.0
400.0   150.0   50.0
450.0   150.0   50.0
400.0   150.0   33.333333333333336
400.0   120.0   50.0
450.0   150.0   50.0
450.0   120.0   50.0
450.0   120.0   33.333333333333336
400.0   120.0   50.0
450.0   150.0   50.0
450.0   120.0   33.333333333333336
400.0   150.0   33.333333333333336
450.0   0.0   0.0
500.0   0.0   0.0
450.0   30.0   0.0
450.0   0.0   16.666666666666668
500.0   0.0   0.0
500.0   30.0   0.0
450.0   30.0   0.0
500.0   30.0   16.666666666666668
450.0   0.0   16.666666666666668
450.0   30.0   16.666666666666668
500.0   30.0   16.666666666666668
450.0   30.0   0.0
450.0   0.0   16.666666666666668
500.0   30.0   16.666666666666668
500.0   0.0   16.666666666666668
500.0   0.0   0.0
450.0   0.0   16.666666666666668
500.0   30.0   16.666666666666668
500.0   0.0   0.0
450.0   30.0   0.0
450.0   0.0   16.666666666666668
500.0   0.0   16.666666666666668
450.0   30.0   16.666666666666668
450.0   0.0   33.333333333333336
500.0   0.0   16.666666666666668
500.0   30.0   16.666666666666668
450.0   30.0   16.666666666666668
500.0   30.0   33.333333333333336
450.0   0.0   33.333333333333336
450.0   30.0   33.333333333333336
500.0   30.0   33.333333333333336
450.0   30.0   16.666666666666668
450.0   0.0   33.333333333333336
500.0   30.0   33.333333333333336
500.0   0.0   33.333333333333336
500.0   0.0   16.666666666666668
450.0   0.0   33.333333333333336
500.0   30.0   33.333333333333336
500.0   0.0   16.666666666666668
450.0   30.0   16.666666666666668
450.0   0.0   33.333333333333336
500.0   0.0   33.333333333333336
450.0   30.0   33.333333333333336
450.0   0.0   50.0
500.0   0.0   33.333333333333336
500.0   30.0   33.333333333333336
450.0   30.0   33.333333333333336
500.0   30.0   50.0
450.0   0.0   50.0
450.0   30.0   50.0
500.0   30.0   50.0
450.0   30.0   33.333333333333336
450.0   0.0   50.0
500.0   30.0   50.0
500.0   0.0   50.0
500.0   0.0   33.333333333333336
450.0   0.0   50.0
500.0   30.0   50.0
500.0   0.0   33.333333333333336
450.0   30.0   33.333333333333336
450.0   30.0   0.0
500.0   30.0   0.0
450.0   60.0   0.0
450.0   30.0   16.666666666666668
500.0   30.0   0.0
500.0   60.0   0.0
450.0   60.0   0.0
500.0   60.0   16.666666666666668
450.0   30.0   16.666666666666668
450.0   60.0   16.666666666666668
500.0   60.0   16.666666666666668
450.0   60.0   0.0
450.0   30.0   16.666666666666668
500.0   60.0   16.666666666666668
500.0   30.0   16.666666666666668
500.0   30.0   0.0
450.0   30.0   16.666666666666668
500.0   60.0   16.666666666666668
500.0   30.0   0.0
450.0   60.0   0.0
450.0   30.0   16.666666666666668
500.0   30.0   16.666666666666668
450.0   60.0   16.666666666666668
450.0   30.0   33.333333333333336
500.0   30.0   16.666666666666668
500.0   60.0   16.666666666666668
450.0   60.0   16.666666666666668
500.0   60.0   33.333333333333336
450.0   30.0   33.333333333333336
450.0   60.0   33.333333333333336
500.0   60.0   33.333333333333336
450.0   60.0   16.666666666666668
450.0   30.0   33.333333333333336
500.0   60.0   33.333333333333336
500.0   30.0   33.333333333333336
500.0   30.0   16.666666666666668
450.0   30.0   33.333333333333336
500.0   60.0   33.333333333333336
500.0   30.0   16.666666666666668
450.0   60.0   16.666666666666668
450.0   30.0   33.333333333333336
500.0   30.0   33.333333333333336
450.0   60.0   33.333333333333336
450.0   30.0   50.0
500.0   30.0   33.333333333333336
500.0   60.0   33.333333333333336
450.0   60.0   33.333333333333336
500.0   60.0   50.0
450.0   30.0   50.0
450.0   60.0   50.0
500.0   60.0   50.0
450.0   60.0   33.333333333333336
450.0   30.0   50.0
500.0   60.0   50.0
500.0   30.0   50.0
500.0   30.0   33.333333333333336
450.0   30.0   50.0
500.0   60.0   50.0
500.0   30.0   33.333333333333336
450.0   60.0   33.333333333333336
450.0   60.0   0.0
500.0   60.0   0.0
450.0   90.0   0.0
450.0   60.0   16.666666666666668
500.0   60.0   0.0
500.0   90.0   0.0
450.0   90.0   0.0
500.0   90.0   16.666666666666668
450.0   60.0   16.666666666666668
450.0   90.0   16.666666666666668
500.0   90.0   16.666666666666668
450.0   90.0   0.0
450.0   60.0   16.666666666666668
500.0   90.0   16.666666666666668
500.0   60.0   16.666666666666668
500.0   60.0   0.0
450.0   60.0   16.666666666666668
500.0   90.0   16.666666666666668
500.0   60.0   0.0
450.0   90.0   0.0
450.0   60.0   16.666666666666668
500.0   60.0   16.666666666666668
450.0   90.0   16.666666666666668
450.0   60.0   33.333333333333336
500.0   60.0   16.666666666666668
500.0   90.0   16.666666666666668
450.0   90.0   16.666666666666668
500.0   90.0   33.333333333333336
450.0   60.0   33.333333333333336
450.0   90.0   33.333333333333336
500.0   90.0   33.333333333333336
450.0   90.0   16.666666666666668
450.0   60.0   33.333333333333336
500.0   90.0   33.333333333333336
500.0   60.0   33.333333333333336
500.0   60.0   16.666666666666668
450.0   60.0   33.333333333333336
500.0   90.0   33.333333333333336
500.0   60.0   16.666666666666668
450.0   90.0   16.666666666666668
450.0   60.0   33.333333333333336
500.0   60.0   33.333333333333336
450.0   90.0   33.333333333333336
450.0   60.0   50.0
500.0   60.0   33.333333333333336
500.0   90.0   33.333333333333336
450.0   90.0   33.333333333333336
500.0   90.0   50.0
450.0   60.0   50.0
450.0   90.0   50.0
500.0   90.0   50.0
450.0   90.0   33.333333333333336
450.0   60.0   50.0
500.0   90.0   50.0
500.0   60.0   50.0
500.0   60.0   33.333333333333336
450.0   60.0   50.0
500.0   90.0   50.0
500.0   60.0   33.333333333333336
450.0   90.0   33.333333333333336
450.0   90.0   0.0
500.0   90.0   0.0
450.0   120.0   0.0
450.0   90.0   16.666666666666668
500.0   90.0   0.0
500.0   120.0   0.0
450.0   120.0   0.0
500.0   120.0   16.666666666666668
450.0   90.0   16.666666666666668
450.0   120.0   16.666666666666668
500.0   120.0   16.666666666666668
450.0   120.0   0.0
450.0   90.0   16.666666666666668
500.0   120.0   16.666666666666668
500.0   90.0   16.666666666666668
500.0   90.0   0.0
450.0   90.0   16.666666666666668
500.0   120.0   16.666666666666668
500.0   90.0   0.0
450.0   120.0   0.0
450.0   90.0   16.666666666666668
500.0   90.0   16.666666666666668
450.0   120.0   16.666666666666668
450.0   90.0   33.333333333333336
500.0   90.0   16.666666666666668
500.0   120.0   16.666666666666668
450.0   120.0   16.666666666666668
500.0   120.0   33.333333333333336
450.0   90.0   33.333333333333336
450.0   120.0   33.333333333333336
500.0   120.0   33.333333333333336
450.0   120.0   16.666666666666668
450.0   90.0   33.333333333333336
500.0   120.0   33.333333333333336
500.0   90.0   33.333333333333336
500.0   90.0   16.666666666666668
450.0   90.0   33.333333333333336
500.0   120.0   33.333333333333336
500.0   90.0   16.666666666666668
450.0   120.0   16.666666666666668
450.0   90.0   33.333333333333336
500.0   90.0   33.333333333333336
450.0   120.0   33.333333333333336
450.0   90.0   50.0
500.0   90.0   33.333333333333336
500.0   120.0   33.333333333333336
450.0   120.0   33.333333333333336
500.0   120.0   50.0
450.0   90.0   50.0
450.0   120.0   50.0
500.0   120.0   50.0
450.0   120.0   33.333333333333336
450.0   90.0   50.0
500.0   120.0   50.0
500.0   90.0   50.0
500.0   90.0   33.333333333333336
450.0   90.0   50.0
500.0   120.0   50.0
500.0   90.0   33.333333333333336
450.0   120.0   33.333333333333336
450.0   120.0   0.0
500.0   120.0   0.0
450.0   150.0   0.0
450.0   120.0   16.666666666666668
500.0   120.0   0.0
500.0   150.0   0.0
450.0   150.0   0.0
500.0   150.0   16.666666666666668
450.0   120.0   16.666666666666668
450.0   150.0   16.666666666666668
500.0   150.0   16.666666666666668
450.0   150.0   0.0
450.0   120.0   16.666666666666668
500.0   150.0   16.666666666666668
500.0   120.0   16.666666666666668
500.0   120.0   0.0
450.0   120.0   16.666666666666668
500.0   150.0   16.666666666666668
500.0   120.0   0.0
450.0   150.0   0.0
450.0   120.0   16.666666666666668
500.0   120.0   16.666666666666668
450.0   150.0   16.666666666666668
450.0   120.0   33.333333333333336
500.0   120.0   16.666666666666668
500.0   150.0   16.666666666666668
450.0   150.0   16.666666666666668
500.0   150.0   33.333333333333336
450.0   120.0   33.333333333333336
450.0   150.0   33.333333333333336
500.0   150.0   33.333333333333336
450.0   150.0   16.666666666666668
450.0   120.0   33.333333333333336
500.0   150.0   33.333333333333336
500.0   120.0   33.333333333333336
500.0   120.0   16.666666666666668
450.0   120.0   33.333333333333336
500.0   150.0   33.333333333333336
500.0   120.0   16.666666666666668
450.0   150.0   16.666666666666668
450.0   120.0   33.333333333333336
500.0   120.0   33.333333333333336
450.0   150.0   33.333333333333336
450.0   120.0   50.0
500.0   120.0   33.333333333333336
500.0   150.0   33.333333333333336
450.0   150.0   33.333333333333336
500.0   150.0   50.0
450.0   120.0   50.0
450.0   150.0   50.0
500.0   150.0   50.0
450.0   150.0   33.333333333333336
450.0   120.0   50.0
500.0   150.0   50.0
500.0   120.0   50.0
500.0   120.0   33.333333333333336
450.0   120.0   50.0
500.0   150.0   50.0
500.0   120.0   33.333333333333336
450.0   150.0   33.333333333333336
             </DataArray>   
          </Points>  
          <Cells>  
             <DataArray type="Int32" Name="connectivity" format="ascii">   
0   1   2   3
4   5   6   7
8   9   10   11
12   13   14   15
16   17   18   19
20   21   22   23
24   25   26   27
28   29   30   31
32   33   34   35
36   37   38   39
40   41   42   43
44   45   46   47
48   49   50   51
52   53   54   55
56   57   58   59
60   61   62   63
64   65   66   67
68   69   70   71
72   73   74   75
76   77   78   79
80   81   82   83
84   85   86   87
88   89   90   91
92   93   94   95
96   97   98   99
100   101   102   103
104   105   106   107
108   109   110   111
112   113   114   115
116   117   118   119
120   121   122   123
124   125   126   127
128   129   130   131
132   133   134   135
136   137   138   139
140   141   142   143
144   145   146   147
148   149   150   151
152   153   154   155
156   157   158   159
160   161   162   163
164   165   166   167
168   169   170   171
172   173   174   175
176   177   178   179
180   181   182   183
184   185   186   187
188   189   190   191
192   193   194   195
196   197   198   199
200   201   202   203
204   205   206   207
208   209   210   211
212   213   214   215
216   217   218   219
220   221   222   223
224   225   226   227
228   229   230   231
232   233   234   235
236   237   238   239
240   241   242   243
244   245   246   247
248   249   250   251
252   253   254   255
256   257   258   259
260   261   262   263
264   265   266   267
268   269   270   271
272   273   274   275
276   277   278   279
280   281   282   283
284   285   286   287
288   289   290   291
292   293   294   295
296   297   298   299
300   301   302   303
304   305   306   307
308   309   310   311
312   313   314   315
316   317   318   319
320   321   322   323
324   325   326   327
328   329   330   331
332   333   334   335
336   337   338   339
340   341   342   343
344   345   346   347
348   349   350   351
352   353   354   355
356   357   358   359
360   361   362   363
364   365   366   367
368   369   370   371
372   373   374   375
376   377   378   379
380   381   382   383
384   385   386   387
388   389   390   391
392   393   394   395
396   397   398   399
400   401   402   403
404   405   406   407
408   409   410   411
412   413   414   415
416   417   418   419
420   421   422   423
424   425   426   427
428   429   430   431
432   433   434   435
436   437   438   439
440   441   442   443
444   445   446   447
448   449   450   451
452   453   454   455
456   457   458   459
460   461   462   463
464   465   466   467
468   469   470   471
472   473   474   475
476   477   478   479
480   481   482   483
484   485   486   487
488   489   490   491
492   493   494   495
496   497   498   499
500   501   502   503
504   505   506   507
508   509   510   511
512   513   514   515
516   517   518   519
520   521   522   523
524   525   526   527
528   529   530   531
532   533   534   535
536   537   538   539
540   541   542   543
544   545   546   547
548   549   550   551
552   553   554   555
556   557   558   559
560   561   562   563
564   565   566   567
568   569   570   571
572   573   574   575
576   577   578   579
580   581   582   583
584   585   586   587
588   589   590   591
592   593   594   595
596   597   598   599
600   601   602   603
604   605   606   607
608   609   610   611
612   613   614   615
616   617   618   619
620   621   622   623
624   625   626   627
628   629   630   631
632   633   634   635
636   637   638   639
640   641   642   643
644   645   646   647
648   649   650   651
652   653   654   655
656   657   658   659
660   661   662   663
664   665   666   667
668   669   670   671
672   673   674   675
676   677   678   679
680   681   682   683
684   685   686   687
688   689   690   691
692   693   694   695
696   697   698   699
700   701   702   703
704   705   706   707
708   709   710   711
712   713   714   715
716   717   718   719
720   721   722   723
724   725   726   727
728   729   730   731
732   733   734   735
736   737   738   739
740   741   742   743
744   745   746   747
748   749   750   751
752   753   754   755
756   757   758   759
760   761   762   763
764   765   766   767
768   769   770   771
772   773   774   775
776   777   778   779
780   781   782   783
784   785   786   787
788   789   790   791
792   793   794   795
796   797   798   799
800   801   802   803
804   805   806   807
808   809   810   811
812   813   814   815
816   817   818   819
820   821   822   823
824   825   826   827
828   829   830   831
832   833   834   835
836   837   838   839
840   841   842   843
844   845   846   847
848   849   850   851
852   853   854   855
856   857   858   859
860   861   862   863
864   865   866   867
868   869   870   871
872   873   874   875
876   877   878   879
880   881   882   883
884   885   886   887
888   889   890   891
892   893   894   895
896   897   898   899
900   901   902   903
904   905   906   907
908   909   910   911
912   913   914   915
916   917   918   919
920   921   922   923
924   925   926   927
928   929   930   931
932   933   934   935
936   937   938   939
940   941   942   943
944   945   946   947
948   949   950   951
952   953   954   955
956   957   958   959
960   961   962   963
964   965   966   967
968   969   970   971
972   973   974   975
976   977   978   979
980   981   982   983
984   985   986   987
988   989   990   991
992   993   994   995
996   997   998   999
1000   1001   1002   1003
1004   1005   1006   1007
1008   1009   1010   1011
1012   1013   1014   1015
1016   1017   1018   1019
1020   1021   1022   1023
1024   1025   1026   1027
1028   1029   1030   1031
1032   1033   1034   1035
1036   1037   1038   1039
1040   1041   1042   1043
1044   1045   1046   1047
1048   1049   1050   1051
1052   1053   1054   1055
1056   1057   1058   1059
1060   1061   1062   1063
1064   1065   1066   1067
1068   1069   1070   1071
1072   1073   1074   1075
1076   1077   1078   1079
1080   1081   1082   1083
1084   1085   1086   1087
1088   1089   1090   1091
1092   1093   1094   1095
1096   1097   1098   1099
1100   1101   1102   1103
1104   1105   1106   1107
1108   1109   1110   1111
1112   1113   1114   1115
1116   1117   1118   1119
1120   1121   1122   1123
1124   1125   1126   1127
1128   1129   1130   1131
1132   1133   1134   1135
1136   1137   1138   1139
1140   1141   1142   1143
1144   1145   1146   1147
1148   1149   1150   1151
1152   1153   1154   1155
1156   1157   1158   1159
1160   1161   1162   1163
1164   1165   1166   1167
1168   1169   1170   1171
1172   1173   1174   1175
1176   1177   1178   1179
1180   1181   1182   1183
1184   1185   1186   1187
1188   1189   1190   1191
1192   1193   1194   1195
1196   1197   1198   1199
1200   1201   1202   1203
1204   1205   1206   1207
1208   1209   1210   1211
1212   1213   1214   1215
1216   1217   1218   1219
1220   1221   1222   1223
1224   1225   1226   1227
1228   1229   1230   1231
1232   1233   1234   1235
1236   1237   1238   1239
1240   1241   1242   1243
1244   1245   1246   1247
1248   1249   1250   1251
1252   1253   1254   1255
1256   1257   1258   1259
1260   1261   1262   1263
1264   1265   1266   1267
1268   1269   1270   1271
1272   1273   1274   1275
1276   1277   1278   1279
1280   1281   1282   1283
1284   1285   1286   1287
1288   1289   1290   1291
1292   1293   1294   1295
1296   1297   1298   1299
1300   1301   1302   1303
1304   1305   1306   1307
1308   1309   1310   1311
1312   1313   1314   1315
1316   1317   1318   1319
1320   1321   1322   1323
1324   1325   1326   1327
1328   1329   1330   1331
1332   1333   1334   1335
1336   1337   1338   1339
1340   1341   1342   1343
1344   1345   1346   1347
1348   1349   1350   1351
1352   1353   1354   1355
1356   1357   1358   1359
1360   1361   1362   1363
1364   1365   1366   1367
1368   1369   1370   1371
1372   1373   1374   1375
1376   1377   1378   1379
1380   1381   1382   1383
1384   1385   1386   1387
1388   1389   1390   1391
1392   1393   1394   1395
1396   1397   1398   1399
1400   1401   1402   1403
1404   1405   1406   1407
1408   1409   1410   1411
1412   1413   1414   1415
1416   1417   1418   1419
1420   1421   1422   1423
1424   1425   1426   1427
1428   1429   1430   1431
1432   1433   1434   1435
1436   1437   1438   1439
1440   1441   1442   1443
1444   1445   1446   1447
1448   1449   1450   1451
1452   1453   1454   1455
1456   1457   1458   1459
1460   1461   1462   1463
1464   1465   1466   1467
1468   1469   1470   1471
1472   1473   1474   1475
1476   1477   1478   1479
1480   1481   1482   1483
1484   1485   1486   1487
1488   1489   1490   1491
1492   1493   1494   1495
1496   1497   1498   1499
1500   1501   1502   1503
1504   1505   1506   1507
1508   1509   1510   1511
1512   1513   1514   1515
1516   1517   1518   1519
1520   1521   1522   1523
1524   1525   1526   1527
1528   1529   1530   1531
1532   1533   1534   1535
1536   1537   1538   1539
1540   1541   1542   1543
1544   1545   1546   1547
1548   1549   1550   1551
1552   1553   1554   1555
1556   1557   1558   1559
1560   1561   1562   1563
1564   1565   1566   1567
1568   1569   1570   1571
1572   1573   1574   1575
1576   1577   1578   1579
1580   1581   1582   1583
1584   1585   1586   1587
1588   1589   1590   1591
1592   1593   1594   1595
1596   1597   1598   1599
1600   1601   1602   1603
1604   1605   1606   1607
1608   1609   1610   1611
1612   1613   1614   1615
1616   1617   1618   1619
1620   1621   1622   1623
1624   1625   1626   1627
1628   1629   1630   1631
1632   1633   1634   1635
1636   1637   1638   1639
1640   1641   1642   1643
1644   1645   1646   1647
1648   1649   1650   1651
1652   1653   1654   1655
1656   1657   1658   1659
1660   1661   1662   1663
1664   1665   1666   1667
1668   1669   1670   1671
1672   1673   1674   1675
1676   1677   1678   1679
1680   1681   1682   1683
1684   1685   1686   1687
1688   1689   1690   1691
1692   1693   1694   1695
1696   1697   1698   1699
1700   1701   1702   1703
1704   1705   1706   1707
1708   1709   1710   1711
1712   1713   1714   1715
1716   1717   1718   1719
1720   1721   1722   1723
1724   1725   1726   1727
1728   1729   1730   1731
1732   1733   1734   1735
1736   1737   1738   1739
1740   1741   1742   1743
1744   1745   1746   1747
1748   1749   1750   1751
1752   1753   1754   1755
1756   1757   1758   1759
1760   1761   1762   1763
1764   1765   1766   1767
1768   1769   1770   1771
1772   1773   1774   1775
1776   1777   1778   1779
1780   1781   1782   1783
1784   1785   1786   1787
1788   1789   1790   1791
1792   1793   1794   1795
1796   1797   1798   1799
1800   1801   1802   1803
1804   1805   1806   1807
1808   1809   1810   1811
1812   1813   1814   1815
1816   1817   1818   1819
1820   1821   1822   1823
1824   1825   1826   1827
1828   1829   1830   1831
1832   1833   1834   1835
1836   1837   1838   1839
1840   1841   1842   1843
1844   1845   1846   1847
1848   1849   1850   1851
1852   1853   1854   1855
1856   1857   1858   1859
1860   1861   1862   1863
1864   1865   1866   1867
1868   1869   1870   1871
1872   1873   1874   1875
1876   1877   1878   1879
1880   1881   1882   1883
1884   1885   1886   1887
1888   1889   1890   1891
1892   1893   1894   1895
1896   1897   1898   1899
1900   1901   1902   1903
1904   1905   1906   1907
1908   1909   1910   1911
1912   1913   1914   1915
1916   1917   1918   1919
1920   1921   1922   1923
1924   1925   1926   1927
1928   1929   1930   1931
1932   1933   1934   1935
1936   1937   1938   1939
1940   1941   1942   1943
1944   1945   1946   1947
1948   1949   1950   1951
1952   1953   1954   1955
1956   1957   1958   1959
1960   1961   1962   1963
1964   1965   1966   1967
1968   1969   1970   1971
1972   1973   1974   1975
1976   1977   1978   1979
1980   1981   1982   1983
1984   1985   1986   1987
1988   1989   1990   1991
1992   1993   1994   1995
1996   1997   1998   1999
2000   2001   2002   2003
2004   2005   2006   2007
2008   2009   2010   2011
2012   2013   2014   2015
2016   2017   2018   2019
2020   2021   2022   2023
2024   2025   2026   2027
2028   2029   2030   2031
2032   2033   2034   2035
2036   2037   2038   2039
2040   2041   2042   2043
2044   2045   2046   2047
2048   2049   2050   2051
2052   2053   2054   2055
2056   2057   2058   2059
2060   2061   2062   2063
2064   2065   2066   2067
2068   2069   2070   2071
2072   2073   2074   2075
2076   2077   2078   2079
2080   2081   2082   2083
2084   2085   2086   2087
2088   2089   2090   2091
2092   2093   2094   2095
2096   2097   2098   2099
2100   2101   2102   2103
2104   2105   2106   2107
2108   2109   2110   2111
2112   2113   2114   2115
2116   2117   2118   2119
2120   2121   2122   2123
2124   2125   2126   2127
2128   2129   2130   2131
2132   2133   2134   2135
2136   2137   2138   2139
2140   2141   2142   2143
2144   2145   2146   2147
2148   2149   2150   2151
2152   2153   2154   2155
2156   2157   2158   2159
2160   2161   2162   2163
2164   2165   2166   2167
2168   2169   2170   2171
2172   2173   2174   2175
2176   2177   2178   2179
2180   2181   2182   2183
2184   2185   2186   2187
2188   2189   2190   2191
2192   2193   2194   2195
2196   2197   2198   2199
2200   2201   2202   2203
2204   2205   2206   2207
2208   2209   2210   2211
2212   2213   2214   2215
2216   2217   2218   2219
2220   2221   2222   2223
2224   2225   2226   2227
2228   2229   2230   2231
2232   2233   2234   2235
2236   2237   2238   2239
2240   2241   2242   2243
2244   2245   2246   2247
2248   2249   2250   2251
2252   2253   2254   2255
2256   2257   2258   2259
2260   2261   2262   2263
2264   2265   2266   2267
2268   2269   2270   2271
2272   2273   2274   2275
2276   2277   2278   2279
2280   2281   2282   2283
2284   2285   2286   2287
2288   2289   2290   2291
2292   2293   2294   2295
2296   2297   2298   2299
2300   2301   2302   2303
2304   2305   2306   2307
2308   2309   2310   2311
2312   2313   2314   2315
2316   2317   2318   2319
2320   2321   2322   2323
2324   2325   2326   2327
2328   2329   2330   2331
2332   2333   2334   2335
2336   2337   2338   2339
2340   2341   2342   2343
2344   2345   2346   2347
2348   2349   2350   2351
2352   2353   2354   2355
2356   2357   2358   2359
2360   2361   2362   2363
2364   2365   2366   2367
2368   2369   2370   2371
2372   2373   2374   2375
2376   2377   2378   2379
2380   2381   2382   2383
2384   2385   2386   2387
2388   2389   2390   2391
2392   2393   2394   2395
2396   2397   2398   2399
2400   2401   2402   2403
2404   2405   2406   2407
2408   2409   2410   2411
2412   2413   2414   2415
2416   2417   2418   2419
2420   2421   2422   2423
2424   2425   2426   2427
2428   2429   2430   2431
2432   2433   2434   2435
2436   2437   2438   2439
2440   2441   2442   2443
2444   2445   2446   2447
2448   2449   2450   2451
2452   2453   2454   2455
2456   2457   2458   2459
2460   2461   2462   2463
2464   2465   2466   2467
2468   2469   2470   2471
2472   2473   2474   2475
2476   2477   2478   2479
2480   2481   2482   2483
2484   2485   2486   2487
2488   2489   2490   2491
2492   2493   2494   2495
2496   2497   2498   2499
2500   2501   2502   2503
2504   2505   2506   2507
2508   2509   2510   2511
2512   2513   2514   2515
2516   2517   2518   2519
2520   2521   2522   2523
2524   2525   2526   2527
2528   2529   2530   2531
2532   2533   2534   2535
2536   2537   2538   2539
2540   2541   2542   2543
2544   2545   2546   2547
2548   2549   2550   2551
2552   2553   2554   2555
2556   2557   2558   2559
2560   2561   2562   2563
2564   2565   2566   2567
2568   2569   2570   2571
2572   2573   2574   2575
2576   2577   2578   2579
2580   2581   2582   2583
2584   2585   2586   2587
2588   2589   2590   2591
2592   2593   2594   2595
2596   2597   2598   2599
2600   2601   2602   2603
2604   2605   2606   2607
2608   2609   2610   2611
2612   2613   2614   2615
2616   2617   2618   2619
2620   2621   2622   2623
2624   2625   2626   2627
2628   2629   2630   2631
2632   2633   2634   2635
2636   2637   2638   2639
2640   2641   2642   2643
2644   2645   2646   2647
2648   2649   2650   2651
2652   2653   2654   2655
2656   2657   2658   2659
2660   2661   2662   2663
2664   2665   2666   2667
2668   2669   2670   2671
2672   2673   2674   2675
2676   2677   2678   2679
2680   2681   2682   2683
2684   2685   2686   2687
2688   2689   2690   2691
2692   2693   2694   2695
2696   2697   2698   2699
2700   2701   2702   2703
2704   2705   2706   2707
2708   2709   2710   2711
2712   2713   2714   2715
2716   2717   2718   2719
2720   2721   2722   2723
2724   2725   2726   2727
2728   2729   2730   2731
2732   2733   2734   2735
2736   2737   2738   2739
2740   2741   2742   2743
2744   2745   2746   2747
2748   2749   2750   2751
2752   2753   2754   2755
2756   2757   2758   2759
2760   2761   2762   2763
2764   2765   2766   2767
2768   2769   2770   2771
2772   2773   2774   2775
2776   2777   2778   2779
2780   2781   2782   2783
2784   2785   2786   2787
2788   2789   2790   2791
2792   2793   2794   2795
2796   2797   2798   2799
2800   2801   2802   2803
2804   2805   2806   2807
2808   2809   2810   2811
2812   2813   2814   2815
2816   2817   2818   2819
2820   2821   2822   2823
2824   2825   2826   2827
2828   2829   2830   2831
2832   2833   2834   2835
2836   2837   2838   2839
2840   2841   2842   2843
2844   2845   2846   2847
2848   2849   2850   2851
2852   2853   2854   2855
2856   2857   2858   2859
2860   2861   2862   2863
2864   2865   2866   2867
2868   2869   2870   2871
2872   2873   2874   2875
2876   2877   2878   2879
2880   2881   2882   2883
2884   2885   2886   2887
2888   2889   2890   2891
2892   2893   2894   2895
2896   2897   2898   2899
2900   2901   2902   2903
2904   2905   2906   2907
2908   2909   2910   2911
2912   2913   2914   2915
2916   2917   2918   2919
2920   2921   2922   2923
2924   2925   2926   2927
2928   2929   2930   2931
2932   2933   2934   2935
2936   2937   2938   2939
2940   2941   2942   2943
2944   2945   2946   2947
2948   2949   2950   2951
2952   2953   2954   2955
2956   2957   2958   2959
2960   2961   2962   2963
2964   2965   2966   2967
2968   2969   2970   2971
2972   2973   2974   2975
2976   2977   2978   2979
2980   2981   2982   2983
2984   2985   2986   2987
2988   2989   2990   2991
2992   2993   2994   2995
2996   2997   2998   2999
3000   3001   3002   3003
3004   3005   3006   3007
3008   3009   3010   3011
3012   3013   3014   3015
3016   3017   3018   3019
3020   3021   3022   3023
3024   3025   3026   3027
3028   3029   3030   3031
3032   3033   3034   3035
3036   3037   3038   3039
3040   3041   3042   3043
3044   3045   3046   3047
3048   3049   3050   3051
3052   3053   3054   3055
3056   3057   3058   3059
3060   3061   3062   3063
3064   3065   3066   3067
3068   3069   3070   3071
3072   3073   3074   3075
3076   3077   3078   3079
3080   3081   3082   3083
3084   3085   3086   3087
3088   3089   3090   3091
3092   3093   3094   3095
3096   3097   3098   3099
3100   3101   3102   3103
3104   3105   3106   3107
3108   3109   3110   3111
3112   3113   3114   3115
3116   3117   3118   3119
3120   3121   3122   3123
3124   3125   3126   3127
3128   3129   3130   3131
3132   3133   3134   3135
3136   3137   3138   3139
3140   3141   3142   3143
3144   3145   3146   3147
3148   3149   3150   3151
3152   3153   3154   3155
3156   3157   3158   3159
3160   3161   3162   3163
3164   3165   3166   3167
3168   3169   3170   3171
3172   3173   3174   3175
3176   3177   3178   3179
3180   3181   3182   3183
3184   3185   3186   3187
3188   3189   3190   3191
3192   3193   3194   3195
3196   3197   3198   3199
3200   3201   3202   3203
3204   3205   3206   3207
3208   3209   3210   3211
3212   3213   3214   3215
3216   3217   3218   3219
3220   3221   3222   3223
3224   3225   3226   3227
3228   3229   3230   3231
3232   3233   3234   3235
3236   3237   3238   3239
3240   3241   3242   3243
3244   3245   3246   3247
3248   3249   3250   3251
3252   3253   3254   3255
3256   3257   3258   3259
3260   3261   3262   3263
3264   3265   3266   3267
3268   3269   3270   3271
3272   3273   3274   3275
3276   3277   3278   3279
3280   3281   3282   3283
3284   3285   3286   3287
3288   3289   3290   3291
3292   3293   3294   3295
3296   3297   3298   3299
3300   3301   3302   3303
3304   3305   3306   3307
3308   3309   3310   3311
3312   3313   3314   3315
3316   3317   3318   3319
3320   3321   3322   3323
3324   3325   3326   3327
3328   3329   3330   3331
3332   3333   3334   3335
3336   3337   3338   3339
3340   3341   3342   3343
3344   3345   3346   3347
3348   3349   3350   3351
3352   3353   3354   3355
3356   3357   3358   3359
3360   3361   3362   3363
3364   3365   3366   3367
3368   3369   3370   3371
3372   3373   3374   3375
3376   3377   3378   3379
3380   3381   3382   3383
3384   3385   3386   3387
3388   3389   3390   3391
3392   3393   3394   3395
3396   3397   3398   3399
3400   3401   3402   3403
3404   3405   3406   3407
3408   3409   3410   3411
3412   3413   3414   3415
3416   3417   3418   3419
3420   3421   3422   3423
3424   3425   3426   3427
3428   3429   3430   3431
3432   3433   3434   3435
3436   3437   3438   3439
3440   3441   3442   3443
3444   3445   3446   3447
3448   3449   3450   3451
3452   3453   3454   3455
3456   3457   3458   3459
3460   3461   3462   3463
3464   3465   3466   3467
3468   3469   3470   3471
3472   3473   3474   3475
3476   3477   3478   3479
3480   3481   3482   3483
3484   3485   3486   3487
3488   3489   3490   3491
3492   3493   3494   3495
3496   3497   3498   3499
3500   3501   3502   3503
3504   3505   3506   3507
3508   3509   3510   3511
3512   3513   3514   3515
3516   3517   3518   3519
3520   3521   3522   3523
3524   3525   3526   3527
3528   3529   3530   3531
3532   3533   3534   3535
3536   3537   3538   3539
3540   3541   3542   3543
3544   3545   3546   3547
3548   3549   3550   3551
3552   3553   3554   3555
3556   3557   3558   3559
3560   3561   3562   3563
3564   3565   3566   3567
3568   3569   3570   3571
3572   3573   3574   3575
3576   3577   3578   3579
3580   3581   3582   3583
3584   3585   3586   3587
3588   3589   3590   3591
3592   3593   3594   3595
3596   3597   3598   3599
3600   3601   3602   3603
3604   3605   3606   3607
3608   3609   3610   3611
3612   3613   3614   3615
3616   3617   3618   3619
3620   3621   3622   3623
3624   3625   3626   3627
3628   3629   3630   3631
3632   3633   3634   3635
3636   3637   3638   3639
3640   3641   3642   3643
3644   3645   3646   3647
3648   3649   3650   3651
3652   3653   3654   3655
3656   3657   3658   3659
3660   3661   3662   3663
3664   3665   3666   3667
3668   3669   3670   3671
3672   3673   3674   3675
3676   3677   3678   3679
3680   3681   3682   3683
3684   3685   3686   3687
3688   3689   3690   3691
3692   3693   3694   3695
3696   3697   3698   3699
3700   3701   3702   3703
3704   3705   3706   3707
3708   3709   3710   3711
3712   3713   3714   3715
3716   3717   3718   3719
3720   3721   3722   3723
3724   3725   3726   3727
3728   3729   3730   3731
3732   3733   3734   3735
3736   3737   3738   3739
3740   3741   3742   3743
3744   3745   3746   3747
3748   3749   3750   3751
3752   3753   3754   3755
3756   3757   3758   3759
3760   3761   3762   3763
3764   3765   3766   3767
3768   3769   3770   3771
3772   3773   3774   3775
3776   3777   3778   3779
3780   3781   3782   3783
3784   3785   3786   3787
3788   3789   3790   3791
3792   3793   3794   3795
3796   3797   3798   3799
3800   3801   3802   3803
3804   3805   3806   3807
3808   3809   3810   3811
3812   3813   3814   3815
3816   3817   3818   3819
3820   3821   3822   3823
3824   3825   3826   3827
3828   3829   3830   3831
3832   3833   3834   3835
3836   3837   3838   3839
3840   3841   3842   3843
3844   3845   3846   3847
3848   3849   3850   3851
3852   3853   3854   3855
3856   3857   3858   3859
3860   3861   3862   3863
3864   3865   3866   3867
3868   3869   3870   3871
3872   3873   3874   3875
3876   3877   3878   3879
3880   3881   3882   3883
3884   3885   3886   3887
3888   3889   3890   3891
3892   3893   3894   3895
3896   3897   3898   3899
3900   3901   3902   3903
3904   3905   3906   3907
3908   3909   3910   3911
3912   3913   3914   3915
3916   3917   3918   3919
3920   3921   3922   3923
3924   3925   3926   3927
3928   3929   3930   3931
3932   3933   3934   3935
3936   3937   3938   3939
3940   3941   3942   3943
3944   3945   3946   3947
3948   3949   3950   3951
3952   3953   3954   3955
3956   3957   3958   3959
3960   3961   3962   3963
3964   3965   3966   3967
3968   3969   3970   3971
3972   3973   3974   3975
3976   3977   3978   3979
3980   3981   3982   3983
3984   3985   3986   3987
3988   3989   3990   3991
3992   3993   3994   3995
3996   3997   3998   3999
4000   4001   4002   4003
4004   4005   4006   4007
4008   4009   4010   4011
4012   4013   4014   4015
4016   4017   4018   4019
4020   4021   4022   4023
4024   4025   4026   4027
4028   4029   4030   4031
4032   4033   4034   4035
4036   4037   4038   4039
4040   4041   4042   4043
4044   4045   4046   4047
4048   4049   4050   4051
4052   4053   4054   4055
4056   4057   4058   4059
4060   4061   4062   4063
4064   4065   4066   4067
4068   4069   4070   4071
4072   4073   4074   4075
4076   4077   4078   4079
4080   4081   4082   4083
4084   4085   4086   4087
4088   4089   4090   4091
4092   4093   4094   4095
4096   4097   4098   4099
4100   4101   4102   4103
4104   4105   4106   4107
4108   4109   4110   4111
4112   4113   4114   4115
4116   4117   4118   4119
4120   4121   4122   4123
4124   4125   4126   4127
4128   4129   4130   4131
4132   4133   4134   4135
4136   4137   4138   4139
4140   4141   4142   4143
4144   4145   4146   4147
4148   4149   4150   4151
4152   4153   4154   4155
4156   4157   4158   4159
4160   4161   4162   4163
4164   4165   4166   4167
4168   4169   4170   4171
4172   4173   4174   4175
4176   4177   4178   4179
4180   4181   4182   4183
4184   4185   4186   4187
4188   4189   4190   4191
4192   4193   4194   4195
4196   4197   4198   4199
4200   4201   4202   4203
4204   4205   4206   4207
4208   4209   4210   4211
4212   4213   4214   4215
4216   4217   4218   4219
4220   4221   4222   4223
4224   4225   4226   4227
4228   4229   4230   4231
4232   4233   4234   4235
4236   4237   4238   4239
4240   4241   4242   4243
4244   4245   4246   4247
4248   4249   4250   4251
4252   4253   4254   4255
4256   4257   4258   4259
4260   4261   4262   4263
4264   4265   4266   4267
4268   4269   4270   4271
4272   4273   4274   4275
4276   4277   4278   4279
4280   4281   4282   4283
4284   4285   4286   4287
4288   4289   4290   4291
4292   4293   4294   4295
4296   4297   4298   4299
4300   4301   4302   4303
4304   4305   4306   4307
4308   4309   4310   4311
4312   4313   4314   4315
4316   4317   4318   4319
4320   4321   4322   4323
4324   4325   4326   4327
4328   4329   4330   4331
4332   4333   4334   4335
4336   4337   4338   4339
4340   4341   4342   4343
4344   4345   4346   4347
4348   4349   4350   4351
4352   4353   4354   4355
4356   4357   4358   4359
4360   4361   4362   4363
4364   4365   4366   4367
4368   4369   4370   4371
4372   4373   4374   4375
4376   4377   4378   4379
4380   4381   4382   4383
4384   4385   4386   4387
4388   4389   4390   4391
4392   4393   4394   4395
4396   4397   4398   4399
4400   4401   4402   4403
4404   4405   4406   4407
4408   4409   4410   4411
4412   4413   4414   4415
4416   4417   4418   4419
4420   4421   4422   4423
4424   4425   4426   4427
4428   4429   4430   4431
4432   4433   4434   4435
4436   4437   4438   4439
4440   4441   4442   4443
4444   4445   4446   4447
4448   4449   4450   4451
4452   4453   4454   4455
4456   4457   4458   4459
4460   4461   4462   4463
4464   4465   4466   4467
4468   4469   4470   4471
4472   4473   4474   4475
4476   4477   4478   4479
4480   4481   4482   4483
4484   4485   4486   4487
4488   4489   4490   4491
4492   4493   4494   4495
4496   4497   4498   4499
4500   4501   4502   4503
4504   4505   4506   4507
4508   4509   4510   4511
4512   4513   4514   4515
4516   4517   4518   4519
4520   4521   4522   4523
4524   4525   4526   4527
4528   4529   4530   4531
4532   4533   4534   4535
4536   4537   4538   4539
4540   4541   4542   4543
4544   4545   4546   4547
4548   4549   4550   4551
4552   4553   4554   4555
4556   4557   4558   4559
4560   4561   4562   4563
4564   4565   4566   4567
4568   4569   4570   4571
4572   4573   4574   4575
4576   4577   4578   4579
4580   4581   4582   4583
4584   4585   4586   4587
4588   4589   4590   4591
4592   4593   4594   4595
4596   4597   4598   4599
4600   4601   4602   4603
4604   4605   4606   4607
4608   4609   4610   4611
4612   4613   4614   4615
4616   4617   4618   4619
4620   4621   4622   4623
4624   4625   4626   4627
4628   4629   4630   4631
4632   4633   4634   4635
4636   4637   4638   4639
4640   4641   4642   4643
4644   4645   4646   4647
4648   4649   4650   4651
4652   4653   4654   4655
4656   4657   4658   4659
4660   4661   4662   4663
4664   4665   4666   4667
4668   4669   4670   4671
4672   4673   4674   4675
4676   4677   4678   4679
4680   4681   4682   4683
4684   4685   4686   4687
4688   4689   4690   4691
4692   4693   4694   4695
4696   4697   4698   4699
4700   4701   4702   4703
4704   4705   4706   4707
4708   4709   4710   4711
4712   4713   4714   4715
4716   4717   4718   4719
4720   4721   4722   4723
4724   4725   4726   4727
4728   4729   4730   4731
4732   4733   4734   4735
4736   4737   4738   4739
4740   4741   4742   4743
4744   4745   4746   4747
4748   4749   4750   4751
4752   4753   4754   4755
4756   4757   4758   4759
4760   4761   4762   4763
4764   4765   4766   4767
4768   4769   4770   4771
4772   4773   4774   4775
4776   4777   4778   4779
4780   4781   4782   4783
4784   4785   4786   4787
4788   4789   4790   4791
4792   4793   4794   4795
4796   4797   4798   4799
4800   4801   4802   4803
4804   4805   4806   4807
4808   4809   4810   4811
4812   4813   4814   4815
4816   4817   4818   4819
4820   4821   4822   4823
4824   4825   4826   4827
4828   4829   4830   4831
4832   4833   4834   4835
4836   4837   4838   4839
4840   4841   4842   4843
4844   4845   4846   4847
4848   4849   4850   4851
4852   4853   4854   4855
4856   4857   4858   4859
4860   4861   4862   4863
4864   4865   4866   4867
4868   4869   4870   4871
4872   4873   4874   4875
4876   4877   4878   4879
4880   4881   4882   4883
4884   4885   4886   4887
4888   4889   4890   4891
4892   4893   4894   4895
4896   4897   4898   4899
4900   4901   4902   4903
4904   4905   4906   4907
4908   4909   4910   4911
4912   4913   4914   4915
4916   4917   4918   4919
4920   4921   4922   4923
4924   4925   4926   4927
4928   4929   4930   4931
4932   4933   4934   4935
4936   4937   4938   4939
4940   4941   4942   4943
4944   4945   4946   4947
4948   4949   4950   4951
4952   4953   4954   4955
4956   4957   4958   4959
4960   4961   4962   4963
4964   4965   4966   4967
4968   4969   4970   4971
4972   4973   4974   4975
4976   4977   4978   4979
4980   4981   4982   4983
4984   4985   4986   4987
4988   4989   4990   4991
4992   4993   4994   4995
4996   4997   4998   4999
5000   5001   5002   5003
5004   5005   5006   5007
5008   5009   5010   5011
5012   5013   5014   5015
5016   5017   5018   5019
5020   5021   5022   5023
5024   5025   5026   5027
5028   5029   5030   5031
5032   5033   5034   5035
5036   5037   5038   5039
5040   5041   5042   5043
5044   5045   5046   5047
5048   5049   5050   5051
5052   5053   5054   5055
5056   5057   5058   5059
5060   5061   5062   5063
5064   5065   5066   5067
5068   5069   5070   5071
5072   5073   5074   5075
5076   5077   5078   5079
5080   5081   5082   5083
5084   5085   5086   5087
5088   5089   5090   5091
5092   5093   5094   5095
5096   5097   5098   5099
5100   5101   5102   5103
5104   5105   5106   5107
5108   5109   5110   5111
5112   5113   5114   5115
5116   5117   5118   5119
5120   5121   5122   5123
5124   5125   5126   5127
5128   5129   5130   5131
5132   5133   5134   5135
5136   5137   5138   5139
5140   5141   5142   5143
5144   5145   5146   5147
5148   5149   5150   5151
5152   5153   5154   5155
5156   5157   5158   5159
5160   5161   5162   5163
5164   5165   5166   5167
5168   5169   5170   5171
5172   5173   5174   5175
5176   5177   5178   5179
5180   5181   5182   5183
5184   5185   5186   5187
5188   5189   5190   5191
5192   5193   5194   5195
5196   5197   5198   5199
5200   5201   5202   5203
5204   5205   5206   5207
5208   5209   5210   5211
5212   5213   5214   5215
5216   5217   5218   5219
5220   5221   5222   5223
5224   5225   5226   5227
5228   5229   5230   5231
5232   5233   5234   5235
5236   5237   5238   5239
5240   5241   5242   5243
5244   5245   5246   5247
5248   5249   5250   5251
5252   5253   5254   5255
5256   5257   5258   5259
5260   5261   5262   5263
5264   5265   5266   5267
5268   5269   5270   5271
5272   5273   5274   5275
5276   5277   5278   5279
5280   5281   5282   5283
5284   5285   5286   5287
5288   5289   5290   5291
5292   5293   5294   5295
5296   5297   5298   5299
5300   5301   5302   5303
5304   5305   5306   5307
5308   5309   5310   5311
5312   5313   5314   5315
5316   5317   5318   5319
5320   5321   5322   5323
5324   5325   5326   5327
5328   5329   5330   5331
5332   5333   5334   5335
5336   5337   5338   5339
5340   5341   5342   5343
5344   5345   5346   5347
5348   5349   5350   5351
5352   5353   5354   5355
5356   5357   5358   5359
5360   5361   5362   5363
5364   5365   5366   5367
5368   5369   5370   5371
5372   5373   5374   5375
5376   5377   5378   5379
5380   5381   5382   5383
5384   5385   5386   5387
5388   5389   5390   5391
5392   5393   5394   5395
5396   5397   5398   5399
5400   5401   5402   5403
5404   5405   5406   5407
5408   5409   5410   5411
5412   5413   5414   5415
5416   5417   5418   5419
5420   5421   5422   5423
5424   5425   5426   5427
5428   5429   5430   5431
5432   5433   5434   5435
5436   5437   5438   5439
5440   5441   5442   5443
5444   5445   5446   5447
5448   5449   5450   5451
5452   5453   5454   5455
5456   5457   5458   5459
5460   5461   5462   5463
5464   5465   5466   5467
5468   5469   5470   5471
5472   5473   5474   5475
5476   5477   5478   5479
5480   5481   5482   5483
5484   5485   5486   5487
5488   5489   5490   5491
5492   5493   5494   5495
5496   5497   5498   5499
5500   5501   5502   5503
5504   5505   5506   5507
5508   5509   5510   5511
5512   5513   5514   5515
5516   5517   5518   5519
5520   5521   5522   5523
5524   5525   5526   5527
5528   5529   5530   5531
5532   5533   5534   5535
5536   5537   5538   5539
5540   5541   5542   5543
5544   5545   5546   5547
5548   5549   5550   5551
5552   5553   5554   5555
5556   5557   5558   5559
5560   5561   5562   5563
5564   5565   5566   5567
5568   5569   5570   5571
5572   5573   5574   5575
5576   5577   5578   5579
5580   5581   5582   5583
5584   5585   5586   5587
5588   5589   5590   5591
5592   5593   5594   5595
5596   5597   5598   5599
5600   5601   5602   5603
5604   5605   5606   5607
5608   5609   5610   5611
5612   5613   5614   5615
5616   5617   5618   5619
5620   5621   5622   5623
5624   5625   5626   5627
5628   5629   5630   5631
5632   5633   5634   5635
5636   5637   5638   5639
5640   5641   5642   5643
5644   5645   5646   5647
5648   5649   5650   5651
5652   5653   5654   5655
5656   5657   5658   5659
5660   5661   5662   5663
5664   5665   5666   5667
5668   5669   5670   5671
5672   5673   5674   5675
5676   5677   5678   5679
5680   5681   5682   5683
5684   5685   5686   5687
5688   5689   5690   5691
5692   5693   5694   5695
5696   5697   5698   5699
5700   5701   5702   5703
5704   5705   5706   5707
5708   5709   5710   5711
5712   5713   5714   5715
5716   5717   5718   5719
5720   5721   5722   5723
5724   5725   5726   5727
5728   5729   5730   5731
5732   5733   5734   5735
5736   5737   5738   5739
5740   5741   5742   5743
5744   5745   5746   5747
5748   5749   5750   5751
5752   5753   5754   5755
5756   5757   5758   5759
5760   5761   5762   5763
5764   5765   5766   5767
5768   5769   5770   5771
5772   5773   5774   5775
5776   5777   5778   5779
5780   5781   5782   5783
5784   5785   5786   5787
5788   5789   5790   5791
5792   5793   5794   5795
5796   5797   5798   5799
5800   5801   5802   5803
5804   5805   5806   5807
5808   5809   5810   5811
5812   5813   5814   5815
5816   5817   5818   5819
5820   5821   5822   5823
5824   5825   5826   5827
5828   5829   5830   5831
5832   5833   5834   5835
5836   5837   5838   5839
5840   5841   5842   5843
5844   5845   5846   5847
5848   5849   5850   5851
5852   5853   5854   5855
5856   5857   5858   5859
5860   5861   5862   5863
5864   5865   5866   5867
5868   5869   5870   5871
5872   5873   5874   5875
5876   5877   5878   5879
5880   5881   5882   5883
5884   5885   5886   5887
5888   5889   5890   5891
5892   5893   5894   5895
5896   5897   5898   5899
5900   5901   5902   5903
5904   5905   5906   5907
5908   5909   5910   5911
5912   5913   5914   5915
5916   5917   5918   5919
5920   5921   5922   5923
5924   5925   5926   5927
5928   5929   5930   5931
5932   5933   5934   5935
5936   5937   5938   5939
5940   5941   5942   5943
5944   5945   5946   5947
5948   5949   5950   5951
5952   5953   5954   5955
5956   5957   5958   5959
5960   5961   5962   5963
5964   5965   5966   5967
5968   5969   5970   5971
5972   5973   5974   5975
5976   5977   5978   5979
5980   5981   5982   5983
5984   5985   5986   5987
5988   5989   5990   5991
5992   5993   5994   5995
5996   5997   5998   5999
              </DataArray>   
              <DataArray type="Int32" Name="offsets" format="ascii">   
4
8
12
16
20
24
28
32
36
40
44
48
52
56
60
64
68
72
76
80
84
88
92
96
100
104
108
112
116
120
124
128
132
136
140
144
148
152
156
160
164
168
172
176
180
184
188
192
196
200
204
208
212
216
220
224
228
232
236
240
244
248
252
256
260
264
268
272
276
280
284
288
292
296
300
304
308
312
316
320
324
328
332
336
340
344
348
352
356
360
364
368
372
376
380
384
388
392
396
400
404
408
412
416
420
424
428
432
436
440
444
448
452
456
460
464
468
472
476
480
484
488
492
496
500
504
508
512
516
520
524
528
532
536
540
544
548
552
556
560
564
568
572
576
580
584
588
592
596
600
604
608
612
616
620
624
628
632
636
640
644
648
652
656
660
664
668
672
676
680
684
688
692
696
700
704
708
712
716
720
724
728
732
736
740
744
748
752
756
760
764
768
772
776
780
784
788
792
796
800
804
808
812
816
820
824
828
832
836
840
844
848
852
856
860
864
868
872
876
880
884
888
892
896
900
904
908
912
916
920
924
928
932
936
940
944
948
952
956
960
964
968
972
976
980
984
988
992
996
1000
1004
1008
1012
1016
1020
1024
1028
1032
1036
1040
1044
1048
1052
1056
1060
1064
1068
1072
1076
1080
1084
1088
1092
1096
1100
1104
1108
1112
1116
1120
1124
1128
1132
1136
1140
1144
1148
1152
1156
1160
1164
1168
1172
1176
1180
1184
1188
1192
1196
1200
1204
1208
1212
1216
1220
1224
1228
1232
1236
1240
1244
1248
1252
1256
1260
1264
1268
1272
1276
1280
1284
1288
1292
1296
1300
1304
1308
1312
1316
1320
1324
1328
1332
1336
1340
1344
1348
1352
1356
1360
1364
1368
1372
1376
1380
1384
1388
1392
1396
1400
1404
1408
1412
1416
1420
1424
1428
1432
1436
1440
1444
1448
1452
1456
1460
1464
1468
1472
1476
1480
1484
1488
1492
1496
1500
1504
1508
1512
1516
1520
1524
1528
1532
1536
1540
1544
1548
1552
1556
1560
1564
1568
1572
1576
1580
1584
1588
1592
1596
1600
1604
1608
1612
1616
1620
1624
1628
1632
1636
1640
1644
1648
1652
1656
1660
1664
1668
1672
1676
1680
1684
1688
1692
1696
1700
1704
1708
1712
1716
1720
1724
1728
1732
1736
1740
1744
1748
1752
1756
1760
1764
1768
1772
1776
1780
1784
1788
1792
1796
1800
1804
1808
1812
1816
1820
1824
1828
1832
1836
1840
1844
1848
1852
1856
1860
1864
1868
1872
1876
1880
1884
1888
1892
1896
1900
1904
1908
1912
1916
1920
1924
1928
1932
1936
1940
1944
1948
1952
1956
1960
1964
1968
1972
1976
1980
1984
1988
1992
1996
2000
2004
2008
2012
2016
2020
2024
2028
2032
2036
2040
2044
2048
2052
2056
2060
2064
2068
2072
2076
2080
2084
2088
2092
2096
2100
2104
2108
2112
2116
2120
2124
2128
2132
2136
2140
2144
2148
2152
2156
2160
2164
2168
2172
2176
2180
2184
2188
2192
2196
2200
2204
2208
2212
2216
2220
2224
2228
2232
2236
2240
2244
2248
2252
2256
2260
2264
2268
2272
2276
2280
2284
2288
2292
2296
2300
2304
2308
2312
2316
2320
2324
2328
2332
2336
2340
2344
2348
2352
2356
2360
2364
2368
2372
2376
2380
2384
2388
2392
2396
2400
2404
2408
2412
2416
2420
2424
2428
2432
2436
2440
2444
2448
2452
2456
2460
2464
2468
2472
2476
2480
2484
2488
2492
2496
2500
2504
2508
2512
2516
2520
2524
2528
2532
2536
2540
2544
2548
2552
2556
2560
2564
2568
2572
2576
2580
2584
2588
2592
2596
2600
2604
2608
2612
2616
2620
2624
2628
2632
2636
2640
2644
2648
2652
2656
2660
2664
2668
2672
2676
2680
2684
2688
2692
2696
2700
2704
2708
2712
2716
2720
2724
2728
2732
2736
2740
2744
2748
2752
2756
2760
2764
2768
2772
2776
2780
2784
2788
2792
2796
2800
2804
2808
2812
2816
2820
2824
2828
2832
2836
2840
2844
2848
2852
2856
2860
2864
2868
2872
2876
2880
2884
2888
2892
2896
2900
2904
2908
2912
2916
2920
2924
2928
2932
2936
2940
2944
2948
2952
2956
2960
2964
2968
2972
2976
2980
2984
2988
2992
2996
3000
3004
3008
3012
3016
3020
3024
3028
3032
3036
3040
3044
3048
3052
3056
3060
3064
3068
3072
3076
3080
3084
3088
3092
3096
3100
3104
3108
3112
3116
3120
3124
3128
3132
3136
3140
3144
3148
3152
3156
3160
3164
3168
3172
3176
3180
3184
3188
3192
3196
3200
3204
3208
3212
3216
3220
3224
3228
3232
3236
3240
3244
3248
3252
3256
3260
3264
3268
3272
3276
3280
3284
3288
3292
3296
3300
3304
3308
3312
3316
3320
3324
3328
3332
3336
3340
3344
3348
3352
3356
3360
3364
3368
3372
3376
3380
3384
3388
3392
3396
3400
3404
3408
3412
3416
3420
3424
3428
3432
3436
3440
3444
3448
3452
3456
3460
3464
3468
3472
3476
3480
3484
3488
3492
3496
3500
3504
3508
3512
3516
3520
3524
3528
3532
3536
3540
3544
3548
3552
3556
3560
3564
3568
3572
3576
3580
3584
3588
3592
3596
3600
3604
3608
3612
3616
3620
3624
3628
3632
3636
3640
3644
3648
3652
3656
3660
3664
3668
3672
3676
3680
3684
3688
3692
3696
3700
3704
3708
3712
3716
3720
3724
3728
3732
3736
3740
3744
3748
3752
3756
3760
3764
3768
3772
3776
3780
3784
3788
3792
3796
3800
3804
3808
3812
3816
3820
3824
3828
3832
3836
3840
3844
3848
3852
3856
3860
3864
3868
3872
3876
3880
3884
3888
3892
3896
3900
3904
3908
3912
3916
3920
3924
3928
3932
3936
3940
3944
3948
3952
3956
3960
3964
3968
3972
3976
3980
3984
3988
3992
3996
4000
4004
4008
4012
4016
4020
4024
4028
4032
4036
4040
4044
4048
4052
4056
4060
4064
4068
4072
4076
4080
4084
4088
4092
4096
4100
4104
4108
4112
4116
4120
4124
4128
4132
4136
4140
4144
4148
4152
4156
4160
4164
4168
4172
4176
4180
4184
4188
4192
4196
4200
4204
4208
4212
4216
4220
4224
4228
4232
4236
4240
4244
4248
4252
4256
4260
4264
4268
4272
4276
4280
4284
4288
4292
4296
4300
4304
4308
4312
4316
4320
4324
4328
4332
4336
4340
4344
4348
4352
4356
4360
4364
4368
4372
4376
4380
4384
4388
4392
4396
4400
4404
4408
4412
4416
4420
4424
4428
4432
4436
4440
4444
4448
4452
4456
4460
4464
4468
4472
4476
4480
4484
4488
4492
4496
4500
4504
4508
4512
4516
4520
4524
4528
4532
4536
4540
4544
4548
4552
4556
4560
4564
4568
4572
4576
4580
4584
4588
4592
4596
4600
4604
4608
4612
4616
4620
4624
4628
4632
4636
4640
4644
4648
4652
4656
4660
4664
4668
4672
4676
4680
4684
4688
4692
4696
4700
4704
4708
4712
4716
4720
4724
4728
4732
4736
4740
4744
4748
4752
4756
4760
4764
4768
4772
4776
4780
4784
4788
4792
4796
4800
4804
4808
4812
4816
4820
4824
4828
4832
4836
4840
4844
4848
4852
4856
4860
4864
4868
4872
4876
4880
4884
4888
4892
4896
4900
4904
4908
4912
4916
4920
4924
4928
4932
4936
4940
4944
4948
4952
4956
4960
4964
4968
4972
4976
4980
4984
4988
4992
4996
5000
5004
5008
5012
5016
5020
5024
5028
5032
5036
5040
5044
5048
5052
5056
5060
5064
5068
5072
5076
5080
5084
5088
5092
5096
5100
5104
5108
5112
5116
5120
5124
5128
5132
5136
5140
5144
5148
5152
5156
5160
5164
5168
5172
5176
5180
5184
5188
5192
5196
5200
5204
5208
5212
5216
5220
5224
5228
5232
5236
5240
5244
5248
5252
5256
5260
5264
5268
5272
5276
5280
5284
5288
5292
5296
5300
5304
5308
5312
5316
5320
5324
5328
5332
5336
5340
5344
5348
5352
5356
5360
5364
5368
5372
5376
5380
5384
5388
5392
5396
5400
5404
5408
5412
5416
5420
5424
5428
5432
5436
5440
5444
5448
5452
5456
5460
5464
5468
5472
5476
5480
5484
5488
5492
5496
5500
5504
5508
5512
5516
5520
5524
5528
5532
5536
5540
5544
5548
5552
5556
5560
5564
5568
5572
5576
5580
5584
5588
5592
5596
5600
5604
5608
5612
5616
5620
5624
5628
5632
5636
5640
5644
5648
5652
5656
5660
5664
5668
5672
5676
5680
5684
5688
5692
5696
5700
5704
5708
5712
5716
5720
5724
5728
5732
5736
5740
5744
5748
5752
5756
5760
5764
5768
5772
5776
5780
5784
5788
5792
5796
5800
5804
5808
5812
5816
5820
5824
5828
5832
5836
5840
5844
5848
5852
5856
5860
5864
5868
5872
5876
5880
5884
5888
5892
5896
5900
5904
5908
5912
5916
5920
5924
5928
5932
5936
5940
5944
5948
5952
5956
5960
5964
5968
5972
5976
5980
5984
5988
5992
5996
6000
              </DataArray>   
              <DataArray type="UInt8" Name="types" format="ascii">   
10
10
10
10
10
10
10
10
10
10
10
10
10
10
10
10
10
10
10
10
10
10
10
10
10
10
10
10
10
10
10
10
10
10
10
10
10
10
10
10
10
10
10
10
10
10
10
10
10
10
10
10
10
10
10
10
10
10
10
10
10
10
10
10
10
10
10
10
10
10
10
10
10
10
10
10
10
10
10
10
10
10
10
10
10
10
10
10
10
10
10
10
10
10
10
10
10
10
10
10
10
10
10
10
10
10
10
10
10
10
10
10
10
10
10
10
10
10
10
10
10
10
10
10
10
10
10
10
10
10
10
10
10
10
10
10
10
10
10
10
10
10
10
10
10
10
10
10
10
10
10
10
10
10
10
10
10
10
10
10
10
10
10
10
10
10
10
10
10
10
10
10
10
10
10
10
10
10
10
10
10
10
10
10
10
10
10
10
10
10
10
10
10
10
10
10
10
10
10
10
10
10
10
10
10
10
10
10
10
10
10
10
10
10
10
10
10
10
10
10
10
10
10
10
10
10
10
10
10
10
10
10
10
10
10
10
10
10
10
10
10
10
10
10
10
10
10
10
10
10
10
10
10
10
10
10
10
10
10
10
10
10
10
10
10
10
10
10
10
10
10
10
10
10
10
10
10
10
10
10
10
10
10
10
10
10
10
10
10
10
10
10
10
10
10
10
10
10
10
10
10
10
10
10
10
10
10
10
10
10
10
10
10
10
10
10
10
10
10
10
10
10
10
10
10
10
10
10
10
10
10
10
10
10
10
10
10
10
10
10
10
10
10
10
10
10
10
10
10
10
10
10
10
10
10
10
10
10
10
10
10
10
10
10
10
10
10
10
10
10
10
10
10
10
10
10
10
10
10
10
10
10
10
10
10
10
10
10
10
10
10
10
10
10
10
10
10
10
10
10
10
10
10
10
10
10
10
10
10
10
10
10
10
10
10
10
10
10
10
10
10
10
10
10
10
10
10
10
10
10
10
10
10
10
10
10
10
10
10
10
10
10
10
10
10
10
10
10
10
10
10
10
10
10
10
10
10
10
10
10
10
10
10
10
10
10
10
10
10
10
10
10
10
10
10
10
10
10
10
10
10
10
10
10
10
10
10
10
10
10
10
10
10
10
10
10
10
10
10
10
10
10
10
10
10
10
10
10
10
10
10
10
10
10
10
10
10
10
10
10
10
10
10
10
10
10
10
10
10
10
10
10
10
10
10
10
10
10
10
10
10
10
10
10
10
10
10
10
10
10
10
10
10
10
10
10
10
10
10
10
10
10
10
10
10
10
10
10
10
10
10
10
10
10
10
10
10
10
10
10
10
10
10
10
10
10
10
10
10
10
10
10
10
10
10
10
10
10
10
10
10
10
10
10
10
10
10
10
10
10
10
10
10
10
10
10
10
10
10
10
10
10
10
10
10
10
10
10
10
10
10
10
10
10
10
10
10
10
10
10
10
10
10
10
10
10
10
10
10
10
10
10
10
10
10
10
10
10
10
10
10
10
10
10
10
10
10
10
10
10
10
10
10
10
10
10
10
10
10
10
10
10
10
10
10
10
10
10
10
10
10
10
10
10
10
10
10
10
10
10
10
10
10
10
10
10
10
10
10
10
10
10
10
10
10
10
10
10
10
10
10
10
10
10
10
10
10
10
10
10
10
10
10
10
10
10
10
10
10
10
10
10
10
10
10
10
10
10
10
10
10
10
10
10
10
10
10
10
10
10
10
10
10
10
10
10
10
10
10
10
10
10
10
10
10
10
10
10
10
10
10
10
10
10
10
10
10
10
10
10
10
10
10
10
10
10
10
10
10
10
10
10
10
10
10
10
10
10
10
10
10
10
10
10
10
10
10
10
10
10
10
10
10
10
10
10
10
10
10
10
10
10
10
10
10
10
10
10
10
10
10
10
10
10
10
10
10
10
10
10
10
10
10
10
10
10
10
10
10
10
10
10
10
10
10
10
10
10
10
10
10
10
10
10
10
10
10
10
10
10
10
10
10
10
10
10
10
10
10
10
10
10
10
10
10
10
10
10
10
10
10
10
10
10
10
10
10
10
10
10
10
10
10
10
10
10
10
10
10
10
10
10
10
10
10
10
10
10
10
10
10
10
10
10
10
10
10
10
10
10
10
10
10
10
10
10
10
10
10
10
10
10
10
10
10
10
10
10
10
10
10
10
10
10
10
10
10
10
10
10
10
10
10
10
10
10
10
10
10
10
10
10
10
10
10
10
10
10
10
10
10
10
10
10
10
10
10
10
10
10
10
10
10
10
10
10
10
10
10
10
10
10
10
10
10
10
10
10
10
10
10
10
10
10
10
10
10
10
10
10
10
10
10
10
10
10
10
10
10
10
10
10
10
10
10
10
10
10
10
10
10
10
10
10
10
10
10
10
10
10
10
10
10
10
10
10
10
10
10
10
10
10
10
10
10
10
10
10
10
10
10
10
10
10
10
10
10
10
10
10
10
10
10
10
10
10
10
10
10
10
10
10
10
10
10
10
10
10
10
10
10
10
10
10
10
10
10
10
10
10
10
10
10
10
10
10
10
10
10
10
10
10
10
10
10
10
10
10
10
10
10
10
10
10
10
10
10
10
10
10
10
10
10
10
10
10
10
10
10
10
10
10
10
10
10
10
10
10
10
10
10
10
10
10
10
10
10
10
10
10
10
10
10
10
10
10
10
10
10
10
10
10
10
10
10
10
10
10
10
10
10
10
10
10
10
10
10
10
10
10
10
10
10
10
10
10
10
10
10
10
10
10
10
10
10
10
10
10
10
10
10
10
10
10
10
10
10
10
10
10
10
10
10
10
10
10
10
10
10
10
10
10
10
10
10
10
10
10
10
10
10
10
10
10
10
10
10
10
10
10
10
10
10
10
10
10
10
10
10
10
10
10
10
10
10
10
10
10
10
10
10
10
10
10
10
10
10
10
10
10
10
10
10
10
10
10
10
10
10
10
10
10
10
10
10
10
10
10
10
10
10
10
10
10
10
10
10
10
10
10
10
10
10
10
10
10
10
10
10
10
10
10
10
10
10
10
10
10
10
10
10
10
10
10
10
10
10
10
10
10
10
10
10
10
10
10
10
10
10
10
10
10
10
10
10
10
10
10
10
10
10
10
10
10
10
10
10
10
10
10
10
10
10
10
10
10
10
10
10
10
10
10
10
10
10
10
10
10
10
10
10
10
10
10
10
10
10
10
10
10
10
10
10
10
10
10
10
10
10
10
10
10
10
10
10
10
10
10
10
10
10
10
10
10
10
10
10
10
10
10
10
10
10
10
10
10
10
10
10
10
10
10
10
10
10
10
10
10
10
10
10
10
10
10
10
10
10
10
10
10
10
10
10
10
10
10
10
10
10
10
10
10
10
10
10
10
10
10
10
10
              </DataArray>   
          </Cells>  
          <PointData>  
             <DataArray type="Float64" NumberOfComponents="3" Name="Strains" format="ascii">   
-3.8045948465422384e-05   0.0   -2.5126140459846973e-05
-3.8045948465422384e-05   0.0   -2.5126140459846973e-05
-3.8045948465422384e-05   0.0   -2.5126140459846973e-05
-3.8045948465422384e-05   0.0   -2.5126140459846973e-05
-2.4193891593193037e-05   4.1939932969487805e-06   4.770169720378319e-07
-2.4193891593193037e-05   4.1939932969487805e-06   4.770169720378319e-07
-2.4193891593193037e-05   4.1939932969487805e-06   4.770169720378319e-07
-2.4193891593193037e-05   4.1939932969487805e-06   4.770169720378319e-07
-2.3704772803599683e-05   0.0   -2.373473355581565e-05
-2.3704772803599683e-05   0.0   -2.373473355581565e-05
-2.3704772803599683e-05   0.0   -2.373473355581565e-05
-2.3704772803599683e-05   0.0   -2.373473355581565e-05
-3.9803725816603195e-05   5.042914426638851e-06   7.110614320699621e-08
-3.9803725816603195e-05   5.042914426638851e-06   7.110614320699621e-08
-3.9803725816603195e-05   5.042914426638851e-06   7.110614320699621e-08
-3.9803725816603195e-05   5.042914426638851e-06   7.110614320699621e-08
-3.087536063451098e-05   1.159505753359433e-06   -1.2479457289645698e-05
-3.087536063451098e-05   1.159505753359433e-06   -1.2479457289645698e-05
-3.087536063451098e-05   1.159505753359433e-06   -1.2479457289645698e-05
-3.087536063451098e-05   1.159505753359433e-06   -1.2479457289645698e-05
-3.980372581660326e-05   0.0   -2.6760482211798965e-05
-3.980372581660326e-05   0.0   -2.6760482211798965e-05
-3.980372581660326e-05   0.0   -2.6760482211798965e-05
-3.980372581660326e-05   0.0   -2.6760482211798965e-05
-2.3704772803599683e-05   5.042914426638858e-06   3.0968547991903054e-06
-2.3704772803599683e-05   5.042914426638858e-06   3.0968547991903054e-06
-2.3704772803599683e-05   5.042914426638858e-06   3.0968547991903054e-06
-2.3704772803599683e-05   5.042914426638858e-06   3.0968547991903054e-06
-2.3760117061588382e-05   0.0   -2.431257908917892e-05
-2.3760117061588382e-05   0.0   -2.431257908917892e-05
-2.3760117061588382e-05   0.0   -2.431257908917892e-05
-2.3760117061588382e-05   0.0   -2.431257908917892e-05
-4.1032912810294436e-05   5.4054215477786785e-06   1.2321608966640656e-06
-4.1032912810294436e-05   5.4054215477786785e-06   1.2321608966640656e-06
-4.1032912810294436e-05   5.4054215477786785e-06   1.2321608966640656e-06
-4.1032912810294436e-05   5.4054215477786785e-06   1.2321608966640656e-06
-3.1781921439095767e-05   2.0399192688500354e-06   -1.2166856687976511e-05
-3.1781921439095767e-05   2.0399192688500354e-06   -1.2166856687976511e-05
-3.1781921439095767e-05   2.0399192688500354e-06   -1.2166856687976511e-05
-3.1781921439095767e-05   2.0399192688500354e-06   -1.2166856687976511e-05
-4.1032912810294503e-05   0.0   -2.7555832017846133e-05
-4.1032912810294503e-05   0.0   -2.7555832017846133e-05
-4.1032912810294503e-05   0.0   -2.7555832017846133e-05
-4.1032912810294503e-05   0.0   -2.7555832017846133e-05
-2.3760117061588382e-05   5.405421547778685e-06   4.4754138253312755e-06
-2.3760117061588382e-05   5.405421547778685e-06   4.4754138253312755e-06
-2.3760117061588382e-05   5.405421547778685e-06   4.4754138253312755e-06
-2.3760117061588382e-05   5.405421547778685e-06   4.4754138253312755e-06
-2.3734656170005518e-05   0.0   -2.446287694090011e-05
-2.3734656170005518e-05   0.0   -2.446287694090011e-05
-2.3734656170005518e-05   0.0   -2.446287694090011e-05
-2.3734656170005518e-05   0.0   -2.446287694090011e-05
-4.3692340060063856e-05   6.166310537511214e-06   5.100143220023828e-06
-4.3692340060063856e-05   6.166310537511214e-06   5.100143220023828e-06
-4.3692340060063856e-05   6.166310537511214e-06   5.100143220023828e-06
-4.3692340060063856e-05   6.166310537511214e-06   5.100143220023828e-06
-3.2383784490149956e-05   2.5774625641216827e-06   -1.1594140612465598e-05
-3.2383784490149956e-05   2.5774625641216827e-06   -1.1594140612465598e-05
-3.2383784490149956e-05   2.5774625641216827e-06   -1.1594140612465598e-05
-3.2383784490149956e-05   2.5774625641216827e-06   -1.1594140612465598e-05
-2.4193891593193078e-05   0.0   -2.26097444816777e-05
-2.4193891593193078e-05   0.0   -2.26097444816777e-05
-2.4193891593193078e-05   0.0   -2.26097444816777e-05
-2.4193891593193078e-05   0.0   -2.26097444816777e-05
-1.1031336526616271e-05   1.534184743844391e-06   2.48358142256928e-07
-1.1031336526616271e-05   1.534184743844391e-06   2.48358142256928e-07
-1.1031336526616271e-05   1.534184743844391e-06   2.48358142256928e-07
-1.1031336526616271e-05   1.534184743844391e-06   2.48358142256928e-07
-1.0598567858864116e-05   0.0   -2.2420106294876454e-05
-1.0598567858864116e-05   0.0   -2.2420106294876454e-05
-1.0598567858864116e-05   0.0   -2.2420106294876454e-05
-1.0598567858864116e-05   0.0   -2.2420106294876454e-05
-2.3704772803599683e-05   2.1910454348986614e-06   -1.891058647923038e-06
-2.3704772803599683e-05   2.1910454348986614e-06   -1.891058647923038e-06
-2.3704772803599683e-05   2.1910454348986614e-06   -1.891058647923038e-06
-2.3704772803599683e-05   2.1910454348986614e-06   -1.891058647923038e-06
-1.7396229726028565e-05   1.580318223343735e-07   -1.1185488943002914e-05
-1.7396229726028565e-05   1.580318223343735e-07   -1.1185488943002914e-05
-1.7396229726028565e-05   1.580318223343735e-07   -1.1185488943002914e-05
-1.7396229726028565e-05   1.580318223343735e-07   -1.1185488943002914e-05
-2.3704772803599663e-05   0.0   -2.373473355581563e-05
-2.3704772803599663e-05   0.0   -2.373473355581563e-05
-2.3704772803599663e-05   0.0   -2.373473355581563e-05
-2.3704772803599663e-05   0.0   -2.373473355581563e-05
-1.0598567858864116e-05   2.1910454348986614e-06   -5.764313869838426e-07
-1.0598567858864116e-05   2.1910454348986614e-06   -5.764313869838426e-07
-1.0598567858864116e-05   2.1910454348986614e-06   -5.764313869838426e-07
-1.0598567858864116e-05   2.1910454348986614e-06   -5.764313869838426e-07
-1.0350807716189168e-05   0.0   -2.2699159367695666e-05
-1.0350807716189168e-05   0.0   -2.2699159367695666e-05
-1.0350807716189168e-05   0.0   -2.2699159367695666e-05
-1.0350807716189168e-05   0.0   -2.2699159367695666e-05
-2.3760117061588382e-05   2.689032869138754e-06   -1.96373018018023e-06
-2.3760117061588382e-05   2.689032869138754e-06   -1.96373018018023e-06
-2.3760117061588382e-05   2.689032869138754e-06   -1.96373018018023e-06
-2.3760117061588382e-05   2.689032869138754e-06   -1.96373018018023e-06
-1.7027790259894393e-05   8.629784900999869e-07   -1.2088642222246854e-05
-1.7027790259894393e-05   8.629784900999869e-07   -1.2088642222246854e-05
-1.7027790259894393e-05   8.629784900999869e-07   -1.2088642222246854e-05
-1.7027790259894393e-05   8.629784900999869e-07   -1.2088642222246854e-05
-2.3760117061588382e-05   0.0   -2.431257908917892e-05
-2.3760117061588382e-05   0.0   -2.431257908917892e-05
-2.3760117061588382e-05   0.0   -2.431257908917892e-05
-2.3760117061588382e-05   0.0   -2.431257908917892e-05
-1.0350807716189168e-05   2.689032869138754e-06   -3.503104586969805e-07
-1.0350807716189168e-05   2.689032869138754e-06   -3.503104586969805e-07
-1.0350807716189168e-05   2.689032869138754e-06   -3.503104586969805e-07
-1.0350807716189168e-05   2.689032869138754e-06   -3.503104586969805e-07
-1.0123301742570754e-05   0.0   -2.258383706784335e-05
-1.0123301742570754e-05   0.0   -2.258383706784335e-05
-1.0123301742570754e-05   0.0   -2.258383706784335e-05
-1.0123301742570754e-05   0.0   -2.258383706784335e-05
-2.3734656170005453e-05   3.1317331217612228e-06   -1.7772862285088308e-06
-2.3734656170005453e-05   3.1317331217612228e-06   -1.7772862285088308e-06
-2.3734656170005453e-05   3.1317331217612228e-06   -1.7772862285088308e-06
-2.3734656170005453e-05   3.1317331217612228e-06   -1.7772862285088308e-06
-1.6941709402079563e-05   1.4406183511129582e-06   -1.208419531266311e-05
-1.6941709402079563e-05   1.4406183511129582e-06   -1.208419531266311e-05
-1.6941709402079563e-05   1.4406183511129582e-06   -1.208419531266311e-05
-1.6941709402079563e-05   1.4406183511129582e-06   -1.208419531266311e-05
-1.1031336526616291e-05   0.0   -2.1689233635371065e-05
-1.1031336526616291e-05   0.0   -2.1689233635371065e-05
-1.1031336526616291e-05   0.0   -2.1689233635371065e-05
-1.1031336526616291e-05   0.0   -2.1689233635371065e-05
1.3949707477918414e-06   -1.9956753938010503e-07   -1.0984620349855553e-06
1.3949707477918414e-06   -1.9956753938010503e-07   -1.0984620349855553e-06
1.3949707477918414e-06   -1.9956753938010503e-07   -1.0984620349855553e-06
1.3949707477918414e-06   -1.9956753938010503e-07   -1.0984620349855553e-06
1.6765405963481994e-06   0.0   -2.2186247333193244e-05
1.6765405963481994e-06   0.0   -2.2186247333193244e-05
1.6765405963481994e-06   0.0   -2.2186247333193244e-05
1.6765405963481994e-06   0.0   -2.2186247333193244e-05
-1.0598567858864097e-05   3.897649361385457e-07   -1.961592202855917e-06
-1.0598567858864097e-05   3.897649361385457e-07   -1.961592202855917e-06
-1.0598567858864097e-05   3.897649361385457e-07   -1.961592202855917e-06
-1.0598567858864097e-05   3.897649361385457e-07   -1.961592202855917e-06
-4.6773979651340265e-06   -4.1417808151854573e-07   -1.1347842881811734e-05
-4.6773979651340265e-06   -4.1417808151854573e-07   -1.1347842881811734e-05
-4.6773979651340265e-06   -4.1417808151854573e-07   -1.1347842881811734e-05
-4.6773979651340265e-06   -4.1417808151854573e-07   -1.1347842881811734e-05
-1.0598567858864116e-05   0.0   -2.2420106294876454e-05
-1.0598567858864116e-05   0.0   -2.2420106294876454e-05
-1.0598567858864116e-05   0.0   -2.2420106294876454e-05
-1.0598567858864116e-05   0.0   -2.2420106294876454e-05
1.6765405963482024e-06   3.897649361385457e-07   -1.727733241172786e-06
1.6765405963482024e-06   3.897649361385457e-07   -1.727733241172786e-06
1.6765405963482024e-06   3.897649361385457e-07   -1.727733241172786e-06
1.6765405963482024e-06   3.897649361385457e-07   -1.727733241172786e-06
1.9002943516374994e-06   0.0   -2.2153622868981215e-05
1.9002943516374994e-06   0.0   -2.2153622868981215e-05
1.9002943516374994e-06   0.0   -2.2153622868981215e-05
1.9002943516374994e-06   0.0   -2.2153622868981215e-05
-1.0350807716189132e-05   9.092274978573522e-07   -2.2806559213178793e-06
-1.0350807716189132e-05   9.092274978573522e-07   -2.2806559213178793e-06
-1.0350807716189132e-05   9.092274978573522e-07   -2.2806559213178793e-06
-1.0350807716189132e-05   9.092274978573522e-07   -2.2806559213178793e-06
-4.349136753613299e-06   2.2206952157933225e-07   -1.1871146073177477e-05
-4.349136753613299e-06   2.2206952157933225e-07   -1.1871146073177477e-05
-4.349136753613299e-06   2.2206952157933225e-07   -1.1871146073177477e-05
-4.349136753613299e-06   2.2206952157933225e-07   -1.1871146073177477e-05
-1.0350807716189168e-05   0.0   -2.2699159367695666e-05
-1.0350807716189168e-05   0.0   -2.2699159367695666e-05
-1.0350807716189168e-05   0.0   -2.2699159367695666e-05
-1.0350807716189168e-05   0.0   -2.2699159367695666e-05
1.9002943516375028e-06   9.092274978573522e-07   -1.7351194226034733e-06
1.9002943516375028e-06   9.092274978573522e-07   -1.7351194226034733e-06
1.9002943516375028e-06   9.092274978573522e-07   -1.7351194226034733e-06
1.9002943516375028e-06   9.092274978573522e-07   -1.7351194226034733e-06
2.197536148056855e-06   0.0   -2.1677709060048912e-05
2.197536148056855e-06   0.0   -2.1677709060048912e-05
2.197536148056855e-06   0.0   -2.1677709060048912e-05
2.197536148056855e-06   0.0   -2.1677709060048912e-05
-1.0123301742570726e-05   1.5102133463240302e-06   -2.0491072501306652e-06
-1.0123301742570726e-05   1.5102133463240302e-06   -2.0491072501306652e-06
-1.0123301742570726e-05   1.5102133463240302e-06   -2.0491072501306652e-06
-1.0123301742570726e-05   1.5102133463240302e-06   -2.0491072501306652e-06
-4.076635784066148e-06   8.51208589705593e-07   -1.1731480993667257e-05
-4.076635784066148e-06   8.51208589705593e-07   -1.1731480993667257e-05
-4.076635784066148e-06   8.51208589705593e-07   -1.1731480993667257e-05
-4.076635784066148e-06   8.51208589705593e-07   -1.1731480993667257e-05
1.3949707477918437e-06   0.0   -2.180897415899913e-05
1.3949707477918437e-06   0.0   -2.180897415899913e-05
1.3949707477918437e-06   0.0   -2.180897415899913e-05
1.3949707477918437e-06   0.0   -2.180897415899913e-05
1.4893329481921555e-05   -1.7468960589475817e-06   -3.598472374848142e-07
1.4893329481921555e-05   -1.7468960589475817e-06   -3.598472374848142e-07
1.4893329481921555e-05   -1.7468960589475817e-06   -3.598472374848142e-07
1.4893329481921555e-05   -1.7468960589475817e-06   -3.598472374848142e-07
1.4934040206123366e-05   0.0   -2.297445824724878e-05
1.4934040206123366e-05   0.0   -2.297445824724878e-05
1.4934040206123366e-05   0.0   -2.297445824724878e-05
1.4934040206123366e-05   0.0   -2.297445824724878e-05
1.6765405963482053e-06   -1.3136848567590914e-06   -9.04146502347247e-08
1.6765405963482053e-06   -1.3136848567590914e-06   -9.04146502347247e-08
1.6765405963482053e-06   -1.3136848567590914e-06   -9.04146502347247e-08
1.6765405963482053e-06   -1.3136848567590914e-06   -9.04146502347247e-08
8.164505476957605e-06   -9.712367402080423e-07   -1.110915832118101e-05
8.164505476957605e-06   -9.712367402080423e-07   -1.110915832118101e-05
8.164505476957605e-06   -9.712367402080423e-07   -1.110915832118101e-05
8.164505476957605e-06   -9.712367402080423e-07   -1.110915832118101e-05
1.6765405963482053e-06   0.0   -2.218624733319332e-05
1.6765405963482053e-06   0.0   -2.218624733319332e-05
1.6765405963482053e-06   0.0   -2.218624733319332e-05
1.6765405963482053e-06   0.0   -2.218624733319332e-05
1.4934040206123366e-05   -1.3136848567590914e-06   -8.78625564290182e-07
1.4934040206123366e-05   -1.3136848567590914e-06   -8.78625564290182e-07
1.4934040206123366e-05   -1.3136848567590914e-06   -8.78625564290182e-07
1.4934040206123366e-05   -1.3136848567590914e-06   -8.78625564290182e-07
1.4882341193301752e-05   0.0   -2.264649358834949e-05
1.4882341193301752e-05   0.0   -2.264649358834949e-05
1.4882341193301752e-05   0.0   -2.264649358834949e-05
1.4882341193301752e-05   0.0   -2.264649358834949e-05
1.9002943516375028e-06   -8.214511989470581e-07   -5.168781328741761e-07
1.9002943516375028e-06   -8.214511989470581e-07   -5.168781328741761e-07
1.9002943516375028e-06   -8.214511989470581e-07   -5.168781328741761e-07
1.9002943516375028e-06   -8.214511989470581e-07   -5.168781328741761e-07
8.279440894824979e-06   -3.8353854596347305e-07   -1.1411536629976776e-05
8.279440894824979e-06   -3.8353854596347305e-07   -1.1411536629976776e-05
8.279440894824979e-06   -3.8353854596347305e-07   -1.1411536629976776e-05
8.279440894824979e-06   -3.8353854596347305e-07   -1.1411536629976776e-05
1.9002943516375011e-06   0.0   -2.2153622868981235e-05
1.9002943516375011e-06   0.0   -2.2153622868981235e-05
1.9002943516375011e-06   0.0   -2.2153622868981235e-05
1.9002943516375011e-06   0.0   -2.2153622868981235e-05
1.4882341193301752e-05   -8.214511989470581e-07   -1.0097488522424128e-06
1.4882341193301752e-05   -8.214511989470581e-07   -1.0097488522424128e-06
1.4882341193301752e-05   -8.214511989470581e-07   -1.0097488522424128e-06
1.4882341193301752e-05   -8.214511989470581e-07   -1.0097488522424128e-06
1.5182348856750158e-05   0.0   -2.177415681279549e-05
1.5182348856750158e-05   0.0   -2.177415681279549e-05
1.5182348856750158e-05   0.0   -2.177415681279549e-05
1.5182348856750158e-05   0.0   -2.177415681279549e-05
2.1975361480568588e-06   -1.607462545775675e-07   -3.635454556012547e-08
2.1975361480568588e-06   -1.607462545775675e-07   -3.635454556012547e-08
2.1975361480568588e-06   -1.607462545775675e-07   -3.635454556012547e-08
2.1975361480568588e-06   -1.607462545775675e-07   -3.635454556012547e-08
8.541321604193824e-06   3.1622171348813654e-07   -1.0895511086627809e-05
8.541321604193824e-06   3.1622171348813654e-07   -1.0895511086627809e-05
8.541321604193824e-06   3.1622171348813654e-07   -1.0895511086627809e-05
8.541321604193824e-06   3.1622171348813654e-07   -1.0895511086627809e-05
1.4893329481921555e-05   0.0   -2.285711179436768e-05
1.4893329481921555e-05   0.0   -2.285711179436768e-05
1.4893329481921555e-05   0.0   -2.285711179436768e-05
1.4893329481921555e-05   0.0   -2.285711179436768e-05
3.369904635580768e-05   -4.4379450855972635e-06   5.822982610751012e-06
3.369904635580768e-05   -4.4379450855972635e-06   5.822982610751012e-06
3.369904635580768e-05   -4.4379450855972635e-06   5.822982610751012e-06
3.369904635580768e-05   -4.4379450855972635e-06   5.822982610751012e-06
3.1667323812465584e-05   0.0   -2.523554041305361e-05
3.1667323812465584e-05   0.0   -2.523554041305361e-05
3.1667323812465584e-05   0.0   -2.523554041305361e-05
3.1667323812465584e-05   0.0   -2.523554041305361e-05
1.4934040206123366e-05   -3.7684702763413896e-06   4.9143477633215755e-06
1.4934040206123366e-05   -3.7684702763413896e-06   4.9143477633215755e-06
1.4934040206123366e-05   -3.7684702763413896e-06   4.9143477633215755e-06
1.4934040206123366e-05   -3.7684702763413896e-06   4.9143477633215755e-06
2.3280326647193568e-05   -1.9820238489049462e-06   -1.0067997494923946e-05
2.3280326647193568e-05   -1.9820238489049462e-06   -1.0067997494923946e-05
2.3280326647193568e-05   -1.9820238489049462e-06   -1.0067997494923946e-05
2.3280326647193568e-05   -1.9820238489049462e-06   -1.0067997494923946e-05
1.4934040206123354e-05   0.0   -2.2974458247248758e-05
1.4934040206123354e-05   0.0   -2.2974458247248758e-05
1.4934040206123354e-05   0.0   -2.2974458247248758e-05
1.4934040206123354e-05   0.0   -2.2974458247248758e-05
3.166732381246547e-05   -3.768470276341376e-06   2.6532655975167275e-06
3.166732381246547e-05   -3.768470276341376e-06   2.6532655975167275e-06
3.166732381246547e-05   -3.768470276341376e-06   2.6532655975167275e-06
3.166732381246547e-05   -3.768470276341376e-06   2.6532655975167275e-06
3.073595362254973e-05   0.0   -2.471101412605812e-05
3.073595362254973e-05   0.0   -2.471101412605812e-05
3.073595362254973e-05   0.0   -2.471101412605812e-05
3.073595362254973e-05   0.0   -2.471101412605812e-05
1.4882341193301752e-05   -3.440867562847714e-06   3.7761937937304687e-06
1.4882341193301752e-05   -3.440867562847714e-06   3.7761937937304687e-06
1.4882341193301752e-05   -3.440867562847714e-06   3.7761937937304687e-06
1.4882341193301752e-05   -3.440867562847714e-06   3.7761937937304687e-06
2.2834996914336535e-05   -1.4471298990077845e-06   -1.0674475006298124e-05
2.2834996914336535e-05   -1.4471298990077845e-06   -1.0674475006298124e-05
2.2834996914336535e-05   -1.4471298990077845e-06   -1.0674475006298124e-05
2.2834996914336535e-05   -1.4471298990077845e-06   -1.0674475006298124e-05
1.4882341193301752e-05   0.0   -2.264649358834949e-05
1.4882341193301752e-05   0.0   -2.264649358834949e-05
1.4882341193301752e-05   0.0   -2.264649358834949e-05
1.4882341193301752e-05   0.0   -2.264649358834949e-05
3.073595362254962e-05   -3.4408675628477006e-06   1.7116732560218395e-06
3.073595362254962e-05   -3.4408675628477006e-06   1.7116732560218395e-06
3.073595362254962e-05   -3.4408675628477006e-06   1.7116732560218395e-06
3.073595362254962e-05   -3.4408675628477006e-06   1.7116732560218395e-06
2.934083541868126e-05   0.0   -2.3373452197186656e-05
2.934083541868126e-05   0.0   -2.3373452197186656e-05
2.934083541868126e-05   0.0   -2.3373452197186656e-05
2.934083541868126e-05   0.0   -2.3373452197186656e-05
1.5182348856750158e-05   -2.6654923073186727e-06   1.823320790423094e-06
1.5182348856750158e-05   -2.6654923073186727e-06   1.823320790423094e-06
1.5182348856750158e-05   -2.6654923073186727e-06   1.823320790423094e-06
1.5182348856750158e-05   -2.6654923073186727e-06   1.823320790423094e-06
2.211158830599153e-05   -6.057988406976742e-07   -1.0961227704951788e-05
2.211158830599153e-05   -6.057988406976742e-07   -1.0961227704951788e-05
2.211158830599153e-05   -6.057988406976742e-07   -1.0961227704951788e-05
2.211158830599153e-05   -6.057988406976742e-07   -1.0961227704951788e-05
-3.289439692176012e-05   4.193993296948774e-06   -2.1687064399752994e-05
-3.289439692176012e-05   4.193993296948774e-06   -2.1687064399752994e-05
-3.289439692176012e-05   4.193993296948774e-06   -2.1687064399752994e-05
-3.289439692176012e-05   4.193993296948774e-06   -2.1687064399752994e-05
-2.107901172970512e-05   3.7645709132960628e-06   -2.2524091765195963e-06
-2.107901172970512e-05   3.7645709132960628e-06   -2.2524091765195963e-06
-2.107901172970512e-05   3.7645709132960628e-06   -2.2524091765195963e-06
-2.107901172970512e-05   3.7645709132960628e-06   -2.2524091765195963e-06
-2.1603227561004823e-05   5.042914426638844e-06   -1.822352984910329e-05
-2.1603227561004823e-05   5.042914426638844e-06   -1.822352984910329e-05
-2.1603227561004823e-05   5.042914426638844e-06   -1.822352984910329e-05
-2.1603227561004823e-05   5.042914426638844e-06   -1.822352984910329e-05
-3.3237621128286785e-05   4.524724351154334e-06   1.4780401416574288e-06
-3.3237621128286785e-05   4.524724351154334e-06   1.4780401416574288e-06
-3.3237621128286785e-05   4.524724351154334e-06   1.4780401416574288e-06
-3.3237621128286785e-05   4.524724351154334e-06   1.4780401416574288e-06
-2.6125364170995383e-05   4.384043569593182e-06   -1.029131298489172e-05
-2.6125364170995383e-05   4.384043569593182e-06   -1.029131298489172e-05
-2.6125364170995383e-05   4.384043569593182e-06   -1.029131298489172e-05
-2.6125364170995383e-05   4.384043569593182e-06   -1.029131298489172e-05
-3.3237621128286785e-05   5.042914426638844e-06   -1.791261580381258e-05
-3.3237621128286785e-05   5.042914426638844e-06   -1.791261580381258e-05
-3.3237621128286785e-05   5.042914426638844e-06   -1.791261580381258e-05
-3.3237621128286785e-05   5.042914426638844e-06   -1.791261580381258e-05
-2.1603227561004897e-05   4.524724351154347e-06   1.1671260963667238e-06
-2.1603227561004897e-05   4.524724351154347e-06   1.1671260963667238e-06
-2.1603227561004897e-05   4.524724351154347e-06   1.1671260963667238e-06
-2.1603227561004897e-05   4.524724351154347e-06   1.1671260963667238e-06
-2.170656152042072e-05   5.405421547778672e-06   -1.6391182826013605e-05
-2.170656152042072e-05   5.405421547778672e-06   -1.6391182826013605e-05
-2.170656152042072e-05   5.405421547778672e-06   -1.6391182826013605e-05
-2.170656152042072e-05   5.405421547778672e-06   -1.6391182826013605e-05
-3.346043395757502e-05   4.868049398795067e-06   3.521027858633622e-06
-3.346043395757502e-05   4.868049398795067e-06   3.521027858633622e-06
-3.346043395757502e-05   4.868049398795067e-06   3.521027858633622e-06
-3.346043395757502e-05   4.868049398795067e-06   3.521027858633622e-06
-2.6885169956502537e-05   4.861691669121073e-06   -7.433930838682699e-06
-2.6885169956502537e-05   4.861691669121073e-06   -7.433930838682699e-06
-2.6885169956502537e-05   4.861691669121073e-06   -7.433930838682699e-06
-2.6885169956502537e-05   4.861691669121073e-06   -7.433930838682699e-06
-3.3460433957574975e-05   5.405421547778672e-06   -1.6068759536623438e-05
-3.3460433957574975e-05   5.405421547778672e-06   -1.6068759536623438e-05
-3.3460433957574975e-05   5.405421547778672e-06   -1.6068759536623438e-05
-3.3460433957574975e-05   5.405421547778672e-06   -1.6068759536623438e-05
-2.170656152042076e-05   4.868049398795067e-06   3.198604569243462e-06
-2.170656152042076e-05   4.868049398795067e-06   3.198604569243462e-06
-2.170656152042076e-05   4.868049398795067e-06   3.198604569243462e-06
-2.170656152042076e-05   4.868049398795067e-06   3.198604569243462e-06
-2.1576063915254106e-05   6.166310537511201e-06   -1.2133120622788397e-05
-2.1576063915254106e-05   6.166310537511201e-06   -1.2133120622788397e-05
-2.1576063915254106e-05   6.166310537511201e-06   -1.2133120622788397e-05
-2.1576063915254106e-05   6.166310537511201e-06   -1.2133120622788397e-05
-3.2516370089249535e-05   5.144477269567268e-06   6.713822961303557e-06
-3.2516370089249535e-05   5.144477269567268e-06   6.713822961303557e-06
-3.2516370089249535e-05   5.144477269567268e-06   6.713822961303557e-06
-3.2516370089249535e-05   5.144477269567268e-06   6.713822961303557e-06
-2.6175804865738442e-05   5.336553830073752e-06   -3.969031680852117e-06
-2.6175804865738442e-05   5.336553830073752e-06   -3.969031680852117e-06
-2.6175804865738442e-05   5.336553830073752e-06   -3.969031680852117e-06
-2.6175804865738442e-05   5.336553830073752e-06   -3.969031680852117e-06
-2.107901172970512e-05   1.534184743844391e-06   -2.3093887506032147e-05
-2.107901172970512e-05   1.534184743844391e-06   -2.3093887506032147e-05
-2.107901172970512e-05   1.534184743844391e-06   -2.3093887506032147e-05
-2.107901172970512e-05   1.534184743844391e-06   -2.3093887506032147e-05
-1.0007024254989824e-05   1.7519329842284392e-06   -4.509926103942867e-06
-1.0007024254989824e-05   1.7519329842284392e-06   -4.509926103942867e-06
-1.0007024254989824e-05   1.7519329842284392e-06   -4.509926103942867e-06
-1.0007024254989824e-05   1.7519329842284392e-06   -4.509926103942867e-06
-1.0239569656391041e-05   2.1910454348986547e-06   -2.3055594594606965e-05
-1.0239569656391041e-05   2.1910454348986547e-06   -2.3055594594606965e-05
-1.0239569656391041e-05   2.1910454348986547e-06   -2.3055594594606965e-05
-1.0239569656391041e-05   2.1910454348986547e-06   -2.3055594594606965e-05
-2.1603227561004823e-05   2.4507932709147683e-06   -4.272013455193613e-06
-2.1603227561004823e-05   2.4507932709147683e-06   -4.272013455193613e-06
-2.1603227561004823e-05   2.4507932709147683e-06   -4.272013455193613e-06
-2.1603227561004823e-05   2.4507932709147683e-06   -4.272013455193613e-06
-1.5687465753968715e-05   1.972789907005298e-06   -1.3844814448574905e-05
-1.5687465753968715e-05   1.972789907005298e-06   -1.3844814448574905e-05
-1.5687465753968715e-05   1.972789907005298e-06   -1.3844814448574905e-05
-1.5687465753968715e-05   1.972789907005298e-06   -1.3844814448574905e-05
-2.1603227561004802e-05   2.1910454348986547e-06   -2.3211443296216584e-05
-2.1603227561004802e-05   2.1910454348986547e-06   -2.3211443296216584e-05
-2.1603227561004802e-05   2.1910454348986547e-06   -2.3211443296216584e-05
-2.1603227561004802e-05   2.1910454348986547e-06   -2.3211443296216584e-05
-1.0239569656391057e-05   2.4507932709147683e-06   -4.116164753583949e-06
-1.0239569656391057e-05   2.4507932709147683e-06   -4.116164753583949e-06
-1.0239569656391057e-05   2.4507932709147683e-06   -4.116164753583949e-06
-1.0239569656391057e-05   2.4507932709147683e-06   -4.116164753583949e-06
-1.0307791239139126e-05   2.689032869138747e-06   -2.26257227594504e-05
-1.0307791239139126e-05   2.689032869138747e-06   -2.26257227594504e-05
-1.0307791239139126e-05   2.689032869138747e-06   -2.26257227594504e-05
-1.0307791239139126e-05   2.689032869138747e-06   -2.26257227594504e-05
-2.170656152042072e-05   3.0300396559299238e-06   -3.832376362722468e-06
-2.170656152042072e-05   3.0300396559299238e-06   -3.832376362722468e-06
-2.170656152042072e-05   3.0300396559299238e-06   -3.832376362722468e-06
-2.170656152042072e-05   3.0300396559299238e-06   -3.832376362722468e-06
-1.580395719974017e-05   2.5071612650688798e-06   -1.3356323196006693e-05
-1.580395719974017e-05   2.5071612650688798e-06   -1.3356323196006693e-05
-1.580395719974017e-05   2.5071612650688798e-06   -1.3356323196006693e-05
-1.580395719974017e-05   2.5071612650688798e-06   -1.3356323196006693e-05
-2.170656152042072e-05   2.689032869138747e-06   -2.28303268315251e-05
-2.170656152042072e-05   2.689032869138747e-06   -2.28303268315251e-05
-2.170656152042072e-05   2.689032869138747e-06   -2.28303268315251e-05
-2.170656152042072e-05   2.689032869138747e-06   -2.28303268315251e-05
-1.0307791239139161e-05   3.0300396559299373e-06   -3.6277722906477645e-06
-1.0307791239139161e-05   3.0300396559299373e-06   -3.6277722906477645e-06
-1.0307791239139161e-05   3.0300396559299373e-06   -3.6277722906477645e-06
-1.0307791239139161e-05   3.0300396559299373e-06   -3.6277722906477645e-06
-1.0276104382108984e-05   3.1317331217612228e-06   -2.2397011643900954e-05
-1.0276104382108984e-05   3.1317331217612228e-06   -2.2397011643900954e-05
-1.0276104382108984e-05   3.1317331217612228e-06   -2.2397011643900954e-05
-1.0276104382108984e-05   3.1317331217612228e-06   -2.2397011643900954e-05
-2.1576063915254093e-05   3.6539410383059007e-06   -3.877070505252587e-06
-2.1576063915254093e-05   3.6539410383059007e-06   -3.877070505252587e-06
-2.1576063915254093e-05   3.6539410383059007e-06   -3.877070505252587e-06
-2.1576063915254093e-05   3.6539410383059007e-06   -3.877070505252587e-06
-1.58903104102471e-05   2.9908608156429525e-06   -1.2955478213333198e-05
-1.58903104102471e-05   2.9908608156429525e-06   -1.2955478213333198e-05
-1.58903104102471e-05   2.9908608156429525e-06   -1.2955478213333198e-05
-1.58903104102471e-05   2.9908608156429525e-06   -1.2955478213333198e-05
-1.0007024254989809e-05   -1.9956753938010503e-07   -2.419031821541614e-05
-1.0007024254989809e-05   -1.9956753938010503e-07   -2.419031821541614e-05
-1.0007024254989809e-05   -1.9956753938010503e-07   -2.419031821541614e-05
-1.0007024254989809e-05   -1.9956753938010503e-07   -2.419031821541614e-05
9.241771778899994e-07   -5.4033245923154984e-08   -5.884328584542282e-06
9.241771778899994e-07   -5.4033245923154984e-08   -5.884328584542282e-06
9.241771778899994e-07   -5.4033245923154984e-08   -5.884328584542282e-06
9.241771778899994e-07   -5.4033245923154984e-08   -5.884328584542282e-06
8.854545084457604e-07   3.897649361385525e-07   -2.4320481189544113e-05
8.854545084457604e-07   3.897649361385525e-07   -2.4320481189544113e-05
8.854545084457604e-07   3.897649361385525e-07   -2.4320481189544113e-05
8.854545084457604e-07   3.897649361385525e-07   -2.4320481189544113e-05
-1.0239569656391041e-05   5.902219710301587e-07   -5.899048469084322e-06
-1.0239569656391041e-05   5.902219710301587e-07   -5.899048469084322e-06
-1.0239569656391041e-05   5.902219710301587e-07   -5.899048469084322e-06
-1.0239569656391041e-05   5.902219710301587e-07   -5.899048469084322e-06
-4.636384282869931e-06   1.966279132667746e-07   -1.5001534323628197e-05
-4.636384282869931e-06   1.966279132667746e-07   -1.5001534323628197e-05
-4.636384282869931e-06   1.966279132667746e-07   -1.5001534323628197e-05
-4.636384282869931e-06   1.966279132667746e-07   -1.5001534323628197e-05
-1.0239569656391041e-05   3.897649361385525e-07   -2.444075541047904e-05
-1.0239569656391041e-05   3.897649361385525e-07   -2.444075541047904e-05
-1.0239569656391041e-05   3.897649361385525e-07   -2.444075541047904e-05
-1.0239569656391041e-05   3.897649361385525e-07   -2.444075541047904e-05
8.854545084457604e-07   5.902219710301587e-07   -5.778774248149363e-06
8.854545084457604e-07   5.902219710301587e-07   -5.778774248149363e-06
8.854545084457604e-07   5.902219710301587e-07   -5.778774248149363e-06
8.854545084457604e-07   5.902219710301587e-07   -5.778774248149363e-06
8.310446671932388e-07   9.092274978573522e-07   -2.436964299464672e-05
8.310446671932388e-07   9.092274978573522e-07   -2.436964299464672e-05
8.310446671932388e-07   9.092274978573522e-07   -2.436964299464672e-05
8.310446671932388e-07   9.092274978573522e-07   -2.436964299464672e-05
-1.0307791239139126e-05   1.219936210231643e-06   -5.991341711517376e-06
-1.0307791239139126e-05   1.219936210231643e-06   -5.991341711517376e-06
-1.0307791239139126e-05   1.219936210231643e-06   -5.991341711517376e-06
-1.0307791239139126e-05   1.219936210231643e-06   -5.991341711517376e-06
-4.716265688291726e-06   7.420987682271995e-07   -1.5023848497727e-05
-4.716265688291726e-06   7.420987682271995e-07   -1.5023848497727e-05
-4.716265688291726e-06   7.420987682271995e-07   -1.5023848497727e-05
-4.716265688291726e-06   7.420987682271995e-07   -1.5023848497727e-05
-1.0307791239139126e-05   9.092274978573522e-07   -2.45560682220713e-05
-1.0307791239139126e-05   9.092274978573522e-07   -2.45560682220713e-05
-1.0307791239139126e-05   9.092274978573522e-07   -2.45560682220713e-05
-1.0307791239139126e-05   9.092274978573522e-07   -2.45560682220713e-05
8.310446671932407e-07   1.2199362102316294e-06   -5.804916484092807e-06
8.310446671932407e-07   1.2199362102316294e-06   -5.804916484092807e-06
8.310446671932407e-07   1.2199362102316294e-06   -5.804916484092807e-06
8.310446671932407e-07   1.2199362102316294e-06   -5.804916484092807e-06
7.140887859658394e-07   1.5102133463240234e-06   -2.4328540785473776e-05
7.140887859658394e-07   1.5102133463240234e-06   -2.4328540785473776e-05
7.140887859658394e-07   1.5102133463240234e-06   -2.4328540785473776e-05
7.140887859658394e-07   1.5102133463240234e-06   -2.4328540785473776e-05
-1.0276104382108993e-05   1.8757662681669654e-06   -6.230883925121513e-06
-1.0276104382108993e-05   1.8757662681669654e-06   -6.230883925121513e-06
-1.0276104382108993e-05   1.8757662681669654e-06   -6.230883925121513e-06
-1.0276104382108993e-05   1.8757662681669654e-06   -6.230883925121513e-06
-4.7619833151861686e-06   1.3024713098095346e-06   -1.5077108728311732e-05
-4.7619833151861686e-06   1.3024713098095346e-06   -1.5077108728311732e-05
-4.7619833151861686e-06   1.3024713098095346e-06   -1.5077108728311732e-05
-4.7619833151861686e-06   1.3024713098095346e-06   -1.5077108728311732e-05
9.241771778899994e-07   -1.746896058947575e-06   -2.2316245206472675e-05
9.241771778899994e-07   -1.746896058947575e-06   -2.2316245206472675e-05
9.241771778899994e-07   -1.746896058947575e-06   -2.2316245206472675e-05
9.241771778899994e-07   -1.746896058947575e-06   -2.2316245206472675e-05
1.218863472200841e-05   -1.7954209816976277e-06   -3.571264253258676e-06
1.218863472200841e-05   -1.7954209816976277e-06   -3.571264253258676e-06
1.218863472200841e-05   -1.7954209816976277e-06   -3.571264253258676e-06
1.218863472200841e-05   -1.7954209816976277e-06   -3.571264253258676e-06
1.2296100375159557e-05   -1.3136848567590914e-06   -2.2620204912604294e-05
1.2296100375159557e-05   -1.3136848567590914e-06   -2.2620204912604294e-05
1.2296100375159557e-05   -1.3136848567590914e-06   -2.2620204912604294e-05
1.2296100375159557e-05   -1.3136848567590914e-06   -2.2620204912604294e-05
8.854545084457604e-07   -1.2087553800896344e-06   -3.6654194874162656e-06
8.854545084457604e-07   -1.2087553800896344e-06   -3.6654194874162656e-06
8.854545084457604e-07   -1.2087553800896344e-06   -3.6654194874162656e-06
8.854545084457604e-07   -1.2087553800896344e-06   -3.6654194874162656e-06
6.489709214347515e-06   -1.4490636513595255e-06   -1.2861659034490621e-05
6.489709214347515e-06   -1.4490636513595255e-06   -1.2861659034490621e-05
6.489709214347515e-06   -1.4490636513595255e-06   -1.2861659034490621e-05
6.489709214347515e-06   -1.4490636513595255e-06   -1.2861659034490621e-05
8.854545084457591e-07   -1.3136848567590914e-06   -2.2683162598606003e-05
8.854545084457591e-07   -1.3136848567590914e-06   -2.2683162598606003e-05
8.854545084457591e-07   -1.3136848567590914e-06   -2.2683162598606003e-05
8.854545084457591e-07   -1.3136848567590914e-06   -2.2683162598606003e-05
1.2296100375159579e-05   -1.2087553800896344e-06   -3.6024618014145833e-06
1.2296100375159579e-05   -1.2087553800896344e-06   -3.6024618014145833e-06
1.2296100375159579e-05   -1.2087553800896344e-06   -3.6024618014145833e-06
1.2296100375159579e-05   -1.2087553800896344e-06   -3.6024618014145833e-06
1.2243249703306041e-05   -8.214511989470513e-07   -2.3039469611360416e-05
1.2243249703306041e-05   -8.214511989470513e-07   -2.3039469611360416e-05
1.2243249703306041e-05   -8.214511989470513e-07   -2.3039469611360416e-05
1.2243249703306041e-05   -8.214511989470513e-07   -2.3039469611360416e-05
8.310446671932388e-07   -6.348977096854315e-07   -4.13105997806275e-06
8.310446671932388e-07   -6.348977096854315e-07   -4.13105997806275e-06
8.310446671932388e-07   -6.348977096854315e-07   -4.13105997806275e-06
8.310446671932388e-07   -6.348977096854315e-07   -4.13105997806275e-06
6.426625721820455e-06   -9.819172494388072e-07   -1.3248816678589371e-05
6.426625721820455e-06   -9.819172494388072e-07   -1.3248816678589371e-05
6.426625721820455e-06   -9.819172494388072e-07   -1.3248816678589371e-05
6.426625721820455e-06   -9.819172494388072e-07   -1.3248816678589371e-05
8.310446671932384e-07   -8.214511989470581e-07   -2.315140170491739e-05
8.310446671932384e-07   -8.214511989470581e-07   -2.315140170491739e-05
8.310446671932384e-07   -8.214511989470581e-07   -2.315140170491739e-05
8.310446671932384e-07   -8.214511989470581e-07   -2.315140170491739e-05
1.224324970330608e-05   -6.348977096854315e-07   -4.019127884505777e-06
1.224324970330608e-05   -6.348977096854315e-07   -4.019127884505777e-06
1.224324970330608e-05   -6.348977096854315e-07   -4.019127884505777e-06
1.224324970330608e-05   -6.348977096854315e-07   -4.019127884505777e-06
1.189104730306045e-05   -1.6074625457756071e-07   -2.3081139247930418e-05
1.189104730306045e-05   -1.6074625457756071e-07   -2.3081139247930418e-05
1.189104730306045e-05   -1.6074625457756071e-07   -2.3081139247930418e-05
1.189104730306045e-05   -1.6074625457756071e-07   -2.3081139247930418e-05
7.140887859658394e-07   7.388181336775231e-08   -4.59365189353996e-06
7.140887859658394e-07   7.388181336775231e-08   -4.59365189353996e-06
7.140887859658394e-07   7.388181336775231e-08   -4.59365189353996e-06
7.140887859658394e-07   7.388181336775231e-08   -4.59365189353996e-06
6.362428918641378e-06   -4.363881612579447e-07   -1.3701390129890395e-05
6.362428918641378e-06   -4.363881612579447e-07   -1.3701390129890395e-05
6.362428918641378e-06   -4.363881612579447e-07   -1.3701390129890395e-05
6.362428918641378e-06   -4.363881612579447e-07   -1.3701390129890395e-05
1.218863472200841e-05   -4.4379450855972635e-06   -1.3499763260528528e-05
1.218863472200841e-05   -4.4379450855972635e-06   -1.3499763260528528e-05
1.218863472200841e-05   -4.4379450855972635e-06   -1.3499763260528528e-05
1.218863472200841e-05   -4.4379450855972635e-06   -1.3499763260528528e-05
2.3292190497197952e-05   -3.330965759976517e-06   5.670350626826447e-06
2.3292190497197952e-05   -3.330965759976517e-06   5.670350626826447e-06
2.3292190497197952e-05   -3.330965759976517e-06   5.670350626826447e-06
2.3292190497197952e-05   -3.330965759976517e-06   5.670350626826447e-06
2.419596395026755e-05   -3.768470276341376e-06   -1.637561245460138e-05
2.419596395026755e-05   -3.768470276341376e-06   -1.637561245460138e-05
2.419596395026755e-05   -3.768470276341376e-06   -1.637561245460138e-05
2.419596395026755e-05   -3.768470276341376e-06   -1.637561245460138e-05
1.22961003751596e-05   -3.015771725689304e-06   3.0058743735206927e-06
1.22961003751596e-05   -3.015771725689304e-06   3.0058743735206927e-06
1.22961003751596e-05   -3.015771725689304e-06   3.0058743735206927e-06
1.22961003751596e-05   -3.015771725689304e-06   3.0058743735206927e-06
1.715608270236598e-05   -3.6213691377744633e-06   -4.73073772457223e-06
1.715608270236598e-05   -3.6213691377744633e-06   -4.73073772457223e-06
1.715608270236598e-05   -3.6213691377744633e-06   -4.73073772457223e-06
1.715608270236598e-05   -3.6213691377744633e-06   -4.73073772457223e-06
1.2296100375159568e-05   -3.768470276341376e-06   -1.6827231584992556e-05
1.2296100375159568e-05   -3.768470276341376e-06   -1.6827231584992556e-05
1.2296100375159568e-05   -3.768470276341376e-06   -1.6827231584992556e-05
1.2296100375159568e-05   -3.768470276341376e-06   -1.6827231584992556e-05
2.419596395026755e-05   -3.015771725689304e-06   3.4574935039119345e-06
2.419596395026755e-05   -3.015771725689304e-06   3.4574935039119345e-06
2.419596395026755e-05   -3.015771725689304e-06   3.4574935039119345e-06
2.419596395026755e-05   -3.015771725689304e-06   3.4574935039119345e-06
2.411661621478462e-05   -3.440867562847714e-06   -1.7800425171242034e-05
2.411661621478462e-05   -3.440867562847714e-06   -1.7800425171242034e-05
2.411661621478462e-05   -3.440867562847714e-06   -1.7800425171242034e-05
2.411661621478462e-05   -3.440867562847714e-06   -1.7800425171242034e-05
1.224324970330608e-05   -2.6856979059383955e-06   1.5354172204099317e-06
1.224324970330608e-05   -2.6856979059383955e-06   1.5354172204099317e-06
1.224324970330608e-05   -2.6856979059383955e-06   1.5354172204099317e-06
1.224324970330608e-05   -2.6856979059383955e-06   1.5354172204099317e-06
1.776652270642497e-05   -3.1938980510603636e-06   -7.36511769771504e-06
1.776652270642497e-05   -3.1938980510603636e-06   -7.36511769771504e-06
1.776652270642497e-05   -3.1938980510603636e-06   -7.36511769771504e-06
1.776652270642497e-05   -3.1938980510603636e-06   -7.36511769771504e-06
1.2243249703306061e-05   -3.4408675628477006e-06   -1.8253526965387582e-05
1.2243249703306061e-05   -3.4408675628477006e-06   -1.8253526965387582e-05
1.2243249703306061e-05   -3.4408675628477006e-06   -1.8253526965387582e-05
1.2243249703306061e-05   -3.4408675628477006e-06   -1.8253526965387582e-05
2.411661621478462e-05   -2.6856979059383955e-06   1.9885190145555175e-06
2.411661621478462e-05   -2.6856979059383955e-06   1.9885190145555175e-06
2.411661621478462e-05   -2.6856979059383955e-06   1.9885190145555175e-06
2.411661621478462e-05   -2.6856979059383955e-06   1.9885190145555175e-06
2.39838017317233e-05   -2.6654923073186727e-06   -2.071128762150454e-05
2.39838017317233e-05   -2.6654923073186727e-06   -2.071128762150454e-05
2.39838017317233e-05   -2.6654923073186727e-06   -2.071128762150454e-05
2.39838017317233e-05   -2.6654923073186727e-06   -2.071128762150454e-05
1.189104730306049e-05   -1.97594474449167e-06   -9.704254447627587e-07
1.189104730306049e-05   -1.97594474449167e-06   -9.704254447627587e-07
1.189104730306049e-05   -1.97594474449167e-06   -9.704254447627587e-07
1.189104730306049e-05   -1.97594474449167e-06   -9.704254447627587e-07
1.726596278385628e-05   -2.746972332796151e-06   -9.46600135977302e-06
1.726596278385628e-05   -2.746972332796151e-06   -9.46600135977302e-06
1.726596278385628e-05   -2.746972332796151e-06   -9.46600135977302e-06
1.726596278385628e-05   -2.746972332796151e-06   -9.46600135977302e-06
-2.6108054209393296e-05   3.7645709132960763e-06   -1.8092068795356594e-05
-2.6108054209393296e-05   3.7645709132960763e-06   -1.8092068795356594e-05
-2.6108054209393296e-05   3.7645709132960763e-06   -1.8092068795356594e-05
-2.6108054209393296e-05   3.7645709132960763e-06   -1.8092068795356594e-05
-1.713923336042245e-05   2.8682404880483396e-06   -3.681832302220512e-06
-1.713923336042245e-05   2.8682404880483396e-06   -3.681832302220512e-06
-1.713923336042245e-05   2.8682404880483396e-06   -3.681832302220512e-06
-1.713923336042245e-05   2.8682404880483396e-06   -3.681832302220512e-06
-1.7218473440518272e-05   4.524724351154334e-06   -1.5026164879253522e-05
-1.7218473440518272e-05   4.524724351154334e-06   -1.5026164879253522e-05
-1.7218473440518272e-05   4.524724351154334e-06   -1.5026164879253522e-05
-1.7218473440518272e-05   4.524724351154334e-06   -1.5026164879253522e-05
-2.5701860159814432e-05   3.4742287647013563e-06   -2.568896618881781e-07
-2.5701860159814432e-05   3.4742287647013563e-06   -2.568896618881781e-07
-2.5701860159814432e-05   3.4742287647013563e-06   -2.568896618881781e-07
-2.5701860159814432e-05   3.4742287647013563e-06   -2.568896618881781e-07
-2.06303115669552e-05   3.830255734531556e-06   -8.923086831885089e-06
-2.06303115669552e-05   3.830255734531556e-06   -8.923086831885089e-06
-2.06303115669552e-05   3.830255734531556e-06   -8.923086831885089e-06
-2.06303115669552e-05   3.830255734531556e-06   -8.923086831885089e-06
-2.5701860159814432e-05   4.524724351154334e-06   -1.4395867527381746e-05
-2.5701860159814432e-05   4.524724351154334e-06   -1.4395867527381746e-05
-2.5701860159814432e-05   4.524724351154334e-06   -1.4395867527381746e-05
-2.5701860159814432e-05   4.524724351154334e-06   -1.4395867527381746e-05
-1.7218473440518272e-05   3.4742287647013563e-06   -8.871870137599266e-07
-1.7218473440518272e-05   3.4742287647013563e-06   -8.871870137599266e-07
-1.7218473440518272e-05   3.4742287647013563e-06   -8.871870137599266e-07
-1.7218473440518272e-05   3.4742287647013563e-06   -8.871870137599266e-07
-1.719718099534867e-05   4.868049398795067e-06   -1.2858216686844226e-05
-1.719718099534867e-05   4.868049398795067e-06   -1.2858216686844226e-05
-1.719718099534867e-05   4.868049398795067e-06   -1.2858216686844226e-05
-1.719718099534867e-05   4.868049398795067e-06   -1.2858216686844226e-05
-2.5307961588695056e-05   3.741256323746791e-06   1.3358268137619736e-06
-2.5307961588695056e-05   3.741256323746791e-06   1.3358268137619736e-06
-2.5307961588695056e-05   3.741256323746791e-06   1.3358268137619736e-06
-2.5307961588695056e-05   3.741256323746791e-06   1.3358268137619736e-06
-2.0802859774794147e-05   4.181482567679982e-06   -6.436811955765905e-06
-2.0802859774794147e-05   4.181482567679982e-06   -6.436811955765905e-06
-2.0802859774794147e-05   4.181482567679982e-06   -6.436811955765905e-06
-2.0802859774794147e-05   4.181482567679982e-06   -6.436811955765905e-06
-2.5307961588695056e-05   4.868049398795067e-06   -1.2182140841815247e-05
-2.5307961588695056e-05   4.868049398795067e-06   -1.2182140841815247e-05
-2.5307961588695056e-05   4.868049398795067e-06   -1.2182140841815247e-05
-2.5307961588695056e-05   4.868049398795067e-06   -1.2182140841815247e-05
-1.7197180995348705e-05   3.741256323746818e-06   6.597509687331231e-07
-1.7197180995348705e-05   3.741256323746818e-06   6.597509687331231e-07
-1.7197180995348705e-05   3.741256323746818e-06   6.597509687331231e-07
-1.7197180995348705e-05   3.741256323746818e-06   6.597509687331231e-07
-1.7211867293748966e-05   5.144477269567268e-06   -9.828770158066473e-06
-1.7211867293748966e-05   5.144477269567268e-06   -9.828770158066473e-06
-1.7211867293748966e-05   5.144477269567268e-06   -9.828770158066473e-06
-1.7211867293748966e-05   5.144477269567268e-06   -9.828770158066473e-06
-2.4796485068851484e-05   4.006662203705176e-06   3.494948506621516e-06
-2.4796485068851484e-05   4.006662203705176e-06   3.494948506621516e-06
-2.4796485068851484e-05   4.006662203705176e-06   3.494948506621516e-06
-2.4796485068851484e-05   4.006662203705176e-06   3.494948506621516e-06
-2.0324253502125305e-05   4.368347406481115e-06   -4.175781892920709e-06
-2.0324253502125305e-05   4.368347406481115e-06   -4.175781892920709e-06
-2.0324253502125305e-05   4.368347406481115e-06   -4.175781892920709e-06
-2.0324253502125305e-05   4.368347406481115e-06   -4.175781892920709e-06
-1.713923336042245e-05   1.7519329842284392e-06   -2.1018032922158917e-05
-1.713923336042245e-05   1.7519329842284392e-06   -2.1018032922158917e-05
-1.713923336042245e-05   1.7519329842284392e-06   -2.1018032922158917e-05
-1.713923336042245e-05   1.7519329842284392e-06   -2.1018032922158917e-05
-8.748273147818164e-06   1.433320855092398e-06   -7.224266511966722e-06
-8.748273147818164e-06   1.433320855092398e-06   -7.224266511966722e-06
-8.748273147818164e-06   1.433320855092398e-06   -7.224266511966722e-06
-8.748273147818164e-06   1.433320855092398e-06   -7.224266511966722e-06
-8.851563345373246e-06   2.4507932709147683e-06   -2.0717797215547468e-05
-8.851563345373246e-06   2.4507932709147683e-06   -2.0717797215547468e-05
-8.851563345373246e-06   2.4507932709147683e-06   -2.0717797215547468e-05
-8.851563345373246e-06   2.4507932709147683e-06   -2.0717797215547468e-05
-1.7218473440518238e-05   2.0299719630254356e-06   -6.520454272238816e-06
-1.7218473440518238e-05   2.0299719630254356e-06   -6.520454272238816e-06
-1.7218473440518238e-05   2.0299719630254356e-06   -6.520454272238816e-06
-1.7218473440518238e-05   2.0299719630254356e-06   -6.520454272238816e-06
-1.2877738198869222e-05   2.024725788557177e-06   -1.3751865303639625e-05
-1.2877738198869222e-05   2.024725788557177e-06   -1.3751865303639625e-05
-1.2877738198869222e-05   2.024725788557177e-06   -1.3751865303639625e-05
-1.2877738198869222e-05   2.024725788557177e-06   -1.3751865303639625e-05
-1.721847344051826e-05   2.4507932709147683e-06   -2.0465304430813825e-05
-1.721847344051826e-05   2.4507932709147683e-06   -2.0465304430813825e-05
-1.721847344051826e-05   2.4507932709147683e-06   -2.0465304430813825e-05
-1.721847344051826e-05   2.4507932709147683e-06   -2.0465304430813825e-05
-8.85156334537326e-06   2.0299719630254356e-06   -6.772947056972398e-06
-8.85156334537326e-06   2.0299719630254356e-06   -6.772947056972398e-06
-8.85156334537326e-06   2.0299719630254356e-06   -6.772947056972398e-06
-8.85156334537326e-06   2.0299719630254356e-06   -6.772947056972398e-06
-8.917522736033953e-06   3.0300396559299238e-06   -2.0170598590312535e-05
-8.917522736033953e-06   3.0300396559299238e-06   -2.0170598590312535e-05
-8.917522736033953e-06   3.0300396559299238e-06   -2.0170598590312535e-05
-8.917522736033953e-06   3.0300396559299238e-06   -2.0170598590312535e-05
-1.719718099534867e-05   2.561038036759226e-06   -6.0897671866190175e-06
-1.719718099534867e-05   2.561038036759226e-06   -6.0897671866190175e-06
-1.719718099534867e-05   2.561038036759226e-06   -6.0897671866190175e-06
-1.719718099534867e-05   2.561038036759226e-06   -6.0897671866190175e-06
-1.2898889699610377e-05   2.51625913976874e-06   -1.3226718674654976e-05
-1.2898889699610377e-05   2.51625913976874e-06   -1.3226718674654976e-05
-1.2898889699610377e-05   2.51625913976874e-06   -1.3226718674654976e-05
-1.2898889699610377e-05   2.51625913976874e-06   -1.3226718674654976e-05
-1.719718099534867e-05   3.0300396559299373e-06   -1.988919761881015e-05
-1.719718099534867e-05   3.0300396559299373e-06   -1.988919761881015e-05
-1.719718099534867e-05   3.0300396559299373e-06   -1.988919761881015e-05
-1.719718099534867e-05   3.0300396559299373e-06   -1.988919761881015e-05
-8.917522736033986e-06   2.561038036759226e-06   -6.371168158121353e-06
-8.917522736033986e-06   2.561038036759226e-06   -6.371168158121353e-06
-8.917522736033986e-06   2.561038036759226e-06   -6.371168158121353e-06
-8.917522736033986e-06   2.561038036759226e-06   -6.371168158121353e-06
-9.003973067391981e-06   3.6539410383059143e-06   -2.0122722977448574e-05
-9.003973067391981e-06   3.6539410383059143e-06   -2.0122722977448574e-05
-9.003973067391981e-06   3.6539410383059143e-06   -2.0122722977448574e-05
-9.003973067391981e-06   3.6539410383059143e-06   -2.0122722977448574e-05
-1.7211867293748953e-05   3.1270088489853862e-06   -6.126739953261304e-06
-1.7211867293748953e-05   3.1270088489853862e-06   -6.126739953261304e-06
-1.7211867293748953e-05   3.1270088489853862e-06   -6.126739953261304e-06
-1.7211867293748953e-05   3.1270088489853862e-06   -6.126739953261304e-06
-1.3048959864420775e-05   3.00400486228172e-06   -1.299111661011925e-05
-1.3048959864420775e-05   3.00400486228172e-06   -1.299111661011925e-05
-1.3048959864420775e-05   3.00400486228172e-06   -1.299111661011925e-05
-1.3048959864420775e-05   3.00400486228172e-06   -1.299111661011925e-05
-8.74827314781815e-06   -5.4033245923154984e-08   -2.2670923256314118e-05
-8.74827314781815e-06   -5.4033245923154984e-08   -2.2670923256314118e-05
-8.74827314781815e-06   -5.4033245923154984e-08   -2.2670923256314118e-05
-8.74827314781815e-06   -5.4033245923154984e-08   -2.2670923256314118e-05
-4.480038625061331e-07   7.692367204496851e-08   -8.758566963346564e-06
-4.480038625061331e-07   7.692367204496851e-08   -8.758566963346564e-06
-4.480038625061331e-07   7.692367204496851e-08   -8.758566963346564e-06
-4.480038625061331e-07   7.692367204496851e-08   -8.758566963346564e-06
-5.305059067058972e-07   5.902219710301722e-07   -2.2455724696860465e-05
-5.305059067058972e-07   5.902219710301722e-07   -2.2455724696860465e-05
-5.305059067058972e-07   5.902219710301722e-07   -2.2455724696860465e-05
-5.305059067058972e-07   5.902219710301722e-07   -2.2455724696860465e-05
-8.851563345373246e-06   6.651490280090982e-07   -8.632251866602283e-06
-8.851563345373246e-06   6.651490280090982e-07   -8.632251866602283e-06
-8.851563345373246e-06   6.651490280090982e-07   -8.632251866602283e-06
-8.851563345373246e-06   6.651490280090982e-07   -8.632251866602283e-06
-4.618077570881435e-06   3.8822661659656523e-07   -1.5521908043907782e-05
-4.618077570881435e-06   3.8822661659656523e-07   -1.5521908043907782e-05
-4.618077570881435e-06   3.8822661659656523e-07   -1.5521908043907782e-05
-4.618077570881435e-06   3.8822661659656523e-07   -1.5521908043907782e-05
-8.851563345373246e-06   5.902219710301587e-07   -2.2500680931047853e-05
-8.851563345373246e-06   5.902219710301587e-07   -2.2500680931047853e-05
-8.851563345373246e-06   5.902219710301587e-07   -2.2500680931047853e-05
-8.851563345373246e-06   5.902219710301587e-07   -2.2500680931047853e-05
-5.305059067058976e-07   6.651490280090982e-07   -8.587295632414874e-06
-5.305059067058976e-07   6.651490280090982e-07   -8.587295632414874e-06
-5.305059067058976e-07   6.651490280090982e-07   -8.587295632414874e-06
-5.305059067058976e-07   6.651490280090982e-07   -8.587295632414874e-06
-5.890892548629934e-07   1.219936210231643e-06   -2.2515101006978305e-05
-5.890892548629934e-07   1.219936210231643e-06   -2.2515101006978305e-05
-5.890892548629934e-07   1.219936210231643e-06   -2.2515101006978305e-05
-5.890892548629934e-07   1.219936210231643e-06   -2.2515101006978305e-05
-8.91752273603397e-06   1.2517145505714007e-06   -8.653445542563956e-06
-8.91752273603397e-06   1.2517145505714007e-06   -8.653445542563956e-06
-8.91752273603397e-06   1.2517145505714007e-06   -8.653445542563956e-06
-8.91752273603397e-06   1.2517145505714007e-06   -8.653445542563956e-06
-4.725423623063163e-06   9.072215910918536e-07   -1.543358162182744e-05
-4.725423623063163e-06   9.072215910918536e-07   -1.543358162182744e-05
-4.725423623063163e-06   9.072215910918536e-07   -1.543358162182744e-05
-4.725423623063163e-06   9.072215910918536e-07   -1.543358162182744e-05
-8.91752273603397e-06   1.2199362102316294e-06   -2.2534168011182195e-05
-8.91752273603397e-06   1.2199362102316294e-06   -2.2534168011182195e-05
-8.91752273603397e-06   1.2199362102316294e-06   -2.2534168011182195e-05
-8.91752273603397e-06   1.2199362102316294e-06   -2.2534168011182195e-05
-5.890892548629946e-07   1.2517145505714007e-06   -8.634378538359999e-06
-5.890892548629946e-07   1.2517145505714007e-06   -8.634378538359999e-06
-5.890892548629946e-07   1.2517145505714007e-06   -8.634378538359999e-06
-5.890892548629946e-07   1.2517145505714007e-06   -8.634378538359999e-06
-6.828247736697206e-07   1.8757662681669654e-06   -2.2804231826958598e-05
-6.828247736697206e-07   1.8757662681669654e-06   -2.2804231826958598e-05
-6.828247736697206e-07   1.8757662681669654e-06   -2.2804231826958598e-05
-6.828247736697206e-07   1.8757662681669654e-06   -2.2804231826958598e-05
-9.00397306739197e-06   1.8518151353097618e-06   -8.921280657707271e-06
-9.00397306739197e-06   1.8518151353097618e-06   -8.921280657707271e-06
-9.00397306739197e-06   1.8518151353097618e-06   -8.921280657707271e-06
-9.00397306739197e-06   1.8518151353097618e-06   -8.921280657707271e-06
-4.839627212580136e-06   1.432390997519893e-06   -1.5610202599719588e-05
-4.839627212580136e-06   1.432390997519893e-06   -1.5610202599719588e-05
-4.839627212580136e-06   1.432390997519893e-06   -1.5610202599719588e-05
-4.839627212580136e-06   1.432390997519893e-06   -1.5610202599719588e-05
-4.480038625061342e-07   -1.7954209816976413e-06   -2.025016982059963e-05
-4.480038625061342e-07   -1.7954209816976413e-06   -2.025016982059963e-05
-4.480038625061342e-07   -1.7954209816976413e-06   -2.025016982059963e-05
-4.480038625061342e-07   -1.7954209816976413e-06   -2.025016982059963e-05
7.804461048304601e-06   -1.1985105409102726e-06   -6.137915371442679e-06
7.804461048304601e-06   -1.1985105409102726e-06   -6.137915371442679e-06
7.804461048304601e-06   -1.1985105409102726e-06   -6.137915371442679e-06
7.804461048304601e-06   -1.1985105409102726e-06   -6.137915371442679e-06
7.801420397454104e-06   -1.2087553800896344e-06   -2.001193673188361e-05
7.801420397454104e-06   -1.2087553800896344e-06   -2.001193673188361e-05
7.801420397454104e-06   -1.2087553800896344e-06   -2.001193673188361e-05
7.801420397454104e-06   -1.2087553800896344e-06   -2.001193673188361e-05
-5.305059067058976e-07   -6.58033373016596e-07   -6.455826095860748e-06
-5.305059067058976e-07   -6.58033373016596e-07   -6.455826095860748e-06
-5.305059067058976e-07   -6.58033373016596e-07   -6.455826095860748e-06
-5.305059067058976e-07   -6.58033373016596e-07   -6.455826095860748e-06
3.629372866594409e-06   -1.172073382298117e-06   -1.308053337912568e-05
3.629372866594409e-06   -1.172073382298117e-06   -1.308053337912568e-05
3.629372866594409e-06   -1.172073382298117e-06   -1.308053337912568e-05
3.629372866594409e-06   -1.172073382298117e-06   -1.308053337912568e-05
-5.305059067058976e-07   -1.2087553800896344e-06   -2.0342369936127415e-05
-5.305059067058976e-07   -1.2087553800896344e-06   -2.0342369936127415e-05
-5.305059067058976e-07   -1.2087553800896344e-06   -2.0342369936127415e-05
-5.305059067058976e-07   -1.2087553800896344e-06   -2.0342369936127415e-05
7.801420397454104e-06   -6.58033373016596e-07   -6.125392891616891e-06
7.801420397454104e-06   -6.58033373016596e-07   -6.125392891616891e-06
7.801420397454104e-06   -6.58033373016596e-07   -6.125392891616891e-06
7.801420397454104e-06   -6.58033373016596e-07   -6.125392891616891e-06
7.842724571426364e-06   -6.348977096854179e-07   -2.0537137037903347e-05
7.842724571426364e-06   -6.348977096854179e-07   -2.0537137037903347e-05
7.842724571426364e-06   -6.348977096854179e-07   -2.0537137037903347e-05
7.842724571426364e-06   -6.348977096854179e-07   -2.0537137037903347e-05
-5.890892548629959e-07   -1.2805193794383708e-07   -6.788221457132783e-06
-5.890892548629959e-07   -1.2805193794383708e-07   -6.788221457132783e-06
-5.890892548629959e-07   -1.2805193794383708e-07   -6.788221457132783e-06
-5.890892548629959e-07   -1.2805193794383708e-07   -6.788221457132783e-06
3.5191625330042704e-06   -7.03724687045246e-07   -1.328990412078391e-05
3.5191625330042704e-06   -7.03724687045246e-07   -1.328990412078391e-05
3.5191625330042704e-06   -7.03724687045246e-07   -1.328990412078391e-05
3.5191625330042704e-06   -7.03724687045246e-07   -1.328990412078391e-05
-5.890892548629942e-07   -6.348977096854315e-07   -2.0841244500948228e-05
-5.890892548629942e-07   -6.348977096854315e-07   -2.0841244500948228e-05
-5.890892548629942e-07   -6.348977096854315e-07   -2.0841244500948228e-05
-5.890892548629942e-07   -6.348977096854315e-07   -2.0841244500948228e-05
7.842724571426364e-06   -1.2805193794383708e-07   -6.484113994087703e-06
7.842724571426364e-06   -1.2805193794383708e-07   -6.484113994087703e-06
7.842724571426364e-06   -1.2805193794383708e-07   -6.484113994087703e-06
7.842724571426364e-06   -1.2805193794383708e-07   -6.484113994087703e-06
7.785886430068264e-06   7.388181336775231e-08   -2.113638647159978e-05
7.785886430068264e-06   7.388181336775231e-08   -2.113638647159978e-05
7.785886430068264e-06   7.388181336775231e-08   -2.113638647159978e-05
7.785886430068264e-06   7.388181336775231e-08   -2.113638647159978e-05
-6.828247736697214e-07   4.904569415062159e-07   -7.2718128755862635e-06
-6.828247736697214e-07   4.904569415062159e-07   -7.2718128755862635e-06
-6.828247736697214e-07   4.904569415062159e-07   -7.2718128755862635e-06
-6.828247736697214e-07   4.904569415062159e-07   -7.2718128755862635e-06
3.4821582616080498e-06   -2.035697959389452e-07   -1.3797035225248679e-05
3.4821582616080498e-06   -2.035697959389452e-07   -1.3797035225248679e-05
3.4821582616080498e-06   -2.035697959389452e-07   -1.3797035225248679e-05
3.4821582616080498e-06   -2.035697959389452e-07   -1.3797035225248679e-05
7.804461048304588e-06   -3.33096575997649e-06   -1.1314596271414548e-05
7.804461048304588e-06   -3.33096575997649e-06   -1.1314596271414548e-05
7.804461048304588e-06   -3.33096575997649e-06   -1.1314596271414548e-05
7.804461048304588e-06   -3.33096575997649e-06   -1.1314596271414548e-05
1.5507869451100247e-05   -2.165436873557367e-06   2.2237350650964195e-06
1.5507869451100247e-05   -2.165436873557367e-06   2.2237350650964195e-06
1.5507869451100247e-05   -2.165436873557367e-06   2.2237350650964195e-06
1.5507869451100247e-05   -2.165436873557367e-06   2.2237350650964195e-06
1.6042527693039465e-05   -3.015771725689304e-06   -1.2705301982420022e-05
1.6042527693039465e-05   -3.015771725689304e-06   -1.2705301982420022e-05
1.6042527693039465e-05   -3.015771725689304e-06   -1.2705301982420022e-05
1.6042527693039465e-05   -3.015771725689304e-06   -1.2705301982420022e-05
7.80142039745409e-06   -1.8519407681421868e-06   3.315782690273492e-07
7.80142039745409e-06   -1.8519407681421868e-06   3.315782690273492e-07
7.80142039745409e-06   -1.8519407681421868e-06   3.315782690273492e-07
7.80142039745409e-06   -1.8519407681421868e-06   3.315782690273492e-07
1.1285431636859226e-05   -2.5598936858575087e-06   -5.0503353793520306e-06
1.1285431636859226e-05   -2.5598936858575087e-06   -5.0503353793520306e-06
1.1285431636859226e-05   -2.5598936858575087e-06   -5.0503353793520306e-06
1.1285431636859226e-05   -2.5598936858575087e-06   -5.0503353793520306e-06
7.80142039745408e-06   -3.015771725689304e-06   -1.3403600556948268e-05
7.80142039745408e-06   -3.015771725689304e-06   -1.3403600556948268e-05
7.80142039745408e-06   -3.015771725689304e-06   -1.3403600556948268e-05
7.80142039745408e-06   -3.015771725689304e-06   -1.3403600556948268e-05
1.6042527693039465e-05   -1.8519407681421868e-06   1.0298768435556562e-06
1.6042527693039465e-05   -1.8519407681421868e-06   1.0298768435556562e-06
1.6042527693039465e-05   -1.8519407681421868e-06   1.0298768435556562e-06
1.6042527693039465e-05   -1.8519407681421868e-06   1.0298768435556562e-06
1.6455759753014398e-05   -2.6856979059383955e-06   -1.4322426272916355e-05
1.6455759753014398e-05   -2.6856979059383955e-06   -1.4322426272916355e-05
1.6455759753014398e-05   -2.6856979059383955e-06   -1.4322426272916355e-05
1.6455759753014398e-05   -2.6856979059383955e-06   -1.4322426272916355e-05
7.842724571426333e-06   -1.5854218058196487e-06   -6.27533297007594e-07
7.842724571426333e-06   -1.5854218058196487e-06   -6.27533297007594e-07
7.842724571426333e-06   -1.5854218058196487e-06   -6.27533297007594e-07
7.842724571426333e-06   -1.5854218058196487e-06   -6.27533297007594e-07
1.167550595487239e-05   -2.3578559114487087e-06   -6.552041806040171e-06
1.167550595487239e-05   -2.3578559114487087e-06   -6.552041806040171e-06
1.167550595487239e-05   -2.3578559114487087e-06   -6.552041806040171e-06
1.167550595487239e-05   -2.3578559114487087e-06   -6.552041806040171e-06
7.84272457142635e-06   -2.6856979059383955e-06   -1.4982591932987611e-05
7.84272457142635e-06   -2.6856979059383955e-06   -1.4982591932987611e-05
7.84272457142635e-06   -2.6856979059383955e-06   -1.4982591932987611e-05
7.84272457142635e-06   -2.6856979059383955e-06   -1.4982591932987611e-05
1.645575975301437e-05   -1.5854218058196487e-06   3.263236306378422e-08
1.645575975301437e-05   -1.5854218058196487e-06   3.263236306378422e-08
1.645575975301437e-05   -1.5854218058196487e-06   3.263236306378422e-08
1.645575975301437e-05   -1.5854218058196487e-06   3.263236306378422e-08
1.6898062975072626e-05   -1.97594474449167e-06   -1.7079166695732904e-05
1.6898062975072626e-05   -1.97594474449167e-06   -1.7079166695732904e-05
1.6898062975072626e-05   -1.97594474449167e-06   -1.7079166695732904e-05
1.6898062975072626e-05   -1.97594474449167e-06   -1.7079166695732904e-05
7.785886430068237e-06   -1.0179944647302844e-06   -2.4669759552491585e-06
7.785886430068237e-06   -1.0179944647302844e-06   -2.4669759552491585e-06
7.785886430068237e-06   -1.0179944647302844e-06   -2.4669759552491585e-06
7.785886430068237e-06   -1.0179944647302844e-06   -2.4669759552491585e-06
1.1632524798183212e-05   -2.0283309189852495e-06   -8.271838029554404e-06
1.1632524798183212e-05   -2.0283309189852495e-06   -8.271838029554404e-06
1.1632524798183212e-05   -2.0283309189852495e-06   -8.271838029554404e-06
1.1632524798183212e-05   -2.0283309189852495e-06   -8.271838029554404e-06
-1.8679939304086485e-05   2.8682404880483396e-06   -1.4264668543859945e-05
-1.8679939304086485e-05   2.8682404880483396e-06   -1.4264668543859945e-05
-1.8679939304086485e-05   2.8682404880483396e-06   -1.4264668543859945e-05
-1.8679939304086485e-05   2.8682404880483396e-06   -1.4264668543859945e-05
-1.2750987170686475e-05   1.816779300710847e-06   -5.013958367262393e-06
-1.2750987170686475e-05   1.816779300710847e-06   -5.013958367262393e-06
-1.2750987170686475e-05   1.816779300710847e-06   -5.013958367262393e-06
-1.2750987170686475e-05   1.816779300710847e-06   -5.013958367262393e-06
-1.2703945435909157e-05   3.4742287647013563e-06   -1.2119961989622778e-05
-1.2703945435909157e-05   3.4742287647013563e-06   -1.2119961989622778e-05
-1.2703945435909157e-05   3.4742287647013563e-06   -1.2119961989622778e-05
-1.2703945435909157e-05   3.4742287647013563e-06   -1.2119961989622778e-05
-1.8113617767800207e-05   2.31660443678175e-06   -2.409266839719195e-06
-1.8113617767800207e-05   2.31660443678175e-06   -2.409266839719195e-06
-1.8113617767800207e-05   2.31660443678175e-06   -2.409266839719195e-06
-1.8113617767800207e-05   2.31660443678175e-06   -2.409266839719195e-06
-1.4901707176834546e-05   2.763392329452319e-06   -8.030523893597655e-06
-1.4901707176834546e-05   2.763392329452319e-06   -8.030523893597655e-06
-1.4901707176834546e-05   2.763392329452319e-06   -8.030523893597655e-06
-1.4901707176834546e-05   2.763392329452319e-06   -8.030523893597655e-06
-1.8113617767800207e-05   3.4742287647013563e-06   -1.1425387392870976e-05
-1.8113617767800207e-05   3.4742287647013563e-06   -1.1425387392870976e-05
-1.8113617767800207e-05   3.4742287647013563e-06   -1.1425387392870976e-05
-1.8113617767800207e-05   3.4742287647013563e-06   -1.1425387392870976e-05
-1.2703945435909184e-05   2.3166044367816958e-06   -3.103841436471012e-06
-1.2703945435909184e-05   2.3166044367816958e-06   -3.103841436471012e-06
-1.2703945435909184e-05   2.3166044367816958e-06   -3.103841436471012e-06
-1.2703945435909184e-05   2.3166044367816958e-06   -3.103841436471012e-06
-1.2607177823784746e-05   3.741256323746791e-06   -1.0569127939521648e-05
-1.2607177823784746e-05   3.741256323746791e-06   -1.0569127939521648e-05
-1.2607177823784746e-05   3.741256323746791e-06   -1.0569127939521648e-05
-1.2607177823784746e-05   3.741256323746791e-06   -1.0569127939521648e-05
-1.7691620336504214e-05   2.5505921377177456e-06   -1.380658573371771e-06
-1.7691620336504214e-05   2.5505921377177456e-06   -1.380658573371771e-06
-1.7691620336504214e-05   2.5505921377177456e-06   -1.380658573371771e-06
-1.7691620336504214e-05   2.5505921377177456e-06   -1.380658573371771e-06
-1.4900040055979986e-05   3.042520589202635e-06   -6.32844944513646e-06
-1.4900040055979986e-05   3.042520589202635e-06   -6.32844944513646e-06
-1.4900040055979986e-05   3.042520589202635e-06   -6.32844944513646e-06
-1.4900040055979986e-05   3.042520589202635e-06   -6.32844944513646e-06
-1.7691620336504214e-05   3.741256323746791e-06   -9.854729427904231e-06
-1.7691620336504214e-05   3.741256323746791e-06   -9.854729427904231e-06
-1.7691620336504214e-05   3.741256323746791e-06   -9.854729427904231e-06
-1.7691620336504214e-05   3.741256323746791e-06   -9.854729427904231e-06
-1.260717782378476e-05   2.5505921377177456e-06   -2.0950570849891602e-06
-1.260717782378476e-05   2.5505921377177456e-06   -2.0950570849891602e-06
-1.260717782378476e-05   2.5505921377177456e-06   -2.0950570849891602e-06
-1.260717782378476e-05   2.5505921377177456e-06   -2.0950570849891602e-06
-1.2569318564309217e-05   4.006662203705203e-06   -8.426498102298682e-06
-1.2569318564309217e-05   4.006662203705203e-06   -8.426498102298682e-06
-1.2569318564309217e-05   4.006662203705203e-06   -8.426498102298682e-06
-1.2569318564309217e-05   4.006662203705203e-06   -8.426498102298682e-06
-1.714103296562432e-05   2.846527743046237e-06   -1.1089342371144715e-07
-1.714103296562432e-05   2.846527743046237e-06   -1.1089342371144715e-07
-1.714103296562432e-05   2.846527743046237e-06   -1.1089342371144715e-07
-1.714103296562432e-05   2.846527743046237e-06   -1.1089342371144715e-07
-1.4457889920431963e-05   3.1958755629118312e-06   -4.792407190951412e-06
-1.4457889920431963e-05   3.1958755629118312e-06   -4.792407190951412e-06
-1.4457889920431963e-05   3.1958755629118312e-06   -4.792407190951412e-06
-1.4457889920431963e-05   3.1958755629118312e-06   -4.792407190951412e-06
-1.2750987170686448e-05   1.433320855092398e-06   -1.824681218852702e-05
-1.2750987170686448e-05   1.433320855092398e-06   -1.824681218852702e-05
-1.2750987170686448e-05   1.433320855092398e-06   -1.824681218852702e-05
-1.2750987170686448e-05   1.433320855092398e-06   -1.824681218852702e-05
-7.367023954274957e-06   9.445185882564944e-07   -9.566821521276106e-06
-7.367023954274957e-06   9.445185882564944e-07   -9.566821521276106e-06
-7.367023954274957e-06   9.445185882564944e-07   -9.566821521276106e-06
-7.367023954274957e-06   9.445185882564944e-07   -9.566821521276106e-06
-7.370910250657928e-06   2.0299719630254356e-06   -1.808743768819075e-05
-7.370910250657928e-06   2.0299719630254356e-06   -1.808743768819075e-05
-7.370910250657928e-06   2.0299719630254356e-06   -1.808743768819075e-05
-7.370910250657928e-06   2.0299719630254356e-06   -1.808743768819075e-05
-1.2703945435909157e-05   1.4729578962102436e-06   -8.86483727268291e-06
-1.2703945435909157e-05   1.4729578962102436e-06   -8.86483727268291e-06
-1.2703945435909157e-05   1.4729578962102436e-06   -8.86483727268291e-06
-1.2703945435909157e-05   1.4729578962102436e-06   -8.86483727268291e-06
-9.955313615373212e-06   1.571027672397484e-06   -1.350473217262186e-05
-9.955313615373212e-06   1.571027672397484e-06   -1.350473217262186e-05
-9.955313615373212e-06   1.571027672397484e-06   -1.350473217262186e-05
-9.955313615373212e-06   1.571027672397484e-06   -1.350473217262186e-05
-1.2703945435909144e-05   2.0299719630254356e-06   -1.775322924810156e-05
-1.2703945435909144e-05   2.0299719630254356e-06   -1.775322924810156e-05
-1.2703945435909144e-05   2.0299719630254356e-06   -1.775322924810156e-05
-1.2703945435909144e-05   2.0299719630254356e-06   -1.775322924810156e-05
-7.370910250657928e-06   1.4729578962102436e-06   -9.199045712772019e-06
-7.370910250657928e-06   1.4729578962102436e-06   -9.199045712772019e-06
-7.370910250657928e-06   1.4729578962102436e-06   -9.199045712772019e-06
-7.370910250657928e-06   1.4729578962102436e-06   -9.199045712772019e-06
-7.365909596686849e-06   2.561038036759199e-06   -1.7682324272841744e-05
-7.365909596686849e-06   2.561038036759199e-06   -1.7682324272841744e-05
-7.365909596686849e-06   2.561038036759199e-06   -1.7682324272841744e-05
-7.365909596686849e-06   2.561038036759199e-06   -1.7682324272841744e-05
-1.2607177823784746e-05   1.954907740145829e-06   -8.583199049710493e-06
-1.2607177823784746e-05   1.954907740145829e-06   -8.583199049710493e-06
-1.2607177823784746e-05   1.954907740145829e-06   -8.583199049710493e-06
-1.2607177823784746e-05   1.954907740145829e-06   -8.583199049710493e-06
-9.909445045547416e-06   2.006030060523983e-06   -1.3110093738999529e-05
-9.909445045547416e-06   2.006030060523983e-06   -1.3110093738999529e-05
-9.909445045547416e-06   2.006030060523983e-06   -1.3110093738999529e-05
-9.909445045547416e-06   2.006030060523983e-06   -1.3110093738999529e-05
-1.2607177823784746e-05   2.561038036759199e-06   -1.7318646094873673e-05
-1.2607177823784746e-05   2.561038036759199e-06   -1.7318646094873673e-05
-1.2607177823784746e-05   2.561038036759199e-06   -1.7318646094873673e-05
-1.2607177823784746e-05   2.561038036759199e-06   -1.7318646094873673e-05
-7.365909596686855e-06   1.9549077401457746e-06   -8.946877227678537e-06
-7.365909596686855e-06   1.9549077401457746e-06   -8.946877227678537e-06
-7.365909596686855e-06   1.9549077401457746e-06   -8.946877227678537e-06
-7.365909596686855e-06   1.9549077401457746e-06   -8.946877227678537e-06
-7.372467509236791e-06   3.1270088489854134e-06   -1.775398049965661e-05
-7.372467509236791e-06   3.1270088489854134e-06   -1.775398049965661e-05
-7.372467509236791e-06   3.1270088489854134e-06   -1.775398049965661e-05
-7.372467509236791e-06   3.1270088489854134e-06   -1.775398049965661e-05
-1.2569318564309217e-05   2.4795372206649273e-06   -8.704079097543541e-06
-1.2569318564309217e-05   2.4795372206649273e-06   -8.704079097543541e-06
-1.2569318564309217e-05   2.4795372206649273e-06   -8.704079097543541e-06
-1.2569318564309217e-05   2.4795372206649273e-06   -8.704079097543541e-06
-9.974087516040069e-06   2.437536020912434e-06   -1.3004263458140638e-05
-9.974087516040069e-06   2.437536020912434e-06   -1.3004263458140638e-05
-9.974087516040069e-06   2.437536020912434e-06   -1.3004263458140638e-05
-9.974087516040069e-06   2.437536020912434e-06   -1.3004263458140638e-05
-7.36702395427494e-06   7.692367204496851e-08   -2.0152968150789335e-05
-7.36702395427494e-06   7.692367204496851e-08   -2.0152968150789335e-05
-7.36702395427494e-06   7.692367204496851e-08   -2.0152968150789335e-05
-7.36702395427494e-06   7.692367204496851e-08   -2.0152968150789335e-05
-2.0530531607346044e-06   1.6587724094519135e-07   -1.1242978020215282e-05
-2.0530531607346044e-06   1.6587724094519135e-07   -1.1242978020215282e-05
-2.0530531607346044e-06   1.6587724094519135e-07   -1.1242978020215282e-05
-2.0530531607346044e-06   1.6587724094519135e-07   -1.1242978020215282e-05
-2.0574703487318185e-06   6.651490280090982e-07   -1.9926828055546222e-05
-2.0574703487318185e-06   6.651490280090982e-07   -1.9926828055546222e-05
-2.0574703487318185e-06   6.651490280090982e-07   -1.9926828055546222e-05
-2.0574703487318185e-06   6.651490280090982e-07   -1.9926828055546222e-05
-7.370910250657911e-06   6.983397651330603e-07   -1.1091009327943765e-05
-7.370910250657911e-06   6.983397651330603e-07   -1.1091009327943765e-05
-7.370910250657911e-06   6.983397651330603e-07   -1.1091009327943765e-05
-7.370910250657911e-06   6.983397651330603e-07   -1.1091009327943765e-05
-4.680541118445124e-06   4.714141153455741e-07   -1.5438802491759253e-05
-4.680541118445124e-06   4.714141153455741e-07   -1.5438802491759253e-05
-4.680541118445124e-06   4.714141153455741e-07   -1.5438802491759253e-05
-4.680541118445124e-06   4.714141153455741e-07   -1.5438802491759253e-05
-7.370910250657911e-06   6.651490280090982e-07   -1.9946742497820567e-05
-7.370910250657911e-06   6.651490280090982e-07   -1.9946742497820567e-05
-7.370910250657911e-06   6.651490280090982e-07   -1.9946742497820567e-05
-7.370910250657911e-06   6.651490280090982e-07   -1.9946742497820567e-05
-2.0574703487318185e-06   6.983397651330603e-07   -1.1071094885669393e-05
-2.0574703487318185e-06   6.983397651330603e-07   -1.1071094885669393e-05
-2.0574703487318185e-06   6.983397651330603e-07   -1.1071094885669393e-05
-2.0574703487318185e-06   6.983397651330603e-07   -1.1071094885669393e-05
-2.0508026669968532e-06   1.2517145505714007e-06   -1.9976116769558134e-05
-2.0508026669968532e-06   1.2517145505714007e-06   -1.9976116769558134e-05
-2.0508026669968532e-06   1.2517145505714007e-06   -1.9976116769558134e-05
-2.0508026669968532e-06   1.2517145505714007e-06   -1.9976116769558134e-05
-7.365909596686849e-06   1.232522696781519e-06   -1.1106090107800926e-05
-7.365909596686849e-06   1.232522696781519e-06   -1.1106090107800926e-05
-7.365909596686849e-06   1.232522696781519e-06   -1.1106090107800926e-05
-7.365909596686849e-06   1.232522696781519e-06   -1.1106090107800926e-05
-4.712265760520614e-06   9.378679564345433e-07   -1.5352036990536473e-05
-4.712265760520614e-06   9.378679564345433e-07   -1.5352036990536473e-05
-4.712265760520614e-06   9.378679564345433e-07   -1.5352036990536473e-05
-4.712265760520614e-06   9.378679564345433e-07   -1.5352036990536473e-05
-7.365909596686849e-06   1.2517145505714278e-06   -1.996460165728427e-05
-7.365909596686849e-06   1.2517145505714278e-06   -1.996460165728427e-05
-7.365909596686849e-06   1.2517145505714278e-06   -1.996460165728427e-05
-7.365909596686849e-06   1.2517145505714278e-06   -1.996460165728427e-05
-2.0508026669968566e-06   1.232522696781519e-06   -1.111760522007479e-05
-2.0508026669968566e-06   1.232522696781519e-06   -1.111760522007479e-05
-2.0508026669968566e-06   1.232522696781519e-06   -1.111760522007479e-05
-2.0508026669968566e-06   1.232522696781519e-06   -1.111760522007479e-05
-2.0541991216972977e-06   1.8518151353097618e-06   -2.027782419467992e-05
-2.0541991216972977e-06   1.8518151353097618e-06   -2.027782419467992e-05
-2.0541991216972977e-06   1.8518151353097618e-06   -2.027782419467992e-05
-2.0541991216972977e-06   1.8518151353097618e-06   -2.027782419467992e-05
-7.372467509236785e-06   1.7760446283604059e-06   -1.1368581244611026e-05
-7.372467509236785e-06   1.7760446283604059e-06   -1.1368581244611026e-05
-7.372467509236785e-06   1.7760446283604059e-06   -1.1368581244611026e-05
-7.372467509236785e-06   1.7760446283604059e-06   -1.1368581244611026e-05
-4.753150410644724e-06   1.4104573158126889e-06   -1.5514757354735906e-05
-4.753150410644724e-06   1.4104573158126889e-06   -1.5514757354735906e-05
-4.753150410644724e-06   1.4104573158126889e-06   -1.5514757354735906e-05
-4.753150410644724e-06   1.4104573158126889e-06   -1.5514757354735906e-05
-2.053053160734601e-06   -1.1985105409102726e-06   -1.783709068201768e-05
-2.053053160734601e-06   -1.1985105409102726e-06   -1.783709068201768e-05
-2.053053160734601e-06   -1.1985105409102726e-06   -1.783709068201768e-05
-2.053053160734601e-06   -1.1985105409102726e-06   -1.783709068201768e-05
3.1761158859636583e-06   -5.453094396375038e-07   -8.729888276756963e-06
3.1761158859636583e-06   -5.453094396375038e-07   -8.729888276756963e-06
3.1761158859636583e-06   -5.453094396375038e-07   -8.729888276756963e-06
3.1761158859636583e-06   -5.453094396375038e-07   -8.729888276756963e-06
3.2185436903975215e-06   -6.580333730166232e-07   -1.742610769855864e-05
3.2185436903975215e-06   -6.580333730166232e-07   -1.742610769855864e-05
3.2185436903975215e-06   -6.580333730166232e-07   -1.742610769855864e-05
3.2185436903975215e-06   -6.580333730166232e-07   -1.742610769855864e-05
-2.0574703487318185e-06   -4.261533896094847e-08   -9.002001787109799e-06
-2.0574703487318185e-06   -4.261533896094847e-08   -9.002001787109799e-06
-2.0574703487318185e-06   -4.261533896094847e-08   -9.002001787109799e-06
-2.0574703487318185e-06   -4.261533896094847e-08   -9.002001787109799e-06
5.751405606265246e-07   -5.646619590671947e-07   -1.307645866397664e-05
5.751405606265246e-07   -5.646619590671947e-07   -1.307645866397664e-05
5.751405606265246e-07   -5.646619590671947e-07   -1.307645866397664e-05
5.751405606265246e-07   -5.646619590671947e-07   -1.307645866397664e-05
-2.0574703487318185e-06   -6.58033373016596e-07   -1.7795358518992056e-05
-2.0574703487318185e-06   -6.58033373016596e-07   -1.7795358518992056e-05
-2.0574703487318185e-06   -6.58033373016596e-07   -1.7795358518992056e-05
-2.0574703487318185e-06   -6.58033373016596e-07   -1.7795358518992056e-05
3.2185436903975283e-06   -4.261533896094847e-08   -8.632750966676412e-06
3.2185436903975283e-06   -4.261533896094847e-08   -8.632750966676412e-06
3.2185436903975283e-06   -4.261533896094847e-08   -8.632750966676412e-06
3.2185436903975283e-06   -4.261533896094847e-08   -8.632750966676412e-06
3.320419317492304e-06   -1.2805193794383708e-07   -1.7789180389800498e-05
3.320419317492304e-06   -1.2805193794383708e-07   -1.7789180389800498e-05
3.320419317492304e-06   -1.2805193794383708e-07   -1.7789180389800498e-05
3.320419317492304e-06   -1.2805193794383708e-07   -1.7789180389800498e-05
-2.0508026669968566e-06   4.399135596066801e-07   -9.177923047515543e-06
-2.0508026669968566e-06   4.399135596066801e-07   -9.177923047515543e-06
-2.0508026669968566e-06   4.399135596066801e-07   -9.177923047515543e-06
-2.0508026669968566e-06   4.399135596066801e-07   -9.177923047515543e-06
5.444714460889649e-07   -1.4621910812261801e-07   -1.3151700302021013e-05
5.444714460889649e-07   -1.4621910812261801e-07   -1.3151700302021013e-05
5.444714460889649e-07   -1.4621910812261801e-07   -1.3151700302021013e-05
5.444714460889649e-07   -1.4621910812261801e-07   -1.3151700302021013e-05
-2.0508026669968545e-06   -1.2805193794383708e-07   -1.8129959688330786e-05
-2.0508026669968545e-06   -1.2805193794383708e-07   -1.8129959688330786e-05
-2.0508026669968545e-06   -1.2805193794383708e-07   -1.8129959688330786e-05
-2.0508026669968545e-06   -1.2805193794383708e-07   -1.8129959688330786e-05
3.320419317492311e-06   4.399135596066259e-07   -8.837143748985219e-06
3.320419317492311e-06   4.399135596066259e-07   -8.837143748985219e-06
3.320419317492311e-06   4.399135596066259e-07   -8.837143748985219e-06
3.320419317492311e-06   4.399135596066259e-07   -8.837143748985219e-06
3.370757423566483e-06   4.904569415061888e-07   -1.8313209710919527e-05
3.370757423566483e-06   4.904569415061888e-07   -1.8313209710919527e-05
3.370757423566483e-06   4.904569415061888e-07   -1.8313209710919527e-05
3.370757423566483e-06   4.904569415061888e-07   -1.8313209710919527e-05
-2.0541991216972943e-06   9.917503113811591e-07   -9.572391490738183e-06
-2.0541991216972943e-06   9.917503113811591e-07   -9.572391490738183e-06
-2.0541991216972943e-06   9.917503113811591e-07   -9.572391490738183e-06
-2.0541991216972943e-06   9.917503113811591e-07   -9.572391490738183e-06
5.621857410145395e-07   3.0013758648572307e-07   -1.3518065293653949e-05
5.621857410145395e-07   3.0013758648572307e-07   -1.3518065293653949e-05
5.621857410145395e-07   3.0013758648572307e-07   -1.3518065293653949e-05
5.621857410145395e-07   3.0013758648572307e-07   -1.3518065293653949e-05
3.1761158859636583e-06   -2.165436873557367e-06   -9.782836916566467e-06
3.1761158859636583e-06   -2.165436873557367e-06   -9.782836916566467e-06
3.1761158859636583e-06   -2.165436873557367e-06   -9.782836916566467e-06
3.1761158859636583e-06   -2.165436873557367e-06   -9.782836916566467e-06
7.792328514125173e-06   -9.953626342393143e-07   -1.3871046593730112e-06
7.792328514125173e-06   -9.953626342393143e-07   -1.3871046593730112e-06
7.792328514125173e-06   -9.953626342393143e-07   -1.3871046593730112e-06
7.792328514125173e-06   -9.953626342393143e-07   -1.3871046593730112e-06
8.350610024940202e-06   -1.8519407681421597e-06   -1.024999226941826e-05
8.350610024940202e-06   -1.8519407681421597e-06   -1.024999226941826e-05
8.350610024940202e-06   -1.8519407681421597e-06   -1.024999226941826e-05
8.350610024940202e-06   -1.8519407681421597e-06   -1.024999226941826e-05
3.2185436903975215e-06   -6.533669873153014e-07   -2.415692647009921e-06
3.2185436903975215e-06   -6.533669873153014e-07   -2.415692647009921e-06
3.2185436903975215e-06   -6.533669873153014e-07   -2.415692647009921e-06
3.2185436903975215e-06   -6.533669873153014e-07   -2.415692647009921e-06
5.394149668033995e-06   -1.3723924831764655e-06   -5.610287312220682e-06
5.394149668033995e-06   -1.3723924831764655e-06   -5.610287312220682e-06
5.394149668033995e-06   -1.3723924831764655e-06   -5.610287312220682e-06
5.394149668033995e-06   -1.3723924831764655e-06   -5.610287312220682e-06
3.2185436903975283e-06   -1.8519407681421868e-06   -1.0969136537914272e-05
3.2185436903975283e-06   -1.8519407681421868e-06   -1.0969136537914272e-05
3.2185436903975283e-06   -1.8519407681421868e-06   -1.0969136537914272e-05
3.2185436903975283e-06   -1.8519407681421868e-06   -1.0969136537914272e-05
8.350610024940175e-06   -6.533669873153014e-07   -1.6965483785138006e-06
8.350610024940175e-06   -6.533669873153014e-07   -1.6965483785138006e-06
8.350610024940175e-06   -6.533669873153014e-07   -1.6965483785138006e-06
8.350610024940175e-06   -6.533669873153014e-07   -1.6965483785138006e-06
8.781549454814542e-06   -1.5854218058196487e-06   -1.1232512539971785e-05
8.781549454814542e-06   -1.5854218058196487e-06   -1.1232512539971785e-05
8.781549454814542e-06   -1.5854218058196487e-06   -1.1232512539971785e-05
8.781549454814542e-06   -1.5854218058196487e-06   -1.1232512539971785e-05
3.320419317492311e-06   -4.186098845721203e-07   -2.830716130516607e-06
3.320419317492311e-06   -4.186098845721203e-07   -2.830716130516607e-06
3.320419317492311e-06   -4.186098845721203e-07   -2.830716130516607e-06
3.320419317492311e-06   -4.186098845721203e-07   -2.830716130516607e-06
5.732926395245494e-06   -1.1961607960273382e-06   -6.385030713232034e-06
5.732926395245494e-06   -1.1961607960273382e-06   -6.385030713232034e-06
5.732926395245494e-06   -1.1961607960273382e-06   -6.385030713232034e-06
5.732926395245494e-06   -1.1961607960273382e-06   -6.385030713232034e-06
3.320419317492304e-06   -1.5854218058196758e-06   -1.1932599692720294e-05
3.320419317492304e-06   -1.5854218058196758e-06   -1.1932599692720294e-05
3.320419317492304e-06   -1.5854218058196758e-06   -1.1932599692720294e-05
3.320419317492304e-06   -1.5854218058196758e-06   -1.1932599692720294e-05
8.781549454814515e-06   -4.186098845720661e-07   -2.1306289777679624e-06
8.781549454814515e-06   -4.186098845720661e-07   -2.1306289777679624e-06
8.781549454814515e-06   -4.186098845720661e-07   -2.1306289777679624e-06
8.781549454814515e-06   -4.186098845720661e-07   -2.1306289777679624e-06
9.355975267188495e-06   -1.0179944647302572e-06   -1.312331873887514e-05
9.355975267188495e-06   -1.0179944647302572e-06   -1.312331873887514e-05
9.355975267188495e-06   -1.0179944647302572e-06   -1.312331873887514e-05
9.355975267188495e-06   -1.0179944647302572e-06   -1.312331873887514e-05
3.370757423566483e-06   4.03374162537707e-08   -3.7829547947621596e-06
3.370757423566483e-06   4.03374162537707e-08   -3.7829547947621596e-06
3.370757423566483e-06   4.03374162537707e-08   -3.7829547947621596e-06
3.370757423566483e-06   4.03374162537707e-08   -3.7829547947621596e-06
5.84989899898229e-06   -9.375898588536639e-07   -7.3281010553907485e-06
5.84989899898229e-06   -9.375898588536639e-07   -7.3281010553907485e-06
5.84989899898229e-06   -9.375898588536639e-07   -7.3281010553907485e-06
5.84989899898229e-06   -9.375898588536639e-07   -7.3281010553907485e-06
-1.123477402348602e-05   1.816779300710847e-06   -1.0577367066939944e-05
-1.123477402348602e-05   1.816779300710847e-06   -1.0577367066939944e-05
-1.123477402348602e-05   1.816779300710847e-06   -1.0577367066939944e-05
-1.123477402348602e-05   1.816779300710847e-06   -1.0577367066939944e-05
-8.338612008374711e-06   7.330160932478768e-07   -6.400688299565543e-06
-8.338612008374711e-06   7.330160932478768e-07   -6.400688299565543e-06
-8.338612008374711e-06   7.330160932478768e-07   -6.400688299565543e-06
-8.338612008374711e-06   7.330160932478768e-07   -6.400688299565543e-06
-8.21835915308174e-06   2.3166044367816958e-06   -9.331427546150131e-06
-8.21835915308174e-06   2.3166044367816958e-06   -9.331427546150131e-06
-8.21835915308174e-06   2.3166044367816958e-06   -9.331427546150131e-06
-8.21835915308174e-06   2.3166044367816958e-06   -9.331427546150131e-06
-1.06189926615205e-05   1.1473808059982334e-06   -4.628837520281978e-06
-1.06189926615205e-05   1.1473808059982334e-06   -4.628837520281978e-06
-1.06189926615205e-05   1.1473808059982334e-06   -4.628837520281978e-06
-1.06189926615205e-05   1.1473808059982334e-06   -4.628837520281978e-06
-9.195971295875112e-06   1.6310989904908652e-06   -7.290770707053671e-06
-9.195971295875112e-06   1.6310989904908652e-06   -7.290770707053671e-06
-9.195971295875112e-06   1.6310989904908652e-06   -7.290770707053671e-06
-9.195971295875112e-06   1.6310989904908652e-06   -7.290770707053671e-06
-1.06189926615205e-05   2.3166044367816958e-06   -8.629893367680005e-06
-1.06189926615205e-05   2.3166044367816958e-06   -8.629893367680005e-06
-1.06189926615205e-05   2.3166044367816958e-06   -8.629893367680005e-06
-1.06189926615205e-05   2.3166044367816958e-06   -8.629893367680005e-06
-8.218359153081754e-06   1.1473808059982334e-06   -5.3303716987520774e-06
-8.218359153081754e-06   1.1473808059982334e-06   -5.3303716987520774e-06
-8.218359153081754e-06   1.1473808059982334e-06   -5.3303716987520774e-06
-8.218359153081754e-06   1.1473808059982334e-06   -5.3303716987520774e-06
-8.045995481696636e-06   2.5505921377177456e-06   -8.331450295111893e-06
-8.045995481696636e-06   2.5505921377177456e-06   -8.331450295111893e-06
-8.045995481696636e-06   2.5505921377177456e-06   -8.331450295111893e-06
-8.045995481696636e-06   2.5505921377177456e-06   -8.331450295111893e-06
-1.0129950265014244e-05   1.35808722444774e-06   -4.142689374953771e-06
-1.0129950265014244e-05   1.35808722444774e-06   -4.142689374953771e-06
-1.0129950265014244e-05   1.35808722444774e-06   -4.142689374953771e-06
-1.0129950265014244e-05   1.35808722444774e-06   -4.142689374953771e-06
-9.034751241381848e-06   1.8552374304267615e-06   -6.26631120459524e-06
-9.034751241381848e-06   1.8552374304267615e-06   -6.26631120459524e-06
-9.034751241381848e-06   1.8552374304267615e-06   -6.26631120459524e-06
-9.034751241381848e-06   1.8552374304267615e-06   -6.26631120459524e-06
-1.012995026501423e-05   2.5505921377177456e-06   -7.615947347149851e-06
-1.012995026501423e-05   2.5505921377177456e-06   -7.615947347149851e-06
-1.012995026501423e-05   2.5505921377177456e-06   -7.615947347149851e-06
-1.012995026501423e-05   2.5505921377177456e-06   -7.615947347149851e-06
-8.045995481696636e-06   1.35808722444774e-06   -4.858192322915785e-06
-8.045995481696636e-06   1.35808722444774e-06   -4.858192322915785e-06
-8.045995481696636e-06   1.35808722444774e-06   -4.858192322915785e-06
-8.045995481696636e-06   1.35808722444774e-06   -4.858192322915785e-06
-7.930493081636597e-06   2.846527743046237e-06   -7.051526930315676e-06
-7.930493081636597e-06   2.846527743046237e-06   -7.051526930315676e-06
-7.930493081636597e-06   2.846527743046237e-06   -7.051526930315676e-06
-7.930493081636597e-06   2.846527743046237e-06   -7.051526930315676e-06
-9.507748238394057e-06   1.6925190039511137e-06   -3.730363092262738e-06
-9.507748238394057e-06   1.6925190039511137e-06   -3.730363092262738e-06
-9.507748238394057e-06   1.6925190039511137e-06   -3.730363092262738e-06
-9.507748238394057e-06   1.6925190039511137e-06   -3.730363092262738e-06
-8.614006199052857e-06   2.01275619254209e-06   -5.412075470986226e-06
-8.614006199052857e-06   2.01275619254209e-06   -5.412075470986226e-06
-8.614006199052857e-06   2.01275619254209e-06   -5.412075470986226e-06
-8.614006199052857e-06   2.01275619254209e-06   -5.412075470986226e-06
-8.338612008374711e-06   9.445185882564944e-07   -1.5487206785329836e-05
-8.338612008374711e-06   9.445185882564944e-07   -1.5487206785329836e-05
-8.338612008374711e-06   9.445185882564944e-07   -1.5487206785329836e-05
-8.338612008374711e-06   9.445185882564944e-07   -1.5487206785329836e-05
-5.980151804556413e-06   4.2811304939906897e-07   -1.1866283102280521e-05
-5.980151804556413e-06   4.2811304939906897e-07   -1.1866283102280521e-05
-5.980151804556413e-06   4.2811304939906897e-07   -1.1866283102280521e-05
-5.980151804556413e-06   4.2811304939906897e-07   -1.1866283102280521e-05
-5.9030633052655106e-06   1.4729578962102436e-06   -1.5433808057650387e-05
-5.9030633052655106e-06   1.4729578962102436e-06   -1.5433808057650387e-05
-5.9030633052655106e-06   1.4729578962102436e-06   -1.5433808057650387e-05
-5.9030633052655106e-06   1.4729578962102436e-06   -1.5433808057650387e-05
-8.218359153081754e-06   9.039834373962574e-07   -1.123359696933481e-05
-8.218359153081754e-06   9.039834373962574e-07   -1.123359696933481e-05
-8.218359153081754e-06   9.039834373962574e-07   -1.123359696933481e-05
-8.218359153081754e-06   9.039834373962574e-07   -1.123359696933481e-05
-7.040666577101259e-06   1.0305397383024548e-06   -1.3272351709846405e-05
-7.040666577101259e-06   1.0305397383024548e-06   -1.3272351709846405e-05
-7.040666577101259e-06   1.0305397383024548e-06   -1.3272351709846405e-05
-7.040666577101259e-06   1.0305397383024548e-06   -1.3272351709846405e-05
-8.218359153081727e-06   1.4729578962102978e-06   -1.5092423382361936e-05
-8.218359153081727e-06   1.4729578962102978e-06   -1.5092423382361936e-05
-8.218359153081727e-06   1.4729578962102978e-06   -1.5092423382361936e-05
-8.218359153081727e-06   1.4729578962102978e-06   -1.5092423382361936e-05
-5.9030633052655106e-06   9.039834373962574e-07   -1.157498164462329e-05
-5.9030633052655106e-06   9.039834373962574e-07   -1.157498164462329e-05
-5.9030633052655106e-06   9.039834373962574e-07   -1.157498164462329e-05
-5.9030633052655106e-06   9.039834373962574e-07   -1.157498164462329e-05
-5.817700695562718e-06   1.954907740145829e-06   -1.5183976483849882e-05
-5.817700695562718e-06   1.954907740145829e-06   -1.5183976483849882e-05
-5.817700695562718e-06   1.954907740145829e-06   -1.5183976483849882e-05
-5.817700695562718e-06   1.954907740145829e-06   -1.5183976483849882e-05
-8.045995481696663e-06   1.3476007001180781e-06   -1.1105767616276637e-05
-8.045995481696663e-06   1.3476007001180781e-06   -1.1105767616276637e-05
-8.045995481696663e-06   1.3476007001180781e-06   -1.1105767616276637e-05
-8.045995481696663e-06   1.3476007001180781e-06   -1.1105767616276637e-05
-6.938430932648334e-06   1.4165302567328516e-06   -1.2993066265325952e-05
-6.938430932648334e-06   1.4165302567328516e-06   -1.2993066265325952e-05
-6.938430932648334e-06   1.4165302567328516e-06   -1.2993066265325952e-05
-6.938430932648334e-06   1.4165302567328516e-06   -1.2993066265325952e-05
-8.045995481696636e-06   1.9549077401457746e-06   -1.4819592259833172e-05
-8.045995481696636e-06   1.9549077401457746e-06   -1.4819592259833172e-05
-8.045995481696636e-06   1.9549077401457746e-06   -1.4819592259833172e-05
-8.045995481696636e-06   1.9549077401457746e-06   -1.4819592259833172e-05
-5.817700695562711e-06   1.347600700118024e-06   -1.1470151840293265e-05
-5.817700695562711e-06   1.347600700118024e-06   -1.1470151840293265e-05
-5.817700695562711e-06   1.347600700118024e-06   -1.1470151840293265e-05
-5.817700695562711e-06   1.347600700118024e-06   -1.1470151840293265e-05
-5.7424286511345666e-06   2.4795372206649273e-06   -1.5331367672592126e-05
-5.7424286511345666e-06   2.4795372206649273e-06   -1.5331367672592126e-05
-5.7424286511345666e-06   2.4795372206649273e-06   -1.5331367672592126e-05
-5.7424286511345666e-06   2.4795372206649273e-06   -1.5331367672592126e-05
-7.930493081636624e-06   1.8416443125986474e-06   -1.1301857876915521e-05
-7.930493081636624e-06   1.8416443125986474e-06   -1.1301857876915521e-05
-7.930493081636624e-06   1.8416443125986474e-06   -1.1301857876915521e-05
-7.930493081636624e-06   1.8416443125986474e-06   -1.1301857876915521e-05
-6.900685501957639e-06   1.8087247351673938e-06   -1.2998452096588519e-05
-6.900685501957639e-06   1.8087247351673938e-06   -1.2998452096588519e-05
-6.900685501957639e-06   1.8087247351673938e-06   -1.2998452096588519e-05
-6.900685501957639e-06   1.8087247351673938e-06   -1.2998452096588519e-05
-5.980151804556393e-06   1.6587724094519135e-07   -1.7526578748923644e-05
-5.980151804556393e-06   1.6587724094519135e-07   -1.7526578748923644e-05
-5.980151804556393e-06   1.6587724094519135e-07   -1.7526578748923644e-05
-5.980151804556393e-06   1.6587724094519135e-07   -1.7526578748923644e-05
-3.677443802573392e-06   2.5018458938027253e-07   -1.3638147669890944e-05
-3.677443802573392e-06   2.5018458938027253e-07   -1.3638147669890944e-05
-3.677443802573392e-06   2.5018458938027253e-07   -1.3638147669890944e-05
-3.677443802573392e-06   2.5018458938027253e-07   -1.3638147669890944e-05
-3.6027101111434626e-06   6.983397651330603e-07   -1.730309244218106e-05
-3.6027101111434626e-06   6.983397651330603e-07   -1.730309244218106e-05
-3.6027101111434626e-06   6.983397651330603e-07   -1.730309244218106e-05
-3.6027101111434626e-06   6.983397651330603e-07   -1.730309244218106e-05
-5.9030633052655106e-06   7.361384828682266e-07   -1.349184968261864e-05
-5.9030633052655106e-06   7.361384828682266e-07   -1.349184968261864e-05
-5.9030633052655106e-06   7.361384828682266e-07   -1.349184968261864e-05
-5.9030633052655106e-06   7.361384828682266e-07   -1.349184968261864e-05
-4.7599903705988055e-06   5.310121274045075e-07   -1.527389542711859e-05
-4.7599903705988055e-06   5.310121274045075e-07   -1.527389542711859e-05
-4.7599903705988055e-06   5.310121274045075e-07   -1.527389542711859e-05
-4.7599903705988055e-06   5.310121274045075e-07   -1.527389542711859e-05
-5.903063305265497e-06   6.983397651330603e-07   -1.732577167282216e-05
-5.903063305265497e-06   6.983397651330603e-07   -1.732577167282216e-05
-5.903063305265497e-06   6.983397651330603e-07   -1.732577167282216e-05
-5.903063305265497e-06   6.983397651330603e-07   -1.732577167282216e-05
-3.6027101111434626e-06   7.361384828682266e-07   -1.3469170451977622e-05
-3.6027101111434626e-06   7.361384828682266e-07   -1.3469170451977622e-05
-3.6027101111434626e-06   7.361384828682266e-07   -1.3469170451977622e-05
-3.6027101111434626e-06   7.361384828682266e-07   -1.3469170451977622e-05
-3.517911199895501e-06   1.2325226967815732e-06   -1.7346928157136766e-05
-3.517911199895501e-06   1.2325226967815732e-06   -1.7346928157136766e-05
-3.517911199895501e-06   1.2325226967815732e-06   -1.7346928157136766e-05
-3.517911199895501e-06   1.2325226967815732e-06   -1.7346928157136766e-05
-5.817700695562711e-06   1.2262913748406555e-06   -1.3510206871193472e-05
-5.817700695562711e-06   1.2262913748406555e-06   -1.3510206871193472e-05
-5.817700695562711e-06   1.2262913748406555e-06   -1.3510206871193472e-05
-5.817700695562711e-06   1.2262913748406555e-06   -1.3510206871193472e-05
-4.711063040391785e-06   9.494002379487206e-07   -1.518846828100992e-05
-4.711063040391785e-06   9.494002379487206e-07   -1.518846828100992e-05
-4.711063040391785e-06   9.494002379487206e-07   -1.518846828100992e-05
-4.711063040391785e-06   9.494002379487206e-07   -1.518846828100992e-05
-5.817700695562704e-06   1.2325226967815732e-06   -1.734318936397219e-05
-5.817700695562704e-06   1.2325226967815732e-06   -1.734318936397219e-05
-5.817700695562704e-06   1.2325226967815732e-06   -1.734318936397219e-05
-5.817700695562704e-06   1.2325226967815732e-06   -1.734318936397219e-05
-3.517911199895507e-06   1.2262913748406013e-06   -1.3513945664358064e-05
-3.517911199895507e-06   1.2262913748406013e-06   -1.3513945664358064e-05
-3.517911199895507e-06   1.2262913748406013e-06   -1.3513945664358064e-05
-3.517911199895507e-06   1.2262913748406013e-06   -1.3513945664358064e-05
-3.4419327670327022e-06   1.7760446283603517e-06   -1.7638668258760932e-05
-3.4419327670327022e-06   1.7760446283603517e-06   -1.7638668258760932e-05
-3.4419327670327022e-06   1.7760446283603517e-06   -1.7638668258760932e-05
-3.4419327670327022e-06   1.7760446283603517e-06   -1.7638668258760932e-05
-5.7424286511345666e-06   1.723908934871132e-06   -1.3773227035830787e-05
-5.7424286511345666e-06   1.723908934871132e-06   -1.3773227035830787e-05
-5.7424286511345666e-06   1.723908934871132e-06   -1.3773227035830787e-05
-5.7424286511345666e-06   1.723908934871132e-06   -1.3773227035830787e-05
-4.671332053825607e-06   1.3733715906022437e-06   -1.534806562478454e-05
-4.671332053825607e-06   1.3733715906022437e-06   -1.534806562478454e-05
-4.671332053825607e-06   1.3733715906022437e-06   -1.534806562478454e-05
-4.671332053825607e-06   1.3733715906022437e-06   -1.534806562478454e-05
-3.6774438025733795e-06   -5.453094396375038e-07   -1.535482525716789e-05
-3.6774438025733795e-06   -5.453094396375038e-07   -1.535482525716789e-05
-3.6774438025733795e-06   -5.453094396375038e-07   -1.535482525716789e-05
-3.6774438025733795e-06   -5.453094396375038e-07   -1.535482525716789e-05
-1.4530554405532657e-06   1.156161729639108e-07   -1.1250955952906978e-05
-1.4530554405532657e-06   1.156161729639108e-07   -1.1250955952906978e-05
-1.4530554405532657e-06   1.156161729639108e-07   -1.1250955952906978e-05
-1.4530554405532657e-06   1.156161729639108e-07   -1.1250955952906978e-05
-1.3396708990727217e-06   -4.261533896094847e-08   -1.4856035212809985e-05
-1.3396708990727217e-06   -4.261533896094847e-08   -1.4856035212809985e-05
-1.3396708990727217e-06   -4.261533896094847e-08   -1.4856035212809985e-05
-1.3396708990727217e-06   -4.261533896094847e-08   -1.4856035212809985e-05
-3.6027101111434567e-06   5.873248790582526e-07   -1.1462267323503492e-05
-3.6027101111434567e-06   5.873248790582526e-07   -1.1462267323503492e-05
-3.6027101111434567e-06   5.873248790582526e-07   -1.1462267323503492e-05
-3.6027101111434567e-06   5.873248790582526e-07   -1.1462267323503492e-05
-2.492739558812449e-06   7.775766985818836e-08   -1.3006477918535398e-05
-2.492739558812449e-06   7.775766985818836e-08   -1.3006477918535398e-05
-2.492739558812449e-06   7.775766985818836e-08   -1.3006477918535398e-05
-2.492739558812449e-06   7.775766985818836e-08   -1.3006477918535398e-05
-3.6027101111434503e-06   -4.261533896100268e-08   -1.523399934362144e-05
-3.6027101111434503e-06   -4.261533896100268e-08   -1.523399934362144e-05
-3.6027101111434503e-06   -4.261533896100268e-08   -1.523399934362144e-05
-3.6027101111434503e-06   -4.261533896100268e-08   -1.523399934362144e-05
-1.3396708990727284e-06   5.873248790582526e-07   -1.1084303192692053e-05
-1.3396708990727284e-06   5.873248790582526e-07   -1.1084303192692053e-05
-1.3396708990727284e-06   5.873248790582526e-07   -1.1084303192692053e-05
-1.3396708990727284e-06   5.873248790582526e-07   -1.1084303192692053e-05
-1.1685308222674347e-06   4.399135596066801e-07   -1.5052674533924584e-05
-1.1685308222674347e-06   4.399135596066801e-07   -1.5052674533924584e-05
-1.1685308222674347e-06   4.399135596066801e-07   -1.5052674533924584e-05
-1.1685308222674347e-06   4.399135596066801e-07   -1.5052674533924584e-05
-3.517911199895501e-06   1.0308659773613886e-06   -1.1491612021863963e-05
-3.517911199895501e-06   1.0308659773613886e-06   -1.1491612021863963e-05
-3.517911199895501e-06   1.0308659773613886e-06   -1.1491612021863963e-05
-3.517911199895501e-06   1.0308659773613886e-06   -1.1491612021863963e-05
-2.425019532316813e-06   4.5919496732409497e-07   -1.2970095528472712e-05
-2.425019532316813e-06   4.5919496732409497e-07   -1.2970095528472712e-05
-2.425019532316813e-06   4.5919496732409497e-07   -1.2970095528472712e-05
-2.425019532316813e-06   4.5919496732409497e-07   -1.2970095528472712e-05
-3.5179111998954916e-06   4.399135596066801e-07   -1.5407245984577403e-05
-3.5179111998954916e-06   4.399135596066801e-07   -1.5407245984577403e-05
-3.5179111998954916e-06   4.399135596066801e-07   -1.5407245984577403e-05
-3.5179111998954916e-06   4.399135596066801e-07   -1.5407245984577403e-05
-1.1685308222674347e-06   1.0308659773614428e-06   -1.1137040571211143e-05
-1.1685308222674347e-06   1.0308659773614428e-06   -1.1137040571211143e-05
-1.1685308222674347e-06   1.0308659773614428e-06   -1.1137040571211143e-05
-1.1685308222674347e-06   1.0308659773614428e-06   -1.1137040571211143e-05
-1.04951573611617e-06   9.91750311381105e-07   -1.5473374826630623e-05
-1.04951573611617e-06   9.91750311381105e-07   -1.5473374826630623e-05
-1.04951573611617e-06   9.91750311381105e-07   -1.5473374826630623e-05
-1.04951573611617e-06   9.91750311381105e-07   -1.5473374826630623e-05
-3.4419327670327022e-06   1.5311526015274256e-06   -1.180965448252411e-05
-3.4419327670327022e-06   1.5311526015274256e-06   -1.180965448252411e-05
-3.4419327670327022e-06   1.5311526015274256e-06   -1.180965448252411e-05
-3.4419327670327022e-06   1.5311526015274256e-06   -1.180965448252411e-05
-2.3546378248887975e-06   8.577366695687659e-07   -1.3217763160255442e-05
-2.3546378248887975e-06   8.577366695687659e-07   -1.3217763160255442e-05
-2.3546378248887975e-06   8.577366695687659e-07   -1.3217763160255442e-05
-2.3546378248887975e-06   8.577366695687659e-07   -1.3217763160255442e-05
-1.4530554405532657e-06   -9.953626342393143e-07   -8.317530815814055e-06
-1.4530554405532657e-06   -9.953626342393143e-07   -8.317530815814055e-06
-1.4530554405532657e-06   -9.953626342393143e-07   -8.317530815814055e-06
-1.4530554405532657e-06   -9.953626342393143e-07   -8.317530815814055e-06
1.5646751842936886e-07   1.7001734062407426e-07   -4.935764565925022e-06
1.5646751842936886e-07   1.7001734062407426e-07   -4.935764565925022e-06
1.5646751842936886e-07   1.7001734062407426e-07   -4.935764565925022e-06
1.5646751842936886e-07   1.7001734062407426e-07   -4.935764565925022e-06
7.72877755761357e-07   -6.533669873153014e-07   -7.920511630002381e-06
7.72877755761357e-07   -6.533669873153014e-07   -7.920511630002381e-06
7.72877755761357e-07   -6.533669873153014e-07   -7.920511630002381e-06
7.72877755761357e-07   -6.533669873153014e-07   -7.920511630002381e-06
-1.3396708990727217e-06   5.440751179198598e-07   -5.118062468419896e-06
-1.3396708990727217e-06   5.440751179198598e-07   -5.118062468419896e-06
-1.3396708990727217e-06   5.440751179198598e-07   -5.118062468419896e-06
-1.3396708990727217e-06   5.440751179198598e-07   -5.118062468419896e-06
-4.5137527662332067e-07   -1.8438650530293874e-07   -6.161478198568726e-06
-4.5137527662332067e-07   -1.8438650530293874e-07   -6.161478198568726e-06
-4.5137527662332067e-07   -1.8438650530293874e-07   -6.161478198568726e-06
-4.5137527662332067e-07   -1.8438650530293874e-07   -6.161478198568726e-06
-1.3396708990727217e-06   -6.533669873153014e-07   -8.638976893143413e-06
-1.3396708990727217e-06   -6.533669873153014e-07   -8.638976893143413e-06
-1.3396708990727217e-06   -6.533669873153014e-07   -8.638976893143413e-06
-1.3396708990727217e-06   -6.533669873153014e-07   -8.638976893143413e-06
7.72877755761357e-07   5.44075117919914e-07   -4.3995972052788645e-06
7.72877755761357e-07   5.44075117919914e-07   -4.3995972052788645e-06
7.72877755761357e-07   5.44075117919914e-07   -4.3995972052788645e-06
7.72877755761357e-07   5.44075117919914e-07   -4.3995972052788645e-06
1.2600127891121068e-06   -4.186098845720661e-07   -8.342793772979687e-06
1.2600127891121068e-06   -4.186098845720661e-07   -8.342793772979687e-06
1.2600127891121068e-06   -4.186098845720661e-07   -8.342793772979687e-06
1.2600127891121068e-06   -4.186098845720661e-07   -8.342793772979687e-06
-1.1685308222674347e-06   7.538120195550962e-07   -4.998674229823348e-06
-1.1685308222674347e-06   7.538120195550962e-07   -4.998674229823348e-06
-1.1685308222674347e-06   7.538120195550962e-07   -4.998674229823348e-06
-1.1685308222674347e-06   7.538120195550962e-07   -4.998674229823348e-06
-1.424173309510669e-07   -4.201735888528183e-09   -6.254055128751077e-06
-1.424173309510669e-07   -4.201735888528183e-09   -6.254055128751077e-06
-1.424173309510669e-07   -4.201735888528183e-09   -6.254055128751077e-06
-1.424173309510669e-07   -4.201735888528183e-09   -6.254055128751077e-06
-1.1685308222674347e-06   -4.186098845721203e-07   -9.04624691545593e-06
-1.1685308222674347e-06   -4.186098845721203e-07   -9.04624691545593e-06
-1.1685308222674347e-06   -4.186098845721203e-07   -9.04624691545593e-06
-1.1685308222674347e-06   -4.186098845721203e-07   -9.04624691545593e-06
1.2600127891121068e-06   7.538120195551504e-07   -4.295221087347023e-06
1.2600127891121068e-06   7.538120195551504e-07   -4.295221087347023e-06
1.2600127891121068e-06   7.538120195551504e-07   -4.295221087347023e-06
1.2600127891121068e-06   7.538120195551504e-07   -4.295221087347023e-06
1.8772408462494475e-06   4.03374162537707e-08   -9.335235970983955e-06
1.8772408462494475e-06   4.03374162537707e-08   -9.335235970983955e-06
1.8772408462494475e-06   4.03374162537707e-08   -9.335235970983955e-06
1.8772408462494475e-06   4.03374162537707e-08   -9.335235970983955e-06
-1.0495157361161631e-06   1.1228010522465557e-06   -5.1067865153034354e-06
-1.0495157361161631e-06   1.1228010522465557e-06   -5.1067865153034354e-06
-1.0495157361161631e-06   1.1228010522465557e-06   -5.1067865153034354e-06
-1.0495157361161631e-06   1.1228010522465557e-06   -5.1067865153034354e-06
1.2810057178278057e-07   1.985241090346826e-07   -6.514914195874722e-06
1.2810057178278057e-07   1.985241090346826e-07   -6.514914195874722e-06
1.2810057178278057e-07   1.985241090346826e-07   -6.514914195874722e-06
1.2810057178278057e-07   1.985241090346826e-07   -6.514914195874722e-06
-3.83601970266659e-06   7.330160932478768e-07   -6.9907678144477225e-06
-3.83601970266659e-06   7.330160932478768e-07   -6.9907678144477225e-06
-3.83601970266659e-06   7.330160932478768e-07   -6.9907678144477225e-06
-3.83601970266659e-06   7.330160932478768e-07   -6.9907678144477225e-06
-3.962668383629463e-06   -3.5234881966457205e-07   -7.853067897133358e-06
-3.962668383629463e-06   -3.5234881966457205e-07   -7.853067897133358e-06
-3.962668383629463e-06   -3.5234881966457205e-07   -7.853067897133358e-06
-3.962668383629463e-06   -3.5234881966457205e-07   -7.853067897133358e-06
-3.768555725675894e-06   1.1473808059982876e-06   -6.57018136409975e-06
-3.768555725675894e-06   1.1473808059982876e-06   -6.57018136409975e-06
-3.768555725675894e-06   1.1473808059982876e-06   -6.57018136409975e-06
-3.768555725675894e-06   1.1473808059982876e-06   -6.57018136409975e-06
-3.1526621912963168e-06   -1.8620380017389526e-08   -6.897069876456223e-06
-3.1526621912963168e-06   -1.8620380017389526e-08   -6.897069876456223e-06
-3.1526621912963168e-06   -1.8620380017389526e-08   -6.897069876456223e-06
-3.1526621912963168e-06   -1.8620380017389526e-08   -6.897069876456223e-06
-3.5194566750987357e-06   5.050453830447981e-07   -6.5999451946231e-06
-3.5194566750987357e-06   5.050453830447981e-07   -6.5999451946231e-06
-3.5194566750987357e-06   5.050453830447981e-07   -6.5999451946231e-06
-3.5194566750987357e-06   5.050453830447981e-07   -6.5999451946231e-06
-3.1526621912963168e-06   1.1473808059982876e-06   -5.870580652490333e-06
-3.1526621912963168e-06   1.1473808059982876e-06   -5.870580652490333e-06
-3.1526621912963168e-06   1.1473808059982876e-06   -5.870580652490333e-06
-3.1526621912963168e-06   1.1473808059982876e-06   -5.870580652490333e-06
-3.768555725675894e-06   -1.8620380017389526e-08   -7.596670588065694e-06
-3.768555725675894e-06   -1.8620380017389526e-08   -7.596670588065694e-06
-3.768555725675894e-06   -1.8620380017389526e-08   -7.596670588065694e-06
-3.768555725675894e-06   -1.8620380017389526e-08   -7.596670588065694e-06
-3.522786639338071e-06   1.3580872244476857e-06   -6.096488786813139e-06
-3.522786639338071e-06   1.3580872244476857e-06   -6.096488786813139e-06
-3.522786639338071e-06   1.3580872244476857e-06   -6.096488786813139e-06
-3.522786639338071e-06   1.3580872244476857e-06   -6.096488786813139e-06
-2.590103110330943e-06   1.7171977742156622e-07   -6.939140866942618e-06
-2.590103110330943e-06   1.7171977742156622e-07   -6.939140866942618e-06
-2.590103110330943e-06   1.7171977742156622e-07   -6.939140866942618e-06
-2.590103110330943e-06   1.7171977742156622e-07   -6.939140866942618e-06
-3.19832094765105e-06   6.772453819921037e-07   -6.2287598341518105e-06
-3.19832094765105e-06   6.772453819921037e-07   -6.2287598341518105e-06
-3.19832094765105e-06   6.772453819921037e-07   -6.2287598341518105e-06
-3.19832094765105e-06   6.772453819921037e-07   -6.2287598341518105e-06
-2.590103110330916e-06   1.3580872244476857e-06   -5.384668318597445e-06
-2.590103110330916e-06   1.3580872244476857e-06   -5.384668318597445e-06
-2.590103110330916e-06   1.3580872244476857e-06   -5.384668318597445e-06
-2.590103110330916e-06   1.3580872244476857e-06   -5.384668318597445e-06
-3.5227866393380846e-06   1.717197774214578e-07   -7.650961335158339e-06
-3.5227866393380846e-06   1.717197774214578e-07   -7.650961335158339e-06
-3.5227866393380846e-06   1.717197774214578e-07   -7.650961335158339e-06
-3.5227866393380846e-06   1.717197774214578e-07   -7.650961335158339e-06
-3.333201838914821e-06   1.6925190039511137e-06   -5.659069273072936e-06
-3.333201838914821e-06   1.6925190039511137e-06   -5.659069273072936e-06
-3.333201838914821e-06   1.6925190039511137e-06   -5.659069273072936e-06
-3.333201838914821e-06   1.6925190039511137e-06   -5.659069273072936e-06
-1.895519903247889e-06   5.508016730323062e-07   -7.370175433966513e-06
-1.895519903247889e-06   5.508016730323062e-07   -7.370175433966513e-06
-1.895519903247889e-06   5.508016730323062e-07   -7.370175433966513e-06
-1.895519903247889e-06   5.508016730323062e-07   -7.370175433966513e-06
-2.798786813630392e-06   8.44231038268548e-07   -6.040788202470729e-06
-2.798786813630392e-06   8.44231038268548e-07   -6.040788202470729e-06
-2.798786813630392e-06   8.44231038268548e-07   -6.040788202470729e-06
-2.798786813630392e-06   8.44231038268548e-07   -6.040788202470729e-06
-3.962668383629449e-06   4.2811304939906897e-07   -1.2797738241595669e-05
-3.962668383629449e-06   4.2811304939906897e-07   -1.2797738241595669e-05
-3.962668383629449e-06   4.2811304939906897e-07   -1.2797738241595669e-05
-3.962668383629449e-06   4.2811304939906897e-07   -1.2797738241595669e-05
-4.623960202988504e-06   -7.12513129569152e-08   -1.4199509891274362e-05
-4.623960202988504e-06   -7.12513129569152e-08   -1.4199509891274362e-05
-4.623960202988504e-06   -7.12513129569152e-08   -1.4199509891274362e-05
-4.623960202988504e-06   -7.12513129569152e-08   -1.4199509891274362e-05
-4.468800376236599e-06   9.039834373962574e-07   -1.2805291951991022e-05
-4.468800376236599e-06   9.039834373962574e-07   -1.2805291951991022e-05
-4.468800376236599e-06   9.039834373962574e-07   -1.2805291951991022e-05
-4.468800376236599e-06   9.039834373962574e-07   -1.2805291951991022e-05
-3.768555725675894e-06   3.508412418820172e-07   -1.3640481052283631e-05
-3.768555725675894e-06   3.508412418820172e-07   -1.3640481052283631e-05
-3.768555725675894e-06   3.508412418820172e-07   -1.3640481052283631e-05
-3.768555725675894e-06   3.508412418820172e-07   -1.3640481052283631e-05
-4.1571454782152095e-06   4.970065355184563e-07   -1.3080530640900202e-05
-4.1571454782152095e-06   4.970065355184563e-07   -1.3080530640900202e-05
-4.1571454782152095e-06   4.970065355184563e-07   -1.3080530640900202e-05
-4.1571454782152095e-06   4.970065355184563e-07   -1.3080530640900202e-05
-3.7685557256758806e-06   9.039834373962032e-07   -1.2473406634682402e-05
-3.7685557256758806e-06   9.039834373962032e-07   -1.2473406634682402e-05
-3.7685557256758806e-06   9.039834373962032e-07   -1.2473406634682402e-05
-3.7685557256758806e-06   9.039834373962032e-07   -1.2473406634682402e-05
-4.468800376236592e-06   3.508412418820172e-07   -1.3972366369592143e-05
-4.468800376236592e-06   3.508412418820172e-07   -1.3972366369592143e-05
-4.468800376236592e-06   3.508412418820172e-07   -1.3972366369592143e-05
-4.468800376236592e-06   3.508412418820172e-07   -1.3972366369592143e-05
-4.307278949148107e-06   1.3476007001180781e-06   -1.269767614194597e-05
-4.307278949148107e-06   1.3476007001180781e-06   -1.269767614194597e-05
-4.307278949148107e-06   1.3476007001180781e-06   -1.269767614194597e-05
-4.307278949148107e-06   1.3476007001180781e-06   -1.269767614194597e-05
-3.5227866393380846e-06   7.58247263831272e-07   -1.3651551263190581e-05
-3.5227866393380846e-06   7.58247263831272e-07   -1.3651551263190581e-05
-3.5227866393380846e-06   7.58247263831272e-07   -1.3651551263190581e-05
-3.5227866393380846e-06   7.58247263831272e-07   -1.3651551263190581e-05
-4.001818876579237e-06   8.386273103908829e-07   -1.2901392229057763e-05
-4.001818876579237e-06   8.386273103908829e-07   -1.2901392229057763e-05
-4.001818876579237e-06   8.386273103908829e-07   -1.2901392229057763e-05
-4.001818876579237e-06   8.386273103908829e-07   -1.2901392229057763e-05
-3.522786639338071e-06   1.347600700118024e-06   -1.2344064080173909e-05
-3.522786639338071e-06   1.347600700118024e-06   -1.2344064080173909e-05
-3.522786639338071e-06   1.347600700118024e-06   -1.2344064080173909e-05
-3.522786639338071e-06   1.347600700118024e-06   -1.2344064080173909e-05
-4.30727894914808e-06   7.58247263831272e-07   -1.4005163324962589e-05
-4.30727894914808e-06   7.58247263831272e-07   -1.4005163324962589e-05
-4.30727894914808e-06   7.58247263831272e-07   -1.4005163324962589e-05
-4.30727894914808e-06   7.58247263831272e-07   -1.4005163324962589e-05
-4.155741788856953e-06   1.8416443125986474e-06   -1.2908436669738569e-05
-4.155741788856953e-06   1.8416443125986474e-06   -1.2908436669738569e-05
-4.155741788856953e-06   1.8416443125986474e-06   -1.2908436669738569e-05
-4.155741788856953e-06   1.8416443125986474e-06   -1.2908436669738569e-05
-3.333201838914821e-06   1.2245145534820444e-06   -1.3909058730838815e-05
-3.333201838914821e-06   1.2245145534820444e-06   -1.3909058730838815e-05
-3.333201838914821e-06   1.2245145534820444e-06   -1.3909058730838815e-05
-3.333201838914821e-06   1.2245145534820444e-06   -1.3909058730838815e-05
-3.865852827455504e-06   1.1981692743821609e-06   -1.3005499915811128e-05
-3.865852827455504e-06   1.1981692743821609e-06   -1.3005499915811128e-05
-3.865852827455504e-06   1.1981692743821609e-06   -1.3005499915811128e-05
-3.865852827455504e-06   1.1981692743821609e-06   -1.3005499915811128e-05
-4.62396020298849e-06   2.5018458938032674e-07   -1.4919805835680747e-05
-4.62396020298849e-06   2.5018458938032674e-07   -1.4919805835680747e-05
-4.62396020298849e-06   2.5018458938032674e-07   -1.4919805835680747e-05
-4.62396020298849e-06   2.5018458938032674e-07   -1.4919805835680747e-05
-5.3123786624115725e-06   3.570846815988474e-07   -1.600302987938819e-05
-5.3123786624115725e-06   3.570846815988474e-07   -1.600302987938819e-05
-5.3123786624115725e-06   3.570846815988474e-07   -1.600302987938819e-05
-5.3123786624115725e-06   3.570846815988474e-07   -1.600302987938819e-05
-5.160290284849145e-06   7.361384828682266e-07   -1.468703801792029e-05
-5.160290284849145e-06   7.361384828682266e-07   -1.468703801792029e-05
-5.160290284849145e-06   7.361384828682266e-07   -1.468703801792029e-05
-5.160290284849145e-06   7.361384828682266e-07   -1.468703801792029e-05
-4.468800376236592e-06   7.946751029784364e-07   -1.5874643171007248e-05
-4.468800376236592e-06   7.946751029784364e-07   -1.5874643171007248e-05
-4.468800376236592e-06   7.946751029784364e-07   -1.5874643171007248e-05
-4.468800376236592e-06   7.946751029784364e-07   -1.5874643171007248e-05
-4.861862060598172e-06   6.030703194781668e-07   -1.510457749363803e-05
-4.861862060598172e-06   6.030703194781668e-07   -1.510457749363803e-05
-4.861862060598172e-06   6.030703194781668e-07   -1.510457749363803e-05
-4.861862060598172e-06   6.030703194781668e-07   -1.510457749363803e-05
-4.468800376236586e-06   7.361384828682808e-07   -1.4722159989986373e-05
-4.468800376236586e-06   7.361384828682808e-07   -1.4722159989986373e-05
-4.468800376236586e-06   7.361384828682808e-07   -1.4722159989986373e-05
-4.468800376236586e-06   7.361384828682808e-07   -1.4722159989986373e-05
-5.160290284849153e-06   7.946751029784364e-07   -1.5839521198941233e-05
-5.160290284849153e-06   7.946751029784364e-07   -1.5839521198941233e-05
-5.160290284849153e-06   7.946751029784364e-07   -1.5839521198941233e-05
-5.160290284849153e-06   7.946751029784364e-07   -1.5839521198941233e-05
-4.999728106869866e-06   1.2262913748406013e-06   -1.4728500758118604e-05
-4.999728106869866e-06   1.2262913748406013e-06   -1.4728500758118604e-05
-4.999728106869866e-06   1.2262913748406013e-06   -1.4728500758118604e-05
-4.999728106869866e-06   1.2262913748406013e-06   -1.4728500758118604e-05
-4.307278949148107e-06   1.2416753993868329e-06   -1.5891813102382422e-05
-4.307278949148107e-06   1.2416753993868329e-06   -1.5891813102382422e-05
-4.307278949148107e-06   1.2416753993868329e-06   -1.5891813102382422e-05
-4.307278949148107e-06   1.2416753993868329e-06   -1.5891813102382422e-05
-4.735121878591938e-06   9.783132805181753e-07   -1.5020724281988526e-05
-4.735121878591938e-06   9.783132805181753e-07   -1.5020724281988526e-05
-4.735121878591938e-06   9.783132805181753e-07   -1.5020724281988526e-05
-4.735121878591938e-06   9.783132805181753e-07   -1.5020724281988526e-05
-4.30727894914808e-06   1.2262913748406555e-06   -1.4737731172846137e-05
-4.30727894914808e-06   1.2262913748406555e-06   -1.4737731172846137e-05
-4.30727894914808e-06   1.2262913748406555e-06   -1.4737731172846137e-05
-4.30727894914808e-06   1.2262913748406555e-06   -1.4737731172846137e-05
-4.999728106869866e-06   1.2416753993868329e-06   -1.5882582687654794e-05
-4.999728106869866e-06   1.2416753993868329e-06   -1.5882582687654794e-05
-4.999728106869866e-06   1.2416753993868329e-06   -1.5882582687654794e-05
-4.999728106869866e-06   1.2416753993868329e-06   -1.5882582687654794e-05
-4.848452679503016e-06   1.7239089348710778e-06   -1.5014437219895856e-05
-4.848452679503016e-06   1.7239089348710778e-06   -1.5014437219895856e-05
-4.848452679503016e-06   1.7239089348710778e-06   -1.5014437219895856e-05
-4.848452679503016e-06   1.7239089348710778e-06   -1.5014437219895856e-05
-4.15574178885696e-06   1.694963708068209e-06   -1.6151588234890812e-05
-4.15574178885696e-06   1.694963708068209e-06   -1.6151588234890812e-05
-4.15574178885696e-06   1.694963708068209e-06   -1.6151588234890812e-05
-4.15574178885696e-06   1.694963708068209e-06   -1.6151588234890812e-05
-4.6190279426361345e-06   1.3588510276216605e-06   -1.5177777036990965e-05
-4.6190279426361345e-06   1.3588510276216605e-06   -1.5177777036990965e-05
-4.6190279426361345e-06   1.3588510276216605e-06   -1.5177777036990965e-05
-4.6190279426361345e-06   1.3588510276216605e-06   -1.5177777036990965e-05
-5.312378662411554e-06   1.1561617296385659e-07   -1.2865029430926534e-05
-5.312378662411554e-06   1.1561617296385659e-07   -1.2865029430926534e-05
-5.312378662411554e-06   1.1561617296385659e-07   -1.2865029430926534e-05
-5.312378662411554e-06   1.1561617296385659e-07   -1.2865029430926534e-05
-6.04490537796641e-06   7.908362842265178e-07   -1.3680775223427028e-05
-6.04490537796641e-06   7.908362842265178e-07   -1.3680775223427028e-05
-6.04490537796641e-06   7.908362842265178e-07   -1.3680775223427028e-05
-6.04490537796641e-06   7.908362842265178e-07   -1.3680775223427028e-05
-5.859706736272958e-06   5.873248790582526e-07   -1.2294167642846478e-05
-5.859706736272958e-06   5.873248790582526e-07   -1.2294167642846478e-05
-5.859706736272958e-06   5.873248790582526e-07   -1.2294167642846478e-05
-5.859706736272958e-06   5.873248790582526e-07   -1.2294167642846478e-05
-5.160290284849145e-06   1.2306036233912477e-06   -1.3845828975152556e-05
-5.160290284849145e-06   1.2306036233912477e-06   -1.3845828975152556e-05
-5.160290284849145e-06   1.2306036233912477e-06   -1.3845828975152556e-05
-5.160290284849145e-06   1.2306036233912477e-06   -1.3845828975152556e-05
-5.550899482306353e-06   7.295686354221549e-07   -1.2894192653276011e-05
-5.550899482306353e-06   7.295686354221549e-07   -1.2894192653276011e-05
-5.550899482306353e-06   7.295686354221549e-07   -1.2894192653276011e-05
-5.550899482306353e-06   7.295686354221549e-07   -1.2894192653276011e-05
-5.1602902848491356e-06   5.873248790582526e-07   -1.2680134889446232e-05
-5.1602902848491356e-06   5.873248790582526e-07   -1.2680134889446232e-05
-5.1602902848491356e-06   5.873248790582526e-07   -1.2680134889446232e-05
-5.1602902848491356e-06   5.873248790582526e-07   -1.2680134889446232e-05
-5.859706736272958e-06   1.2306036233912477e-06   -1.345986172855278e-05
-5.859706736272958e-06   1.2306036233912477e-06   -1.345986172855278e-05
-5.859706736272958e-06   1.2306036233912477e-06   -1.345986172855278e-05
-5.859706736272958e-06   1.2306036233912477e-06   -1.345986172855278e-05
-5.6176743496696825e-06   1.0308659773613886e-06   -1.2343417559028803e-05
-5.6176743496696825e-06   1.0308659773613886e-06   -1.2343417559028803e-05
-5.6176743496696825e-06   1.0308659773613886e-06   -1.2343417559028803e-05
-5.6176743496696825e-06   1.0308659773613886e-06   -1.2343417559028803e-05
-4.999728106869858e-06   1.6354485716875465e-06   -1.3736077520290809e-05
-4.999728106869858e-06   1.6354485716875465e-06   -1.3736077520290809e-05
-4.999728106869858e-06   1.6354485716875465e-06   -1.3736077520290809e-05
-4.999728106869858e-06   1.6354485716875465e-06   -1.3736077520290809e-05
-5.385210800092116e-06   1.0792167669816102e-06   -1.2759867282096987e-05
-5.385210800092116e-06   1.0792167669816102e-06   -1.2759867282096987e-05
-5.385210800092116e-06   1.0792167669816102e-06   -1.2759867282096987e-05
-5.385210800092116e-06   1.0792167669816102e-06   -1.2759867282096987e-05
-4.999728106869844e-06   1.0308659773614428e-06   -1.2706167115624422e-05
-4.999728106869844e-06   1.0308659773614428e-06   -1.2706167115624422e-05
-4.999728106869844e-06   1.0308659773614428e-06   -1.2706167115624422e-05
-4.999728106869844e-06   1.0308659773614428e-06   -1.2706167115624422e-05
-5.617674349669696e-06   1.6354485716875465e-06   -1.337332796369511e-05
-5.617674349669696e-06   1.6354485716875465e-06   -1.337332796369511e-05
-5.617674349669696e-06   1.6354485716875465e-06   -1.337332796369511e-05
-5.617674349669696e-06   1.6354485716875465e-06   -1.337332796369511e-05
-5.42821932714291e-06   1.5311526015274256e-06   -1.2685581052555969e-05
-5.42821932714291e-06   1.5311526015274256e-06   -1.2685581052555969e-05
-5.42821932714291e-06   1.5311526015274256e-06   -1.2685581052555969e-05
-5.42821932714291e-06   1.5311526015274256e-06   -1.2685581052555969e-05
-4.848452679503016e-06   2.087822931426896e-06   -1.398586099656207e-05
-4.848452679503016e-06   2.087822931426896e-06   -1.398586099656207e-05
-4.848452679503016e-06   2.087822931426896e-06   -1.398586099656207e-05
-4.848452679503016e-06   2.087822931426896e-06   -1.398586099656207e-05
-5.263379747245109e-06   1.4354033148868475e-06   -1.2902864113734471e-05
-5.263379747245109e-06   1.4354033148868475e-06   -1.2902864113734471e-05
-5.263379747245109e-06   1.4354033148868475e-06   -1.2902864113734471e-05
-5.263379747245109e-06   1.4354033148868475e-06   -1.2902864113734471e-05
-6.04490537796639e-06   1.7001734062407426e-07   -6.8439339621050575e-06
-6.04490537796639e-06   1.7001734062407426e-07   -6.8439339621050575e-06
-6.04490537796639e-06   1.7001734062407426e-07   -6.8439339621050575e-06
-6.04490537796639e-06   1.7001734062407426e-07   -6.8439339621050575e-06
-7.37134262195653e-06   1.3341726538710968e-06   -8.356169514140354e-06
-7.37134262195653e-06   1.3341726538710968e-06   -8.356169514140354e-06
-7.37134262195653e-06   1.3341726538710968e-06   -8.356169514140354e-06
-7.37134262195653e-06   1.3341726538710968e-06   -8.356169514140354e-06
-6.6962238936524565e-06   5.44075117919914e-07   -5.6139501401882225e-06
-6.6962238936524565e-06   5.44075117919914e-07   -5.6139501401882225e-06
-6.6962238936524565e-06   5.44075117919914e-07   -5.6139501401882225e-06
-6.6962238936524565e-06   5.44075117919914e-07   -5.6139501401882225e-06
-5.859706736272951e-06   1.7340364152301866e-06   -7.722122180873463e-06
-5.859706736272951e-06   1.7340364152301866e-06   -7.722122180873463e-06
-5.859706736272951e-06   1.7340364152301866e-06   -7.722122180873463e-06
-5.859706736272951e-06   1.7340364152301866e-06   -7.722122180873463e-06
-6.230338222111074e-06   9.92514931706873e-07   -6.659490147696212e-06
-6.230338222111074e-06   9.92514931706873e-07   -6.659490147696212e-06
-6.230338222111074e-06   9.92514931706873e-07   -6.659490147696212e-06
-6.230338222111074e-06   9.92514931706873e-07   -6.659490147696212e-06
-5.859706736272931e-06   5.440751179198598e-07   -6.327926918574267e-06
-5.859706736272931e-06   5.440751179198598e-07   -6.327926918574267e-06
-5.859706736272931e-06   5.440751179198598e-07   -6.327926918574267e-06
-5.859706736272931e-06   5.440751179198598e-07   -6.327926918574267e-06
-6.6962238936524565e-06   1.7340364152300782e-06   -7.008145402487439e-06
-6.6962238936524565e-06   1.7340364152300782e-06   -7.008145402487439e-06
-6.6962238936524565e-06   1.7340364152300782e-06   -7.008145402487439e-06
-6.6962238936524565e-06   1.7340364152300782e-06   -7.008145402487439e-06
-6.147111144030185e-06   7.538120195550962e-07   -5.50712914389683e-06
-6.147111144030185e-06   7.538120195550962e-07   -5.50712914389683e-06
-6.147111144030185e-06   7.538120195550962e-07   -5.50712914389683e-06
-6.147111144030185e-06   7.538120195550962e-07   -5.50712914389683e-06
-5.6176743496696825e-06   1.9170154757954926e-06   -7.087445874908421e-06
-5.6176743496696825e-06   1.9170154757954926e-06   -7.087445874908421e-06
-5.6176743496696825e-06   1.9170154757954926e-06   -7.087445874908421e-06
-5.6176743496696825e-06   1.9170154757954926e-06   -7.087445874908421e-06
-5.947999737849589e-06   1.179027263462887e-06   -6.0941106338758394e-06
-5.947999737849589e-06   1.179027263462887e-06   -6.0941106338758394e-06
-5.947999737849589e-06   1.179027263462887e-06   -6.0941106338758394e-06
-5.947999737849589e-06   1.179027263462887e-06   -6.0941106338758394e-06
-5.617674349669676e-06   7.538120195550962e-07   -6.205051217640981e-06
-5.617674349669676e-06   7.538120195550962e-07   -6.205051217640981e-06
-5.617674349669676e-06   7.538120195550962e-07   -6.205051217640981e-06
-5.617674349669676e-06   7.538120195550962e-07   -6.205051217640981e-06
-6.147111144030185e-06   1.917015475795384e-06   -6.389523801164263e-06
-6.147111144030185e-06   1.917015475795384e-06   -6.389523801164263e-06
-6.147111144030185e-06   1.917015475795384e-06   -6.389523801164263e-06
-6.147111144030185e-06   1.917015475795384e-06   -6.389523801164263e-06
-5.472591079502622e-06   1.1228010522465557e-06   -5.661660831542359e-06
-5.472591079502622e-06   1.1228010522465557e-06   -5.661660831542359e-06
-5.472591079502622e-06   1.1228010522465557e-06   -5.661660831542359e-06
-5.472591079502622e-06   1.1228010522465557e-06   -5.661660831542359e-06
-5.428219327142903e-06   2.1972904320477753e-06   -6.380307380022514e-06
-5.428219327142903e-06   2.1972904320477753e-06   -6.380307380022514e-06
-5.428219327142903e-06   2.1972904320477753e-06   -6.380307380022514e-06
-5.428219327142903e-06   2.1972904320477753e-06   -6.380307380022514e-06
-5.522280669301337e-06   1.327653954080743e-06   -5.701756589644944e-06
-5.522280669301337e-06   1.327653954080743e-06   -5.701756589644944e-06
-5.522280669301337e-06   1.327653954080743e-06   -5.701756589644944e-06
-5.522280669301337e-06   1.327653954080743e-06   -5.701756589644944e-06
3.5774912421467292e-06   -3.5234881966457205e-07   -3.4696691818051056e-06
3.5774912421467292e-06   -3.5234881966457205e-07   -3.4696691818051056e-06
3.5774912421467292e-06   -3.5234881966457205e-07   -3.4696691818051056e-06
3.5774912421467292e-06   -3.5234881966457205e-07   -3.4696691818051056e-06
3.8090832626032367e-07   -1.4501232764494408e-06   -9.45597204902009e-06
3.8090832626032367e-07   -1.4501232764494408e-06   -9.45597204902009e-06
3.8090832626032367e-07   -1.4501232764494408e-06   -9.45597204902009e-06
3.8090832626032367e-07   -1.4501232764494408e-06   -9.45597204902009e-06
6.459904524627535e-07   -1.8620380017389526e-08   -3.84971383316651e-06
6.459904524627535e-07   -1.8620380017389526e-08   -3.84971383316651e-06
6.459904524627535e-07   -1.8620380017389526e-08   -3.84971383316651e-06
6.459904524627535e-07   -1.8620380017389526e-08   -3.84971383316651e-06
4.332318317221579e-06   -1.1935397182102556e-06   -9.288642004848897e-06
4.332318317221579e-06   -1.1935397182102556e-06   -9.288642004848897e-06
4.332318317221579e-06   -1.1935397182102556e-06   -9.288642004848897e-06
4.332318317221579e-06   -1.1935397182102556e-06   -9.288642004848897e-06
2.1499494596688955e-06   -6.083235103203442e-07   -6.002490300328347e-06
2.1499494596688955e-06   -6.083235103203442e-07   -6.002490300328347e-06
2.1499494596688955e-06   -6.083235103203442e-07   -6.002490300328347e-06
2.1499494596688955e-06   -6.083235103203442e-07   -6.002490300328347e-06
4.332318317221579e-06   -1.8620380017389526e-08   -3.144762230250823e-06
4.332318317221579e-06   -1.8620380017389526e-08   -3.144762230250823e-06
4.332318317221579e-06   -1.8620380017389526e-08   -3.144762230250823e-06
4.332318317221579e-06   -1.8620380017389526e-08   -3.144762230250823e-06
6.459904524627535e-07   -1.1935397182102556e-06   -9.993593607764693e-06
6.459904524627535e-07   -1.1935397182102556e-06   -9.993593607764693e-06
6.459904524627535e-07   -1.1935397182102556e-06   -9.993593607764693e-06
6.459904524627535e-07   -1.1935397182102556e-06   -9.993593607764693e-06
9.592821219740592e-07   1.7171977742156622e-07   -3.884699515215723e-06
9.592821219740592e-07   1.7171977742156622e-07   -3.884699515215723e-06
9.592821219740592e-07   1.7171977742156622e-07   -3.884699515215723e-06
9.592821219740592e-07   1.7171977742156622e-07   -3.884699515215723e-06
4.967662537536344e-06   -1.0206775708162e-06   -9.849895132210332e-06
4.967662537536344e-06   -1.0206775708162e-06   -9.849895132210332e-06
4.967662537536344e-06   -1.0206775708162e-06   -9.849895132210332e-06
4.967662537536344e-06   -1.0206775708162e-06   -9.849895132210332e-06
2.6268086899501876e-06   -4.873104564144526e-07   -6.268492321541311e-06
2.6268086899501876e-06   -4.873104564144526e-07   -6.268492321541311e-06
2.6268086899501876e-06   -4.873104564144526e-07   -6.268492321541311e-06
2.6268086899501876e-06   -4.873104564144526e-07   -6.268492321541311e-06
4.967662537536344e-06   1.7171977742156622e-07   -3.169261106273128e-06
4.967662537536344e-06   1.7171977742156622e-07   -3.169261106273128e-06
4.967662537536344e-06   1.7171977742156622e-07   -3.169261106273128e-06
4.967662537536344e-06   1.7171977742156622e-07   -3.169261106273128e-06
9.592821219740592e-07   -1.0206775708160917e-06   -1.05653335411529e-05
9.592821219740592e-07   -1.0206775708160917e-06   -1.05653335411529e-05
9.592821219740592e-07   -1.0206775708160917e-06   -1.05653335411529e-05
9.592821219740592e-07   -1.0206775708160917e-06   -1.05653335411529e-05
1.2151163923113513e-06   5.508016730323062e-07   -4.271184024145667e-06
1.2151163923113513e-06   5.508016730323062e-07   -4.271184024145667e-06
1.2151163923113513e-06   5.508016730323062e-07   -4.271184024145667e-06
1.2151163923113513e-06   5.508016730323062e-07   -4.271184024145667e-06
5.731102407016166e-06   -5.868674175921922e-07   -1.1115225927612249e-05
5.731102407016166e-06   -5.868674175921922e-07   -1.1115225927612249e-05
5.731102407016166e-06   -5.868674175921922e-07   -1.1115225927612249e-05
5.731102407016166e-06   -5.868674175921922e-07   -1.1115225927612249e-05
3.001755922586442e-06   -3.0802631095197715e-07   -6.733619784213675e-06
3.001755922586442e-06   -3.0802631095197715e-07   -6.733619784213675e-06
3.001755922586442e-06   -3.0802631095197715e-07   -6.733619784213675e-06
3.001755922586442e-06   -3.0802631095197715e-07   -6.733619784213675e-06
3.8090832626032367e-07   -7.12513129569152e-08   -1.0175157232603527e-05
3.8090832626032367e-07   -7.12513129569152e-08   -1.0175157232603527e-05
3.8090832626032367e-07   -7.12513129569152e-08   -1.0175157232603527e-05
3.8090832626032367e-07   -7.12513129569152e-08   -1.0175157232603527e-05
-3.31611870043233e-06   -5.66184027743586e-07   -1.6633828572629834e-05
-3.31611870043233e-06   -5.66184027743586e-07   -1.6633828572629834e-05
-3.31611870043233e-06   -5.66184027743586e-07   -1.6633828572629834e-05
-3.31611870043233e-06   -5.66184027743586e-07   -1.6633828572629834e-05
-3.085148874387009e-06   3.508412418820172e-07   -1.0231490008847277e-05
-3.085148874387009e-06   3.508412418820172e-07   -1.0231490008847277e-05
-3.085148874387009e-06   3.508412418820172e-07   -1.0231490008847277e-05
-3.085148874387009e-06   3.508412418820172e-07   -1.0231490008847277e-05
6.459904524627535e-07   -2.1243494388925848e-07   -1.611208984213415e-05
6.459904524627535e-07   -2.1243494388925848e-07   -1.611208984213415e-05
6.459904524627535e-07   -2.1243494388925848e-07   -1.611208984213415e-05
6.459904524627535e-07   -2.1243494388925848e-07   -1.611208984213415e-05
-1.313007787946353e-06   -1.5794810509961628e-08   -1.2965076854813158e-05
-1.313007787946353e-06   -1.5794810509961628e-08   -1.2965076854813158e-05
-1.313007787946353e-06   -1.5794810509961628e-08   -1.2965076854813158e-05
-1.313007787946353e-06   -1.5794810509961628e-08   -1.2965076854813158e-05
6.459904524627535e-07   3.508412418820172e-07   -9.893524297384447e-06
6.459904524627535e-07   3.508412418820172e-07   -9.893524297384447e-06
6.459904524627535e-07   3.508412418820172e-07   -9.893524297384447e-06
6.459904524627535e-07   3.508412418820172e-07   -9.893524297384447e-06
-3.085148874387009e-06   -2.1243494388925848e-07   -1.645005555359698e-05
-3.085148874387009e-06   -2.1243494388925848e-07   -1.645005555359698e-05
-3.085148874387009e-06   -2.1243494388925848e-07   -1.645005555359698e-05
-3.085148874387009e-06   -2.1243494388925848e-07   -1.645005555359698e-05
-2.852796400730457e-06   7.582472638313804e-07   -1.0247848073127144e-05
-2.852796400730457e-06   7.582472638313804e-07   -1.0247848073127144e-05
-2.852796400730457e-06   7.582472638313804e-07   -1.0247848073127144e-05
-2.852796400730457e-06   7.582472638313804e-07   -1.0247848073127144e-05
9.592821219740592e-07   1.539828806993793e-07   -1.623875364775552e-05
9.592821219740592e-07   1.539828806993793e-07   -1.623875364775552e-05
9.592821219740592e-07   1.539828806993793e-07   -1.623875364775552e-05
9.592821219740592e-07   1.539828806993793e-07   -1.623875364775552e-05
-1.109428342925744e-06   2.7601157527059033e-07   -1.286412008966528e-05
-1.109428342925744e-06   2.7601157527059033e-07   -1.286412008966528e-05
-1.109428342925744e-06   2.7601157527059033e-07   -1.286412008966528e-05
-1.109428342925744e-06   2.7601157527059033e-07   -1.286412008966528e-05
9.592821219740592e-07   7.58247263831272e-07   -9.88528944324802e-06
9.592821219740592e-07   7.58247263831272e-07   -9.88528944324802e-06
9.592821219740592e-07   7.58247263831272e-07   -9.88528944324802e-06
9.592821219740592e-07   7.58247263831272e-07   -9.88528944324802e-06
-2.852796400730457e-06   1.539828806993793e-07   -1.6601312277634726e-05
-2.852796400730457e-06   1.539828806993793e-07   -1.6601312277634726e-05
-2.852796400730457e-06   1.539828806993793e-07   -1.6601312277634726e-05
-2.852796400730457e-06   1.539828806993793e-07   -1.6601312277634726e-05
-2.6313357477808643e-06   1.224514553481936e-06   -1.050641250177457e-05
-2.6313357477808643e-06   1.224514553481936e-06   -1.050641250177457e-05
-2.6313357477808643e-06   1.224514553481936e-06   -1.050641250177457e-05
-2.6313357477808643e-06   1.224514553481936e-06   -1.050641250177457e-05
1.2151163923113377e-06   5.888885879685481e-07   -1.6535790489286933e-05
1.2151163923113377e-06   5.888885879685481e-07   -1.6535790489286933e-05
1.2151163923113377e-06   5.888885879685481e-07   -1.6535790489286933e-05
1.2151163923113377e-06   5.888885879685481e-07   -1.6535790489286933e-05
-8.816392463274524e-07   6.004795638399341e-07   -1.3048152343745245e-05
-8.816392463274524e-07   6.004795638399341e-07   -1.3048152343745245e-05
-8.816392463274524e-07   6.004795638399341e-07   -1.3048152343745245e-05
-8.816392463274524e-07   6.004795638399341e-07   -1.3048152343745245e-05
-3.3161187004323366e-06   3.570846815988474e-07   -1.233977690492038e-05
-3.3161187004323366e-06   3.570846815988474e-07   -1.233977690492038e-05
-3.3161187004323366e-06   3.570846815988474e-07   -1.233977690492038e-05
-3.3161187004323366e-06   3.570846815988474e-07   -1.233977690492038e-05
-6.97817884398115e-06   4.49677389425065e-07   -1.838765485280596e-05
-6.97817884398115e-06   4.49677389425065e-07   -1.838765485280596e-05
-6.97817884398115e-06   4.49677389425065e-07   -1.838765485280596e-05
-6.97817884398115e-06   4.49677389425065e-07   -1.838765485280596e-05
-6.745917028016063e-06   7.946751029784364e-07   -1.2115440986460336e-05
-6.745917028016063e-06   7.946751029784364e-07   -1.2115440986460336e-05
-6.745917028016063e-06   7.946751029784364e-07   -1.2115440986460336e-05
-6.745917028016063e-06   7.946751029784364e-07   -1.2115440986460336e-05
-3.0851488743870157e-06   8.252181426486723e-07   -1.823504706631099e-05
-3.0851488743870157e-06   8.252181426486723e-07   -1.823504706631099e-05
-3.0851488743870157e-06   8.252181426486723e-07   -1.823504706631099e-05
-3.0851488743870157e-06   8.252181426486723e-07   -1.823504706631099e-05
-5.0022904054982995e-06   6.8302799454442e-07   -1.4954497092262961e-05
-5.0022904054982995e-06   6.8302799454442e-07   -1.4954497092262961e-05
-5.0022904054982995e-06   6.8302799454442e-07   -1.4954497092262961e-05
-5.0022904054982995e-06   6.8302799454442e-07   -1.4954497092262961e-05
-3.0851488743870157e-06   7.946751029784364e-07   -1.2133766810262531e-05
-3.0851488743870157e-06   7.946751029784364e-07   -1.2133766810262531e-05
-3.0851488743870157e-06   7.946751029784364e-07   -1.2133766810262531e-05
-3.0851488743870157e-06   7.946751029784364e-07   -1.2133766810262531e-05
-6.745917028016063e-06   8.252181426485639e-07   -1.821672124250885e-05
-6.745917028016063e-06   8.252181426485639e-07   -1.821672124250885e-05
-6.745917028016063e-06   8.252181426485639e-07   -1.821672124250885e-05
-6.745917028016063e-06   8.252181426485639e-07   -1.821672124250885e-05
-6.509426860301034e-06   1.2416753993868329e-06   -1.2146162199726132e-05
-6.509426860301034e-06   1.2416753993868329e-06   -1.2146162199726132e-05
-6.509426860301034e-06   1.2416753993868329e-06   -1.2146162199726132e-05
-6.509426860301034e-06   1.2416753993868329e-06   -1.2146162199726132e-05
-2.8527964007304504e-06   1.222234817421417e-06   -1.8228881949831324e-05
-2.8527964007304504e-06   1.222234817421417e-06   -1.8228881949831324e-05
-2.8527964007304504e-06   1.222234817421417e-06   -1.8228881949831324e-05
-2.8527964007304504e-06   1.222234817421417e-06   -1.8228881949831324e-05
-4.798625128937332e-06   1.011560375499456e-06   -1.4859429404333584e-05
-4.798625128937332e-06   1.011560375499456e-06   -1.4859429404333584e-05
-4.798625128937332e-06   1.011560375499456e-06   -1.4859429404333584e-05
-4.798625128937332e-06   1.011560375499456e-06   -1.4859429404333584e-05
-2.8527964007304504e-06   1.2416753993868329e-06   -1.2134497850546991e-05
-2.8527964007304504e-06   1.2416753993868329e-06   -1.2134497850546991e-05
-2.8527964007304504e-06   1.2416753993868329e-06   -1.2134497850546991e-05
-2.8527964007304504e-06   1.2416753993868329e-06   -1.2134497850546991e-05
-6.509426860301022e-06   1.222234817421417e-06   -1.824054629901052e-05
-6.509426860301022e-06   1.222234817421417e-06   -1.824054629901052e-05
-6.509426860301022e-06   1.222234817421417e-06   -1.824054629901052e-05
-6.509426860301022e-06   1.222234817421417e-06   -1.824054629901052e-05
-6.284014018080246e-06   1.694963708068209e-06   -1.2419935282880986e-05
-6.284014018080246e-06   1.694963708068209e-06   -1.2419935282880986e-05
-6.284014018080246e-06   1.694963708068209e-06   -1.2419935282880986e-05
-6.284014018080246e-06   1.694963708068209e-06   -1.2419935282880986e-05
-2.631335747780871e-06   1.6261784871945484e-06   -1.8466461267522397e-05
-2.631335747780871e-06   1.6261784871945484e-06   -1.8466461267522397e-05
-2.631335747780871e-06   1.6261784871945484e-06   -1.8466461267522397e-05
-2.631335747780871e-06   1.6261784871945484e-06   -1.8466461267522397e-05
-4.60969820417807e-06   1.3451577900397502e-06   -1.500057808856775e-05
-4.60969820417807e-06   1.3451577900397502e-06   -1.500057808856775e-05
-4.60969820417807e-06   1.3451577900397502e-06   -1.500057808856775e-05
-4.60969820417807e-06   1.3451577900397502e-06   -1.500057808856775e-05
-6.978178843981162e-06   7.908362842265178e-07   -1.0367098691021071e-05
-6.978178843981162e-06   7.908362842265178e-07   -1.0367098691021071e-05
-6.978178843981162e-06   7.908362842265178e-07   -1.0367098691021071e-05
-6.978178843981162e-06   7.908362842265178e-07   -1.0367098691021071e-05
-1.0607758233205242e-05   1.43887877260729e-06   -1.602757218003274e-05
-1.0607758233205242e-05   1.43887877260729e-06   -1.602757218003274e-05
-1.0607758233205242e-05   1.43887877260729e-06   -1.602757218003274e-05
-1.0607758233205242e-05   1.43887877260729e-06   -1.602757218003274e-05
-1.0341503158742483e-05   1.2306036233912477e-06   -9.75621099561885e-06
-1.0341503158742483e-05   1.2306036233912477e-06   -9.75621099561885e-06
-1.0341503158742483e-05   1.2306036233912477e-06   -9.75621099561885e-06
-1.0341503158742483e-05   1.2306036233912477e-06   -9.75621099561885e-06
-6.745917028016063e-06   1.8398332351460354e-06   -1.6114392313882388e-05
-6.745917028016063e-06   1.8398332351460354e-06   -1.6114392313882388e-05
-6.745917028016063e-06   1.8398332351460354e-06   -1.6114392313882388e-05
-6.745917028016063e-06   1.8398332351460354e-06   -1.6114392313882388e-05
-8.608142652260389e-06   1.376186508028946e-06   -1.2732494903871627e-05
-8.608142652260389e-06   1.376186508028946e-06   -1.2732494903871627e-05
-8.608142652260389e-06   1.376186508028946e-06   -1.2732494903871627e-05
-8.608142652260389e-06   1.376186508028946e-06   -1.2732494903871627e-05
-6.745917028016075e-06   1.2306036233912477e-06   -1.01217487626718e-05
-6.745917028016075e-06   1.2306036233912477e-06   -1.01217487626718e-05
-6.745917028016075e-06   1.2306036233912477e-06   -1.01217487626718e-05
-6.745917028016075e-06   1.2306036233912477e-06   -1.01217487626718e-05
-1.03415031587425e-05   1.8398332351460354e-06   -1.5748854546829673e-05
-1.03415031587425e-05   1.8398332351460354e-06   -1.5748854546829673e-05
-1.03415031587425e-05   1.8398332351460354e-06   -1.5748854546829673e-05
-1.03415031587425e-05   1.8398332351460354e-06   -1.5748854546829673e-05
-1.0020268672771326e-05   1.6354485716875465e-06   -9.66073808178643e-06
-1.0020268672771326e-05   1.6354485716875465e-06   -9.66073808178643e-06
-1.0020268672771326e-05   1.6354485716875465e-06   -9.66073808178643e-06
-1.0020268672771326e-05   1.6354485716875465e-06   -9.66073808178643e-06
-6.509426860301034e-06   2.20031348931388e-06   -1.585106005314604e-05
-6.509426860301034e-06   2.20031348931388e-06   -1.585106005314604e-05
-6.509426860301034e-06   2.20031348931388e-06   -1.585106005314604e-05
-6.509426860301034e-06   2.20031348931388e-06   -1.585106005314604e-05
-8.338586228914412e-06   1.69357216083443e-06   -1.2498416308369588e-05
-8.338586228914412e-06   1.69357216083443e-06   -1.2498416308369588e-05
-8.338586228914412e-06   1.69357216083443e-06   -1.2498416308369588e-05
-8.338586228914412e-06   1.69357216083443e-06   -1.2498416308369588e-05
-6.509426860301027e-06   1.6354485716875465e-06   -9.999657032362121e-06
-6.509426860301027e-06   1.6354485716875465e-06   -9.999657032362121e-06
-6.509426860301027e-06   1.6354485716875465e-06   -9.999657032362121e-06
-6.509426860301027e-06   1.6354485716875465e-06   -9.999657032362121e-06
-1.0020268672771326e-05   2.20031348931388e-06   -1.5512141102570298e-05
-1.0020268672771326e-05   2.20031348931388e-06   -1.5512141102570298e-05
-1.0020268672771326e-05   2.20031348931388e-06   -1.5512141102570298e-05
-1.0020268672771326e-05   2.20031348931388e-06   -1.5512141102570298e-05
-9.753269091868508e-06   2.087822931426896e-06   -9.928244541497163e-06
-9.753269091868508e-06   2.087822931426896e-06   -9.928244541497163e-06
-9.753269091868508e-06   2.087822931426896e-06   -9.928244541497163e-06
-9.753269091868508e-06   2.087822931426896e-06   -9.928244541497163e-06
-6.284014018080246e-06   2.6021502097156373e-06   -1.6018932698117532e-05
-6.284014018080246e-06   2.6021502097156373e-06   -1.6018932698117532e-05
-6.284014018080246e-06   2.6021502097156373e-06   -1.6018932698117532e-05
-6.284014018080246e-06   2.6021502097156373e-06   -1.6018932698117532e-05
-8.161664208743533e-06   2.0053579179965834e-06   -1.2531440338647306e-05
-8.161664208743533e-06   2.0053579179965834e-06   -1.2531440338647306e-05
-8.161664208743533e-06   2.0053579179965834e-06   -1.2531440338647306e-05
-8.161664208743533e-06   2.0053579179965834e-06   -1.2531440338647306e-05
-1.0607758233205242e-05   1.3341726538710968e-06   -5.352160676654191e-06
-1.0607758233205242e-05   1.3341726538710968e-06   -5.352160676654191e-06
-1.0607758233205242e-05   1.3341726538710968e-06   -5.352160676654191e-06
-1.0607758233205242e-05   1.3341726538710968e-06   -5.352160676654191e-06
-1.475648692583565e-05   2.4759015906386734e-06   -1.1581671135644383e-05
-1.475648692583565e-05   2.4759015906386734e-06   -1.1581671135644383e-05
-1.475648692583565e-05   2.4759015906386734e-06   -1.1581671135644383e-05
-1.475648692583565e-05   2.4759015906386734e-06   -1.1581671135644383e-05
-1.4009506054940107e-05   1.7340364152300782e-06   -3.3228599615483623e-06
-1.4009506054940107e-05   1.7340364152300782e-06   -3.3228599615483623e-06
-1.4009506054940107e-05   1.7340364152300782e-06   -3.3228599615483623e-06
-1.4009506054940107e-05   1.7340364152300782e-06   -3.3228599615483623e-06
-1.0341503158742483e-05   2.8933888925490375e-06   -1.0131809608269025e-05
-1.0341503158742483e-05   2.8933888925490375e-06   -1.0131809608269025e-05
-1.0341503158742483e-05   2.8933888925490375e-06   -1.0131809608269025e-05
-1.0341503158742483e-05   2.8933888925490375e-06   -1.0131809608269025e-05
-1.1923445687069008e-05   2.1552260832397984e-06   -7.052341042139312e-06
-1.1923445687069008e-05   2.1552260832397984e-06   -7.052341042139312e-06
-1.1923445687069008e-05   2.1552260832397984e-06   -7.052341042139312e-06
-1.1923445687069008e-05   2.1552260832397984e-06   -7.052341042139312e-06
-1.034150315874249e-05   1.7340364152300782e-06   -4.018471447939608e-06
-1.034150315874249e-05   1.7340364152300782e-06   -4.018471447939608e-06
-1.034150315874249e-05   1.7340364152300782e-06   -4.018471447939608e-06
-1.034150315874249e-05   1.7340364152300782e-06   -4.018471447939608e-06
-1.400950605494006e-05   2.893388892548929e-06   -9.436198121877718e-06
-1.400950605494006e-05   2.893388892548929e-06   -9.436198121877718e-06
-1.400950605494006e-05   2.893388892548929e-06   -9.436198121877718e-06
-1.400950605494006e-05   2.893388892548929e-06   -9.436198121877718e-06
-1.3392220997742157e-05   1.9170154757954926e-06   -2.6990387430644706e-06
-1.3392220997742157e-05   1.9170154757954926e-06   -2.6990387430644706e-06
-1.3392220997742157e-05   1.9170154757954926e-06   -2.6990387430644706e-06
-1.3392220997742157e-05   1.9170154757954926e-06   -2.6990387430644706e-06
-1.002026867277131e-05   3.0433775590208226e-06   -8.99477653461782e-06
-1.002026867277131e-05   3.0433775590208226e-06   -8.99477653461782e-06
-1.002026867277131e-05   3.0433775590208226e-06   -8.99477653461782e-06
-1.002026867277131e-05   3.0433775590208226e-06   -8.99477653461782e-06
-1.1657912694430833e-05   2.3446382445431978e-06   -5.8461262431653335e-06
-1.1657912694430833e-05   2.3446382445431978e-06   -5.8461262431653335e-06
-1.1657912694430833e-05   2.3446382445431978e-06   -5.8461262431653335e-06
-1.1657912694430833e-05   2.3446382445431978e-06   -5.8461262431653335e-06
-1.0020268672771326e-05   1.9170154757954926e-06   -3.3748559929997336e-06
-1.0020268672771326e-05   1.9170154757954926e-06   -3.3748559929997336e-06
-1.0020268672771326e-05   1.9170154757954926e-06   -3.3748559929997336e-06
-1.0020268672771326e-05   1.9170154757954926e-06   -3.3748559929997336e-06
-1.339222099774213e-05   3.0433775590208226e-06   -8.318959284682665e-06
-1.339222099774213e-05   3.0433775590208226e-06   -8.318959284682665e-06
-1.339222099774213e-05   3.0433775590208226e-06   -8.318959284682665e-06
-1.339222099774213e-05   3.0433775590208226e-06   -8.318959284682665e-06
-1.2659045406885556e-05   2.1972904320477753e-06   -2.037025485009049e-06
-1.2659045406885556e-05   2.1972904320477753e-06   -2.037025485009049e-06
-1.2659045406885556e-05   2.1972904320477753e-06   -2.037025485009049e-06
-1.2659045406885556e-05   2.1972904320477753e-06   -2.037025485009049e-06
-9.753269091868508e-06   3.230069828528276e-06   -7.499653647925734e-06
-9.753269091868508e-06   3.230069828528276e-06   -7.499653647925734e-06
-9.753269091868508e-06   3.230069828528276e-06   -7.499653647925734e-06
-9.753269091868508e-06   3.230069828528276e-06   -7.499653647925734e-06
-1.1074272473543219e-05   2.4348323597880254e-06   -4.82083886389054e-06
-1.1074272473543219e-05   2.4348323597880254e-06   -4.82083886389054e-06
-1.1074272473543219e-05   2.4348323597880254e-06   -4.82083886389054e-06
-1.1074272473543219e-05   2.4348323597880254e-06   -4.82083886389054e-06
1.1092732990793355e-05   -1.4501232764495492e-06   3.6028774652444636e-08
1.1092732990793355e-05   -1.4501232764495492e-06   3.6028774652444636e-08
1.1092732990793355e-05   -1.4501232764495492e-06   3.6028774652444636e-08
1.1092732990793355e-05   -1.4501232764495492e-06   3.6028774652444636e-08
4.706639849706793e-06   -2.5999332209603e-06   -1.1297345760531599e-05
4.706639849706793e-06   -2.5999332209603e-06   -1.1297345760531599e-05
4.706639849706793e-06   -2.5999332209603e-06   -1.1297345760531599e-05
4.706639849706793e-06   -2.5999332209603e-06   -1.1297345760531599e-05
5.0291905152215276e-06   -1.193539718210364e-06   -1.128929769507567e-06
5.0291905152215276e-06   -1.193539718210364e-06   -1.128929769507567e-06
5.0291905152215276e-06   -1.193539718210364e-06   -1.128929769507567e-06
5.0291905152215276e-06   -1.193539718210364e-06   -1.128929769507567e-06
1.1913070654279322e-05   -2.419775215696464e-06   -1.1866322036112049e-05
1.1913070654279322e-05   -2.419775215696464e-06   -1.1866322036112049e-05
1.1913070654279322e-05   -2.419775215696464e-06   -1.1866322036112049e-05
1.1913070654279322e-05   -2.419775215696464e-06   -1.1866322036112049e-05
7.854297890935379e-06   -1.718564000596388e-06   -5.522427492932267e-06
7.854297890935379e-06   -1.718564000596388e-06   -5.522427492932267e-06
7.854297890935379e-06   -1.718564000596388e-06   -5.522427492932267e-06
7.854297890935379e-06   -1.718564000596388e-06   -5.522427492932267e-06
1.1913070654279335e-05   -1.193539718210364e-06   -3.9318847101582014e-07
1.1913070654279335e-05   -1.193539718210364e-06   -3.9318847101582014e-07
1.1913070654279335e-05   -1.193539718210364e-06   -3.9318847101582014e-07
1.1913070654279335e-05   -1.193539718210364e-06   -3.9318847101582014e-07
5.0291905152215276e-06   -2.419775215696464e-06   -1.260206333460385e-05
5.0291905152215276e-06   -2.419775215696464e-06   -1.260206333460385e-05
5.0291905152215276e-06   -2.419775215696464e-06   -1.260206333460385e-05
5.0291905152215276e-06   -2.419775215696464e-06   -1.260206333460385e-05
5.387098464641261e-06   -1.0206775708162e-06   -1.6428991633253348e-06
5.387098464641261e-06   -1.0206775708162e-06   -1.6428991633253348e-06
5.387098464641261e-06   -1.0206775708162e-06   -1.6428991633253348e-06
5.387098464641261e-06   -1.0206775708162e-06   -1.6428991633253348e-06
1.2599810677729921e-05   -2.2626713857930433e-06   -1.2918889896153593e-05
1.2599810677729921e-05   -2.2626713857930433e-06   -1.2918889896153593e-05
1.2599810677729921e-05   -2.2626713857930433e-06   -1.2918889896153593e-05
1.2599810677729921e-05   -2.2626713857930433e-06   -1.2918889896153593e-05
8.47006675441093e-06   -1.6484847629674336e-06   -6.404495330984049e-06
8.47006675441093e-06   -1.6484847629674336e-06   -6.404495330984049e-06
8.47006675441093e-06   -1.6484847629674336e-06   -6.404495330984049e-06
8.47006675441093e-06   -1.6484847629674336e-06   -6.404495330984049e-06
1.2599810677729935e-05   -1.0206775708162e-06   -8.97702874339218e-07
1.2599810677729935e-05   -1.0206775708162e-06   -8.97702874339218e-07
1.2599810677729935e-05   -1.0206775708162e-06   -8.97702874339218e-07
1.2599810677729935e-05   -1.0206775708162e-06   -8.97702874339218e-07
5.387098464641261e-06   -2.2626713857930433e-06   -1.3664086185139791e-05
5.387098464641261e-06   -2.2626713857930433e-06   -1.3664086185139791e-05
5.387098464641261e-06   -2.2626713857930433e-06   -1.3664086185139791e-05
5.387098464641261e-06   -2.2626713857930433e-06   -1.3664086185139791e-05
5.681068304003975e-06   -5.868674175921922e-07   -2.8216722603949945e-06
5.681068304003975e-06   -5.868674175921922e-07   -2.8216722603949945e-06
5.681068304003975e-06   -5.868674175921922e-07   -2.8216722603949945e-06
5.681068304003975e-06   -5.868674175921922e-07   -2.8216722603949945e-06
1.3397532356302779e-05   -1.7684002770460743e-06   -1.497352596522067e-05
1.3397532356302779e-05   -1.7684002770460743e-06   -1.497352596522067e-05
1.3397532356302779e-05   -1.7684002770460743e-06   -1.497352596522067e-05
1.3397532356302779e-05   -1.7684002770460743e-06   -1.497352596522067e-05
8.797003148958271e-06   -1.4530904772824598e-06   -7.495163166171623e-06
8.797003148958271e-06   -1.4530904772824598e-06   -7.495163166171623e-06
8.797003148958271e-06   -1.4530904772824598e-06   -7.495163166171623e-06
8.797003148958271e-06   -1.4530904772824598e-06   -7.495163166171623e-06
4.706639849706793e-06   -5.661840277434776e-07   -7.534754086791829e-06
4.706639849706793e-06   -5.661840277434776e-07   -7.534754086791829e-06
4.706639849706793e-06   -5.661840277434776e-07   -7.534754086791829e-06
4.706639849706793e-06   -5.661840277434776e-07   -7.534754086791829e-06
-2.031030999001856e-06   -1.2057507988503906e-06   -1.9147945563970342e-05
-2.031030999001856e-06   -1.2057507988503906e-06   -1.9147945563970342e-05
-2.031030999001856e-06   -1.2057507988503906e-06   -1.9147945563970342e-05
-2.031030999001856e-06   -1.2057507988503906e-06   -1.9147945563970342e-05
-1.7322621859876047e-06   -2.1243494388925848e-07   -7.69108257351811e-06
-1.7322621859876047e-06   -2.1243494388925848e-07   -7.69108257351811e-06
-1.7322621859876047e-06   -2.1243494388925848e-07   -7.69108257351811e-06
-1.7322621859876047e-06   -2.1243494388925848e-07   -7.69108257351811e-06
5.0291905152215276e-06   -9.518625599576076e-07   -1.8516513839225533e-05
5.0291905152215276e-06   -9.518625599576076e-07   -1.8516513839225533e-05
5.0291905152215276e-06   -9.518625599576076e-07   -1.8516513839225533e-05
5.0291905152215276e-06   -9.518625599576076e-07   -1.8516513839225533e-05
1.5092451678980327e-06   -5.808508248616529e-07   -1.287254530141067e-05
1.5092451678980327e-06   -5.808508248616529e-07   -1.287254530141067e-05
1.5092451678980327e-06   -5.808508248616529e-07   -1.287254530141067e-05
1.5092451678980327e-06   -5.808508248616529e-07   -1.287254530141067e-05
5.0291905152215276e-06   -2.1243494388925848e-07   -7.24742600387697e-06
5.0291905152215276e-06   -2.1243494388925848e-07   -7.24742600387697e-06
5.0291905152215276e-06   -2.1243494388925848e-07   -7.24742600387697e-06
5.0291905152215276e-06   -2.1243494388925848e-07   -7.24742600387697e-06
-1.732262185987598e-06   -9.518625599576076e-07   -1.8960170408866537e-05
-1.732262185987598e-06   -9.518625599576076e-07   -1.8960170408866537e-05
-1.732262185987598e-06   -9.518625599576076e-07   -1.8960170408866537e-05
-1.732262185987598e-06   -9.518625599576076e-07   -1.8960170408866537e-05
-1.4470481871913942e-06   1.539828806993793e-07   -7.79382485091725e-06
-1.4470481871913942e-06   1.539828806993793e-07   -7.79382485091725e-06
-1.4470481871913942e-06   1.539828806993793e-07   -7.79382485091725e-06
-1.4470481871913942e-06   1.539828806993793e-07   -7.79382485091725e-06
5.387098464641261e-06   -6.418597542827507e-07   -1.870656368964903e-05
5.387098464641261e-06   -6.418597542827507e-07   -1.870656368964903e-05
5.387098464641261e-06   -6.418597542827507e-07   -1.870656368964903e-05
5.387098464641261e-06   -6.418597542827507e-07   -1.870656368964903e-05
1.7445761972957942e-06   -3.554057187971603e-07   -1.2807565665364445e-05
1.7445761972957942e-06   -3.554057187971603e-07   -1.2807565665364445e-05
1.7445761972957942e-06   -3.554057187971603e-07   -1.2807565665364445e-05
1.7445761972957942e-06   -3.554057187971603e-07   -1.2807565665364445e-05
5.387098464641261e-06   1.539828806993793e-07   -7.316319269927982e-06
5.387098464641261e-06   1.539828806993793e-07   -7.316319269927982e-06
5.387098464641261e-06   1.539828806993793e-07   -7.316319269927982e-06
5.387098464641261e-06   1.539828806993793e-07   -7.316319269927982e-06
-1.4470481871913942e-06   -6.418597542827507e-07   -1.9184069270638377e-05
-1.4470481871913942e-06   -6.418597542827507e-07   -1.9184069270638377e-05
-1.4470481871913942e-06   -6.418597542827507e-07   -1.9184069270638377e-05
-1.4470481871913942e-06   -6.418597542827507e-07   -1.9184069270638377e-05
-1.1796316770491179e-06   5.888885879686565e-07   -8.063580165917038e-06
-1.1796316770491179e-06   5.888885879686565e-07   -8.063580165917038e-06
-1.1796316770491179e-06   5.888885879686565e-07   -8.063580165917038e-06
-1.1796316770491179e-06   5.888885879686565e-07   -8.063580165917038e-06
5.681068304003975e-06   -2.5101940906826006e-07   -1.899413533611684e-05
5.681068304003975e-06   -2.5101940906826006e-07   -1.899413533611684e-05
5.681068304003975e-06   -2.5101940906826006e-07   -1.899413533611684e-05
5.681068304003975e-06   -2.5101940906826006e-07   -1.899413533611684e-05
2.0409341516781686e-06   -7.683933977433669e-08   -1.3031753123817126e-05
2.0409341516781686e-06   -7.683933977433669e-08   -1.3031753123817126e-05
2.0409341516781686e-06   -7.683933977433669e-08   -1.3031753123817126e-05
2.0409341516781686e-06   -7.683933977433669e-08   -1.3031753123817126e-05
-2.031030999001856e-06   4.49677389425065e-07   -9.727876054327778e-06
-2.031030999001856e-06   4.49677389425065e-07   -9.727876054327778e-06
-2.031030999001856e-06   4.49677389425065e-07   -9.727876054327778e-06
-2.031030999001856e-06   4.49677389425065e-07   -9.727876054327778e-06
-8.649934806143045e-06   2.42804454505521e-07   -2.0883506160514838e-05
-8.649934806143045e-06   2.42804454505521e-07   -2.0883506160514838e-05
-8.649934806143045e-06   2.42804454505521e-07   -2.0883506160514838e-05
-8.649934806143045e-06   2.42804454505521e-07   -2.0883506160514838e-05
-8.328529692888932e-06   8.252181426485639e-07   -9.653895791096557e-06
-8.328529692888932e-06   8.252181426485639e-07   -9.653895791096557e-06
-8.328529692888932e-06   8.252181426485639e-07   -9.653895791096557e-06
-8.328529692888932e-06   8.252181426485639e-07   -9.653895791096557e-06
-1.732262185987598e-06   5.28848634541077e-07   -2.0469853264400945e-05
-1.732262185987598e-06   5.28848634541077e-07   -2.0469853264400945e-05
-1.732262185987598e-06   5.28848634541077e-07   -2.0469853264400945e-05
-1.732262185987598e-06   5.28848634541077e-07   -2.0469853264400945e-05
-5.1504068922596045e-06   6.175050584911884e-07   -1.4826139274984324e-05
-5.1504068922596045e-06   6.175050584911884e-07   -1.4826139274984324e-05
-5.1504068922596045e-06   6.175050584911884e-07   -1.4826139274984324e-05
-5.1504068922596045e-06   6.175050584911884e-07   -1.4826139274984324e-05
-1.7322621859876047e-06   8.252181426486723e-07   -9.476074086232065e-06
-1.7322621859876047e-06   8.252181426486723e-07   -9.476074086232065e-06
-1.7322621859876047e-06   8.252181426486723e-07   -9.476074086232065e-06
-1.7322621859876047e-06   8.252181426486723e-07   -9.476074086232065e-06
-8.328529692888932e-06   5.28848634541077e-07   -2.0647674969265424e-05
-8.328529692888932e-06   5.28848634541077e-07   -2.0647674969265424e-05
-8.328529692888932e-06   5.28848634541077e-07   -2.0647674969265424e-05
-8.328529692888932e-06   5.28848634541077e-07   -2.0647674969265424e-05
-8.018218644173259e-06   1.222234817421417e-06   -9.639459038648002e-06
-8.018218644173259e-06   1.222234817421417e-06   -9.639459038648002e-06
-8.018218644173259e-06   1.222234817421417e-06   -9.639459038648002e-06
-8.018218644173259e-06   1.222234817421417e-06   -9.639459038648002e-06
-1.4470481871914077e-06   8.587939581976463e-07   -2.0373345284750244e-05
-1.4470481871914077e-06   8.587939581976463e-07   -2.0373345284750244e-05
-1.4470481871914077e-06   8.587939581976463e-07   -2.0373345284750244e-05
-1.4470481871914077e-06   8.587939581976463e-07   -2.0373345284750244e-05
-4.874508829644495e-06   8.855401712552216e-07   -1.4676958608496191e-05
-4.874508829644495e-06   8.855401712552216e-07   -1.4676958608496191e-05
-4.874508829644495e-06   8.855401712552216e-07   -1.4676958608496191e-05
-4.874508829644495e-06   8.855401712552216e-07   -1.4676958608496191e-05
-1.4470481871914077e-06   1.222234817421417e-06   -9.421394523113794e-06
-1.4470481871914077e-06   1.222234817421417e-06   -9.421394523113794e-06
-1.4470481871914077e-06   1.222234817421417e-06   -9.421394523113794e-06
-1.4470481871914077e-06   1.222234817421417e-06   -9.421394523113794e-06
-8.018218644173259e-06   8.587939581976463e-07   -2.059140980028456e-05
-8.018218644173259e-06   8.587939581976463e-07   -2.059140980028456e-05
-8.018218644173259e-06   8.587939581976463e-07   -2.059140980028456e-05
-8.018218644173259e-06   8.587939581976463e-07   -2.059140980028456e-05
-7.73152769368063e-06   1.62617848719444e-06   -9.86886119609654e-06
-7.73152769368063e-06   1.62617848719444e-06   -9.86886119609654e-06
-7.73152769368063e-06   1.62617848719444e-06   -9.86886119609654e-06
-7.73152769368063e-06   1.62617848719444e-06   -9.86886119609654e-06
-1.1796316770491247e-06   1.1995354351077231e-06   -2.0532702059230344e-05
-1.1796316770491247e-06   1.1995354351077231e-06   -2.0532702059230344e-05
-1.1796316770491247e-06   1.1995354351077231e-06   -2.0532702059230344e-05
-1.1796316770491247e-06   1.1995354351077231e-06   -2.0532702059230344e-05
-4.628604840573131e-06   1.1605313696473347e-06   -1.4761011014080967e-05
-4.628604840573131e-06   1.1605313696473347e-06   -1.4761011014080967e-05
-4.628604840573131e-06   1.1605313696473347e-06   -1.4761011014080967e-05
-4.628604840573131e-06   1.1605313696473347e-06   -1.4761011014080967e-05
-8.649934806143062e-06   1.43887877260729e-06   -7.880742635534704e-06
-8.649934806143062e-06   1.43887877260729e-06   -7.880742635534704e-06
-8.649934806143062e-06   1.43887877260729e-06   -7.880742635534704e-06
-8.649934806143062e-06   1.43887877260729e-06   -7.880742635534704e-06
-1.5159706895403136e-05   1.743658962024934e-06   -1.85474946706509e-05
-1.5159706895403136e-05   1.743658962024934e-06   -1.85474946706509e-05
-1.5159706895403136e-05   1.743658962024934e-06   -1.85474946706509e-05
-1.5159706895403136e-05   1.743658962024934e-06   -1.85474946706509e-05
-1.4771461431372764e-05   1.8398332351460354e-06   -7.392301902812482e-06
-1.4771461431372764e-05   1.8398332351460354e-06   -7.392301902812482e-06
-1.4771461431372764e-05   1.8398332351460354e-06   -7.392301902812482e-06
-1.4771461431372764e-05   1.8398332351460354e-06   -7.392301902812482e-06
-8.328529692888946e-06   2.1052748345756376e-06   -1.8289786426609917e-05
-8.328529692888946e-06   2.1052748345756376e-06   -1.8289786426609917e-05
-8.328529692888946e-06   2.1052748345756376e-06   -1.8289786426609917e-05
-8.328529692888946e-06   2.1052748345756376e-06   -1.8289786426609917e-05
-1.164200314040767e-05   1.8555705635055555e-06   -1.2617508118103397e-05
-1.164200314040767e-05   1.8555705635055555e-06   -1.2617508118103397e-05
-1.164200314040767e-05   1.8555705635055555e-06   -1.2617508118103397e-05
-1.164200314040767e-05   1.8555705635055555e-06   -1.2617508118103397e-05
-8.328529692888946e-06   1.8398332351460354e-06   -7.551566862470222e-06
-8.328529692888946e-06   1.8398332351460354e-06   -7.551566862470222e-06
-8.328529692888946e-06   1.8398332351460354e-06   -7.551566862470222e-06
-8.328529692888946e-06   1.8398332351460354e-06   -7.551566862470222e-06
-1.4771461431372791e-05   2.1052748345756376e-06   -1.8130521466952184e-05
-1.4771461431372791e-05   2.1052748345756376e-06   -1.8130521466952184e-05
-1.4771461431372791e-05   2.1052748345756376e-06   -1.8130521466952184e-05
-1.4771461431372791e-05   2.1052748345756376e-06   -1.8130521466952184e-05
-1.4339970978682802e-05   2.20031348931388e-06   -7.1202903588706815e-06
-1.4339970978682802e-05   2.20031348931388e-06   -7.1202903588706815e-06
-1.4339970978682802e-05   2.20031348931388e-06   -7.1202903588706815e-06
-1.4339970978682802e-05   2.20031348931388e-06   -7.1202903588706815e-06
-8.018218644173272e-06   2.416450879168838e-06   -1.7786226683632913e-05
-8.018218644173272e-06   2.416450879168838e-06   -1.7786226683632913e-05
-8.018218644173272e-06   2.416450879168838e-06   -1.7786226683632913e-05
-8.018218644173272e-06   2.416450879168838e-06   -1.7786226683632913e-05
-1.1247371555178518e-05   2.138140502431357e-06   -1.2237318939248341e-05
-1.1247371555178518e-05   2.138140502431357e-06   -1.2237318939248341e-05
-1.1247371555178518e-05   2.138140502431357e-06   -1.2237318939248341e-05
-1.1247371555178518e-05   2.138140502431357e-06   -1.2237318939248341e-05
-8.018218644173266e-06   2.20031348931388e-06   -7.249972792783635e-06
-8.018218644173266e-06   2.20031348931388e-06   -7.249972792783635e-06
-8.018218644173266e-06   2.20031348931388e-06   -7.249972792783635e-06
-8.018218644173266e-06   2.20031348931388e-06   -7.249972792783635e-06
-1.4339970978682802e-05   2.416450879168838e-06   -1.7656544249719953e-05
-1.4339970978682802e-05   2.416450879168838e-06   -1.7656544249719953e-05
-1.4339970978682802e-05   2.416450879168838e-06   -1.7656544249719953e-05
-1.4339970978682802e-05   2.416450879168838e-06   -1.7656544249719953e-05
-1.3975856258787589e-05   2.6021502097156373e-06   -7.285704498332822e-06
-1.3975856258787589e-05   2.6021502097156373e-06   -7.285704498332822e-06
-1.3975856258787589e-05   2.6021502097156373e-06   -7.285704498332822e-06
-1.3975856258787589e-05   2.6021502097156373e-06   -7.285704498332822e-06
-7.731527693680643e-06   2.759411869440102e-06   -1.7787275769345806e-05
-7.731527693680643e-06   2.759411869440102e-06   -1.7787275769345806e-05
-7.731527693680643e-06   2.759411869440102e-06   -1.7787275769345806e-05
-7.731527693680643e-06   2.759411869440102e-06   -1.7787275769345806e-05
-1.100656031479817e-05   2.397907826328337e-06   -1.2111985641616156e-05
-1.100656031479817e-05   2.397907826328337e-06   -1.2111985641616156e-05
-1.100656031479817e-05   2.397907826328337e-06   -1.2111985641616156e-05
-1.100656031479817e-05   2.397907826328337e-06   -1.2111985641616156e-05
-1.5159706895403136e-05   2.475901590638565e-06   -3.93701083955633e-06
-1.5159706895403136e-05   2.475901590638565e-06   -3.93701083955633e-06
-1.5159706895403136e-05   2.475901590638565e-06   -3.93701083955633e-06
-1.5159706895403136e-05   2.475901590638565e-06   -3.93701083955633e-06
-2.2035010893620148e-05   3.408095315223913e-06   -1.4836534601833456e-05
-2.2035010893620148e-05   3.408095315223913e-06   -1.4836534601833456e-05
-2.2035010893620148e-05   3.408095315223913e-06   -1.4836534601833456e-05
-2.2035010893620148e-05   3.408095315223913e-06   -1.4836534601833456e-05
-2.1130128332786837e-05   2.8933888925490375e-06   -1.1780048385879802e-06
-2.1130128332786837e-05   2.8933888925490375e-06   -1.1780048385879802e-06
-2.1130128332786837e-05   2.8933888925490375e-06   -1.1780048385879802e-06
-2.1130128332786837e-05   2.8933888925490375e-06   -1.1780048385879802e-06
-1.4771461431372764e-05   3.8888091019888184e-06   -1.23730351332753e-05
-1.4771461431372764e-05   3.8888091019888184e-06   -1.23730351332753e-05
-1.4771461431372764e-05   3.8888091019888184e-06   -1.23730351332753e-05
-1.4771461431372764e-05   3.8888091019888184e-06   -1.23730351332753e-05
-1.7519368258874878e-05   3.2461798112339794e-06   -7.407612846318769e-06
-1.7519368258874878e-05   3.2461798112339794e-06   -7.407612846318769e-06
-1.7519368258874878e-05   3.2461798112339794e-06   -7.407612846318769e-06
-1.7519368258874878e-05   3.2461798112339794e-06   -7.407612846318769e-06
-1.477146143137278e-05   2.893388892548929e-06   -1.7752569642518813e-06
-1.477146143137278e-05   2.893388892548929e-06   -1.7752569642518813e-06
-1.477146143137278e-05   2.893388892548929e-06   -1.7752569642518813e-06
-1.477146143137278e-05   2.893388892548929e-06   -1.7752569642518813e-06
-2.1130128332786796e-05   3.8888091019888184e-06   -1.1775783007611333e-05
-2.1130128332786796e-05   3.8888091019888184e-06   -1.1775783007611333e-05
-2.1130128332786796e-05   3.8888091019888184e-06   -1.1775783007611333e-05
-2.1130128332786796e-05   3.8888091019888184e-06   -1.1775783007611333e-05
-2.0385771984826767e-05   3.043377559020931e-06   -1.9357564665079246e-08
-2.0385771984826767e-05   3.043377559020931e-06   -1.9357564665079246e-08
-2.0385771984826767e-05   3.043377559020931e-06   -1.9357564665079246e-08
-2.0385771984826767e-05   3.043377559020931e-06   -1.9357564665079246e-08
-1.4339970978682802e-05   4.015991269442948e-06   -1.0679260801158229e-05
-1.4339970978682802e-05   4.015991269442948e-06   -1.0679260801158229e-05
-1.4339970978682802e-05   4.015991269442948e-06   -1.0679260801158229e-05
-1.4339970978682802e-05   4.015991269442948e-06   -1.0679260801158229e-05
-1.72216420386749e-05   3.440036421482537e-06   -5.530902792394996e-06
-1.72216420386749e-05   3.440036421482537e-06   -5.530902792394996e-06
-1.72216420386749e-05   3.440036421482537e-06   -5.530902792394996e-06
-1.72216420386749e-05   3.440036421482537e-06   -5.530902792394996e-06
-1.4339970978682802e-05   3.043377559020931e-06   -6.029257909183111e-07
-1.4339970978682802e-05   3.043377559020931e-06   -6.029257909183111e-07
-1.4339970978682802e-05   3.043377559020931e-06   -6.029257909183111e-07
-1.4339970978682802e-05   3.043377559020931e-06   -6.029257909183111e-07
-2.0385771984826693e-05   4.015991269442948e-06   -1.0095692574904982e-05
-2.0385771984826693e-05   4.015991269442948e-06   -1.0095692574904982e-05
-2.0385771984826693e-05   4.015991269442948e-06   -1.0095692574904982e-05
-2.0385771984826693e-05   4.015991269442948e-06   -1.0095692574904982e-05
-1.95794138073585e-05   3.230069828528276e-06   1.4598864093019032e-06
-1.95794138073585e-05   3.230069828528276e-06   1.4598864093019032e-06
-1.95794138073585e-05   3.230069828528276e-06   1.4598864093019032e-06
-1.95794138073585e-05   3.230069828528276e-06   1.4598864093019032e-06
-1.3975856258787589e-05   4.121583535888714e-06   -8.414284396065833e-06
-1.3975856258787589e-05   4.121583535888714e-06   -8.414284396065833e-06
-1.3975856258787589e-05   4.121583535888714e-06   -8.414284396065833e-06
-1.3975856258787589e-05   4.121583535888714e-06   -8.414284396065833e-06
-1.6461219821758544e-05   3.471087829340705e-06   -3.881714367185671e-06
-1.6461219821758544e-05   3.471087829340705e-06   -3.881714367185671e-06
-1.6461219821758544e-05   3.471087829340705e-06   -3.881714367185671e-06
-1.6461219821758544e-05   3.471087829340705e-06   -3.881714367185671e-06
1.8694689850843056e-05   -2.5999332209604084e-06   3.82448890591156e-06
1.8694689850843056e-05   -2.5999332209604084e-06   3.82448890591156e-06
1.8694689850843056e-05   -2.5999332209604084e-06   3.82448890591156e-06
1.8694689850843056e-05   -2.5999332209604084e-06   3.82448890591156e-06
8.982803147202718e-06   -3.831867923228768e-06   -1.3101149754850077e-05
8.982803147202718e-06   -3.831867923228768e-06   -1.3101149754850077e-05
8.982803147202718e-06   -3.831867923228768e-06   -1.3101149754850077e-05
8.982803147202718e-06   -3.831867923228768e-06   -1.3101149754850077e-05
9.33954001807404e-06   -2.4197752156965725e-06   1.9065136607635327e-06
9.33954001807404e-06   -2.4197752156965725e-06   1.9065136607635327e-06
9.33954001807404e-06   -2.4197752156965725e-06   1.9065136607635327e-06
9.33954001807404e-06   -2.4197752156965725e-06   1.9065136607635327e-06
1.953334578302662e-05   -3.7444858081794614e-06   -1.4288336258667662e-05
1.953334578302662e-05   -3.7444858081794614e-06   -1.4288336258667662e-05
1.953334578302662e-05   -3.7444858081794614e-06   -1.4288336258667662e-05
1.953334578302662e-05   -3.7444858081794614e-06   -1.4288336258667662e-05
1.3561557573400856e-05   -2.842729808569342e-06   -4.8764095090574814e-06
1.3561557573400856e-05   -2.842729808569342e-06   -4.8764095090574814e-06
1.3561557573400856e-05   -2.842729808569342e-06   -4.8764095090574814e-06
1.3561557573400856e-05   -2.842729808569342e-06   -4.8764095090574814e-06
1.9533345783026646e-05   -2.4197752156965725e-06   2.701340016253353e-06
1.9533345783026646e-05   -2.4197752156965725e-06   2.701340016253353e-06
1.9533345783026646e-05   -2.4197752156965725e-06   2.701340016253353e-06
1.9533345783026646e-05   -2.4197752156965725e-06   2.701340016253353e-06
9.339540018074027e-06   -3.7444858081794614e-06   -1.5083162614157482e-05
9.339540018074027e-06   -3.7444858081794614e-06   -1.5083162614157482e-05
9.339540018074027e-06   -3.7444858081794614e-06   -1.5083162614157482e-05
9.339540018074027e-06   -3.7444858081794614e-06   -1.5083162614157482e-05
9.694700467251482e-06   -2.262671385792935e-06   9.632345830167324e-07
9.694700467251482e-06   -2.262671385792935e-06   9.632345830167324e-07
9.694700467251482e-06   -2.262671385792935e-06   9.632345830167324e-07
9.694700467251482e-06   -2.262671385792935e-06   9.632345830167324e-07
2.0175474761164914e-05   -3.613778971160546e-06   -1.569405802228518e-05
2.0175474761164914e-05   -3.613778971160546e-06   -1.569405802228518e-05
2.0175474761164914e-05   -3.613778971160546e-06   -1.569405802228518e-05
2.0175474761164914e-05   -3.613778971160546e-06   -1.569405802228518e-05
1.426958928307427e-05   -2.832883822706349e-06   -6.3194526478732495e-06
1.426958928307427e-05   -2.832883822706349e-06   -6.3194526478732495e-06
1.426958928307427e-05   -2.832883822706349e-06   -6.3194526478732495e-06
1.426958928307427e-05   -2.832883822706349e-06   -6.3194526478732495e-06
2.0175474761164914e-05   -2.262671385792935e-06   1.7738991342372773e-06
2.0175474761164914e-05   -2.262671385792935e-06   1.7738991342372773e-06
2.0175474761164914e-05   -2.262671385792935e-06   1.7738991342372773e-06
2.0175474761164914e-05   -2.262671385792935e-06   1.7738991342372773e-06
9.694700467251482e-06   -3.613778971160546e-06   -1.650472257350567e-05
9.694700467251482e-06   -3.613778971160546e-06   -1.650472257350567e-05
9.694700467251482e-06   -3.613778971160546e-06   -1.650472257350567e-05
9.694700467251482e-06   -3.613778971160546e-06   -1.650472257350567e-05
9.93412638649093e-06   -1.7684002770460743e-06   -9.283927677203405e-07
9.93412638649093e-06   -1.7684002770460743e-06   -9.283927677203405e-07
9.93412638649093e-06   -1.7684002770460743e-06   -9.283927677203405e-07
9.93412638649093e-06   -1.7684002770460743e-06   -9.283927677203405e-07
2.085507698773943e-05   -3.1065327601578286e-06   -1.832709761326746e-05
2.085507698773943e-05   -3.1065327601578286e-06   -1.832709761326746e-05
2.085507698773943e-05   -3.1065327601578286e-06   -1.832709761326746e-05
2.085507698773943e-05   -3.1065327601578286e-06   -1.832709761326746e-05
1.44594883123142e-05   -2.6138005788465396e-06   -7.96342246301248e-06
1.44594883123142e-05   -2.6138005788465396e-06   -7.96342246301248e-06
1.44594883123142e-05   -2.6138005788465396e-06   -7.96342246301248e-06
1.44594883123142e-05   -2.6138005788465396e-06   -7.96342246301248e-06
8.982803147202718e-06   -1.2057507988503906e-06   -4.38153165622417e-06
8.982803147202718e-06   -1.2057507988503906e-06   -4.38153165622417e-06
8.982803147202718e-06   -1.2057507988503906e-06   -4.38153165622417e-06
8.982803147202718e-06   -1.2057507988503906e-06   -4.38153165622417e-06
-5.91044850190932e-07   -2.454750049430375e-06   -2.1087344535561684e-05
-5.91044850190932e-07   -2.454750049430375e-06   -2.1087344535561684e-05
-5.91044850190932e-07   -2.454750049430375e-06   -2.1087344535561684e-05
-5.91044850190932e-07   -2.454750049430375e-06   -2.1087344535561684e-05
-2.2589022982889866e-07   -9.518625599574991e-07   -4.8367800453458405e-06
-2.2589022982889866e-07   -9.518625599574991e-07   -4.8367800453458405e-06
-2.2589022982889866e-07   -9.518625599574991e-07   -4.8367800453458405e-06
-2.2589022982889866e-07   -9.518625599574991e-07   -4.8367800453458405e-06
9.33954001807404e-06   -2.3332678957704335e-06   -1.9950320590363132e-05
9.33954001807404e-06   -2.3332678957704335e-06   -1.9950320590363132e-05
9.33954001807404e-06   -2.3332678957704335e-06   -1.9950320590363132e-05
9.33954001807404e-06   -2.3332678957704335e-06   -1.9950320590363132e-05
4.388621868475107e-06   -1.4864175864170298e-06   -1.2206900526643582e-05
4.388621868475107e-06   -1.4864175864170298e-06   -1.2206900526643582e-05
4.388621868475107e-06   -1.4864175864170298e-06   -1.2206900526643582e-05
4.388621868475107e-06   -1.4864175864170298e-06   -1.2206900526643582e-05
9.339540018074027e-06   -9.518625599574991e-07   -4.007936843858232e-06
9.339540018074027e-06   -9.518625599574991e-07   -4.007936843858232e-06
9.339540018074027e-06   -9.518625599574991e-07   -4.007936843858232e-06
9.339540018074027e-06   -9.518625599574991e-07   -4.007936843858232e-06
-2.2589022982889866e-07   -2.3332678957704335e-06   -2.077916379185081e-05
-2.2589022982889866e-07   -2.3332678957704335e-06   -2.077916379185081e-05
-2.2589022982889866e-07   -2.3332678957704335e-06   -2.077916379185081e-05
-2.2589022982889866e-07   -2.3332678957704335e-06   -2.077916379185081e-05
9.557473416715732e-08   -6.418597542827507e-07   -4.9601290533131e-06
9.557473416715732e-08   -6.418597542827507e-07   -4.9601290533131e-06
9.557473416715732e-08   -6.418597542827507e-07   -4.9601290533131e-06
9.557473416715732e-08   -6.418597542827507e-07   -4.9601290533131e-06
9.694700467251482e-06   -2.1100033073170313e-06   -2.007778580996635e-05
9.694700467251482e-06   -2.1100033073170313e-06   -2.007778580996635e-05
9.694700467251482e-06   -2.1100033073170313e-06   -2.007778580996635e-05
9.694700467251482e-06   -2.1100033073170313e-06   -2.007778580996635e-05
4.634715434089555e-06   -1.3602381593574159e-06   -1.2094336510138666e-05
4.634715434089555e-06   -1.3602381593574159e-06   -1.2094336510138666e-05
4.634715434089555e-06   -1.3602381593574159e-06   -1.2094336510138666e-05
4.634715434089555e-06   -1.3602381593574159e-06   -1.2094336510138666e-05
9.694700467251482e-06   -6.418597542828591e-07   -4.079242921492532e-06
9.694700467251482e-06   -6.418597542828591e-07   -4.079242921492532e-06
9.694700467251482e-06   -6.418597542828591e-07   -4.079242921492532e-06
9.694700467251482e-06   -6.418597542828591e-07   -4.079242921492532e-06
9.557473416715732e-08   -2.1100033073170313e-06   -2.0958671941787e-05
9.557473416715732e-08   -2.1100033073170313e-06   -2.0958671941787e-05
9.557473416715732e-08   -2.1100033073170313e-06   -2.0958671941787e-05
9.557473416715732e-08   -2.1100033073170313e-06   -2.0958671941787e-05
3.2355409009165645e-07   -2.5101940906826006e-07   -5.164744161801943e-06
3.2355409009165645e-07   -2.5101940906826006e-07   -5.164744161801943e-06
3.2355409009165645e-07   -2.5101940906826006e-07   -5.164744161801943e-06
3.2355409009165645e-07   -2.5101940906826006e-07   -5.164744161801943e-06
9.934126386490957e-06   -1.792122307164531e-06   -2.025770291694304e-05
9.934126386490957e-06   -1.792122307164531e-06   -2.025770291694304e-05
9.934126386490957e-06   -1.792122307164531e-06   -2.025770291694304e-05
9.934126386490957e-06   -1.792122307164531e-06   -2.025770291694304e-05
4.933051371943461e-06   -1.1397019854668703e-06   -1.2314030085716176e-05
4.933051371943461e-06   -1.1397019854668703e-06   -1.2314030085716176e-05
4.933051371943461e-06   -1.1397019854668703e-06   -1.2314030085716176e-05
4.933051371943461e-06   -1.1397019854668703e-06   -1.2314030085716176e-05
-5.91044850190932e-07   2.42804454505521e-07   -6.742368042165006e-06
-5.91044850190932e-07   2.42804454505521e-07   -6.742368042165006e-06
-5.91044850190932e-07   2.42804454505521e-07   -6.742368042165006e-06
-5.91044850190932e-07   2.42804454505521e-07   -6.742368042165006e-06
-1.002360292967981e-05   -1.24483908401534e-06   -2.3355884297758902e-05
-1.002360292967981e-05   -1.24483908401534e-06   -2.3355884297758902e-05
-1.002360292967981e-05   -1.24483908401534e-06   -2.3355884297758902e-05
-1.002360292967981e-05   -1.24483908401534e-06   -2.3355884297758902e-05
-9.585101870588209e-06   5.28848634541077e-07   -7.3240488870596155e-06
-9.585101870588209e-06   5.28848634541077e-07   -7.3240488870596155e-06
-9.585101870588209e-06   5.28848634541077e-07   -7.3240488870596155e-06
-9.585101870588209e-06   5.28848634541077e-07   -7.3240488870596155e-06
-2.2589022982889866e-07   -1.100461342424413e-06   -2.194514896881246e-05
-2.2589022982889866e-07   -1.100461342424413e-06   -2.194514896881246e-05
-2.2589022982889866e-07   -1.100461342424413e-06   -2.194514896881246e-05
-2.2589022982889866e-07   -1.100461342424413e-06   -2.194514896881246e-05
-5.047381756583847e-06   -2.1193972568243034e-07   -1.4442442727599327e-05
-5.047381756583847e-06   -2.1193972568243034e-07   -1.4442442727599327e-05
-5.047381756583847e-06   -2.1193972568243034e-07   -1.4442442727599327e-05
-5.047381756583847e-06   -2.1193972568243034e-07   -1.4442442727599327e-05
-2.2589022982889866e-07   5.28848634541077e-07   -6.346462900880235e-06
-2.2589022982889866e-07   5.28848634541077e-07   -6.346462900880235e-06
-2.2589022982889866e-07   5.28848634541077e-07   -6.346462900880235e-06
-2.2589022982889866e-07   5.28848634541077e-07   -6.346462900880235e-06
-9.585101870588209e-06   -1.1004613424245215e-06   -2.2922734954991812e-05
-9.585101870588209e-06   -1.1004613424245215e-06   -2.2922734954991812e-05
-9.585101870588209e-06   -1.1004613424245215e-06   -2.2922734954991812e-05
-9.585101870588209e-06   -1.1004613424245215e-06   -2.2922734954991812e-05
-9.182846095979975e-06   8.587939581977547e-07   -7.19261377266989e-06
-9.182846095979975e-06   8.587939581977547e-07   -7.19261377266989e-06
-9.182846095979975e-06   8.587939581977547e-07   -7.19261377266989e-06
-9.182846095979975e-06   8.587939581977547e-07   -7.19261377266989e-06
9.557473416715732e-08   -8.79887217210577e-07   -2.1613439784336834e-05
9.557473416715732e-08   -8.79887217210577e-07   -2.1613439784336834e-05
9.557473416715732e-08   -8.79887217210577e-07   -2.1613439784336834e-05
9.557473416715732e-08   -8.79887217210577e-07   -2.1613439784336834e-05
-4.691088052508769e-06   -4.819362566551959e-08   -1.4134684628137287e-05
-4.691088052508769e-06   -4.819362566551959e-08   -1.4134684628137287e-05
-4.691088052508769e-06   -4.819362566551959e-08   -1.4134684628137287e-05
-4.691088052508769e-06   -4.819362566551959e-08   -1.4134684628137287e-05
9.557473416715732e-08   8.587939581977547e-07   -6.1494050674250214e-06
9.557473416715732e-08   8.587939581977547e-07   -6.1494050674250214e-06
9.557473416715732e-08   8.587939581977547e-07   -6.1494050674250214e-06
9.557473416715732e-08   8.587939581977547e-07   -6.1494050674250214e-06
-9.182846095979989e-06   -8.798872172104686e-07   -2.265664848958188e-05
-9.182846095979989e-06   -8.798872172104686e-07   -2.265664848958188e-05
-9.182846095979989e-06   -8.798872172104686e-07   -2.265664848958188e-05
-9.182846095979989e-06   -8.798872172104686e-07   -2.265664848958188e-05
-8.911977686729979e-06   1.1995354351076147e-06   -7.321163844963767e-06
-8.911977686729979e-06   1.1995354351076147e-06   -7.321163844963767e-06
-8.911977686729979e-06   1.1995354351076147e-06   -7.321163844963767e-06
-8.911977686729979e-06   1.1995354351076147e-06   -7.321163844963767e-06
3.2355409009166323e-07   -6.701274953430916e-07   -2.1591919048062727e-05
3.2355409009166323e-07   -6.701274953430916e-07   -2.1591919048062727e-05
3.2355409009166323e-07   -6.701274953430916e-07   -2.1591919048062727e-05
3.2355409009166323e-07   -6.701274953430916e-07   -2.1591919048062727e-05
-4.4378811562433536e-06   1.3514260415316108e-07   -1.4139355697202359e-05
-4.4378811562433536e-06   1.3514260415316108e-07   -1.4139355697202359e-05
-4.4378811562433536e-06   1.3514260415316108e-07   -1.4139355697202359e-05
-4.4378811562433536e-06   1.3514260415316108e-07   -1.4139355697202359e-05
-1.0023602929679794e-05   1.7436589620250425e-06   -5.481810789064031e-06
-1.0023602929679794e-05   1.7436589620250425e-06   -5.481810789064031e-06
-1.0023602929679794e-05   1.7436589620250425e-06   -5.481810789064031e-06
-1.0023602929679794e-05   1.7436589620250425e-06   -5.481810789064031e-06
-1.9593520392762092e-05   4.106479319687705e-07   -2.2231479845568334e-05
-1.9593520392762092e-05   4.106479319687705e-07   -2.2231479845568334e-05
-1.9593520392762092e-05   4.106479319687705e-07   -2.2231479845568334e-05
-1.9593520392762092e-05   4.106479319687705e-07   -2.2231479845568334e-05
-1.8968795902824575e-05   2.1052748345756376e-06   -5.826277773897642e-06
-1.8968795902824575e-05   2.1052748345756376e-06   -5.826277773897642e-06
-1.8968795902824575e-05   2.1052748345756376e-06   -5.826277773897642e-06
-1.8968795902824575e-05   2.1052748345756376e-06   -5.826277773897642e-06
-9.585101870588195e-06   6.717457854194713e-07   -2.060565039813136e-05
-9.585101870588195e-06   6.717457854194713e-07   -2.060565039813136e-05
-9.585101870588195e-06   6.717457854194713e-07   -2.060565039813136e-05
-9.585101870588195e-06   6.717457854194713e-07   -2.060565039813136e-05
-1.4394084262513814e-05   1.3537578727767412e-06   -1.2999886997336395e-05
-1.4394084262513814e-05   1.3537578727767412e-06   -1.2999886997336395e-05
-1.4394084262513814e-05   1.3537578727767412e-06   -1.2999886997336395e-05
-1.4394084262513814e-05   1.3537578727767412e-06   -1.2999886997336395e-05
-9.585101870588195e-06   2.1052748345756376e-06   -4.966160344404115e-06
-9.585101870588195e-06   2.1052748345756376e-06   -4.966160344404115e-06
-9.585101870588195e-06   2.1052748345756376e-06   -4.966160344404115e-06
-9.585101870588195e-06   2.1052748345756376e-06   -4.966160344404115e-06
-1.896879590282461e-05   6.717457854195797e-07   -2.1465767827625075e-05
-1.896879590282461e-05   6.717457854195797e-07   -2.1465767827625075e-05
-1.896879590282461e-05   6.717457854195797e-07   -2.1465767827625075e-05
-1.896879590282461e-05   6.717457854195797e-07   -2.1465767827625075e-05
-1.836290282031924e-05   2.416450879168838e-06   -5.290407116718726e-06
-1.836290282031924e-05   2.416450879168838e-06   -5.290407116718726e-06
-1.836290282031924e-05   2.416450879168838e-06   -5.290407116718726e-06
-1.836290282031924e-05   2.416450879168838e-06   -5.290407116718726e-06
-9.182846095979989e-06   9.114901113346872e-07   -1.9687525196583824e-05
-9.182846095979989e-06   9.114901113346872e-07   -1.9687525196583824e-05
-9.182846095979989e-06   9.114901113346872e-07   -1.9687525196583824e-05
-9.182846095979989e-06   9.114901113346872e-07   -1.9687525196583824e-05
-1.3826533862859206e-05   1.5810225394029178e-06   -1.2349765041959348e-05
-1.3826533862859206e-05   1.5810225394029178e-06   -1.2349765041959348e-05
-1.3826533862859206e-05   1.5810225394029178e-06   -1.2349765041959348e-05
-1.3826533862859206e-05   1.5810225394029178e-06   -1.2349765041959348e-05
-9.182846095979962e-06   2.416450879168838e-06   -4.387430656018236e-06
-9.182846095979962e-06   2.416450879168838e-06   -4.387430656018236e-06
-9.182846095979962e-06   2.416450879168838e-06   -4.387430656018236e-06
-9.182846095979962e-06   2.416450879168838e-06   -4.387430656018236e-06
-1.8362902820319275e-05   9.114901113346872e-07   -2.0590501657284253e-05
-1.8362902820319275e-05   9.114901113346872e-07   -2.0590501657284253e-05
-1.8362902820319275e-05   9.114901113346872e-07   -2.0590501657284253e-05
-1.8362902820319275e-05   9.114901113346872e-07   -2.0590501657284253e-05
-1.7906162440528728e-05   2.7594118694402106e-06   -5.307613422883529e-06
-1.7906162440528728e-05   2.7594118694402106e-06   -5.307613422883529e-06
-1.7906162440528728e-05   2.7594118694402106e-06   -5.307613422883529e-06
-1.7906162440528728e-05   2.7594118694402106e-06   -5.307613422883529e-06
-8.911977686729996e-06   1.112975704346147e-06   -1.931005964682516e-05
-8.911977686729996e-06   1.112975704346147e-06   -1.931005964682516e-05
-8.911977686729996e-06   1.112975704346147e-06   -1.931005964682516e-05
-8.911977686729996e-06   1.112975704346147e-06   -1.931005964682516e-05
-1.351531524687079e-05   1.7400317869621347e-06   -1.2014064029493266e-05
-1.351531524687079e-05   1.7400317869621347e-06   -1.2014064029493266e-05
-1.351531524687079e-05   1.7400317869621347e-06   -1.2014064029493266e-05
-1.351531524687079e-05   1.7400317869621347e-06   -1.2014064029493266e-05
-1.9593520392762092e-05   3.4080953152240212e-06   -3.1299735730316988e-06
-1.9593520392762092e-05   3.4080953152240212e-06   -3.1299735730316988e-06
-1.9593520392762092e-05   3.4080953152240212e-06   -3.1299735730316988e-06
-1.9593520392762092e-05   3.4080953152240212e-06   -3.1299735730316988e-06
-2.960907761242924e-05   3.23588461291545e-06   -1.9925895360529055e-05
-2.960907761242924e-05   3.23588461291545e-06   -1.9925895360529055e-05
-2.960907761242924e-05   3.23588461291545e-06   -1.9925895360529055e-05
-2.960907761242924e-05   3.23588461291545e-06   -1.9925895360529055e-05
-2.8360866710333764e-05   3.8888091019888184e-06   4.06738721989066e-08
-2.8360866710333764e-05   3.8888091019888184e-06   4.06738721989066e-08
-2.8360866710333764e-05   3.8888091019888184e-06   4.06738721989066e-08
-2.8360866710333764e-05   3.8888091019888184e-06   4.06738721989066e-08
-1.896879590282454e-05   4.071251289355124e-06   -1.572224278606955e-05
-1.896879590282454e-05   4.071251289355124e-06   -1.572224278606955e-05
-1.896879590282454e-05   4.071251289355124e-06   -1.572224278606955e-05
-1.896879590282454e-05   4.071251289355124e-06   -1.572224278606955e-05
-2.309332564792634e-05   3.835469791794218e-06   -8.706557645696744e-06
-2.309332564792634e-05   3.835469791794218e-06   -8.706557645696744e-06
-2.309332564792634e-05   3.835469791794218e-06   -8.706557645696744e-06
-2.309332564792634e-05   3.835469791794218e-06   -8.706557645696744e-06
-1.8968795902824592e-05   3.8888091019888184e-06   -6.879144022074648e-08
-1.8968795902824592e-05   3.8888091019888184e-06   -6.879144022074648e-08
-1.8968795902824592e-05   3.8888091019888184e-06   -6.879144022074648e-08
-1.8968795902824592e-05   3.8888091019888184e-06   -6.879144022074648e-08
-2.8360866710333764e-05   4.071251289355124e-06   -1.5612777473649722e-05
-2.8360866710333764e-05   4.071251289355124e-06   -1.5612777473649722e-05
-2.8360866710333764e-05   4.071251289355124e-06   -1.5612777473649722e-05
-2.8360866710333764e-05   4.071251289355124e-06   -1.5612777473649722e-05
-2.7327994447087612e-05   4.015991269442948e-06   1.8333602914173816e-06
-2.7327994447087612e-05   4.015991269442948e-06   1.8333602914173816e-06
-2.7327994447087612e-05   4.015991269442948e-06   1.8333602914173816e-06
-2.7327994447087612e-05   4.015991269442948e-06   1.8333602914173816e-06
-1.836290282031924e-05   4.2601312020669685e-06   -1.3254943046104364e-05
-1.836290282031924e-05   4.2601312020669685e-06   -1.3254943046104364e-05
-1.836290282031924e-05   4.2601312020669685e-06   -1.3254943046104364e-05
-1.836290282031924e-05   4.2601312020669685e-06   -1.3254943046104364e-05
-2.2634987557896144e-05   4.111394359136711e-06   -6.045559711051148e-06
-2.2634987557896144e-05   4.111394359136711e-06   -6.045559711051148e-06
-2.2634987557896144e-05   4.111394359136711e-06   -6.045559711051148e-06
-2.2634987557896144e-05   4.111394359136711e-06   -6.045559711051148e-06
-1.8362902820319275e-05   4.015991269442948e-06   1.6868763318429042e-06
-1.8362902820319275e-05   4.015991269442948e-06   1.6868763318429042e-06
-1.8362902820319275e-05   4.015991269442948e-06   1.6868763318429042e-06
-1.8362902820319275e-05   4.015991269442948e-06   1.6868763318429042e-06
-2.732799444708756e-05   4.26013120206686e-06   -1.3108459086530033e-05
-2.732799444708756e-05   4.26013120206686e-06   -1.3108459086530033e-05
-2.732799444708756e-05   4.26013120206686e-06   -1.3108459086530033e-05
-2.732799444708756e-05   4.26013120206686e-06   -1.3108459086530033e-05
-2.6245225992597676e-05   4.121583535888714e-06   4.244262642663459e-06
-2.6245225992597676e-05   4.121583535888714e-06   4.244262642663459e-06
-2.6245225992597676e-05   4.121583535888714e-06   4.244262642663459e-06
-2.6245225992597676e-05   4.121583535888714e-06   4.244262642663459e-06
-1.7906162440528728e-05   4.5769863493916535e-06   -9.927418298886562e-06
-1.7906162440528728e-05   4.5769863493916535e-06   -9.927418298886562e-06
-1.7906162440528728e-05   4.5769863493916535e-06   -9.927418298886562e-06
-1.7906162440528728e-05   4.5769863493916535e-06   -9.927418298886562e-06
-2.158447010640985e-05   4.201069605991878e-06   -3.5713554763784324e-06
-2.158447010640985e-05   4.201069605991878e-06   -3.5713554763784324e-06
-2.158447010640985e-05   4.201069605991878e-06   -3.5713554763784324e-06
-2.158447010640985e-05   4.201069605991878e-06   -3.5713554763784324e-06
2.5599329064084517e-05   -3.831867923228768e-06   8.826503075481961e-06
2.5599329064084517e-05   -3.831867923228768e-06   8.826503075481961e-06
2.5599329064084517e-05   -3.831867923228768e-06   8.826503075481961e-06
2.5599329064084517e-05   -3.831867923228768e-06   8.826503075481961e-06
1.2839433832172996e-05   -4.832056690723266e-06   -1.3040102238200569e-05
1.2839433832172996e-05   -4.832056690723266e-06   -1.3040102238200569e-05
1.2839433832172996e-05   -4.832056690723266e-06   -1.3040102238200569e-05
1.2839433832172996e-05   -4.832056690723266e-06   -1.3040102238200569e-05
1.3143722821313931e-05   -3.7444858081794614e-06   6.354181722685592e-06
1.3143722821313931e-05   -3.7444858081794614e-06   6.354181722685592e-06
1.3143722821313931e-05   -3.7444858081794614e-06   6.354181722685592e-06
1.3143722821313931e-05   -3.7444858081794614e-06   6.354181722685592e-06
2.6225024472584495e-05   -4.953032011014531e-06   -1.4722859974397695e-05
2.6225024472584495e-05   -4.953032011014531e-06   -1.4722859974397695e-05
2.6225024472584495e-05   -4.953032011014531e-06   -1.4722859974397695e-05
2.6225024472584495e-05   -4.953032011014531e-06   -1.4722859974397695e-05
1.867500905098541e-05   -3.913675516051653e-06   -2.763114835376885e-06
1.867500905098541e-05   -3.913675516051653e-06   -2.763114835376885e-06
1.867500905098541e-05   -3.913675516051653e-06   -2.763114835376885e-06
1.867500905098541e-05   -3.913675516051653e-06   -2.763114835376885e-06
2.6225024472584495e-05   -3.7444858081794614e-06   7.079309444386569e-06
2.6225024472584495e-05   -3.7444858081794614e-06   7.079309444386569e-06
2.6225024472584495e-05   -3.7444858081794614e-06   7.079309444386569e-06
2.6225024472584495e-05   -3.7444858081794614e-06   7.079309444386569e-06
1.3143722821313931e-05   -4.953032011014531e-06   -1.5447987696098713e-05
1.3143722821313931e-05   -4.953032011014531e-06   -1.5447987696098713e-05
1.3143722821313931e-05   -4.953032011014531e-06   -1.5447987696098713e-05
1.3143722821313931e-05   -4.953032011014531e-06   -1.5447987696098713e-05
1.34007009881059e-05   -3.613778971160546e-06   5.025834486121128e-06
1.34007009881059e-05   -3.613778971160546e-06   5.025834486121128e-06
1.34007009881059e-05   -3.613778971160546e-06   5.025834486121128e-06
1.34007009881059e-05   -3.613778971160546e-06   5.025834486121128e-06
2.661400568305369e-05   -4.9063229707363605e-06   -1.6220813605712916e-05
2.661400568305369e-05   -4.9063229707363605e-06   -1.6220813605712916e-05
2.661400568305369e-05   -4.9063229707363605e-06   -1.6220813605712916e-05
2.661400568305369e-05   -4.9063229707363605e-06   -1.6220813605712916e-05
1.932494462379999e-05   -4.035033447821225e-06   -4.59515222070599e-06
1.932494462379999e-05   -4.035033447821225e-06   -4.59515222070599e-06
1.932494462379999e-05   -4.035033447821225e-06   -4.59515222070599e-06
1.932494462379999e-05   -4.035033447821225e-06   -4.59515222070599e-06
2.661400568305369e-05   -3.613778971160546e-06   5.801360885866703e-06
2.661400568305369e-05   -3.613778971160546e-06   5.801360885866703e-06
2.661400568305369e-05   -3.613778971160546e-06   5.801360885866703e-06
2.661400568305369e-05   -3.613778971160546e-06   5.801360885866703e-06
1.34007009881059e-05   -4.9063229707363605e-06   -1.69963400054586e-05
1.34007009881059e-05   -4.9063229707363605e-06   -1.69963400054586e-05
1.34007009881059e-05   -4.9063229707363605e-06   -1.69963400054586e-05
1.34007009881059e-05   -4.9063229707363605e-06   -1.69963400054586e-05
1.3667799935451642e-05   -3.1065327601578286e-06   2.459145723025021e-06
1.3667799935451642e-05   -3.1065327601578286e-06   2.459145723025021e-06
1.3667799935451642e-05   -3.1065327601578286e-06   2.459145723025021e-06
1.3667799935451642e-05   -3.1065327601578286e-06   2.459145723025021e-06
2.6997131187521904e-05   -4.628039931676032e-06   -1.8843502060847658e-05
2.6997131187521904e-05   -4.628039931676032e-06   -1.8843502060847658e-05
2.6997131187521904e-05   -4.628039931676032e-06   -1.8843502060847658e-05
2.6997131187521904e-05   -4.628039931676032e-06   -1.8843502060847658e-05
1.9325502394071388e-05   -3.880334014745709e-06   -6.506077621921703e-06
1.9325502394071388e-05   -3.880334014745709e-06   -6.506077621921703e-06
1.9325502394071388e-05   -3.880334014745709e-06   -6.506077621921703e-06
1.9325502394071388e-05   -3.880334014745709e-06   -6.506077621921703e-06
1.2839433832172996e-05   -2.4547500494304835e-06   9.89594584621732e-07
1.2839433832172996e-05   -2.4547500494304835e-06   9.89594584621732e-07
1.2839433832172996e-05   -2.4547500494304835e-06   9.89594584621732e-07
1.2839433832172996e-05   -2.4547500494304835e-06   9.89594584621732e-07
1.4476030630886176e-06   -4.779495327600228e-06   -1.9391637197420646e-05
1.4476030630886176e-06   -4.779495327600228e-06   -1.9391637197420646e-05
1.4476030630886176e-06   -4.779495327600228e-06   -1.9391637197420646e-05
1.4476030630886176e-06   -4.779495327600228e-06   -1.9391637197420646e-05
1.8013519770517308e-06   -2.333267895770325e-06   3.6207271427910435e-08
1.8013519770517308e-06   -2.333267895770325e-06   3.6207271427910435e-08
1.8013519770517308e-06   -2.333267895770325e-06   3.6207271427910435e-08
1.8013519770517308e-06   -2.333267895770325e-06   3.6207271427910435e-08
1.3143722821313965e-05   -4.751295354190645e-06   -1.7416927660623757e-05
1.3143722821313965e-05   -4.751295354190645e-06   -1.7416927660623757e-05
1.3143722821313965e-05   -4.751295354190645e-06   -1.7416927660623757e-05
1.3143722821313965e-05   -4.751295354190645e-06   -1.7416927660623757e-05
7.334767189145909e-06   -3.2284269684109074e-06   -8.649055971811555e-06
7.334767189145909e-06   -3.2284269684109074e-06   -8.649055971811555e-06
7.334767189145909e-06   -3.2284269684109074e-06   -8.649055971811555e-06
7.334767189145909e-06   -3.2284269684109074e-06   -8.649055971811555e-06
1.3143722821313925e-05   -2.333267895770325e-06   1.4870237464800371e-06
1.3143722821313925e-05   -2.333267895770325e-06   1.4870237464800371e-06
1.3143722821313925e-05   -2.333267895770325e-06   1.4870237464800371e-06
1.3143722821313925e-05   -2.333267895770325e-06   1.4870237464800371e-06
1.8013519770517173e-06   -4.751295354190645e-06   -1.8867744135675816e-05
1.8013519770517173e-06   -4.751295354190645e-06   -1.8867744135675816e-05
1.8013519770517173e-06   -4.751295354190645e-06   -1.8867744135675816e-05
1.8013519770517173e-06   -4.751295354190645e-06   -1.8867744135675816e-05
2.1205556775389625e-06   -2.1100033073171397e-06   -9.076197289949791e-08
2.1205556775389625e-06   -2.1100033073171397e-06   -9.076197289949791e-08
2.1205556775389625e-06   -2.1100033073171397e-06   -9.076197289949791e-08
2.1205556775389625e-06   -2.1100033073171397e-06   -9.076197289949791e-08
1.34007009881059e-05   -4.68255867825014e-06   -1.734747093461797e-05
1.34007009881059e-05   -4.68255867825014e-06   -1.734747093461797e-05
1.34007009881059e-05   -4.68255867825014e-06   -1.734747093461797e-05
1.34007009881059e-05   -4.68255867825014e-06   -1.734747093461797e-05
7.53244956480473e-06   -3.2595412437440817e-06   -8.420862356486083e-06
7.53244956480473e-06   -3.2595412437440817e-06   -8.420862356486083e-06
7.53244956480473e-06   -3.2595412437440817e-06   -8.420862356486083e-06
7.53244956480473e-06   -3.2595412437440817e-06   -8.420862356486083e-06
1.34007009881059e-05   -2.1100033073170313e-06   1.4527712496602589e-06
1.34007009881059e-05   -2.1100033073170313e-06   1.4527712496602589e-06
1.34007009881059e-05   -2.1100033073170313e-06   1.4527712496602589e-06
1.34007009881059e-05   -2.1100033073170313e-06   1.4527712496602589e-06
2.1205556775389558e-06   -4.68255867825014e-06   -1.889100415717774e-05
2.1205556775389558e-06   -4.68255867825014e-06   -1.889100415717774e-05
2.1205556775389558e-06   -4.68255867825014e-06   -1.889100415717774e-05
2.1205556775389558e-06   -4.68255867825014e-06   -1.889100415717774e-05
2.5977183040204533e-06   -1.792122307164531e-06   -3.223757034021739e-07
2.5977183040204533e-06   -1.792122307164531e-06   -3.223757034021739e-07
2.5977183040204533e-06   -1.792122307164531e-06   -3.223757034021739e-07
2.5977183040204533e-06   -1.792122307164531e-06   -3.223757034021739e-07
1.3667799935451636e-05   -4.548448328195584e-06   -1.7118716143168768e-05
1.3667799935451636e-05   -4.548448328195584e-06   -1.7118716143168768e-05
1.3667799935451636e-05   -4.548448328195584e-06   -1.7118716143168768e-05
1.3667799935451636e-05   -4.548448328195584e-06   -1.7118716143168768e-05
7.917410457677587e-06   -3.203131967054922e-06   -8.341923496896312e-06
7.917410457677587e-06   -3.203131967054922e-06   -8.341923496896312e-06
7.917410457677587e-06   -3.203131967054922e-06   -8.341923496896312e-06
7.917410457677587e-06   -3.203131967054922e-06   -8.341923496896312e-06
1.4476030630886176e-06   -1.2448390840152316e-06   -1.7812062213648158e-06
1.4476030630886176e-06   -1.2448390840152316e-06   -1.7812062213648158e-06
1.4476030630886176e-06   -1.2448390840152316e-06   -1.7812062213648158e-06
1.4476030630886176e-06   -1.2448390840152316e-06   -1.7812062213648158e-06
-9.82327694668762e-06   -5.693569540071329e-06   -2.323524451129205e-05
-9.82327694668762e-06   -5.693569540071329e-06   -2.323524451129205e-05
-9.82327694668762e-06   -5.693569540071329e-06   -2.323524451129205e-05
-9.82327694668762e-06   -5.693569540071329e-06   -2.323524451129205e-05
-9.271420315575076e-06   -1.1004613424245215e-06   -3.957819565662585e-06
-9.271420315575076e-06   -1.1004613424245215e-06   -3.957819565662585e-06
-9.271420315575076e-06   -1.1004613424245215e-06   -3.957819565662585e-06
-9.271420315575076e-06   -1.1004613424245215e-06   -3.957819565662585e-06
1.8013519770517173e-06   -5.813864109305723e-06   -1.9584398393245064e-05
1.8013519770517173e-06   -5.813864109305723e-06   -1.9584398393245064e-05
1.8013519770517173e-06   -5.813864109305723e-06   -1.9584398393245064e-05
1.8013519770517173e-06   -5.813864109305723e-06   -1.9584398393245064e-05
-3.83454380307273e-06   -3.2013969533860537e-06   -1.1758719053256178e-05
-3.83454380307273e-06   -3.2013969533860537e-06   -1.1758719053256178e-05
-3.83454380307273e-06   -3.2013969533860537e-06   -1.1758719053256178e-05
-3.83454380307273e-06   -3.2013969533860537e-06   -1.1758719053256178e-05
1.8013519770517173e-06   -1.1004613424245215e-06   -1.1297779055337125e-06
1.8013519770517173e-06   -1.1004613424245215e-06   -1.1297779055337125e-06
1.8013519770517173e-06   -1.1004613424245215e-06   -1.1297779055337125e-06
1.8013519770517173e-06   -1.1004613424245215e-06   -1.1297779055337125e-06
-9.271420315575096e-06   -5.8138641093059395e-06   -2.2412440053373923e-05
-9.271420315575096e-06   -5.8138641093059395e-06   -2.2412440053373923e-05
-9.271420315575096e-06   -5.8138641093059395e-06   -2.2412440053373923e-05
-9.271420315575096e-06   -5.8138641093059395e-06   -2.2412440053373923e-05
-8.79492677556561e-06   -8.79887217210577e-07   -3.685528598300022e-06
-8.79492677556561e-06   -8.79887217210577e-07   -3.685528598300022e-06
-8.79492677556561e-06   -8.79887217210577e-07   -3.685528598300022e-06
-8.79492677556561e-06   -8.79887217210577e-07   -3.685528598300022e-06
2.1205556775389558e-06   -5.779885188628153e-06   -1.8938000570623803e-05
2.1205556775389558e-06   -5.779885188628153e-06   -1.8938000570623803e-05
2.1205556775389558e-06   -5.779885188628153e-06   -1.8938000570623803e-05
2.1205556775389558e-06   -5.779885188628153e-06   -1.8938000570623803e-05
-3.4431118835551963e-06   -3.2690651785164185e-06   -1.1171713308200462e-05
-3.4431118835551963e-06   -3.2690651785164185e-06   -1.1171713308200462e-05
-3.4431118835551963e-06   -3.2690651785164185e-06   -1.1171713308200462e-05
-3.4431118835551963e-06   -3.2690651785164185e-06   -1.1171713308200462e-05
2.1205556775389558e-06   -8.79887217210577e-07   -7.455298154494545e-07
2.1205556775389558e-06   -8.79887217210577e-07   -7.455298154494545e-07
2.1205556775389558e-06   -8.79887217210577e-07   -7.455298154494545e-07
2.1205556775389558e-06   -8.79887217210577e-07   -7.455298154494545e-07
-8.794926775565637e-06   -5.779885188627936e-06   -2.187799935347433e-05
-8.794926775565637e-06   -5.779885188627936e-06   -2.187799935347433e-05
-8.794926775565637e-06   -5.779885188627936e-06   -2.187799935347433e-05
-8.794926775565637e-06   -5.779885188627936e-06   -2.187799935347433e-05
-7.972208008748461e-06   -6.701274953429832e-07   -3.6714153976141056e-06
-7.972208008748461e-06   -6.701274953429832e-07   -3.6714153976141056e-06
-7.972208008748461e-06   -6.701274953429832e-07   -3.6714153976141056e-06
-7.972208008748461e-06   -6.701274953429832e-07   -3.6714153976141056e-06
2.59771830402046e-06   -5.5692696652599304e-06   -1.8348473950279028e-05
2.59771830402046e-06   -5.5692696652599304e-06   -1.8348473950279028e-05
2.59771830402046e-06   -5.5692696652599304e-06   -1.8348473950279028e-05
2.59771830402046e-06   -5.5692696652599304e-06   -1.8348473950279028e-05
-2.934061318903957e-06   -3.1903699155828944e-06   -1.0556181095211091e-05
-2.934061318903957e-06   -3.1903699155828944e-06   -1.0556181095211091e-05
-2.934061318903957e-06   -3.1903699155828944e-06   -1.0556181095211091e-05
-2.934061318903957e-06   -3.1903699155828944e-06   -1.0556181095211091e-05
-9.823276946687599e-06   4.106479319687705e-07   -2.5262334247740667e-06
-9.823276946687599e-06   4.106479319687705e-07   -2.5262334247740667e-06
-9.823276946687599e-06   4.106479319687705e-07   -2.5262334247740667e-06
-9.823276946687599e-06   4.106479319687705e-07   -2.5262334247740667e-06
-2.236886687137606e-05   -7.028542187409838e-06   -2.789906403754866e-05
-2.236886687137606e-05   -7.028542187409838e-06   -2.789906403754866e-05
-2.236886687137606e-05   -7.028542187409838e-06   -2.789906403754866e-05
-2.236886687137606e-05   -7.028542187409838e-06   -2.789906403754866e-05
-2.1704244967460424e-05   6.717457854195797e-07   -6.769888650288991e-06
-2.1704244967460424e-05   6.717457854195797e-07   -6.769888650288991e-06
-2.1704244967460424e-05   6.717457854195797e-07   -6.769888650288991e-06
-2.1704244967460424e-05   6.717457854195797e-07   -6.769888650288991e-06
-9.271420315575076e-06   -7.876843617058565e-06   -2.2362109428611084e-05
-9.271420315575076e-06   -7.876843617058565e-06   -2.2362109428611084e-05
-9.271420315575076e-06   -7.876843617058565e-06   -2.2362109428611084e-05
-9.271420315575076e-06   -7.876843617058565e-06   -2.2362109428611084e-05
-1.556853408791268e-05   -3.5374793546831887e-06   -1.4470538365473609e-05
-1.556853408791268e-05   -3.5374793546831887e-06   -1.4470538365473609e-05
-1.556853408791268e-05   -3.5374793546831887e-06   -1.4470538365473609e-05
-1.556853408791268e-05   -3.5374793546831887e-06   -1.4470538365473609e-05
-9.271420315575076e-06   6.717457854194713e-07   -1.6407350088022124e-06
-9.271420315575076e-06   6.717457854194713e-07   -1.6407350088022124e-06
-9.271420315575076e-06   6.717457854194713e-07   -1.6407350088022124e-06
-9.271420315575076e-06   6.717457854194713e-07   -1.6407350088022124e-06
-2.1704244967460424e-05   -7.876843617058349e-06   -2.7491263070097863e-05
-2.1704244967460424e-05   -7.876843617058349e-06   -2.7491263070097863e-05
-2.1704244967460424e-05   -7.876843617058349e-06   -2.7491263070097863e-05
-2.1704244967460424e-05   -7.876843617058349e-06   -2.7491263070097863e-05
-2.106776454508226e-05   9.114901113346872e-07   -6.011657320568521e-06
-2.106776454508226e-05   9.114901113346872e-07   -6.011657320568521e-06
-2.106776454508226e-05   9.114901113346872e-07   -6.011657320568521e-06
-2.106776454508226e-05   9.114901113346872e-07   -6.011657320568521e-06
-8.794926775565624e-06   -7.913929914109708e-06   -2.1171134921162964e-05
-8.794926775565624e-06   -7.913929914109708e-06   -2.1171134921162964e-05
-8.794926775565624e-06   -7.913929914109708e-06   -2.1171134921162964e-05
-8.794926775565624e-06   -7.913929914109708e-06   -2.1171134921162964e-05
-1.4920305293785599e-05   -3.5432815796034413e-06   -1.358455972483351e-05
-1.4920305293785599e-05   -3.5432815796034413e-06   -1.358455972483351e-05
-1.4920305293785599e-05   -3.5432815796034413e-06   -1.358455972483351e-05
-1.4920305293785599e-05   -3.5432815796034413e-06   -1.358455972483351e-05
-8.794926775565624e-06   9.114901113346872e-07   -7.164053053017967e-07
-8.794926775565624e-06   9.114901113346872e-07   -7.164053053017967e-07
-8.794926775565624e-06   9.114901113346872e-07   -7.164053053017967e-07
-8.794926775565624e-06   9.114901113346872e-07   -7.164053053017967e-07
-2.1067764545082293e-05   -7.913929914109708e-06   -2.6466386936429566e-05
-2.1067764545082293e-05   -7.913929914109708e-06   -2.6466386936429566e-05
-2.1067764545082293e-05   -7.913929914109708e-06   -2.6466386936429566e-05
-2.1067764545082293e-05   -7.913929914109708e-06   -2.6466386936429566e-05
-2.0020210305043414e-05   1.112975704346147e-06   -5.24440329586985e-06
-2.0020210305043414e-05   1.112975704346147e-06   -5.24440329586985e-06
-2.0020210305043414e-05   1.112975704346147e-06   -5.24440329586985e-06
-2.0020210305043414e-05   1.112975704346147e-06   -5.24440329586985e-06
-7.972208008748488e-06   -7.1814327252601225e-06   -2.0347762065264273e-05
-7.972208008748488e-06   -7.1814327252601225e-06   -2.0347762065264273e-05
-7.972208008748488e-06   -7.1814327252601225e-06   -2.0347762065264273e-05
-7.972208008748488e-06   -7.1814327252601225e-06   -2.0347762065264273e-05
-1.428544353365069e-05   -3.1003348805601523e-06   -1.2274361563913627e-05
-1.428544353365069e-05   -3.1003348805601523e-06   -1.2274361563913627e-05
-1.428544353365069e-05   -3.1003348805601523e-06   -1.2274361563913627e-05
-1.428544353365069e-05   -3.1003348805601523e-06   -1.2274361563913627e-05
-2.236886687137606e-05   3.2358846129153414e-06   -4.580836589976778e-06
-2.236886687137606e-05   3.2358846129153414e-06   -4.580836589976778e-06
-2.236886687137606e-05   3.2358846129153414e-06   -4.580836589976778e-06
-2.236886687137606e-05   3.2358846129153414e-06   -4.580836589976778e-06
-3.8355801551462805e-05   0.0   -3.316725849120399e-05
-3.8355801551462805e-05   0.0   -3.316725849120399e-05
-3.8355801551462805e-05   0.0   -3.316725849120399e-05
-3.8355801551462805e-05   0.0   -3.316725849120399e-05
-3.7388454459552146e-05   4.071251289355124e-06   -3.4691143823466697e-06
-3.7388454459552146e-05   4.071251289355124e-06   -3.4691143823466697e-06
-3.7388454459552146e-05   4.071251289355124e-06   -3.4691143823466697e-06
-3.7388454459552146e-05   4.071251289355124e-06   -3.4691143823466697e-06
-2.1704244967460387e-05   0.0   -2.7166712762219807e-05
-2.1704244967460387e-05   0.0   -2.7166712762219807e-05
-2.1704244967460387e-05   0.0   -2.7166712762219807e-05
-2.1704244967460387e-05   0.0   -2.7166712762219807e-05
-2.8683049555763487e-05   1.258861152769828e-06   -1.629068847337653e-05
-2.8683049555763487e-05   1.258861152769828e-06   -1.629068847337653e-05
-2.8683049555763487e-05   1.258861152769828e-06   -1.629068847337653e-05
-2.8683049555763487e-05   1.258861152769828e-06   -1.629068847337653e-05
-2.17042449674604e-05   4.071251289355124e-06   -1.0263636087335087e-06
-2.17042449674604e-05   4.071251289355124e-06   -1.0263636087335087e-06
-2.17042449674604e-05   4.071251289355124e-06   -1.0263636087335087e-06
-2.17042449674604e-05   4.071251289355124e-06   -1.0263636087335087e-06
-3.738845445955208e-05   0.0   -2.9609463535832867e-05
-3.738845445955208e-05   0.0   -2.9609463535832867e-05
-3.738845445955208e-05   0.0   -2.9609463535832867e-05
-3.738845445955208e-05   0.0   -2.9609463535832867e-05
-3.656683938416676e-05   4.2601312020669685e-06   -1.2321774306288825e-06
-3.656683938416676e-05   4.2601312020669685e-06   -1.2321774306288825e-06
-3.656683938416676e-05   4.2601312020669685e-06   -1.2321774306288825e-06
-3.656683938416676e-05   4.2601312020669685e-06   -1.2321774306288825e-06
-2.1067764545082293e-05   0.0   -2.4507890107862933e-05
-2.1067764545082293e-05   0.0   -2.4507890107862933e-05
-2.1067764545082293e-05   0.0   -2.4507890107862933e-05
-2.1067764545082293e-05   0.0   -2.4507890107862933e-05
-2.8408644968383178e-05   1.975020817936114e-06   -1.3458101893122729e-05
-2.8408644968383178e-05   1.975020817936114e-06   -1.3458101893122729e-05
-2.8408644968383178e-05   1.975020817936114e-06   -1.3458101893122729e-05
-2.8408644968383178e-05   1.975020817936114e-06   -1.3458101893122729e-05
-2.1067764545082293e-05   4.2601312020669685e-06   1.323901290611277e-06
-2.1067764545082293e-05   4.2601312020669685e-06   1.323901290611277e-06
-2.1067764545082293e-05   4.2601312020669685e-06   1.323901290611277e-06
-2.1067764545082293e-05   4.2601312020669685e-06   1.323901290611277e-06
-3.65668393841667e-05   0.0   -2.706396882910301e-05
-3.65668393841667e-05   0.0   -2.706396882910301e-05
-3.65668393841667e-05   0.0   -2.706396882910301e-05
-3.65668393841667e-05   0.0   -2.706396882910301e-05
-3.4924193949199006e-05   4.576986349391545e-06   2.3799079414900566e-06
-3.4924193949199006e-05   4.576986349391545e-06   2.3799079414900566e-06
-3.4924193949199006e-05   4.576986349391545e-06   2.3799079414900566e-06
-3.4924193949199006e-05   4.576986349391545e-06   2.3799079414900566e-06
-2.0020210305043455e-05   0.0   -1.971387298913437e-05
-2.0020210305043455e-05   0.0   -1.971387298913437e-05
-2.0020210305043455e-05   0.0   -1.971387298913437e-05
-2.0020210305043455e-05   0.0   -1.971387298913437e-05
-2.696337090974231e-05   2.4302078253551126e-06   -9.60006334318255e-06
-2.696337090974231e-05   2.4302078253551126e-06   -9.60006334318255e-06
-2.696337090974231e-05   2.4302078253551126e-06   -9.60006334318255e-06
-2.696337090974231e-05   2.4302078253551126e-06   -9.60006334318255e-06
2.8319158122197605e-05   -4.832056690723266e-06   1.684788096707431e-05
2.8319158122197605e-05   -4.832056690723266e-06   1.684788096707431e-05
2.8319158122197605e-05   -4.832056690723266e-06   1.684788096707431e-05
2.8319158122197605e-05   -4.832056690723266e-06   1.684788096707431e-05
1.4656525639744137e-05   -3.751622982339081e-06   -5.2749129453176415e-06
1.4656525639744137e-05   -3.751622982339081e-06   -5.2749129453176415e-06
1.4656525639744137e-05   -3.751622982339081e-06   -5.2749129453176415e-06
1.4656525639744137e-05   -3.751622982339081e-06   -5.2749129453176415e-06
1.4295233057893525e-05   -4.953032011014531e-06   1.484697503423651e-05
1.4295233057893525e-05   -4.953032011014531e-06   1.484697503423651e-05
1.4295233057893525e-05   -4.953032011014531e-06   1.484697503423651e-05
1.4295233057893525e-05   -4.953032011014531e-06   1.484697503423651e-05
2.8026569710848395e-05   -4.119509939192129e-06   -8.538699297114917e-06
2.8026569710848395e-05   -4.119509939192129e-06   -8.538699297114917e-06
2.8026569710848395e-05   -4.119509939192129e-06   -8.538699297114917e-06
2.8026569710848395e-05   -4.119509939192129e-06   -8.538699297114917e-06
2.044997548865223e-05   -4.178799013252344e-06   4.1245311843146224e-06
2.044997548865223e-05   -4.178799013252344e-06   4.1245311843146224e-06
2.044997548865223e-05   -4.178799013252344e-06   4.1245311843146224e-06
2.044997548865223e-05   -4.178799013252344e-06   4.1245311843146224e-06
2.8026569710848395e-05   -4.953032011014531e-06   1.4346861791143155e-05
2.8026569710848395e-05   -4.953032011014531e-06   1.4346861791143155e-05
2.8026569710848395e-05   -4.953032011014531e-06   1.4346861791143155e-05
2.8026569710848395e-05   -4.953032011014531e-06   1.4346861791143155e-05
1.4295233057893525e-05   -4.119509939192129e-06   -8.038586054021643e-06
1.4295233057893525e-05   -4.119509939192129e-06   -8.038586054021643e-06
1.4295233057893525e-05   -4.119509939192129e-06   -8.038586054021643e-06
1.4295233057893525e-05   -4.119509939192129e-06   -8.038586054021643e-06
1.39677021772679e-05   -4.9063229707363605e-06   1.3313482409411394e-05
1.39677021772679e-05   -4.9063229707363605e-06   1.3313482409411394e-05
1.39677021772679e-05   -4.9063229707363605e-06   1.3313482409411394e-05
1.39677021772679e-05   -4.9063229707363605e-06   1.3313482409411394e-05
2.7685504243696172e-05   -4.15122478737923e-06   -1.0002579944649951e-05
2.7685504243696172e-05   -4.15122478737923e-06   -1.0002579944649951e-05
2.7685504243696172e-05   -4.15122478737923e-06   -1.0002579944649951e-05
2.7685504243696172e-05   -4.15122478737923e-06   -1.0002579944649951e-05
2.0443216315674327e-05   -4.252161341252152e-06   2.12846186771026e-06
2.0443216315674327e-05   -4.252161341252152e-06   2.12846186771026e-06
2.0443216315674327e-05   -4.252161341252152e-06   2.12846186771026e-06
2.0443216315674327e-05   -4.252161341252152e-06   2.12846186771026e-06
2.7685504243696213e-05   -4.906322970736577e-06   1.2860423499397072e-05
2.7685504243696213e-05   -4.906322970736577e-06   1.2860423499397072e-05
2.7685504243696213e-05   -4.906322970736577e-06   1.2860423499397072e-05
2.7685504243696213e-05   -4.906322970736577e-06   1.2860423499397072e-05
1.39677021772679e-05   -4.15122478737923e-06   -9.549521034635656e-06
1.39677021772679e-05   -4.15122478737923e-06   -9.549521034635656e-06
1.39677021772679e-05   -4.15122478737923e-06   -9.549521034635656e-06
1.39677021772679e-05   -4.15122478737923e-06   -9.549521034635656e-06
1.3567729258311908e-05   -4.628039931676032e-06   1.0818540406830834e-05
1.3567729258311908e-05   -4.628039931676032e-06   1.0818540406830834e-05
1.3567729258311908e-05   -4.628039931676032e-06   1.0818540406830834e-05
1.3567729258311908e-05   -4.628039931676032e-06   1.0818540406830834e-05
2.7150868806993636e-05   -4.057338562130173e-06   -1.216244632936636e-05
2.7150868806993636e-05   -4.057338562130173e-06   -1.216244632936636e-05
2.7150868806993636e-05   -4.057338562130173e-06   -1.216244632936636e-05
2.7150868806993636e-05   -4.057338562130173e-06   -1.216244632936636e-05
1.9753203057261532e-05   -4.042601545726967e-06   1.581543770118462e-07
1.9753203057261532e-05   -4.042601545726967e-06   1.581543770118462e-07
1.9753203057261532e-05   -4.042601545726967e-06   1.581543770118462e-07
1.9753203057261532e-05   -4.042601545726967e-06   1.581543770118462e-07
1.4656525639744137e-05   -4.779495327600228e-06   1.2539453399786462e-05
1.4656525639744137e-05   -4.779495327600228e-06   1.2539453399786462e-05
1.4656525639744137e-05   -4.779495327600228e-06   1.2539453399786462e-05
1.4656525639744137e-05   -4.779495327600228e-06   1.2539453399786462e-05
3.018887059560223e-06   -2.2874400747380577e-06   -5.361377748802783e-06
3.018887059560223e-06   -2.2874400747380577e-06   -5.361377748802783e-06
3.018887059560223e-06   -2.2874400747380577e-06   -5.361377748802783e-06
3.018887059560223e-06   -2.2874400747380577e-06   -5.361377748802783e-06
2.4472579050633864e-06   -4.751295354190645e-06   1.4274471916228743e-05
2.4472579050633864e-06   -4.751295354190645e-06   1.4274471916228743e-05
2.4472579050633864e-06   -4.751295354190645e-06   1.4274471916228743e-05
2.4472579050633864e-06   -4.751295354190645e-06   1.4274471916228743e-05
1.4295233057893525e-05   -2.4239006099950958e-06   -6.868590185005375e-06
1.4295233057893525e-05   -2.4239006099950958e-06   -6.868590185005375e-06
1.4295233057893525e-05   -2.4239006099950958e-06   -6.868590185005375e-06
1.4295233057893525e-05   -2.4239006099950958e-06   -6.868590185005375e-06
8.590996019348396e-06   -3.428169485372983e-06   3.241032871129936e-06
8.590996019348396e-06   -3.428169485372983e-06   3.241032871129936e-06
8.590996019348396e-06   -3.428169485372983e-06   3.241032871129936e-06
8.590996019348396e-06   -3.428169485372983e-06   3.241032871129936e-06
1.4295233057893545e-05   -4.751295354190645e-06   1.2878035069711479e-05
1.4295233057893545e-05   -4.751295354190645e-06   1.2878035069711479e-05
1.4295233057893545e-05   -4.751295354190645e-06   1.2878035069711479e-05
1.4295233057893545e-05   -4.751295354190645e-06   1.2878035069711479e-05
2.4472579050633864e-06   -2.4239006099950958e-06   -5.472153338488138e-06
2.4472579050633864e-06   -2.4239006099950958e-06   -5.472153338488138e-06
2.4472579050633864e-06   -2.4239006099950958e-06   -5.472153338488138e-06
2.4472579050633864e-06   -2.4239006099950958e-06   -5.472153338488138e-06
2.038487282407102e-06   -4.68255867825014e-06   1.4282851510846436e-05
2.038487282407102e-06   -4.68255867825014e-06   1.4282851510846436e-05
2.038487282407102e-06   -4.68255867825014e-06   1.4282851510846436e-05
2.038487282407102e-06   -4.68255867825014e-06   1.4282851510846436e-05
1.39677021772679e-05   -2.481725293926188e-06   -6.9196733445159065e-06
1.39677021772679e-05   -2.481725293926188e-06   -6.9196733445159065e-06
1.39677021772679e-05   -2.481725293926188e-06   -6.9196733445159065e-06
1.39677021772679e-05   -2.481725293926188e-06   -6.9196733445159065e-06
8.098283252376218e-06   -3.3557552103465407e-06   3.3871094801559928e-06
8.098283252376218e-06   -3.3557552103465407e-06   3.3871094801559928e-06
8.098283252376218e-06   -3.3557552103465407e-06   3.3871094801559928e-06
8.098283252376218e-06   -3.3557552103465407e-06   3.3871094801559928e-06
1.396770217726792e-05   -4.68255867825014e-06   1.2962351480252173e-05
1.396770217726792e-05   -4.68255867825014e-06   1.2962351480252173e-05
1.396770217726792e-05   -4.68255867825014e-06   1.2962351480252173e-05
1.396770217726792e-05   -4.68255867825014e-06   1.2962351480252173e-05
2.038487282407102e-06   -2.481725293926188e-06   -5.5991733139214945e-06
2.038487282407102e-06   -2.481725293926188e-06   -5.5991733139214945e-06
2.038487282407102e-06   -2.481725293926188e-06   -5.5991733139214945e-06
2.038487282407102e-06   -2.481725293926188e-06   -5.5991733139214945e-06
1.5842372620434035e-06   -4.548448328195584e-06   1.4732889536565766e-05
1.5842372620434035e-06   -4.548448328195584e-06   1.4732889536565766e-05
1.5842372620434035e-06   -4.548448328195584e-06   1.4732889536565766e-05
1.5842372620434035e-06   -4.548448328195584e-06   1.4732889536565766e-05
1.3567729258311894e-05   -2.420683479620496e-06   -6.51625603302676e-06
1.3567729258311894e-05   -2.420683479620496e-06   -6.51625603302676e-06
1.3567729258311894e-05   -2.420683479620496e-06   -6.51625603302676e-06
1.3567729258311894e-05   -2.420683479620496e-06   -6.51625603302676e-06
7.79920237083794e-06   -3.204590265134654e-06   3.568299517404819e-06
7.79920237083794e-06   -3.204590265134654e-06   3.568299517404819e-06
7.79920237083794e-06   -3.204590265134654e-06   3.568299517404819e-06
7.79920237083794e-06   -3.204590265134654e-06   3.568299517404819e-06
3.018887059560223e-06   -5.693569540071329e-06   1.2860317511265932e-05
3.018887059560223e-06   -5.693569540071329e-06   1.2860317511265932e-05
3.018887059560223e-06   -5.693569540071329e-06   1.2860317511265932e-05
3.018887059560223e-06   -5.693569540071329e-06   1.2860317511265932e-05
-8.167910976323644e-06   -9.120558172274074e-07   -2.9154376481677416e-06
-8.167910976323644e-06   -9.120558172274074e-07   -2.9154376481677416e-06
-8.167910976323644e-06   -9.120558172274074e-07   -2.9154376481677416e-06
-8.167910976323644e-06   -9.120558172274074e-07   -2.9154376481677416e-06
-9.056293857887753e-06   -5.8138641093059395e-06   1.6469237075164046e-05
-9.056293857887753e-06   -5.8138641093059395e-06   1.6469237075164046e-05
-9.056293857887753e-06   -5.8138641093059395e-06   1.6469237075164046e-05
-9.056293857887753e-06   -5.8138641093059395e-06   1.6469237075164046e-05
2.4472579050633864e-06   -9.614984151314933e-07   -5.614768612925643e-06
2.4472579050633864e-06   -9.614984151314933e-07   -5.614768612925643e-06
2.4472579050633864e-06   -9.614984151314933e-07   -5.614768612925643e-06
2.4472579050633864e-06   -9.614984151314933e-07   -5.614768612925643e-06
-2.8422847174185438e-06   -3.2363357485099345e-06   4.566038157904635e-06
-2.8422847174185438e-06   -3.2363357485099345e-06   4.566038157904635e-06
-2.8422847174185438e-06   -3.2363357485099345e-06   4.566038157904635e-06
-2.8422847174185438e-06   -3.2363357485099345e-06   4.566038157904635e-06
2.4472579050633864e-06   -5.813864109305723e-06   1.3557817658659509e-05
2.4472579050633864e-06   -5.813864109305723e-06   1.3557817658659509e-05
2.4472579050633864e-06   -5.813864109305723e-06   1.3557817658659509e-05
2.4472579050633864e-06   -5.813864109305723e-06   1.3557817658659509e-05
-9.056293857887733e-06   -9.614984151317101e-07   -2.7033491964211865e-06
-9.056293857887733e-06   -9.614984151317101e-07   -2.7033491964211865e-06
-9.056293857887733e-06   -9.614984151317101e-07   -2.7033491964211865e-06
-9.056293857887733e-06   -9.614984151317101e-07   -2.7033491964211865e-06
-9.601164482834056e-06   -5.779885188627936e-06   1.7090089993937636e-05
-9.601164482834056e-06   -5.779885188627936e-06   1.7090089993937636e-05
-9.601164482834056e-06   -5.779885188627936e-06   1.7090089993937636e-05
-9.601164482834056e-06   -5.779885188627936e-06   1.7090089993937636e-05
2.038487282407102e-06   -1.0228270277328009e-06   -5.163564511334777e-06
2.038487282407102e-06   -1.0228270277328009e-06   -5.163564511334777e-06
2.038487282407102e-06   -1.0228270277328009e-06   -5.163564511334777e-06
2.038487282407102e-06   -1.0228270277328009e-06   -5.163564511334777e-06
-3.4446328534224675e-06   -3.2208711347430762e-06   5.293795512587409e-06
-3.4446328534224675e-06   -3.2208711347430762e-06   5.293795512587409e-06
-3.4446328534224675e-06   -3.2208711347430762e-06   5.293795512587409e-06
-3.4446328534224675e-06   -3.2208711347430762e-06   5.293795512587409e-06
2.0384872824070953e-06   -5.779885188627936e-06   1.423585509740036e-05
2.0384872824070953e-06   -5.779885188627936e-06   1.423585509740036e-05
2.0384872824070953e-06   -5.779885188627936e-06   1.423585509740036e-05
2.0384872824070953e-06   -5.779885188627936e-06   1.423585509740036e-05
-9.601164482834035e-06   -1.0228270277328009e-06   -2.3093296147976223e-06
-9.601164482834035e-06   -1.0228270277328009e-06   -2.3093296147976223e-06
-9.601164482834035e-06   -1.0228270277328009e-06   -2.3093296147976223e-06
-9.601164482834035e-06   -1.0228270277328009e-06   -2.3093296147976223e-06
-1.0239767596573009e-05   -5.5692696652599304e-06   1.7890868073509457e-05
-1.0239767596573009e-05   -5.5692696652599304e-06   1.7890868073509457e-05
-1.0239767596573009e-05   -5.5692696652599304e-06   1.7890868073509457e-05
-1.0239767596573009e-05   -5.5692696652599304e-06   1.7890868073509457e-05
1.5842372620434035e-06   -1.0127017795347627e-06   -4.549747422286389e-06
1.5842372620434035e-06   -1.0127017795347627e-06   -4.549747422286389e-06
1.5842372620434035e-06   -1.0127017795347627e-06   -4.549747422286389e-06
1.5842372620434035e-06   -1.0127017795347627e-06   -4.549747422286389e-06
-3.9360972402143184e-06   -3.085796938154901e-06   5.894667176648612e-06
-3.9360972402143184e-06   -3.085796938154901e-06   5.894667176648612e-06
-3.9360972402143184e-06   -3.085796938154901e-06   5.894667176648612e-06
-3.9360972402143184e-06   -3.085796938154901e-06   5.894667176648612e-06
-8.167910976323657e-06   -7.028542187409838e-06   1.552892029034285e-05
-8.167910976323657e-06   -7.028542187409838e-06   1.552892029034285e-05
-8.167910976323657e-06   -7.028542187409838e-06   1.552892029034285e-05
-8.167910976323657e-06   -7.028542187409838e-06   1.552892029034285e-05
-2.0850739501070072e-05   1.1231546963497065e-06   -7.181091206453832e-07
-2.0850739501070072e-05   1.1231546963497065e-06   -7.181091206453832e-07
-2.0850739501070072e-05   1.1231546963497065e-06   -7.181091206453832e-07
-2.0850739501070072e-05   1.1231546963497065e-06   -7.181091206453832e-07
-2.192531949902844e-05   -7.876843617058349e-06   2.188709174700805e-05
-2.192531949902844e-05   -7.876843617058349e-06   2.188709174700805e-05
-2.192531949902844e-05   -7.876843617058349e-06   2.188709174700805e-05
-2.192531949902844e-05   -7.876843617058349e-06   2.188709174700805e-05
-9.056293857887733e-06   1.0690297947435218e-06   -4.928808368640829e-06
-9.056293857887733e-06   1.0690297947435218e-06   -4.928808368640829e-06
-9.056293857887733e-06   1.0690297947435218e-06   -4.928808368640829e-06
-9.056293857887733e-06   1.0690297947435218e-06   -4.928808368640829e-06
-1.4795005732113182e-05   -2.853131981576419e-06   6.989008487526922e-06
-1.4795005732113182e-05   -2.853131981576419e-06   6.989008487526922e-06
-1.4795005732113182e-05   -2.853131981576419e-06   6.989008487526922e-06
-1.4795005732113182e-05   -2.853131981576419e-06   6.989008487526922e-06
-9.056293857887753e-06   -7.876843617058349e-06   1.6519567699926994e-05
-9.056293857887753e-06   -7.876843617058349e-06   1.6519567699926994e-05
-9.056293857887753e-06   -7.876843617058349e-06   1.6519567699926994e-05
-9.056293857887753e-06   -7.876843617058349e-06   1.6519567699926994e-05
-2.192531949902844e-05   1.069029794743305e-06   4.3871567844029624e-07
-2.192531949902844e-05   1.069029794743305e-06   4.3871567844029624e-07
-2.192531949902844e-05   1.069029794743305e-06   4.3871567844029624e-07
-2.192531949902844e-05   1.069029794743305e-06   4.3871567844029624e-07
-2.2578889896421986e-05   -7.913929914109708e-06   2.3121483156134754e-05
-2.2578889896421986e-05   -7.913929914109708e-06   2.3121483156134754e-05
-2.2578889896421986e-05   -7.913929914109708e-06   2.3121483156134754e-05
-2.2578889896421986e-05   -7.913929914109708e-06   2.3121483156134754e-05
-9.601164482834035e-06   9.60284635699929e-07   -3.8325879297308735e-06
-9.601164482834035e-06   9.60284635699929e-07   -3.8325879297308735e-06
-9.601164482834035e-06   9.60284635699929e-07   -3.8325879297308735e-06
-9.601164482834035e-06   9.60284635699929e-07   -3.8325879297308735e-06
-1.5488311299427433e-05   -3.308458823542571e-06   8.54056950680361e-06
-1.5488311299427433e-05   -3.308458823542571e-06   8.54056950680361e-06
-1.5488311299427433e-05   -3.308458823542571e-06   8.54056950680361e-06
-1.5488311299427433e-05   -3.308458823542571e-06   8.54056950680361e-06
-9.601164482834029e-06   -7.913929914109708e-06   1.7796954426249015e-05
-9.601164482834029e-06   -7.913929914109708e-06   1.7796954426249015e-05
-9.601164482834029e-06   -7.913929914109708e-06   1.7796954426249015e-05
-9.601164482834029e-06   -7.913929914109708e-06   1.7796954426249015e-05
-2.2578889896421946e-05   9.60284635699929e-07   1.4919408001548519e-06
-2.2578889896421946e-05   9.60284635699929e-07   1.4919408001548519e-06
-2.2578889896421946e-05   9.60284635699929e-07   1.4919408001548519e-06
-2.2578889896421946e-05   9.60284635699929e-07   1.4919408001548519e-06
-2.328469577923163e-05   -7.1814327252601225e-06   2.364152219208745e-05
-2.328469577923163e-05   -7.1814327252601225e-06   2.364152219208745e-05
-2.328469577923163e-05   -7.1814327252601225e-06   2.364152219208745e-05
-2.328469577923163e-05   -7.1814327252601225e-06   2.364152219208745e-05
-1.0239767596572975e-05   8.359954940953887e-07   -2.9104817106234004e-06
-1.0239767596572975e-05   8.359954940953887e-07   -2.9104817106234004e-06
-1.0239767596572975e-05   8.359954940953887e-07   -2.9104817106234004e-06
-1.0239767596572975e-05   8.359954940953887e-07   -2.9104817106234004e-06
-1.6208387387768126e-05   -3.3287158016661288e-06   9.536044718825415e-06
-1.6208387387768126e-05   -3.3287158016661288e-06   9.536044718825415e-06
-1.6208387387768126e-05   -3.3287158016661288e-06   9.536044718825415e-06
-1.6208387387768126e-05   -3.3287158016661288e-06   9.536044718825415e-06
-2.0850739501069997e-05   0.0   1.7093274734692387e-05
-2.0850739501069997e-05   0.0   1.7093274734692387e-05
-2.0850739501069997e-05   0.0   1.7093274734692387e-05
-2.0850739501069997e-05   0.0   1.7093274734692387e-05
-3.6556335119161974e-05   4.812390911791524e-06   -6.195283415052729e-06
-3.6556335119161974e-05   4.812390911791524e-06   -6.195283415052729e-06
-3.6556335119161974e-05   4.812390911791524e-06   -6.195283415052729e-06
-3.6556335119161974e-05   4.812390911791524e-06   -6.195283415052729e-06
-3.802504130722386e-05   0.0   2.5007985408053942e-05
-3.802504130722386e-05   0.0   2.5007985408053942e-05
-3.802504130722386e-05   0.0   2.5007985408053942e-05
-3.802504130722386e-05   0.0   2.5007985408053942e-05
-2.19253194990284e-05   4.660572255279702e-06   -4.621227625439936e-06
-2.19253194990284e-05   4.660572255279702e-06   -4.621227625439936e-06
-2.19253194990284e-05   4.660572255279702e-06   -4.621227625439936e-06
-2.19253194990284e-05   4.660572255279702e-06   -4.621227625439936e-06
-2.8090916700448837e-05   2.853998606417536e-06   6.738711899578244e-06
-2.8090916700448837e-05   2.853998606417536e-06   6.738711899578244e-06
-2.8090916700448837e-05   2.853998606417536e-06   6.738711899578244e-06
-2.8090916700448837e-05   2.853998606417536e-06   6.738711899578244e-06
-2.1925319499028387e-05   0.0   2.22116420548861e-05
-2.1925319499028387e-05   0.0   2.22116420548861e-05
-2.1925319499028387e-05   0.0   2.22116420548861e-05
-2.1925319499028387e-05   0.0   2.22116420548861e-05
-3.802504130722392e-05   4.660572255279702e-06   -1.8248842722719304e-06
-3.802504130722392e-05   4.660572255279702e-06   -1.8248842722719304e-06
-3.802504130722392e-05   4.660572255279702e-06   -1.8248842722719304e-06
-3.802504130722392e-05   4.660572255279702e-06   -1.8248842722719304e-06
-3.876309978439336e-05   0.0   2.7808141650416266e-05
-3.876309978439336e-05   0.0   2.7808141650416266e-05
-3.876309978439336e-05   0.0   2.7808141650416266e-05
-3.876309978439336e-05   0.0   2.7808141650416266e-05
-2.2578889896421946e-05   4.546936109524986e-06   -1.8937031619177883e-06
-2.2578889896421946e-05   4.546936109524986e-06   -1.8937031619177883e-06
-2.2578889896421946e-05   4.546936109524986e-06   -1.8937031619177883e-06
-2.2578889896421946e-05   4.546936109524986e-06   -1.8937031619177883e-06
-2.952474510777687e-05   2.387459290903015e-06   1.0978408281513987e-05
-2.952474510777687e-05   2.387459290903015e-06   1.0978408281513987e-05
-2.952474510777687e-05   2.387459290903015e-06   1.0978408281513987e-05
-2.952474510777687e-05   2.387459290903015e-06   1.0978408281513987e-05
-2.2578889896421946e-05   0.0   2.507997998470136e-05
-2.2578889896421946e-05   0.0   2.507997998470136e-05
-2.2578889896421946e-05   0.0   2.507997998470136e-05
-2.2578889896421946e-05   0.0   2.507997998470136e-05
-3.876309978439349e-05   4.546936109524986e-06   8.34458503797225e-07
-3.876309978439349e-05   4.546936109524986e-06   8.34458503797225e-07
-3.876309978439349e-05   4.546936109524986e-06   8.34458503797225e-07
-3.876309978439349e-05   4.546936109524986e-06   8.34458503797225e-07
-3.9578735603946326e-05   0.0   3.1538836452072437e-05
-3.9578735603946326e-05   0.0   3.1538836452072437e-05
-3.9578735603946326e-05   0.0   3.1538836452072437e-05
-3.9578735603946326e-05   0.0   3.1538836452072437e-05
-2.328469577923163e-05   3.8113002101521423e-06   2.095323284789807e-06
-2.328469577923163e-05   3.8113002101521423e-06   2.095323284789807e-06
-2.328469577923163e-05   3.8113002101521423e-06   2.095323284789807e-06
-2.328469577923163e-05   3.8113002101521423e-06   2.095323284789807e-06
-2.9748658815321393e-05   1.6875083481901476e-06   1.4142870128783182e-05
-2.9748658815321393e-05   1.6875083481901476e-06   1.4142870128783182e-05
-2.9748658815321393e-05   1.6875083481901476e-06   1.4142870128783182e-05
-2.9748658815321393e-05   1.6875083481901476e-06   1.4142870128783182e-05
2.5030917399936968e-05   -3.751622982339081e-06   1.7663301014259427e-05
2.5030917399936968e-05   -3.751622982339081e-06   1.7663301014259427e-05
2.5030917399936968e-05   -3.751622982339081e-06   1.7663301014259427e-05
2.5030917399936968e-05   -3.751622982339081e-06   1.7663301014259427e-05
1.2634021196356242e-05   -2.852589746018858e-06   -2.458772716583098e-06
1.2634021196356242e-05   -2.852589746018858e-06   -2.458772716583098e-06
1.2634021196356242e-05   -2.852589746018858e-06   -2.458772716583098e-06
1.2634021196356242e-05   -2.852589746018858e-06   -2.458772716583098e-06
1.2307773687308294e-05   -4.119509939192346e-06   1.5393969627878253e-05
1.2307773687308294e-05   -4.119509939192346e-06   1.5393969627878253e-05
1.2307773687308294e-05   -4.119509939192346e-06   1.5393969627878253e-05
1.2307773687308294e-05   -4.119509939192346e-06   1.5393969627878253e-05
2.4451583072699823e-05   -3.226896294903801e-06   -5.38128086768064e-06
2.4451583072699823e-05   -3.226896294903801e-06   -5.38128086768064e-06
2.4451583072699823e-05   -3.226896294903801e-06   -5.38128086768064e-06
2.4451583072699823e-05   -3.226896294903801e-06   -5.38128086768064e-06
1.777777335697861e-05   -3.350086542071957e-06   5.81564947348893e-06
1.777777335697861e-05   -3.350086542071957e-06   5.81564947348893e-06
1.777777335697861e-05   -3.350086542071957e-06   5.81564947348893e-06
1.777777335697861e-05   -3.350086542071957e-06   5.81564947348893e-06
2.4451583072699782e-05   -4.119509939192346e-06   1.4858401441305191e-05
2.4451583072699782e-05   -4.119509939192346e-06   1.4858401441305191e-05
2.4451583072699782e-05   -4.119509939192346e-06   1.4858401441305191e-05
2.4451583072699782e-05   -4.119509939192346e-06   1.4858401441305191e-05
1.2307773687308321e-05   -3.226896294903801e-06   -4.845712681107554e-06
1.2307773687308321e-05   -3.226896294903801e-06   -4.845712681107554e-06
1.2307773687308321e-05   -3.226896294903801e-06   -4.845712681107554e-06
1.2307773687308321e-05   -3.226896294903801e-06   -4.845712681107554e-06
1.1887523760237902e-05   -4.15122478737923e-06   1.3803095811424607e-05
1.1887523760237902e-05   -4.15122478737923e-06   1.3803095811424607e-05
1.1887523760237902e-05   -4.15122478737923e-06   1.3803095811424607e-05
1.1887523760237902e-05   -4.15122478737923e-06   1.3803095811424607e-05
2.386419753209515e-05   -3.2810465614612275e-06   -6.680134077221646e-06
2.386419753209515e-05   -3.2810465614612275e-06   -6.680134077221646e-06
2.386419753209515e-05   -3.2810465614612275e-06   -6.680134077221646e-06
2.386419753209515e-05   -3.2810465614612275e-06   -6.680134077221646e-06
1.7622401081348308e-05   -3.4949211239626316e-06   3.851184744857136e-06
1.7622401081348308e-05   -3.4949211239626316e-06   3.851184744857136e-06
1.7622401081348308e-05   -3.4949211239626316e-06   3.851184744857136e-06
1.7622401081348308e-05   -3.4949211239626316e-06   3.851184744857136e-06
2.386419753209515e-05   -4.15122478737923e-06   1.3280988875873827e-05
2.386419753209515e-05   -4.15122478737923e-06   1.3280988875873827e-05
2.386419753209515e-05   -4.15122478737923e-06   1.3280988875873827e-05
2.386419753209515e-05   -4.15122478737923e-06   1.3280988875873827e-05
1.1887523760237902e-05   -3.2810465614612275e-06   -6.158027141670887e-06
1.1887523760237902e-05   -3.2810465614612275e-06   -6.158027141670887e-06
1.1887523760237902e-05   -3.2810465614612275e-06   -6.158027141670887e-06
1.1887523760237902e-05   -3.2810465614612275e-06   -6.158027141670887e-06
1.1446064339414613e-05   -4.057338562130173e-06   1.1437715665862068e-05
1.1446064339414613e-05   -4.057338562130173e-06   1.1437715665862068e-05
1.1446064339414613e-05   -4.057338562130173e-06   1.1437715665862068e-05
1.1446064339414613e-05   -4.057338562130173e-06   1.1437715665862068e-05
2.312846569673205e-05   -3.253687362724184e-06   -8.515143982643932e-06
2.312846569673205e-05   -3.253687362724184e-06   -8.515143982643932e-06
2.312846569673205e-05   -3.253687362724184e-06   -8.515143982643932e-06
2.312846569673205e-05   -3.253687362724184e-06   -8.515143982643932e-06
1.684904850088568e-05   -3.401224808460574e-06   2.0390738112088932e-06
1.684904850088568e-05   -3.401224808460574e-06   2.0390738112088932e-06
1.684904850088568e-05   -3.401224808460574e-06   2.0390738112088932e-06
1.684904850088568e-05   -3.401224808460574e-06   2.0390738112088932e-06
1.2634021196356263e-05   -2.2874400747380577e-06   1.662102300084914e-05
1.2634021196356263e-05   -2.2874400747380577e-06   1.662102300084914e-05
1.2634021196356263e-05   -2.2874400747380577e-06   1.662102300084914e-05
1.2634021196356263e-05   -2.2874400747380577e-06   1.662102300084914e-05
1.3231990766773103e-06   -9.98455001030552e-07   -1.4569561543912798e-06
1.3231990766773103e-06   -9.98455001030552e-07   -1.4569561543912798e-06
1.3231990766773103e-06   -9.98455001030552e-07   -1.4569561543912798e-06
1.3231990766773103e-06   -9.98455001030552e-07   -1.4569561543912798e-06
9.983824716980569e-07   -2.4239006099950958e-06   1.7299418828579266e-05
9.983824716980569e-07   -2.4239006099950958e-06   1.7299418828579266e-05
9.983824716980569e-07   -2.4239006099950958e-06   1.7299418828579266e-05
9.983824716980569e-07   -2.4239006099950958e-06   1.7299418828579266e-05
1.2307773687308321e-05   -1.198145057186963e-06   -2.2850198624559684e-06
1.2307773687308321e-05   -1.198145057186963e-06   -2.2850198624559684e-06
1.2307773687308321e-05   -1.198145057186963e-06   -2.2850198624559684e-06
1.2307773687308321e-05   -1.198145057186963e-06   -2.2850198624559684e-06
6.750137794648658e-06   -1.6068292654290283e-06   7.222917150255244e-06
6.750137794648658e-06   -1.6068292654290283e-06   7.222917150255244e-06
6.750137794648658e-06   -1.6068292654290283e-06   7.222917150255244e-06
6.750137794648658e-06   -1.6068292654290283e-06   7.222917150255244e-06
1.2307773687308307e-05   -2.4239006099950958e-06   1.6563965496894494e-05
1.2307773687308307e-05   -2.4239006099950958e-06   1.6563965496894494e-05
1.2307773687308307e-05   -2.4239006099950958e-06   1.6563965496894494e-05
1.2307773687308307e-05   -2.4239006099950958e-06   1.6563965496894494e-05
9.983824716980569e-07   -1.198145057186963e-06   -1.5495665307711836e-06
9.983824716980569e-07   -1.198145057186963e-06   -1.5495665307711836e-06
9.983824716980569e-07   -1.198145057186963e-06   -1.5495665307711836e-06
9.983824716980569e-07   -1.198145057186963e-06   -1.5495665307711836e-06
5.845261509763777e-07   -2.4817252939264046e-06   1.712572404322186e-05
5.845261509763777e-07   -2.4817252939264046e-06   1.712572404322186e-05
5.845261509763777e-07   -2.4817252939264046e-06   1.712572404322186e-05
5.845261509763777e-07   -2.4817252939264046e-06   1.712572404322186e-05
1.1887523760237902e-05   -1.327091057797122e-06   -2.405385847224866e-06
1.1887523760237902e-05   -1.327091057797122e-06   -2.405385847224866e-06
1.1887523760237902e-05   -1.327091057797122e-06   -2.405385847224866e-06
1.1887523760237902e-05   -1.327091057797122e-06   -2.405385847224866e-06
6.336953130352924e-06   -1.6813564167172251e-06   7.058124417935751e-06
6.336953130352924e-06   -1.6813564167172251e-06   7.058124417935751e-06
6.336953130352924e-06   -1.6813564167172251e-06   7.058124417935751e-06
6.336953130352924e-06   -1.6813564167172251e-06   7.058124417935751e-06
1.1887523760237881e-05   -2.481725293926188e-06   1.643294350154429e-05
1.1887523760237881e-05   -2.481725293926188e-06   1.643294350154429e-05
1.1887523760237881e-05   -2.481725293926188e-06   1.643294350154429e-05
1.1887523760237881e-05   -2.481725293926188e-06   1.643294350154429e-05
5.845261509763777e-07   -1.327091057797122e-06   -1.7126053055475064e-06
5.845261509763777e-07   -1.327091057797122e-06   -1.7126053055475064e-06
5.845261509763777e-07   -1.327091057797122e-06   -1.7126053055475064e-06
5.845261509763777e-07   -1.327091057797122e-06   -1.7126053055475064e-06
1.2743334610894314e-07   -2.420683479620496e-06   1.73662425432678e-05
1.2743334610894314e-07   -2.420683479620496e-06   1.73662425432678e-05
1.2743334610894314e-07   -2.420683479620496e-06   1.73662425432678e-05
1.2743334610894314e-07   -2.420683479620496e-06   1.73662425432678e-05
1.1446064339414606e-05   -1.3794211416308204e-06   -2.122899848368837e-06
1.1446064339414606e-05   -1.3794211416308204e-06   -2.122899848368837e-06
1.1446064339414606e-05   -1.3794211416308204e-06   -2.122899848368837e-06
1.1446064339414606e-05   -1.3794211416308204e-06   -2.122899848368837e-06
6.003572653651854e-06   -1.6626054644434864e-06   7.117830221590321e-06
6.003572653651854e-06   -1.6626054644434864e-06   7.117830221590321e-06
6.003572653651854e-06   -1.6626054644434864e-06   7.117830221590321e-06
6.003572653651854e-06   -1.6626054644434864e-06   7.117830221590321e-06
1.3231990766773171e-06   -9.120558172276243e-07   1.697144591200259e-05
1.3231990766773171e-06   -9.120558172276243e-07   1.697144591200259e-05
1.3231990766773171e-06   -9.120558172276243e-07   1.697144591200259e-05
1.3231990766773171e-06   -9.120558172276243e-07   1.697144591200259e-05
-9.640491917829952e-06   9.04882953737824e-07   -2.1120914959712501e-07
-9.640491917829952e-06   9.04882953737824e-07   -2.1120914959712501e-07
-9.640491917829952e-06   9.04882953737824e-07   -2.1120914959712501e-07
-9.640491917829952e-06   9.04882953737824e-07   -2.1120914959712501e-07
-1.0006765082954868e-05   -9.614984151317101e-07   1.8186519443758086e-05
-1.0006765082954868e-05   -9.614984151317101e-07   1.8186519443758086e-05
-1.0006765082954868e-05   -9.614984151317101e-07   1.8186519443758086e-05
-1.0006765082954868e-05   -9.614984151317101e-07   1.8186519443758086e-05
9.983824716980569e-07   7.546947342289669e-07   -1.1851090369464467e-06
9.983824716980569e-07   7.546947342289669e-07   -1.1851090369464467e-06
9.983824716980569e-07   7.546947342289669e-07   -1.1851090369464467e-06
9.983824716980569e-07   7.546947342289669e-07   -1.1851090369464467e-06
-4.323741184927194e-06   2.5667998584575323e-08   8.122513098815553e-06
-4.323741184927194e-06   2.5667998584575323e-08   8.122513098815553e-06
-4.323741184927194e-06   2.5667998584575323e-08   8.122513098815553e-06
-4.323741184927194e-06   2.5667998584575323e-08   8.122513098815553e-06
9.983824716980501e-07   -9.614984151317101e-07   1.715680355414168e-05
9.983824716980501e-07   -9.614984151317101e-07   1.715680355414168e-05
9.983824716980501e-07   -9.614984151317101e-07   1.715680355414168e-05
9.983824716980501e-07   -9.614984151317101e-07   1.715680355414168e-05
-1.0006765082954868e-05   7.546947342289669e-07   -1.5539314733017603e-07
-1.0006765082954868e-05   7.546947342289669e-07   -1.5539314733017603e-07
-1.0006765082954868e-05   7.546947342289669e-07   -1.5539314733017603e-07
-1.0006765082954868e-05   7.546947342289669e-07   -1.5539314733017603e-07
-1.0496037727610941e-05   -1.0228270277328009e-06   1.8543974040405612e-05
-1.0496037727610941e-05   -1.0228270277328009e-06   1.8543974040405612e-05
-1.0496037727610941e-05   -1.0228270277328009e-06   1.8543974040405612e-05
-1.0496037727610941e-05   -1.0228270277328009e-06   1.8543974040405612e-05
5.845261509763777e-07   6.149082965955068e-07   -9.062736185035407e-07
5.845261509763777e-07   6.149082965955068e-07   -9.062736185035407e-07
5.845261509763777e-07   6.149082965955068e-07   -9.062736185035407e-07
5.845261509763777e-07   6.149082965955068e-07   -9.062736185035407e-07
-4.684557193638584e-06   -1.4716300428588812e-08   8.253306714069185e-06
-4.684557193638584e-06   -1.4716300428588812e-08   8.253306714069185e-06
-4.684557193638584e-06   -1.4716300428588812e-08   8.253306714069185e-06
-4.684557193638584e-06   -1.4716300428588812e-08   8.253306714069185e-06
5.845261509763777e-07   -1.0228270277328009e-06   1.756133284580867e-05
5.845261509763777e-07   -1.0228270277328009e-06   1.756133284580867e-05
5.845261509763777e-07   -1.0228270277328009e-06   1.756133284580867e-05
5.845261509763777e-07   -1.0228270277328009e-06   1.756133284580867e-05
-1.0496037727610921e-05   6.149082965955068e-07   7.636757609337345e-08
-1.0496037727610921e-05   6.149082965955068e-07   7.636757609337345e-08
-1.0496037727610921e-05   6.149082965955068e-07   7.636757609337345e-08
-1.0496037727610921e-05   6.149082965955068e-07   7.636757609337345e-08
-1.101727750802318e-05   -1.0127017795347627e-06   1.897264092541324e-05
-1.101727750802318e-05   -1.0127017795347627e-06   1.897264092541324e-05
-1.101727750802318e-05   -1.0127017795347627e-06   1.897264092541324e-05
-1.101727750802318e-05   -1.0127017795347627e-06   1.897264092541324e-05
1.2743334610894314e-07   5.148793547154161e-07   -5.184258453569537e-07
1.2743334610894314e-07   5.148793547154161e-07   -5.184258453569537e-07
1.2743334610894314e-07   5.148793547154161e-07   -5.184258453569537e-07
1.2743334610894314e-07   5.148793547154161e-07   -5.184258453569537e-07
-5.144009308342393e-06   -4.269203224336986e-08   8.601854744237365e-06
-5.144009308342393e-06   -4.269203224336986e-08   8.601854744237365e-06
-5.144009308342393e-06   -4.269203224336986e-08   8.601854744237365e-06
-5.144009308342393e-06   -4.269203224336986e-08   8.601854744237365e-06
-9.640491917829918e-06   1.1231546963494897e-06   1.5367919571848102e-05
-9.640491917829918e-06   1.1231546963494897e-06   1.5367919571848102e-05
-9.640491917829918e-06   1.1231546963494897e-06   1.5367919571848102e-05
-9.640491917829918e-06   1.1231546963494897e-06   1.5367919571848102e-05
-2.0401758162941882e-05   2.924969825999742e-06   -1.4864350922151105e-06
-2.0401758162941882e-05   2.924969825999742e-06   -1.4864350922151105e-06
-2.0401758162941882e-05   2.924969825999742e-06   -1.4864350922151105e-06
-2.0401758162941882e-05   2.924969825999742e-06   -1.4864350922151105e-06
-2.0931440864156657e-05   1.069029794743305e-06   1.6985169352746522e-05
-2.0931440864156657e-05   1.069029794743305e-06   1.6985169352746522e-05
-2.0931440864156657e-05   1.069029794743305e-06   1.6985169352746522e-05
-2.0931440864156657e-05   1.069029794743305e-06   1.6985169352746522e-05
-1.0006765082954847e-05   2.775878263423467e-06   -2.2467326971312032e-06
-1.0006765082954847e-05   2.775878263423467e-06   -2.2467326971312032e-06
-1.0006765082954847e-05   2.775878263423467e-06   -2.2467326971312032e-06
-1.0006765082954847e-05   2.775878263423467e-06   -2.2467326971312032e-06
-1.512745544362755e-05   2.0034922091679425e-06   6.751182869876431e-06
-1.512745544362755e-05   2.0034922091679425e-06   6.751182869876431e-06
-1.512745544362755e-05   2.0034922091679425e-06   6.751182869876431e-06
-1.512745544362755e-05   2.0034922091679425e-06   6.751182869876431e-06
-1.0006765082954868e-05   1.069029794743305e-06   1.5961060271538403e-05
-1.0006765082954868e-05   1.069029794743305e-06   1.5961060271538403e-05
-1.0006765082954868e-05   1.069029794743305e-06   1.5961060271538403e-05
-1.0006765082954868e-05   1.069029794743305e-06   1.5961060271538403e-05
-2.0931440864156623e-05   2.7758782634233585e-06   -1.22262361592322e-06
-2.0931440864156623e-05   2.7758782634233585e-06   -1.22262361592322e-06
-2.0931440864156623e-05   2.7758782634233585e-06   -1.22262361592322e-06
-2.0931440864156623e-05   2.7758782634233585e-06   -1.22262361592322e-06
-2.1581863680270513e-05   9.60284635699712e-07   1.802652683483691e-05
-2.1581863680270513e-05   9.60284635699712e-07   1.802652683483691e-05
-2.1581863680270513e-05   9.60284635699712e-07   1.802652683483691e-05
-2.1581863680270513e-05   9.60284635699712e-07   1.802652683483691e-05
-1.0496037727610921e-05   2.6366364846407966e-06   -1.4556608622935511e-06
-1.0496037727610921e-05   2.6366364846407966e-06   -1.4556608622935511e-06
-1.0496037727610921e-05   2.6366364846407966e-06   -1.4556608622935511e-06
-1.0496037727610921e-05   2.6366364846407966e-06   -1.4556608622935511e-06
-1.5519383690108905e-05   1.972182986015379e-06   7.315254507711489e-06
-1.5519383690108905e-05   1.972182986015379e-06   7.315254507711489e-06
-1.5519383690108905e-05   1.972182986015379e-06   7.315254507711489e-06
-1.5519383690108905e-05   1.972182986015379e-06   7.315254507711489e-06
-1.0496037727610907e-05   9.60284635699929e-07   1.702071572547224e-05
-1.0496037727610907e-05   9.60284635699929e-07   1.702071572547224e-05
-1.0496037727610907e-05   9.60284635699929e-07   1.702071572547224e-05
-1.0496037727610907e-05   9.60284635699929e-07   1.702071572547224e-05
-2.1581863680270513e-05   2.636636484640688e-06   -4.498497529290685e-07
-2.1581863680270513e-05   2.636636484640688e-06   -4.498497529290685e-07
-2.1581863680270513e-05   2.636636484640688e-06   -4.498497529290685e-07
-2.1581863680270513e-05   2.636636484640688e-06   -4.498497529290685e-07
-2.2268609999993393e-05   8.359954940953887e-07   1.884511276024274e-05
-2.2268609999993393e-05   8.359954940953887e-07   1.884511276024274e-05
-2.2268609999993393e-05   8.359954940953887e-07   1.884511276024274e-05
-2.2268609999993393e-05   8.359954940953887e-07   1.884511276024274e-05
-1.1017277508023139e-05   2.447906918431452e-06   -8.742549143094338e-07
-1.1017277508023139e-05   2.447906918431452e-06   -8.742549143094338e-07
-1.1017277508023139e-05   2.447906918431452e-06   -8.742549143094338e-07
-1.1017277508023139e-05   2.447906918431452e-06   -8.742549143094338e-07
-1.6181382505072815e-05   1.860300486291786e-06   8.085150606724345e-06
-1.6181382505072815e-05   1.860300486291786e-06   8.085150606724345e-06
-1.6181382505072815e-05   1.860300486291786e-06   8.085150606724345e-06
-1.6181382505072815e-05   1.860300486291786e-06   8.085150606724345e-06
-2.0401758162941882e-05   4.812390911791524e-06   8.084399808155982e-06
-2.0401758162941882e-05   4.812390911791524e-06   8.084399808155982e-06
-2.0401758162941882e-05   4.812390911791524e-06   8.084399808155982e-06
-2.0401758162941882e-05   4.812390911791524e-06   8.084399808155982e-06
-3.073319613065702e-05   4.757012480602254e-06   -9.16789053008281e-06
-3.073319613065702e-05   4.757012480602254e-06   -9.16789053008281e-06
-3.073319613065702e-05   4.757012480602254e-06   -9.16789053008281e-06
-3.073319613065702e-05   4.757012480602254e-06   -9.16789053008281e-06
-3.168620382253572e-05   4.660572255279919e-06   1.2041950110752838e-05
-3.168620382253572e-05   4.660572255279919e-06   1.2041950110752838e-05
-3.168620382253572e-05   4.660572255279919e-06   1.2041950110752838e-05
-3.168620382253572e-05   4.660572255279919e-06   1.2041950110752838e-05
-2.0931440864156623e-05   4.855112358424112e-06   -5.999378881765583e-06
-2.0931440864156623e-05   4.855112358424112e-06   -5.999378881765583e-06
-2.0931440864156623e-05   4.855112358424112e-06   -5.999378881765583e-06
-2.0931440864156623e-05   4.855112358424112e-06   -5.999378881765583e-06
-2.489407038409246e-05   4.840244033904183e-06   6.139246461727549e-07
-2.489407038409246e-05   4.840244033904183e-06   6.139246461727549e-07
-2.489407038409246e-05   4.840244033904183e-06   6.139246461727549e-07
-2.489407038409246e-05   4.840244033904183e-06   6.139246461727549e-07
-2.0931440864156603e-05   4.660572255279702e-06   1.1925226048866344e-05
-2.0931440864156603e-05   4.660572255279702e-06   1.1925226048866344e-05
-2.0931440864156603e-05   4.660572255279702e-06   1.1925226048866344e-05
-2.0931440864156603e-05   4.660572255279702e-06   1.1925226048866344e-05
-3.168620382253572e-05   4.855112358424112e-06   -5.882654819879007e-06
-3.168620382253572e-05   4.855112358424112e-06   -5.882654819879007e-06
-3.168620382253572e-05   4.855112358424112e-06   -5.882654819879007e-06
-3.168620382253572e-05   4.855112358424112e-06   -5.882654819879007e-06
-3.262061731146621e-05   4.546936109525203e-06   1.4806150063414081e-05
-3.262061731146621e-05   4.546936109525203e-06   1.4806150063414081e-05
-3.262061731146621e-05   4.546936109525203e-06   1.4806150063414081e-05
-3.262061731146621e-05   4.546936109525203e-06   1.4806150063414081e-05
-2.1581863680270472e-05   4.822381427274777e-06   -3.7570398458953937e-06
-2.1581863680270472e-05   4.822381427274777e-06   -3.7570398458953937e-06
-2.1581863680270472e-05   4.822381427274777e-06   -3.7570398458953937e-06
-2.1581863680270472e-05   4.822381427274777e-06   -3.7570398458953937e-06
-2.5998808593765374e-05   4.845578377731083e-06   3.590616839656052e-06
-2.5998808593765374e-05   4.845578377731083e-06   3.590616839656052e-06
-2.5998808593765374e-05   4.845578377731083e-06   3.590616839656052e-06
-2.5998808593765374e-05   4.845578377731083e-06   3.590616839656052e-06
-2.1581863680270472e-05   4.546936109524986e-06   1.464088287276438e-05
-2.1581863680270472e-05   4.546936109524986e-06   1.464088287276438e-05
-2.1581863680270472e-05   4.546936109524986e-06   1.464088287276438e-05
-2.1581863680270472e-05   4.546936109524986e-06   1.464088287276438e-05
-3.262061731146621e-05   4.822381427274777e-06   -3.591772655245557e-06
-3.262061731146621e-05   4.822381427274777e-06   -3.591772655245557e-06
-3.262061731146621e-05   4.822381427274777e-06   -3.591772655245557e-06
-3.262061731146621e-05   4.822381427274777e-06   -3.591772655245557e-06
-3.372377119066021e-05   3.8113002101519255e-06   1.9421382468507212e-05
-3.372377119066021e-05   3.8113002101519255e-06   1.9421382468507212e-05
-3.372377119066021e-05   3.8113002101519255e-06   1.9421382468507212e-05
-3.372377119066021e-05   3.8113002101519255e-06   1.9421382468507212e-05
-2.2268609999993325e-05   4.446169617592938e-06   -5.147449373544394e-08
-2.2268609999993325e-05   4.446169617592938e-06   -5.147449373544394e-08
-2.2268609999993325e-05   4.446169617592938e-06   -5.147449373544394e-08
-2.2268609999993325e-05   4.446169617592938e-06   -5.147449373544394e-08
-2.6377578468974258e-05   4.620537360482818e-06   6.6921856421657934e-06
-2.6377578468974258e-05   4.620537360482818e-06   6.6921856421657934e-06
-2.6377578468974258e-05   4.620537360482818e-06   6.6921856421657934e-06
-2.6377578468974258e-05   4.620537360482818e-06   6.6921856421657934e-06
2.04355676001197e-05   -2.852589746018858e-06   1.565835877332235e-05
2.04355676001197e-05   -2.852589746018858e-06   1.565835877332235e-05
2.04355676001197e-05   -2.852589746018858e-06   1.565835877332235e-05
2.04355676001197e-05   -2.852589746018858e-06   1.565835877332235e-05
1.0096679264169e-05   -2.1093314767383405e-06   -1.1271668250271722e-06
1.0096679264169e-05   -2.1093314767383405e-06   -1.1271668250271722e-06
1.0096679264169e-05   -2.1093314767383405e-06   -1.1271668250271722e-06
1.0096679264169e-05   -2.1093314767383405e-06   -1.1271668250271722e-06
9.720480901529687e-06   -3.2268962949036925e-06   1.3599870357635237e-05
9.720480901529687e-06   -3.2268962949036925e-06   1.3599870357635237e-05
9.720480901529687e-06   -3.2268962949036925e-06   1.3599870357635237e-05
9.720480901529687e-06   -3.2268962949036925e-06   1.3599870357635237e-05
1.974469201957561e-05   -2.4418602240907977e-06   -3.5781698149289197e-06
1.974469201957561e-05   -2.4418602240907977e-06   -3.5781698149289197e-06
1.974469201957561e-05   -2.4418602240907977e-06   -3.5781698149289197e-06
1.974469201957561e-05   -2.4418602240907977e-06   -3.5781698149289197e-06
1.4312995473275261e-05   -2.6300700958965285e-06   5.587583685321795e-06
1.4312995473275261e-05   -2.6300700958965285e-06   5.587583685321795e-06
1.4312995473275261e-05   -2.6300700958965285e-06   5.587583685321795e-06
1.4312995473275261e-05   -2.6300700958965285e-06   5.587583685321795e-06
1.9744692019575578e-05   -3.2268962949036925e-06   1.3128848715147586e-05
1.9744692019575578e-05   -3.2268962949036925e-06   1.3128848715147586e-05
1.9744692019575578e-05   -3.2268962949036925e-06   1.3128848715147586e-05
1.9744692019575578e-05   -3.2268962949036925e-06   1.3128848715147586e-05
9.720480901529724e-06   -2.4418602240907977e-06   -3.1071481724411366e-06
9.720480901529724e-06   -2.4418602240907977e-06   -3.1071481724411366e-06
9.720480901529724e-06   -2.4418602240907977e-06   -3.1071481724411366e-06
9.720480901529724e-06   -2.4418602240907977e-06   -3.1071481724411366e-06
9.301848933694912e-06   -3.281046561461336e-06   1.2177050062416278e-05
9.301848933694912e-06   -3.281046561461336e-06   1.2177050062416278e-05
9.301848933694912e-06   -3.281046561461336e-06   1.2177050062416278e-05
9.301848933694912e-06   -3.281046561461336e-06   1.2177050062416278e-05
1.9117822118096378e-05   -2.507655243434064e-06   -4.646940035735707e-06
1.9117822118096378e-05   -2.507655243434064e-06   -4.646940035735707e-06
1.9117822118096378e-05   -2.507655243434064e-06   -4.646940035735707e-06
1.9117822118096378e-05   -2.507655243434064e-06   -4.646940035735707e-06
1.405968594828185e-05   -2.7594021711435743e-06   3.934335070580799e-06
1.405968594828185e-05   -2.7594021711435743e-06   3.934335070580799e-06
1.405968594828185e-05   -2.7594021711435743e-06   3.934335070580799e-06
1.405968594828185e-05   -2.7594021711435743e-06   3.934335070580799e-06
1.911782211809631e-05   -3.2810465614612275e-06   1.1713015271600066e-05
1.911782211809631e-05   -3.2810465614612275e-06   1.1713015271600066e-05
1.911782211809631e-05   -3.2810465614612275e-06   1.1713015271600066e-05
1.911782211809631e-05   -3.2810465614612275e-06   1.1713015271600066e-05
9.301848933694929e-06   -2.507655243434064e-06   -4.182905244919425e-06
9.301848933694929e-06   -2.507655243434064e-06   -4.182905244919425e-06
9.301848933694929e-06   -2.507655243434064e-06   -4.182905244919425e-06
9.301848933694929e-06   -2.507655243434064e-06   -4.182905244919425e-06
8.898644815453916e-06   -3.253687362724184e-06   1.0184560717543898e-05
8.898644815453916e-06   -3.253687362724184e-06   1.0184560717543898e-05
8.898644815453916e-06   -3.253687362724184e-06   1.0184560717543898e-05
8.898644815453916e-06   -3.253687362724184e-06   1.0184560717543898e-05
1.8406651557778183e-05   -2.5291112211026697e-06   -6.096862871302674e-06
1.8406651557778183e-05   -2.5291112211026697e-06   -6.096862871302674e-06
1.8406651557778183e-05   -2.5291112211026697e-06   -6.096862871302674e-06
1.8406651557778183e-05   -2.5291112211026697e-06   -6.096862871302674e-06
1.334928723917582e-05   -2.7106729026964062e-06   2.441014668657835e-06
1.334928723917582e-05   -2.7106729026964062e-06   2.441014668657835e-06
1.334928723917582e-05   -2.7106729026964062e-06   2.441014668657835e-06
1.334928723917582e-05   -2.7106729026964062e-06   2.441014668657835e-06
1.0096679264169e-05   -9.98455001030552e-07   1.633273925285791e-05
1.0096679264169e-05   -9.98455001030552e-07   1.633273925285791e-05
1.0096679264169e-05   -9.98455001030552e-07   1.633273925285791e-05
1.0096679264169e-05   -9.98455001030552e-07   1.633273925285791e-05
3.9103438342066117e-07   -4.0547868821057785e-07   5.124502393026933e-07
3.9103438342066117e-07   -4.0547868821057785e-07   5.124502393026933e-07
3.9103438342066117e-07   -4.0547868821057785e-07   5.124502393026933e-07
3.9103438342066117e-07   -4.0547868821057785e-07   5.124502393026933e-07
2.9257014066614065e-08   -1.1981450571870713e-06   1.649546152195612e-05
2.9257014066614065e-08   -1.1981450571870713e-06   1.649546152195612e-05
2.9257014066614065e-08   -1.1981450571870713e-06   1.649546152195612e-05
2.9257014066614065e-08   -1.1981450571870713e-06   1.649546152195612e-05
9.720480901529724e-06   -6.399811477382283e-07   8.52336384838412e-09
9.720480901529724e-06   -6.399811477382283e-07   8.52336384838412e-09
9.720480901529724e-06   -6.399811477382283e-07   8.52336384838412e-09
9.720480901529724e-06   -6.399811477382283e-07   8.52336384838412e-09
4.997619551773653e-06   -7.81174284459848e-07   7.964674828808102e-06
4.997619551773653e-06   -7.81174284459848e-07   7.964674828808102e-06
4.997619551773653e-06   -7.81174284459848e-07   7.964674828808102e-06
4.997619551773653e-06   -7.81174284459848e-07   7.964674828808102e-06
9.72048090152971e-06   -1.1981450571870713e-06   1.6160563176286836e-05
9.72048090152971e-06   -1.1981450571870713e-06   1.6160563176286836e-05
9.72048090152971e-06   -1.1981450571870713e-06   1.6160563176286836e-05
9.72048090152971e-06   -1.1981450571870713e-06   1.6160563176286836e-05
2.9257014066620842e-08   -6.399811477382283e-07   3.434217095176547e-07
2.9257014066620842e-08   -6.399811477382283e-07   3.434217095176547e-07
2.9257014066620842e-08   -6.399811477382283e-07   3.434217095176547e-07
2.9257014066620842e-08   -6.399811477382283e-07   3.434217095176547e-07
-3.4683481137105885e-07   -1.327091057797122e-06   1.6238415271433576e-05
-3.4683481137105885e-07   -1.327091057797122e-06   1.6238415271433576e-05
-3.4683481137105885e-07   -1.327091057797122e-06   1.6238415271433576e-05
-3.4683481137105885e-07   -1.327091057797122e-06   1.6238415271433576e-05
9.301848933694929e-06   -8.125512001782654e-07   -1.514482182476997e-07
9.301848933694929e-06   -8.125512001782654e-07   -1.514482182476997e-07
9.301848933694929e-06   -8.125512001782654e-07   -1.514482182476997e-07
9.301848933694929e-06   -8.125512001782654e-07   -1.514482182476997e-07
4.580823059464267e-06   -9.032969070501759e-07   7.771375662926741e-06
4.580823059464267e-06   -9.032969070501759e-07   7.771375662926741e-06
4.580823059464267e-06   -9.032969070501759e-07   7.771375662926741e-06
4.580823059464267e-06   -9.032969070501759e-07   7.771375662926741e-06
9.301848933694912e-06   -1.327091057797122e-06   1.5929691356862305e-05
9.301848933694912e-06   -1.327091057797122e-06   1.5929691356862305e-05
9.301848933694912e-06   -1.327091057797122e-06   1.5929691356862305e-05
9.301848933694912e-06   -1.327091057797122e-06   1.5929691356862305e-05
-3.4683481137105885e-07   -8.125512001782654e-07   1.5727569632371322e-07
-3.4683481137105885e-07   -8.125512001782654e-07   1.5727569632371322e-07
-3.4683481137105885e-07   -8.125512001782654e-07   1.5727569632371322e-07
-3.4683481137105885e-07   -8.125512001782654e-07   1.5727569632371322e-07
-7.383907136952557e-07   -1.379421141630712e-06   1.6354232632736425e-05
-7.383907136952557e-07   -1.379421141630712e-06   1.6354232632736425e-05
-7.383907136952557e-07   -1.379421141630712e-06   1.6354232632736425e-05
-7.383907136952557e-07   -1.379421141630712e-06   1.6354232632736425e-05
8.89864481545394e-06   -9.467236406959095e-07   3.2888250260178534e-08
8.89864481545394e-06   -9.467236406959095e-07   3.2888250260178534e-08
8.89864481545394e-06   -9.467236406959095e-07   3.2888250260178534e-08
8.89864481545394e-06   -9.467236406959095e-07   3.2888250260178534e-08
4.270006518456173e-06   -9.669089488639065e-07   7.759396596824153e-06
4.270006518456173e-06   -9.669089488639065e-07   7.759396596824153e-06
4.270006518456173e-06   -9.669089488639065e-07   7.759396596824153e-06
4.270006518456173e-06   -9.669089488639065e-07   7.759396596824153e-06
3.9103438342066117e-07   9.048829537377156e-07   1.684410878276493e-05
3.9103438342066117e-07   9.048829537377156e-07   1.684410878276493e-05
3.9103438342066117e-07   9.048829537377156e-07   1.684410878276493e-05
3.9103438342066117e-07   9.048829537377156e-07   1.684410878276493e-05
-9.035549911177965e-06   1.3003306104593425e-06   1.3704035524668835e-06
-9.035549911177965e-06   1.3003306104593425e-06   1.3704035524668835e-06
-9.035549911177965e-06   1.3003306104593425e-06   1.3704035524668835e-06
-9.035549911177965e-06   1.3003306104593425e-06   1.3704035524668835e-06
-9.413925310272278e-06   7.546947342289669e-07   1.7071347930762014e-05
-9.413925310272278e-06   7.546947342289669e-07   1.7071347930762014e-05
-9.413925310272278e-06   7.546947342289669e-07   1.7071347930762014e-05
-9.413925310272278e-06   7.546947342289669e-07   1.7071347930762014e-05
2.9257014066620842e-08   1.1070762591977156e-06   1.1212818085493473e-06
2.9257014066620842e-08   1.1070762591977156e-06   1.1212818085493473e-06
2.9257014066620842e-08   1.1070762591977156e-06   1.1212818085493473e-06
2.9257014066620842e-08   1.1070762591977156e-06   1.1212818085493473e-06
-4.514131925287061e-06   1.0266171947065838e-06   8.741872146166745e-06
-4.514131925287061e-06   1.0266171947065838e-06   8.741872146166745e-06
-4.514131925287061e-06   1.0266171947065838e-06   8.741872146166745e-06
-4.514131925287061e-06   1.0266171947065838e-06   8.741872146166745e-06
2.9257014066614065e-08   7.546947342289669e-07   1.685991901578083e-05
2.9257014066614065e-08   7.546947342289669e-07   1.685991901578083e-05
2.9257014066614065e-08   7.546947342289669e-07   1.685991901578083e-05
2.9257014066614065e-08   7.546947342289669e-07   1.685991901578083e-05
-9.413925310272278e-06   1.1070762591976072e-06   1.3327107235305315e-06
-9.413925310272278e-06   1.1070762591976072e-06   1.3327107235305315e-06
-9.413925310272278e-06   1.1070762591976072e-06   1.3327107235305315e-06
-9.413925310272278e-06   1.1070762591976072e-06   1.3327107235305315e-06
-9.812980802441183e-06   6.149082965955068e-07   1.7227508894585085e-05
-9.812980802441183e-06   6.149082965955068e-07   1.7227508894585085e-05
-9.812980802441183e-06   6.149082965955068e-07   1.7227508894585085e-05
-9.812980802441183e-06   6.149082965955068e-07   1.7227508894585085e-05
-3.4683481137105885e-07   9.195115234416013e-07   1.2678369733605456e-06
-3.4683481137105885e-07   9.195115234416013e-07   1.2678369733605456e-06
-3.4683481137105885e-07   9.195115234416013e-07   1.2678369733605456e-06
-3.4683481137105885e-07   9.195115234416013e-07   1.2678369733605456e-06
-4.865299621836624e-06   9.173423245528375e-07   8.79991317680309e-06
-4.865299621836624e-06   9.173423245528375e-07   8.79991317680309e-06
-4.865299621836624e-06   9.173423245528375e-07   8.79991317680309e-06
-4.865299621836624e-06   9.173423245528375e-07   8.79991317680309e-06
-3.4683481137105885e-07   6.149082965955068e-07   1.7044746958477515e-05
-3.4683481137105885e-07   6.149082965955068e-07   1.7044746958477515e-05
-3.4683481137105885e-07   6.149082965955068e-07   1.7044746958477515e-05
-3.4683481137105885e-07   6.149082965955068e-07   1.7044746958477515e-05
-9.812980802441197e-06   9.195115234416013e-07   1.4505989094681427e-06
-9.812980802441197e-06   9.195115234416013e-07   1.4505989094681427e-06
-9.812980802441197e-06   9.195115234416013e-07   1.4505989094681427e-06
-9.812980802441197e-06   9.195115234416013e-07   1.4505989094681427e-06
-1.0224487981749615e-05   5.148793547153077e-07   1.7476626468944747e-05
-1.0224487981749615e-05   5.148793547153077e-07   1.7476626468944747e-05
-1.0224487981749615e-05   5.148793547153077e-07   1.7476626468944747e-05
-1.0224487981749615e-05   5.148793547153077e-07   1.7476626468944747e-05
-7.383907136952625e-07   7.526747480325353e-07   1.523787119530408e-06
-7.383907136952625e-07   7.526747480325353e-07   1.523787119530408e-06
-7.383907136952625e-07   7.526747480325353e-07   1.523787119530408e-06
-7.383907136952625e-07   7.526747480325353e-07   1.523787119530408e-06
-5.245368514151748e-06   8.128687443547658e-07   8.999300389164944e-06
-5.245368514151748e-06   8.128687443547658e-07   8.999300389164944e-06
-5.245368514151748e-06   8.128687443547658e-07   8.999300389164944e-06
-5.245368514151748e-06   8.128687443547658e-07   8.999300389164944e-06
-9.035549911177993e-06   2.9249698259998505e-06   1.4725062356389846e-05
-9.035549911177993e-06   2.9249698259998505e-06   1.4725062356389846e-05
-9.035549911177993e-06   2.9249698259998505e-06   1.4725062356389846e-05
-9.035549911177993e-06   2.9249698259998505e-06   1.4725062356389846e-05
-1.8184445235629887e-05   2.9624401637346875e-06   -5.006143150557596e-07
-1.8184445235629887e-05   2.9624401637346875e-06   -5.006143150557596e-07
-1.8184445235629887e-05   2.9624401637346875e-06   -5.006143150557596e-07
-1.8184445235629887e-05   2.9624401637346875e-06   -5.006143150557596e-07
-1.8623468231305414e-05   2.775878263423467e-06   1.4982223341975746e-05
-1.8623468231305414e-05   2.775878263423467e-06   1.4982223341975746e-05
-1.8623468231305414e-05   2.775878263423467e-06   1.4982223341975746e-05
-1.8623468231305414e-05   2.775878263423467e-06   1.4982223341975746e-05
-9.413925310272305e-06   2.779569865114795e-06   -3.692298207610235e-07
-9.413925310272305e-06   2.779569865114795e-06   -3.692298207610235e-07
-9.413925310272305e-06   2.779569865114795e-06   -3.692298207610235e-07
-9.413925310272305e-06   2.779569865114795e-06   -3.692298207610235e-07
-1.3752702891920842e-05   2.8513743679196976e-06   6.818983446970305e-06
-1.3752702891920842e-05   2.8513743679196976e-06   6.818983446970305e-06
-1.3752702891920842e-05   2.8513743679196976e-06   6.818983446970305e-06
-1.3752702891920842e-05   2.8513743679196976e-06   6.818983446970305e-06
-9.413925310272305e-06   2.775878263423467e-06   1.4980008380960906e-05
-9.413925310272305e-06   2.775878263423467e-06   1.4980008380960906e-05
-9.413925310272305e-06   2.775878263423467e-06   1.4980008380960906e-05
-9.413925310272305e-06   2.775878263423467e-06   1.4980008380960906e-05
-1.8623468231305387e-05   2.779569865114795e-06   -3.670148597461698e-07
-1.8623468231305387e-05   2.779569865114795e-06   -3.670148597461698e-07
-1.8623468231305387e-05   2.779569865114795e-06   -3.670148597461698e-07
-1.8623468231305387e-05   2.779569865114795e-06   -3.670148597461698e-07
-1.9109115413855823e-05   2.6366364846407966e-06   1.5679225500209973e-05
-1.9109115413855823e-05   2.6366364846407966e-06   1.5679225500209973e-05
-1.9109115413855823e-05   2.6366364846407966e-06   1.5679225500209973e-05
-1.9109115413855823e-05   2.6366364846407966e-06   1.5679225500209973e-05
-9.812980802441197e-06   2.609544891327251e-06   2.0192277050705334e-07
-9.812980802441197e-06   2.609544891327251e-06   2.0192277050705334e-07
-9.812980802441197e-06   2.609544891327251e-06   2.0192277050705334e-07
-9.812980802441197e-06   2.609544891327251e-06   2.0192277050705334e-07
-1.406716475628917e-05   2.749061624031531e-06   7.208519320631016e-06
-1.406716475628917e-05   2.749061624031531e-06   7.208519320631016e-06
-1.406716475628917e-05   2.749061624031531e-06   7.208519320631016e-06
-1.406716475628917e-05   2.749061624031531e-06   7.208519320631016e-06
-9.812980802441197e-06   2.6366364846407966e-06   1.569548045619808e-05
-9.812980802441197e-06   2.6366364846407966e-06   1.569548045619808e-05
-9.812980802441197e-06   2.6366364846407966e-06   1.569548045619808e-05
-9.812980802441197e-06   2.6366364846407966e-06   1.569548045619808e-05
-1.9109115413855782e-05   2.609544891327251e-06   1.8566781451894755e-07
-1.9109115413855782e-05   2.609544891327251e-06   1.8566781451894755e-07
-1.9109115413855782e-05   2.609544891327251e-06   1.8566781451894755e-07
-1.9109115413855782e-05   2.609544891327251e-06   1.8566781451894755e-07
-1.9571403263245448e-05   2.447906918431452e-06   1.6175863917680666e-05
-1.9571403263245448e-05   2.447906918431452e-06   1.6175863917680666e-05
-1.9571403263245448e-05   2.447906918431452e-06   1.6175863917680666e-05
-1.9571403263245448e-05   2.447906918431452e-06   1.6175863917680666e-05
-1.022448798174965e-05   2.400598915495381e-06   6.260565836160381e-07
-1.022448798174965e-05   2.400598915495381e-06   6.260565836160381e-07
-1.022448798174965e-05   2.400598915495381e-06   6.260565836160381e-07
-1.022448798174965e-05   2.400598915495381e-06   6.260565836160381e-07
-1.4574003943769285e-05   2.614291005344346e-06   7.747034599740044e-06
-1.4574003943769285e-05   2.614291005344346e-06   7.747034599740044e-06
-1.4574003943769285e-05   2.614291005344346e-06   7.747034599740044e-06
-1.4574003943769285e-05   2.614291005344346e-06   7.747034599740044e-06
-1.818444523562986e-05   4.757012480602254e-06   7.099316179876437e-06
-1.818444523562986e-05   4.757012480602254e-06   7.099316179876437e-06
-1.818444523562986e-05   4.757012480602254e-06   7.099316179876437e-06
-1.818444523562986e-05   4.757012480602254e-06   7.099316179876437e-06
-2.6911696006125564e-05   4.281575570489675e-06   -7.73136391701726e-06
-2.6911696006125564e-05   4.281575570489675e-06   -7.73136391701726e-06
-2.6911696006125564e-05   4.281575570489675e-06   -7.73136391701726e-06
-2.6911696006125564e-05   4.281575570489675e-06   -7.73136391701726e-06
-2.7603458495397884e-05   4.855112358424112e-06   9.891753842955985e-06
-2.7603458495397884e-05   4.855112358424112e-06   9.891753842955985e-06
-2.7603458495397884e-05   4.855112358424112e-06   9.891753842955985e-06
-2.7603458495397884e-05   4.855112358424112e-06   9.891753842955985e-06
-1.8623468231305414e-05   4.332255303128693e-06   -4.76118236402082e-06
-1.8623468231305414e-05   4.332255303128693e-06   -4.76118236402082e-06
-1.8623468231305414e-05   4.332255303128693e-06   -4.76118236402082e-06
-1.8623468231305414e-05   4.332255303128693e-06   -4.76118236402082e-06
-2.195570375219951e-05   4.526849046206202e-06   6.757872582893504e-07
-2.195570375219951e-05   4.526849046206202e-06   6.757872582893504e-07
-2.195570375219951e-05   4.526849046206202e-06   6.757872582893504e-07
-2.195570375219951e-05   4.526849046206202e-06   6.757872582893504e-07
-1.8623468231305373e-05   4.855112358424112e-06   1.0205468076133302e-05
-1.8623468231305373e-05   4.855112358424112e-06   1.0205468076133302e-05
-1.8623468231305373e-05   4.855112358424112e-06   1.0205468076133302e-05
-1.8623468231305373e-05   4.855112358424112e-06   1.0205468076133302e-05
-2.7603458495397993e-05   4.332255303128693e-06   -5.074896597198164e-06
-2.7603458495397993e-05   4.332255303128693e-06   -5.074896597198164e-06
-2.7603458495397993e-05   4.332255303128693e-06   -5.074896597198164e-06
-2.7603458495397993e-05   4.332255303128693e-06   -5.074896597198164e-06
-2.8277546111131984e-05   4.822381427274777e-06   1.2050236634254829e-05
-2.8277546111131984e-05   4.822381427274777e-06   1.2050236634254829e-05
-2.8277546111131984e-05   4.822381427274777e-06   1.2050236634254829e-05
-2.8277546111131984e-05   4.822381427274777e-06   1.2050236634254829e-05
-1.9109115413855823e-05   4.286050138960088e-06   -2.9086824215501024e-06
-1.9109115413855823e-05   4.286050138960088e-06   -2.9086824215501024e-06
-1.9109115413855823e-05   4.286050138960088e-06   -2.9086824215501024e-06
-1.9109115413855823e-05   4.286050138960088e-06   -2.9086824215501024e-06
-2.281528201358095e-05   4.611539697845944e-06   3.0729681759938986e-06
-2.281528201358095e-05   4.611539697845944e-06   3.0729681759938986e-06
-2.281528201358095e-05   4.611539697845944e-06   3.0729681759938986e-06
-2.281528201358095e-05   4.611539697845944e-06   3.0729681759938986e-06
-1.9109115413855823e-05   4.8223814272746685e-06   1.237203540724362e-05
-1.9109115413855823e-05   4.8223814272746685e-06   1.237203540724362e-05
-1.9109115413855823e-05   4.8223814272746685e-06   1.237203540724362e-05
-1.9109115413855823e-05   4.8223814272746685e-06   1.237203540724362e-05
-2.8277546111132092e-05   4.286050138960088e-06   -3.2304811945389213e-06
-2.8277546111132092e-05   4.286050138960088e-06   -3.2304811945389213e-06
-2.8277546111132092e-05   4.286050138960088e-06   -3.2304811945389213e-06
-2.8277546111132092e-05   4.286050138960088e-06   -3.2304811945389213e-06
-2.9063407641607863e-05   4.446169617592938e-06   1.5739383908211068e-05
-2.9063407641607863e-05   4.446169617592938e-06   1.5739383908211068e-05
-2.9063407641607863e-05   4.446169617592938e-06   1.5739383908211068e-05
-2.9063407641607863e-05   4.446169617592938e-06   1.5739383908211068e-05
-1.9571403263245448e-05   3.959313658523193e-06   2.1149018638203323e-07
-1.9571403263245448e-05   3.959313658523193e-06   2.1149018638203323e-07
-1.9571403263245448e-05   3.959313658523193e-06   2.1149018638203323e-07
-1.9571403263245448e-05   3.959313658523193e-06   2.1149018638203323e-07
-2.3019226340976246e-05   4.476412643363817e-06   5.64760259169606e-06
-2.3019226340976246e-05   4.476412643363817e-06   5.64760259169606e-06
-2.3019226340976246e-05   4.476412643363817e-06   5.64760259169606e-06
-2.3019226340976246e-05   4.476412643363817e-06   5.64760259169606e-06
1.564096147662774e-05   -2.1093314767383405e-06   1.3165083616375746e-05
1.564096147662774e-05   -2.1093314767383405e-06   1.3165083616375746e-05
1.564096147662774e-05   -2.1093314767383405e-06   1.3165083616375746e-05
1.564096147662774e-05   -2.1093314767383405e-06   1.3165083616375746e-05
7.351966688413401e-06   -1.409725380318379e-06   -2.3014403946280092e-07
7.351966688413401e-06   -1.409725380318379e-06   -2.3014403946280092e-07
7.351966688413401e-06   -1.409725380318379e-06   -2.3014403946280092e-07
7.351966688413401e-06   -1.409725380318379e-06   -2.3014403946280092e-07
7.014894031526366e-06   -2.4418602240906893e-06   1.1554113893631171e-05
7.014894031526366e-06   -2.4418602240906893e-06   1.1554113893631171e-05
7.014894031526366e-06   -2.4418602240906893e-06   1.1554113893631171e-05
7.014894031526366e-06   -2.4418602240906893e-06   1.1554113893631171e-05
1.4987916412340958e-05   -1.7052874789160637e-06   -2.1762003881644774e-06
1.4987916412340958e-05   -1.7052874789160637e-06   -2.1762003881644774e-06
1.4987916412340958e-05   -1.7052874789160637e-06   -2.1762003881644774e-06
1.4987916412340958e-05   -1.7052874789160637e-06   -2.1762003881644774e-06
1.0720237585480041e-05   -1.9300423732655173e-06   5.071450593213369e-06
1.0720237585480041e-05   -1.9300423732655173e-06   5.071450593213369e-06
1.0720237585480041e-05   -1.9300423732655173e-06   5.071450593213369e-06
1.0720237585480041e-05   -1.9300423732655173e-06   5.071450593213369e-06
1.4987916412340958e-05   -2.4418602240906893e-06   1.1112170246526483e-05
1.4987916412340958e-05   -2.4418602240906893e-06   1.1112170246526483e-05
1.4987916412340958e-05   -2.4418602240906893e-06   1.1112170246526483e-05
1.4987916412340958e-05   -2.4418602240906893e-06   1.1112170246526483e-05
7.01489403152638e-06   -1.7052874789160637e-06   -1.7342567410597075e-06
7.01489403152638e-06   -1.7052874789160637e-06   -1.7342567410597075e-06
7.01489403152638e-06   -1.7052874789160637e-06   -1.7342567410597075e-06
7.01489403152638e-06   -1.7052874789160637e-06   -1.7342567410597075e-06
6.641995887401875e-06   -2.5076552434341723e-06   1.042313724621837e-05
6.641995887401875e-06   -2.5076552434341723e-06   1.042313724621837e-05
6.641995887401875e-06   -2.5076552434341723e-06   1.042313724621837e-05
6.641995887401875e-06   -2.5076552434341723e-06   1.042313724621837e-05
1.4414509730678695e-05   -1.783392071936108e-06   -2.9656103954750666e-06
1.4414509730678695e-05   -1.783392071936108e-06   -2.9656103954750666e-06
1.4414509730678695e-05   -1.783392071936108e-06   -2.9656103954750666e-06
1.4414509730678695e-05   -1.783392071936108e-06   -2.9656103954750666e-06
1.045549058834023e-05   -2.050436451987692e-06   3.7929814697868923e-06
1.045549058834023e-05   -2.050436451987692e-06   3.7929814697868923e-06
1.045549058834023e-05   -2.050436451987692e-06   3.7929814697868923e-06
1.045549058834023e-05   -2.050436451987692e-06   3.7929814697868923e-06
1.441450973067867e-05   -2.5076552434341723e-06   9.988579343319683e-06
1.441450973067867e-05   -2.5076552434341723e-06   9.988579343319683e-06
1.441450973067867e-05   -2.5076552434341723e-06   9.988579343319683e-06
1.441450973067867e-05   -2.5076552434341723e-06   9.988579343319683e-06
6.641995887401885e-06   -1.783392071936108e-06   -2.531052492576319e-06
6.641995887401885e-06   -1.783392071936108e-06   -2.531052492576319e-06
6.641995887401885e-06   -1.783392071936108e-06   -2.531052492576319e-06
6.641995887401885e-06   -1.783392071936108e-06   -2.531052492576319e-06
6.29719411471653e-06   -2.5291112211026697e-06   8.883403483930514e-06
6.29719411471653e-06   -2.5291112211026697e-06   8.883403483930514e-06
6.29719411471653e-06   -2.5291112211026697e-06   8.883403483930514e-06
6.29719411471653e-06   -2.5291112211026697e-06   8.883403483930514e-06
1.3772264402339373e-05   -1.8524210734318682e-06   -3.981061084043315e-06
1.3772264402339373e-05   -1.8524210734318682e-06   -3.981061084043315e-06
1.3772264402339373e-05   -1.8524210734318682e-06   -3.981061084043315e-06
1.3772264402339373e-05   -1.8524210734318682e-06   -3.981061084043315e-06
9.850888916136888e-06   -2.0366880968679694e-06   2.6651249403560778e-06
9.850888916136888e-06   -2.0366880968679694e-06   2.6651249403560778e-06
9.850888916136888e-06   -2.0366880968679694e-06   2.6651249403560778e-06
9.850888916136888e-06   -2.0366880968679694e-06   2.6651249403560778e-06
7.351966688413374e-06   -4.0547868821057785e-07   1.486867855086569e-05
7.351966688413374e-06   -4.0547868821057785e-07   1.486867855086569e-05
7.351966688413374e-06   -4.0547868821057785e-07   1.486867855086569e-05
7.351966688413374e-06   -4.0547868821057785e-07   1.486867855086569e-05
-4.872439463619144e-07   -1.5489763222509972e-08   2.0373208478996615e-06
-4.872439463619144e-07   -1.5489763222509972e-08   2.0373208478996615e-06
-4.872439463619144e-07   -1.5489763222509972e-08   2.0373208478996615e-06
-4.872439463619144e-07   -1.5489763222509972e-08   2.0373208478996615e-06
-8.04615721687233e-07   -6.399811477382283e-07   1.4891126047587031e-05
-8.04615721687233e-07   -6.399811477382283e-07   1.4891126047587031e-05
-8.04615721687233e-07   -6.399811477382283e-07   1.4891126047587031e-05
-8.04615721687233e-07   -6.399811477382283e-07   1.4891126047587031e-05
7.01489403152638e-06   -2.710801182945243e-07   1.6372691745648073e-06
7.01489403152638e-06   -2.710801182945243e-07   1.6372691745648073e-06
7.01489403152638e-06   -2.710801182945243e-07   1.6372691745648073e-06
7.01489403152638e-06   -2.710801182945243e-07   1.6372691745648073e-06
3.215537392661548e-06   -3.425289743134259e-07   8.012399552950923e-06
3.215537392661548e-06   -3.425289743134259e-07   8.012399552950923e-06
3.215537392661548e-06   -3.425289743134259e-07   8.012399552950923e-06
3.215537392661548e-06   -3.425289743134259e-07   8.012399552950923e-06
7.014894031526363e-06   -6.399811477382283e-07   1.4669785429920678e-05
7.014894031526363e-06   -6.399811477382283e-07   1.4669785429920678e-05
7.014894031526363e-06   -6.399811477382283e-07   1.4669785429920678e-05
7.014894031526363e-06   -6.399811477382283e-07   1.4669785429920678e-05
-8.04615721687233e-07   -2.710801182945243e-07   1.8586097922310683e-06
-8.04615721687233e-07   -2.710801182945243e-07   1.8586097922310683e-06
-8.04615721687233e-07   -2.710801182945243e-07   1.8586097922310683e-06
-8.04615721687233e-07   -2.710801182945243e-07   1.8586097922310683e-06
-1.1289347558687376e-06   -8.125512001782654e-07   1.4659451875306904e-05
-1.1289347558687376e-06   -8.125512001782654e-07   1.4659451875306904e-05
-1.1289347558687376e-06   -8.125512001782654e-07   1.4659451875306904e-05
-1.1289347558687376e-06   -8.125512001782654e-07   1.4659451875306904e-05
6.641995887401885e-06   -4.711218628167561e-07   1.503043200772494e-06
6.641995887401885e-06   -4.711218628167561e-07   1.503043200772494e-06
6.641995887401885e-06   -4.711218628167561e-07   1.503043200772494e-06
6.641995887401885e-06   -4.711218628167561e-07   1.503043200772494e-06
2.8582497234123188e-06   -4.995165960900664e-07   7.82632364738621e-06
2.8582497234123188e-06   -4.995165960900664e-07   7.82632364738621e-06
2.8582497234123188e-06   -4.995165960900664e-07   7.82632364738621e-06
2.8582497234123188e-06   -4.995165960900664e-07   7.82632364738621e-06
6.641995887401875e-06   -8.125512001781569e-07   1.4454594272890128e-05
6.641995887401875e-06   -8.125512001781569e-07   1.4454594272890128e-05
6.641995887401875e-06   -8.125512001781569e-07   1.4454594272890128e-05
6.641995887401875e-06   -8.125512001781569e-07   1.4454594272890128e-05
-1.1289347558687376e-06   -4.711218628167561e-07   1.7079008031892998e-06
-1.1289347558687376e-06   -4.711218628167561e-07   1.7079008031892998e-06
-1.1289347558687376e-06   -4.711218628167561e-07   1.7079008031892998e-06
-1.1289347558687376e-06   -4.711218628167561e-07   1.7079008031892998e-06
-1.4551325551727764e-06   -9.467236406959095e-07   1.4753669975144969e-05
-1.4551325551727764e-06   -9.467236406959095e-07   1.4753669975144969e-05
-1.4551325551727764e-06   -9.467236406959095e-07   1.4753669975144969e-05
-1.4551325551727764e-06   -9.467236406959095e-07   1.4753669975144969e-05
6.297194114716537e-06   -6.546218829882452e-07   1.6578644707048465e-06
6.297194114716537e-06   -6.546218829882452e-07   1.6578644707048465e-06
6.297194114716537e-06   -6.546218829882452e-07   1.6578644707048465e-06
6.297194114716537e-06   -6.546218829882452e-07   1.6578644707048465e-06
2.587533182529287e-06   -6.140229919318358e-07   7.816273356383408e-06
2.587533182529287e-06   -6.140229919318358e-07   7.816273356383408e-06
2.587533182529287e-06   -6.140229919318358e-07   7.816273356383408e-06
2.587533182529287e-06   -6.140229919318358e-07   7.816273356383408e-06
-4.872439463619212e-07   1.300330610459234e-06   1.5723356624989778e-05
-4.872439463619212e-07   1.300330610459234e-06   1.5723356624989778e-05
-4.872439463619212e-07   1.300330610459234e-06   1.5723356624989778e-05
-4.872439463619212e-07   1.300330610459234e-06   1.5723356624989778e-05
-8.161791974847023e-06   1.3416284708864159e-06   2.957221960437435e-06
-8.161791974847023e-06   1.3416284708864159e-06   2.957221960437435e-06
-8.161791974847023e-06   1.3416284708864159e-06   2.957221960437435e-06
-8.161791974847023e-06   1.3416284708864159e-06   2.957221960437435e-06
-8.481352667995002e-06   1.1070762591976072e-06   1.5675926202744534e-05
-8.481352667995002e-06   1.1070762591976072e-06   1.5675926202744534e-05
-8.481352667995002e-06   1.1070762591976072e-06   1.5675926202744534e-05
-8.481352667995002e-06   1.1070762591976072e-06   1.5675926202744534e-05
-8.04615721687233e-07   1.1186430194072908e-06   2.8744245694391354e-06
-8.04615721687233e-07   1.1186430194072908e-06   2.8744245694391354e-06
-8.04615721687233e-07   1.1186430194072908e-06   2.8744245694391354e-06
-8.04615721687233e-07   1.1186430194072908e-06   2.8744245694391354e-06
-4.495283783909837e-06   1.19469329610026e-06   8.979907840461006e-06
-4.495283783909837e-06   1.19469329610026e-06   8.979907840461006e-06
-4.495283783909837e-06   1.19469329610026e-06   8.979907840461006e-06
-4.495283783909837e-06   1.19469329610026e-06   8.979907840461006e-06
-8.04615721687233e-07   1.1070762591976072e-06   1.5668986146618832e-05
-8.04615721687233e-07   1.1070762591976072e-06   1.5668986146618832e-05
-8.04615721687233e-07   1.1070762591976072e-06   1.5668986146618832e-05
-8.04615721687233e-07   1.1070762591976072e-06   1.5668986146618832e-05
-8.481352667995002e-06   1.1186430194072908e-06   2.881364625564864e-06
-8.481352667995002e-06   1.1186430194072908e-06   2.881364625564864e-06
-8.481352667995002e-06   1.1186430194072908e-06   2.881364625564864e-06
-8.481352667995002e-06   1.1186430194072908e-06   2.881364625564864e-06
-8.808632125863536e-06   9.195115234416013e-07   1.575786897641603e-05
-8.808632125863536e-06   9.195115234416013e-07   1.575786897641603e-05
-8.808632125863536e-06   9.195115234416013e-07   1.575786897641603e-05
-8.808632125863536e-06   9.195115234416013e-07   1.575786897641603e-05
-1.1289347558687376e-06   8.992712302285499e-07   2.9705175356859175e-06
-1.1289347558687376e-06   8.992712302285499e-07   2.9705175356859175e-06
-1.1289347558687376e-06   8.992712302285499e-07   2.9705175356859175e-06
-1.1289347558687376e-06   8.992712302285499e-07   2.9705175356859175e-06
-4.79154348479034e-06   1.0454728078592443e-06   8.987144470643741e-06
-4.79154348479034e-06   1.0454728078592443e-06   8.987144470643741e-06
-4.79154348479034e-06   1.0454728078592443e-06   8.987144470643741e-06
-4.79154348479034e-06   1.0454728078592443e-06   8.987144470643741e-06
-1.1289347558687376e-06   9.195115234416013e-07   1.5770013152344034e-05
-1.1289347558687376e-06   9.195115234416013e-07   1.5770013152344034e-05
-1.1289347558687376e-06   9.195115234416013e-07   1.5770013152344034e-05
-1.1289347558687376e-06   9.195115234416013e-07   1.5770013152344034e-05
-8.808632125863536e-06   8.992712302285499e-07   2.9583733597580487e-06
-8.808632125863536e-06   8.992712302285499e-07   2.9583733597580487e-06
-8.808632125863536e-06   8.992712302285499e-07   2.9583733597580487e-06
-8.808632125863536e-06   8.992712302285499e-07   2.9583733597580487e-06
-9.135542458289659e-06   7.526747480326437e-07   1.594808295554142e-05
-9.135542458289659e-06   7.526747480326437e-07   1.594808295554142e-05
-9.135542458289659e-06   7.526747480326437e-07   1.594808295554142e-05
-9.135542458289659e-06   7.526747480326437e-07   1.594808295554142e-05
-1.4551325551727764e-06   6.912291008444532e-07   3.1842671719929324e-06
-1.4551325551727764e-06   6.912291008444532e-07   3.1842671719929324e-06
-1.4551325551727764e-06   6.912291008444532e-07   3.1842671719929324e-06
-1.4551325551727764e-06   6.912291008444532e-07   3.1842671719929324e-06
-5.1019213631627336e-06   9.002700719674701e-07   9.136823935969286e-06
-5.1019213631627336e-06   9.002700719674701e-07   9.136823935969286e-06
-5.1019213631627336e-06   9.002700719674701e-07   9.136823935969286e-06
-5.1019213631627336e-06   9.002700719674701e-07   9.136823935969286e-06
-8.16179197484701e-06   2.962440163734579e-06   1.3854635271082476e-05
-8.16179197484701e-06   2.962440163734579e-06   1.3854635271082476e-05
-8.16179197484701e-06   2.962440163734579e-06   1.3854635271082476e-05
-8.16179197484701e-06   2.962440163734579e-06   1.3854635271082476e-05
-1.568043157851697e-05   2.6498978901224636e-06   1.1360439007985753e-06
-1.568043157851697e-05   2.6498978901224636e-06   1.1360439007985753e-06
-1.568043157851697e-05   2.6498978901224636e-06   1.1360439007985753e-06
-1.568043157851697e-05   2.6498978901224636e-06   1.1360439007985753e-06
-1.6024692308633077e-05   2.779569865114795e-06   1.3768879160091238e-05
-1.6024692308633077e-05   2.779569865114795e-06   1.3768879160091238e-05
-1.6024692308633077e-05   2.779569865114795e-06   1.3768879160091238e-05
-1.6024692308633077e-05   2.779569865114795e-06   1.3768879160091238e-05
-8.481352667995016e-06   2.437725701178394e-06   1.4017529240562953e-06
-8.481352667995016e-06   2.437725701178394e-06   1.4017529240562953e-06
-8.481352667995016e-06   2.437725701178394e-06   1.4017529240562953e-06
-8.481352667995016e-06   2.437725701178394e-06   1.4017529240562953e-06
-1.2046759760709796e-05   2.670423863514789e-06   7.204479181179241e-06
-1.2046759760709796e-05   2.670423863514789e-06   7.204479181179241e-06
-1.2046759760709796e-05   2.670423863514789e-06   7.204479181179241e-06
-1.2046759760709796e-05   2.670423863514789e-06   7.204479181179241e-06
-8.481352667995002e-06   2.779569865114795e-06   1.39739856584531e-05
-8.481352667995002e-06   2.779569865114795e-06   1.39739856584531e-05
-8.481352667995002e-06   2.779569865114795e-06   1.39739856584531e-05
-8.481352667995002e-06   2.779569865114795e-06   1.39739856584531e-05
-1.6024692308633077e-05   2.437725701178394e-06   1.1966464256945144e-06
-1.6024692308633077e-05   2.437725701178394e-06   1.1966464256945144e-06
-1.6024692308633077e-05   2.437725701178394e-06   1.1966464256945144e-06
-1.6024692308633077e-05   2.437725701178394e-06   1.1966464256945144e-06
-1.6403019208334005e-05   2.609544891327251e-06   1.428671285481247e-05
-1.6403019208334005e-05   2.609544891327251e-06   1.428671285481247e-05
-1.6403019208334005e-05   2.609544891327251e-06   1.428671285481247e-05
-1.6403019208334005e-05   2.609544891327251e-06   1.428671285481247e-05
-8.80863212586355e-06   2.2387449202565567e-06   1.851881033337492e-06
-8.80863212586355e-06   2.2387449202565567e-06   1.851881033337492e-06
-8.80863212586355e-06   2.2387449202565567e-06   1.851881033337492e-06
-8.80863212586355e-06   2.2387449202565567e-06   1.851881033337492e-06
-1.2291126177580355e-05   2.5355529291205825e-06   7.477952980880769e-06
-1.2291126177580355e-05   2.5355529291205825e-06   7.477952980880769e-06
-1.2291126177580355e-05   2.5355529291205825e-06   7.477952980880769e-06
-1.2291126177580355e-05   2.5355529291205825e-06   7.477952980880769e-06
-8.808632125863536e-06   2.609544891327251e-06   1.4509192837454886e-05
-8.808632125863536e-06   2.609544891327251e-06   1.4509192837454886e-05
-8.808632125863536e-06   2.609544891327251e-06   1.4509192837454886e-05
-8.808632125863536e-06   2.609544891327251e-06   1.4509192837454886e-05
-1.6403019208334005e-05   2.2387449202565567e-06   1.6294010506950484e-06
-1.6403019208334005e-05   2.2387449202565567e-06   1.6294010506950484e-06
-1.6403019208334005e-05   2.2387449202565567e-06   1.6294010506950484e-06
-1.6403019208334005e-05   2.2387449202565567e-06   1.6294010506950484e-06
-1.6748173934056878e-05   2.400598915495381e-06   1.4670823435180224e-05
-1.6748173934056878e-05   2.400598915495381e-06   1.4670823435180224e-05
-1.6748173934056878e-05   2.400598915495381e-06   1.4670823435180224e-05
-1.6748173934056878e-05   2.400598915495381e-06   1.4670823435180224e-05
-9.135542458289672e-06   2.0058460014012224e-06   2.2199560573580646e-06
-9.135542458289672e-06   2.0058460014012224e-06   2.2199560573580646e-06
-9.135542458289672e-06   2.0058460014012224e-06   2.2199560573580646e-06
-9.135542458289672e-06   2.0058460014012224e-06   2.2199560573580646e-06
-1.2685605275926742e-05   2.381992529201164e-06   7.91103950340715e-06
-1.2685605275926742e-05   2.381992529201164e-06   7.91103950340715e-06
-1.2685605275926742e-05   2.381992529201164e-06   7.91103950340715e-06
-1.2685605275926742e-05   2.381992529201164e-06   7.91103950340715e-06
-1.568043157851697e-05   4.281575570489675e-06   6.721622451021179e-06
-1.568043157851697e-05   4.281575570489675e-06   6.721622451021179e-06
-1.568043157851697e-05   4.281575570489675e-06   6.721622451021179e-06
-1.568043157851697e-05   4.281575570489675e-06   6.721622451021179e-06
-2.2851404665735845e-05   3.668880627497647e-06   -5.5976163268053815e-06
-2.2851404665735845e-05   3.668880627497647e-06   -5.5976163268053815e-06
-2.2851404665735845e-05   3.668880627497647e-06   -5.5976163268053815e-06
-2.2851404665735845e-05   3.668880627497647e-06   -5.5976163268053815e-06
-2.3471639443569986e-05   4.332255303128693e-06   8.968659282613568e-06
-2.3471639443569986e-05   4.332255303128693e-06   8.968659282613568e-06
-2.3471639443569986e-05   4.332255303128693e-06   8.968659282613568e-06
-2.3471639443569986e-05   4.332255303128693e-06   8.968659282613568e-06
-1.6024692308633077e-05   3.6555013477906255e-06   -3.0368669024118512e-06
-1.6024692308633077e-05   3.6555013477906255e-06   -3.0368669024118512e-06
-1.6024692308633077e-05   3.6555013477906255e-06   -3.0368669024118512e-06
-1.6024692308633077e-05   3.6555013477906255e-06   -3.0368669024118512e-06
-1.876415714452754e-05   3.92422844503631e-06   1.3676715657316024e-06
-1.876415714452754e-05   3.92422844503631e-06   1.3676715657316024e-06
-1.876415714452754e-05   3.92422844503631e-06   1.3676715657316024e-06
-1.876415714452754e-05   3.92422844503631e-06   1.3676715657316024e-06
-1.602469230863305e-05   4.332255303128693e-06   9.37471165581656e-06
-1.602469230863305e-05   4.332255303128693e-06   9.37471165581656e-06
-1.602469230863305e-05   4.332255303128693e-06   9.37471165581656e-06
-1.602469230863305e-05   4.332255303128693e-06   9.37471165581656e-06
-2.347163944357004e-05   3.6555013477906255e-06   -3.4429192756147624e-06
-2.347163944357004e-05   3.6555013477906255e-06   -3.4429192756147624e-06
-2.347163944357004e-05   3.6555013477906255e-06   -3.4429192756147624e-06
-2.347163944357004e-05   3.6555013477906255e-06   -3.4429192756147624e-06
-2.4025540135480045e-05   4.286050138960088e-06   1.0770328615640565e-05
-2.4025540135480045e-05   4.286050138960088e-06   1.0770328615640565e-05
-2.4025540135480045e-05   4.286050138960088e-06   1.0770328615640565e-05
-2.4025540135480045e-05   4.286050138960088e-06   1.0770328615640565e-05
-1.6403019208334005e-05   3.582660133788799e-06   -1.51183892650012e-06
-1.6403019208334005e-05   3.582660133788799e-06   -1.51183892650012e-06
-1.6403019208334005e-05   3.582660133788799e-06   -1.51183892650012e-06
-1.6403019208334005e-05   3.582660133788799e-06   -1.51183892650012e-06
-1.9484111281010643e-05   3.969375351326452e-06   3.391285397439048e-06
-1.9484111281010643e-05   3.969375351326452e-06   3.391285397439048e-06
-1.9484111281010643e-05   3.969375351326452e-06   3.391285397439048e-06
-1.9484111281010643e-05   3.969375351326452e-06   3.391285397439048e-06
-1.6403019208334005e-05   4.286050138960088e-06   1.1192362618743447e-05
-1.6403019208334005e-05   4.286050138960088e-06   1.1192362618743447e-05
-1.6403019208334005e-05   4.286050138960088e-06   1.1192362618743447e-05
-1.6403019208334005e-05   4.286050138960088e-06   1.1192362618743447e-05
-2.40255401354801e-05   3.5826601337886907e-06   -1.9338729296029204e-06
-2.40255401354801e-05   3.5826601337886907e-06   -1.9338729296029204e-06
-2.40255401354801e-05   3.5826601337886907e-06   -1.9338729296029204e-06
-2.40255401354801e-05   3.5826601337886907e-06   -1.9338729296029204e-06
-2.466063152298515e-05   3.959313658523302e-06   1.3863480799029414e-05
-2.466063152298515e-05   3.959313658523302e-06   1.3863480799029414e-05
-2.466063152298515e-05   3.959313658523302e-06   1.3863480799029414e-05
-2.466063152298515e-05   3.959313658523302e-06   1.3863480799029414e-05
-1.6748173934056878e-05   3.2573785907257175e-06   1.097212524827306e-06
-1.6748173934056878e-05   3.2573785907257175e-06   1.097212524827306e-06
-1.6748173934056878e-05   3.2573785907257175e-06   1.097212524827306e-06
-1.6748173934056878e-05   3.2573785907257175e-06   1.097212524827306e-06
-1.9626577019447148e-05   3.834034976168098e-06   5.5485571692128345e-06
-1.9626577019447148e-05   3.834034976168098e-06   5.5485571692128345e-06
-1.9626577019447148e-05   3.834034976168098e-06   5.5485571692128345e-06
-1.9626577019447148e-05   3.834034976168098e-06   5.5485571692128345e-06
1.0896994852301998e-05   -1.409725380318379e-06   1.0799861460327961e-05
1.0896994852301998e-05   -1.409725380318379e-06   1.0799861460327961e-05
1.0896994852301998e-05   -1.409725380318379e-06   1.0799861460327961e-05
1.0896994852301998e-05   -1.409725380318379e-06   1.0799861460327961e-05
4.529173031690811e-06   -7.10311965576322e-07   6.064731414878494e-07
4.529173031690811e-06   -7.10311965576322e-07   6.064731414878494e-07
4.529173031690811e-06   -7.10311965576322e-07   6.064731414878494e-07
4.529173031690811e-06   -7.10311965576322e-07   6.064731414878494e-07
4.256539559857903e-06   -1.7052874789160637e-06   9.696035673454977e-06
4.256539559857903e-06   -1.7052874789160637e-06   9.696035673454977e-06
4.256539559857903e-06   -1.7052874789160637e-06   9.696035673454977e-06
4.256539559857903e-06   -1.7052874789160637e-06   9.696035673454977e-06
1.0314695379385367e-05   -9.765732409502308e-07   -8.381192352036141e-07
1.0314695379385367e-05   -9.765732409502308e-07   -8.381192352036141e-07
1.0314695379385367e-05   -9.765732409502308e-07   -8.381192352036141e-07
1.0314695379385367e-05   -9.765732409502308e-07   -8.381192352036141e-07
7.12706324118282e-06   -1.2281835717411777e-06   4.625567193608694e-06
7.12706324118282e-06   -1.2281835717411777e-06   4.625567193608694e-06
7.12706324118282e-06   -1.2281835717411777e-06   4.625567193608694e-06
7.12706324118282e-06   -1.2281835717411777e-06   4.625567193608694e-06
1.0314695379385387e-05   -1.7052874789161721e-06   9.258807130675553e-06
1.0314695379385387e-05   -1.7052874789161721e-06   9.258807130675553e-06
1.0314695379385387e-05   -1.7052874789161721e-06   9.258807130675553e-06
1.0314695379385387e-05   -1.7052874789161721e-06   9.258807130675553e-06
4.2565395598578875e-06   -9.765732409502308e-07   -4.0089069242406827e-07
4.2565395598578875e-06   -9.765732409502308e-07   -4.0089069242406827e-07
4.2565395598578875e-06   -9.765732409502308e-07   -4.0089069242406827e-07
4.2565395598578875e-06   -9.765732409502308e-07   -4.0089069242406827e-07
3.949365211118245e-06   -1.783392071936108e-06   8.878199890764455e-06
3.949365211118245e-06   -1.783392071936108e-06   8.878199890764455e-06
3.949365211118245e-06   -1.783392071936108e-06   8.878199890764455e-06
3.949365211118245e-06   -1.783392071936108e-06   8.878199890764455e-06
9.813839048374174e-06   -1.0672231855635584e-06   -1.3256245031523144e-06
9.813839048374174e-06   -1.0672231855635584e-06   -1.3256245031523144e-06
9.813839048374174e-06   -1.0672231855635584e-06   -1.3256245031523144e-06
9.813839048374174e-06   -1.0672231855635584e-06   -1.3256245031523144e-06
6.872819002489529e-06   -1.3414811065675346e-06   3.740630325924717e-06
6.872819002489529e-06   -1.3414811065675346e-06   3.740630325924717e-06
6.872819002489529e-06   -1.3414811065675346e-06   3.740630325924717e-06
6.872819002489529e-06   -1.3414811065675346e-06   3.740630325924717e-06
9.813839048374195e-06   -1.783392071936108e-06   8.44849855894086e-06
9.813839048374195e-06   -1.783392071936108e-06   8.44849855894086e-06
9.813839048374195e-06   -1.783392071936108e-06   8.44849855894086e-06
9.813839048374195e-06   -1.783392071936108e-06   8.44849855894086e-06
3.949365211118238e-06   -1.0672231855635584e-06   -8.95923171328767e-07
3.949365211118238e-06   -1.0672231855635584e-06   -8.95923171328767e-07
3.949365211118238e-06   -1.0672231855635584e-06   -8.95923171328767e-07
3.949365211118238e-06   -1.0672231855635584e-06   -8.95923171328767e-07
3.673606127868041e-06   -1.8524210734318682e-06   7.808762546393532e-06
3.673606127868041e-06   -1.8524210734318682e-06   7.808762546393532e-06
3.673606127868041e-06   -1.8524210734318682e-06   7.808762546393532e-06
3.673606127868041e-06   -1.8524210734318682e-06   7.808762546393532e-06
9.244075892113982e-06   -1.1838088907488485e-06   -1.876521036959536e-06
9.244075892113982e-06   -1.1838088907488485e-06   -1.876521036959536e-06
9.244075892113982e-06   -1.1838088907488485e-06   -1.876521036959536e-06
9.244075892113982e-06   -1.1838088907488485e-06   -1.876521036959536e-06
6.3874813593873914e-06   -1.3614609477687403e-06   2.9910610851300494e-06
6.3874813593873914e-06   -1.3614609477687403e-06   2.9910610851300494e-06
6.3874813593873914e-06   -1.3614609477687403e-06   2.9910610851300494e-06
6.3874813593873914e-06   -1.3614609477687403e-06   2.9910610851300494e-06
4.529173031690825e-06   -1.5489763222509972e-08   1.3252981041542817e-05
4.529173031690825e-06   -1.5489763222509972e-08   1.3252981041542817e-05
4.529173031690825e-06   -1.5489763222509972e-08   1.3252981041542817e-05
4.529173031690825e-06   -1.5489763222509972e-08   1.3252981041542817e-05
-1.4373382444597983e-06   3.423627498151758e-07   3.523507089114419e-06
-1.4373382444597983e-06   3.423627498151758e-07   3.523507089114419e-06
-1.4373382444597983e-06   3.423627498151758e-07   3.523507089114419e-06
-1.4373382444597983e-06   3.423627498151758e-07   3.523507089114419e-06
-1.688272976204217e-06   -2.710801182945243e-07   1.3274969250249473e-05
-1.688272976204217e-06   -2.710801182945243e-07   1.3274969250249473e-05
-1.688272976204217e-06   -2.710801182945243e-07   1.3274969250249473e-05
-1.688272976204217e-06   -2.710801182945243e-07   1.3274969250249473e-05
4.2565395598578875e-06   7.459931698880398e-08   3.159540695642625e-06
4.2565395598578875e-06   7.459931698880398e-08   3.159540695642625e-06
4.2565395598578875e-06   7.459931698880398e-08   3.159540695642625e-06
4.2565395598578875e-06   7.459931698880398e-08   3.159540695642625e-06
1.3721623778226227e-06   9.17092738837895e-09   8.00609303279538e-06
1.3721623778226227e-06   9.17092738837895e-09   8.00609303279538e-06
1.3721623778226227e-06   9.17092738837895e-09   8.00609303279538e-06
1.3721623778226227e-06   9.17092738837895e-09   8.00609303279538e-06
4.256539559857898e-06   -2.7108011829441586e-07   1.3067561589079509e-05
4.256539559857898e-06   -2.7108011829441586e-07   1.3067561589079509e-05
4.256539559857898e-06   -2.7108011829441586e-07   1.3067561589079509e-05
4.256539559857898e-06   -2.7108011829441586e-07   1.3067561589079509e-05
-1.6882729762042237e-06   7.45993169889124e-08   3.3669483568126574e-06
-1.6882729762042237e-06   7.45993169889124e-08   3.3669483568126574e-06
-1.6882729762042237e-06   7.45993169889124e-08   3.3669483568126574e-06
-1.6882729762042237e-06   7.45993169889124e-08   3.3669483568126574e-06
-1.9450527785647108e-06   -4.711218628167561e-07   1.31090737725468e-05
-1.9450527785647108e-06   -4.711218628167561e-07   1.31090737725468e-05
-1.9450527785647108e-06   -4.711218628167561e-07   1.31090737725468e-05
-1.9450527785647108e-06   -4.711218628167561e-07   1.31090737725468e-05
3.949365211118238e-06   -1.4315821542738773e-07   3.0882656013082927e-06
3.949365211118238e-06   -1.4315821542738773e-07   3.0882656013082927e-06
3.949365211118238e-06   -1.4315821542738773e-07   3.0882656013082927e-06
3.949365211118238e-06   -1.4315821542738773e-07   3.0882656013082927e-06
1.0953030312015896e-06   -1.6861761698526694e-07   7.860311542104556e-06
1.0953030312015896e-06   -1.6861761698526694e-07   7.860311542104556e-06
1.0953030312015896e-06   -1.6861761698526694e-07   7.860311542104556e-06
1.0953030312015896e-06   -1.6861761698526694e-07   7.860311542104556e-06
3.949365211118252e-06   -4.711218628167561e-07   1.291229558411319e-05
3.949365211118252e-06   -4.711218628167561e-07   1.291229558411319e-05
3.949365211118252e-06   -4.711218628167561e-07   1.291229558411319e-05
3.949365211118252e-06   -4.711218628167561e-07   1.291229558411319e-05
-1.9450527785647175e-06   -1.4315821542727931e-07   3.285043789741913e-06
-1.9450527785647175e-06   -1.4315821542727931e-07   3.285043789741913e-06
-1.9450527785647175e-06   -1.4315821542727931e-07   3.285043789741913e-06
-1.9450527785647175e-06   -1.4315821542727931e-07   3.285043789741913e-06
-2.199840450734158e-06   -6.546218829882452e-07   1.3220821611929518e-05
-2.199840450734158e-06   -6.546218829882452e-07   1.3220821611929518e-05
-2.199840450734158e-06   -6.546218829882452e-07   1.3220821611929518e-05
-2.199840450734158e-06   -6.546218829882452e-07   1.3220821611929518e-05
3.6736061278680256e-06   -3.560425506711788e-07   3.25259638153567e-06
3.6736061278680256e-06   -3.560425506711788e-07   3.25259638153567e-06
3.6736061278680256e-06   -3.560425506711788e-07   3.25259638153567e-06
3.6736061278680256e-06   -3.560425506711788e-07   3.25259638153567e-06
8.781658832974309e-07   -3.1522102501488607e-07   7.887170540426278e-06
8.781658832974309e-07   -3.1522102501488607e-07   7.887170540426278e-06
8.781658832974309e-07   -3.1522102501488607e-07   7.887170540426278e-06
8.781658832974309e-07   -3.1522102501488607e-07   7.887170540426278e-06
-1.4373382444597983e-06   1.3416284708864159e-06   1.4362814945647012e-05
-1.4373382444597983e-06   1.3416284708864159e-06   1.4362814945647012e-05
-1.4373382444597983e-06   1.3416284708864159e-06   1.4362814945647012e-05
-1.4373382444597983e-06   1.3416284708864159e-06   1.4362814945647012e-05
-7.302173363674957e-06   1.3248599548046618e-06   4.578028637305996e-06
-7.302173363674957e-06   1.3248599548046618e-06   4.578028637305996e-06
-7.302173363674957e-06   1.3248599548046618e-06   4.578028637305996e-06
-7.302173363674957e-06   1.3248599548046618e-06   4.578028637305996e-06
-7.550214657194208e-06   1.1186430194072908e-06   1.426942363659024e-05
-7.550214657194208e-06   1.1186430194072908e-06   1.426942363659024e-05
-7.550214657194208e-06   1.1186430194072908e-06   1.426942363659024e-05
-7.550214657194208e-06   1.1186430194072908e-06   1.426942363659024e-05
-1.688272976204217e-06   1.0830423679615998e-06   4.520881225807621e-06
-1.688272976204217e-06   1.0830423679615998e-06   4.520881225807621e-06
-1.688272976204217e-06   1.0830423679615998e-06   4.520881225807621e-06
-1.688272976204217e-06   1.0830423679615998e-06   4.520881225807621e-06
-4.505856386469712e-06   1.1858650310518984e-06   9.155159978396229e-06
-4.505856386469712e-06   1.1858650310518984e-06   9.155159978396229e-06
-4.505856386469712e-06   1.1858650310518984e-06   9.155159978396229e-06
-4.505856386469712e-06   1.1858650310518984e-06   9.155159978396229e-06
-1.688272976204217e-06   1.1186430194071824e-06   1.4290784027457622e-05
-1.688272976204217e-06   1.1186430194071824e-06   1.4290784027457622e-05
-1.688272976204217e-06   1.1186430194071824e-06   1.4290784027457622e-05
-1.688272976204217e-06   1.1186430194071824e-06   1.4290784027457622e-05
-7.550214657194208e-06   1.0830423679614913e-06   4.499520834940266e-06
-7.550214657194208e-06   1.0830423679614913e-06   4.499520834940266e-06
-7.550214657194208e-06   1.0830423679614913e-06   4.499520834940266e-06
-7.550214657194208e-06   1.0830423679614913e-06   4.499520834940266e-06
-7.804030401987251e-06   8.992712302285499e-07   1.4338555384226046e-05
-7.804030401987251e-06   8.992712302285499e-07   1.4338555384226046e-05
-7.804030401987251e-06   8.992712302285499e-07   1.4338555384226046e-05
-7.804030401987251e-06   8.992712302285499e-07   1.4338555384226046e-05
-1.9450527785647108e-06   8.440460288661102e-07   4.6067277993392714e-06
-1.9450527785647108e-06   8.440460288661102e-07   4.6067277993392714e-06
-1.9450527785647108e-06   8.440460288661102e-07   4.6067277993392714e-06
-1.9450527785647108e-06   8.440460288661102e-07   4.6067277993392714e-06
-4.732551461954197e-06   1.0109881800653012e-06   9.152393647602345e-06
-4.732551461954197e-06   1.0109881800653012e-06   9.152393647602345e-06
-4.732551461954197e-06   1.0109881800653012e-06   9.152393647602345e-06
-4.732551461954197e-06   1.0109881800653012e-06   9.152393647602345e-06
-1.9450527785647175e-06   8.992712302285499e-07   1.4371690505043445e-05
-1.9450527785647175e-06   8.992712302285499e-07   1.4371690505043445e-05
-1.9450527785647175e-06   8.992712302285499e-07   1.4371690505043445e-05
-1.9450527785647175e-06   8.992712302285499e-07   1.4371690505043445e-05
-7.804030401987251e-06   8.440460288661102e-07   4.573592678521832e-06
-7.804030401987251e-06   8.440460288661102e-07   4.573592678521832e-06
-7.804030401987251e-06   8.440460288661102e-07   4.573592678521832e-06
-7.804030401987251e-06   8.440460288661102e-07   4.573592678521832e-06
-8.054700573789086e-06   6.912291008444532e-07   1.452572927646749e-05
-8.054700573789086e-06   6.912291008444532e-07   1.452572927646749e-05
-8.054700573789086e-06   6.912291008444532e-07   1.452572927646749e-05
-8.054700573789086e-06   6.912291008444532e-07   1.452572927646749e-05
-2.199840450734158e-06   6.14172463968797e-07   4.813863053501437e-06
-2.199840450734158e-06   6.14172463968797e-07   4.813863053501437e-06
-2.199840450734158e-06   6.14172463968797e-07   4.813863053501437e-06
-2.199840450734158e-06   6.14172463968797e-07   4.813863053501437e-06
-4.969915698821462e-06   8.403908712914954e-07   9.294924089253329e-06
-4.969915698821462e-06   8.403908712914954e-07   9.294924089253329e-06
-4.969915698821462e-06   8.403908712914954e-07   9.294924089253329e-06
-4.969915698821462e-06   8.403908712914954e-07   9.294924089253329e-06
-7.302173363674957e-06   2.6498978901224636e-06   1.2719101140526358e-05
-7.302173363674957e-06   2.6498978901224636e-06   1.2719101140526358e-05
-7.302173363674957e-06   2.6498978901224636e-06   1.2719101140526358e-05
-7.302173363674957e-06   2.6498978901224636e-06   1.2719101140526358e-05
-1.3078366577042537e-05   2.2818197208974164e-06   2.871265550045271e-06
-1.3078366577042537e-05   2.2818197208974164e-06   2.871265550045271e-06
-1.3078366577042537e-05   2.2818197208974164e-06   2.871265550045271e-06
-1.3078366577042537e-05   2.2818197208974164e-06   2.871265550045271e-06
-1.3344996238327903e-05   2.437725701178394e-06   1.255515676983792e-05
-1.3344996238327903e-05   2.437725701178394e-06   1.255515676983792e-05
-1.3344996238327903e-05   2.437725701178394e-06   1.255515676983792e-05
-1.3344996238327903e-05   2.437725701178394e-06   1.255515676983792e-05
-7.550214657194181e-06   2.0466337591056472e-06   3.1318426331921115e-06
-7.550214657194181e-06   2.0466337591056472e-06   3.1318426331921115e-06
-7.550214657194181e-06   2.0466337591056472e-06   3.1318426331921115e-06
-7.550214657194181e-06   2.0466337591056472e-06   3.1318426331921115e-06
-1.0289452438455234e-05   2.3123793685599775e-06   7.537791569621596e-06
-1.0289452438455234e-05   2.3123793685599775e-06   7.537791569621596e-06
-1.0289452438455234e-05   2.3123793685599775e-06   7.537791569621596e-06
-1.0289452438455234e-05   2.3123793685599775e-06   7.537791569621596e-06
-7.550214657194208e-06   2.4377257011785024e-06   1.2789811935081644e-05
-7.550214657194208e-06   2.4377257011785024e-06   1.2789811935081644e-05
-7.550214657194208e-06   2.4377257011785024e-06   1.2789811935081644e-05
-7.550214657194208e-06   2.4377257011785024e-06   1.2789811935081644e-05
-1.334499623832789e-05   2.046633759105539e-06   2.8971874679484147e-06
-1.334499623832789e-05   2.046633759105539e-06   2.8971874679484147e-06
-1.334499623832789e-05   2.046633759105539e-06   2.8971874679484147e-06
-1.334499623832789e-05   2.046633759105539e-06   2.8971874679484147e-06
-1.3644551777735272e-05   2.2387449202565567e-06   1.2985562254416608e-05
-1.3644551777735272e-05   2.2387449202565567e-06   1.2985562254416608e-05
-1.3644551777735272e-05   2.2387449202565567e-06   1.2985562254416608e-05
-1.3644551777735272e-05   2.2387449202565567e-06   1.2985562254416608e-05
-7.804030401987224e-06   1.8279102479419433e-06   3.4978607648920726e-06
-7.804030401987224e-06   1.8279102479419433e-06   3.4978607648920726e-06
-7.804030401987224e-06   1.8279102479419433e-06   3.4978607648920726e-06
-7.804030401987224e-06   1.8279102479419433e-06   3.4978607648920726e-06
-1.0471847177796788e-05   2.152649355530666e-06   7.749378593355108e-06
-1.0471847177796788e-05   2.152649355530666e-06   7.749378593355108e-06
-1.0471847177796788e-05   2.152649355530666e-06   7.749378593355108e-06
-1.0471847177796788e-05   2.152649355530666e-06   7.749378593355108e-06
-7.804030401987238e-06   2.2387449202565567e-06   1.3232063057805354e-05
-7.804030401987238e-06   2.2387449202565567e-06   1.3232063057805354e-05
-7.804030401987238e-06   2.2387449202565567e-06   1.3232063057805354e-05
-7.804030401987238e-06   2.2387449202565567e-06   1.3232063057805354e-05
-1.3644551777735245e-05   1.8279102479419433e-06   3.251359961503218e-06
-1.3644551777735245e-05   1.8279102479419433e-06   3.251359961503218e-06
-1.3644551777735245e-05   1.8279102479419433e-06   3.251359961503218e-06
-1.3644551777735245e-05   1.8279102479419433e-06   3.251359961503218e-06
-1.3910059274658147e-05   2.0058460014012224e-06   1.334416650368897e-05
-1.3910059274658147e-05   2.0058460014012224e-06   1.334416650368897e-05
-1.3910059274658147e-05   2.0058460014012224e-06   1.334416650368897e-05
-1.3910059274658147e-05   2.0058460014012224e-06   1.334416650368897e-05
-8.054700573789059e-06   1.582314257306673e-06   3.839354382030531e-06
-8.054700573789059e-06   1.582314257306673e-06   3.839354382030531e-06
-8.054700573789059e-06   1.582314257306673e-06   3.839354382030531e-06
-8.054700573789059e-06   1.582314257306673e-06   3.839354382030531e-06
-1.0773369280937589e-05   1.9832828952177743e-06   8.129887711198308e-06
-1.0773369280937589e-05   1.9832828952177743e-06   8.129887711198308e-06
-1.0773369280937589e-05   1.9832828952177743e-06   8.129887711198308e-06
-1.0773369280937589e-05   1.9832828952177743e-06   8.129887711198308e-06
-1.3078366577042537e-05   3.6688806274975385e-06   6.132210977182449e-06
-1.3078366577042537e-05   3.6688806274975385e-06   6.132210977182449e-06
-1.3078366577042537e-05   3.6688806274975385e-06   6.132210977182449e-06
-1.3078366577042537e-05   3.6688806274975385e-06   6.132210977182449e-06
-1.8523798692438167e-05   3.0092234035288554e-06   -3.339303549524834e-06
-1.8523798692438167e-05   3.0092234035288554e-06   -3.339303549524834e-06
-1.8523798692438167e-05   3.0092234035288554e-06   -3.339303549524834e-06
-1.8523798692438167e-05   3.0092234035288554e-06   -3.339303549524834e-06
-1.9083406167450672e-05   3.655501347790517e-06   7.890298204348348e-06
-1.9083406167450672e-05   3.655501347790517e-06   7.890298204348348e-06
-1.9083406167450672e-05   3.655501347790517e-06   7.890298204348348e-06
-1.9083406167450672e-05   3.655501347790517e-06   7.890298204348348e-06
-1.3344996238327862e-05   2.9365926188187506e-06   -1.2423731068064226e-06
-1.3344996238327862e-05   2.9365926188187506e-06   -1.2423731068064226e-06
-1.3344996238327862e-05   2.9365926188187506e-06   -1.2423731068064226e-06
-1.3344996238327862e-05   2.9365926188187506e-06   -1.2423731068064226e-06
-1.5406995029589703e-05   3.2553432806803253e-06   2.0030411481800655e-06
-1.5406995029589703e-05   3.2553432806803253e-06   2.0030411481800655e-06
-1.5406995029589703e-05   3.2553432806803253e-06   2.0030411481800655e-06
-1.5406995029589703e-05   3.2553432806803253e-06   2.0030411481800655e-06
-1.3344996238327903e-05   3.655501347790517e-06   8.321643441731418e-06
-1.3344996238327903e-05   3.655501347790517e-06   8.321643441731418e-06
-1.3344996238327903e-05   3.655501347790517e-06   8.321643441731418e-06
-1.3344996238327903e-05   3.655501347790517e-06   8.321643441731418e-06
-1.9083406167450672e-05   2.936592618818859e-06   -1.6737183441895205e-06
-1.9083406167450672e-05   2.936592618818859e-06   -1.6737183441895205e-06
-1.9083406167450672e-05   2.936592618818859e-06   -1.6737183441895205e-06
-1.9083406167450672e-05   2.936592618818859e-06   -1.6737183441895205e-06
-1.9570241757810877e-05   3.5826601337886907e-06   9.400899503324376e-06
-1.9570241757810877e-05   3.5826601337886907e-06   9.400899503324376e-06
-1.9570241757810877e-05   3.5826601337886907e-06   9.400899503324376e-06
-1.9570241757810877e-05   3.5826601337886907e-06   9.400899503324376e-06
-1.3644551777735217e-05   2.8436221772936126e-06   -3.182768957131379e-08
-1.3644551777735217e-05   2.8436221772936126e-06   -3.182768957131379e-08
-1.3644551777735217e-05   2.8436221772936126e-06   -3.182768957131379e-08
-1.3644551777735217e-05   2.8436221772936126e-06   -3.182768957131379e-08
-1.600440095312801e-05   3.2595217783915748e-06   3.6517145087585246e-06
-1.600440095312801e-05   3.2595217783915748e-06   3.6517145087585246e-06
-1.600440095312801e-05   3.2595217783915748e-06   3.6517145087585246e-06
-1.600440095312801e-05   3.2595217783915748e-06   3.6517145087585246e-06
-1.3644551777735272e-05   3.582660133788799e-06   9.844322277221412e-06
-1.3644551777735272e-05   3.582660133788799e-06   9.844322277221412e-06
-1.3644551777735272e-05   3.582660133788799e-06   9.844322277221412e-06
-1.3644551777735272e-05   3.582660133788799e-06   9.844322277221412e-06
-1.9570241757810877e-05   2.8436221772936126e-06   -4.752504634682956e-07
-1.9570241757810877e-05   2.8436221772936126e-06   -4.752504634682956e-07
-1.9570241757810877e-05   2.8436221772936126e-06   -4.752504634682956e-07
-1.9570241757810877e-05   2.8436221772936126e-06   -4.752504634682956e-07
-2.0133738283295804e-05   3.2573785907257175e-06   1.2020868595127529e-05
-2.0133738283295804e-05   3.2573785907257175e-06   1.2020868595127529e-05
-2.0133738283295804e-05   3.2573785907257175e-06   1.2020868595127529e-05
-2.0133738283295804e-05   3.2573785907257175e-06   1.2020868595127529e-05
-1.3910059274658092e-05   2.5283683832470977e-06   2.0854763718853025e-06
-1.3910059274658092e-05   2.5283683832470977e-06   2.0854763718853025e-06
-1.3910059274658092e-05   2.5283683832470977e-06   2.0854763718853025e-06
-1.3910059274658092e-05   2.5283683832470977e-06   2.0854763718853025e-06
-1.6128865015194224e-05   3.1219190290642483e-06   5.427355551955053e-06
-1.6128865015194224e-05   3.1219190290642483e-06   5.427355551955053e-06
-1.6128865015194224e-05   3.1219190290642483e-06   5.427355551955053e-06
-1.6128865015194224e-05   3.1219190290642483e-06   5.427355551955053e-06
6.180734356135717e-06   -7.10311965576322e-07   8.570806575991822e-06
6.180734356135717e-06   -7.10311965576322e-07   8.570806575991822e-06
6.180734356135717e-06   -7.10311965576322e-07   8.570806575991822e-06
6.180734356135717e-06   -7.10311965576322e-07   8.570806575991822e-06
1.666291826493967e-06   -1.2415076545806147e-08   1.465473826673942e-06
1.666291826493967e-06   -1.2415076545806147e-08   1.465473826673942e-06
1.666291826493967e-06   -1.2415076545806147e-08   1.465473826673942e-06
1.666291826493967e-06   -1.2415076545806147e-08   1.465473826673942e-06
1.4602993833126282e-06   -9.765732409502308e-07   7.973865973175478e-06
1.4602993833126282e-06   -9.765732409502308e-07   7.973865973175478e-06
1.4602993833126282e-06   -9.765732409502308e-07   7.973865973175478e-06
1.4602993833126282e-06   -9.765732409502308e-07   7.973865973175478e-06
5.670080759363333e-06   -2.522503281091092e-07   5.229699320529748e-07
5.670080759363333e-06   -2.522503281091092e-07   5.229699320529748e-07
5.670080759363333e-06   -2.522503281091092e-07   5.229699320529748e-07
5.670080759363333e-06   -2.522503281091092e-07   5.229699320529748e-07
3.5256459053688953e-06   -5.218070935116698e-07   4.258762081285568e-06
3.5256459053688953e-06   -5.218070935116698e-07   4.258762081285568e-06
3.5256459053688953e-06   -5.218070935116698e-07   4.258762081285568e-06
3.5256459053688953e-06   -5.218070935116698e-07   4.258762081285568e-06
5.670080759363344e-06   -9.765732409502308e-07   7.539272225470773e-06
5.670080759363344e-06   -9.765732409502308e-07   7.539272225470773e-06
5.670080759363344e-06   -9.765732409502308e-07   7.539272225470773e-06
5.670080759363344e-06   -9.765732409502308e-07   7.539272225470773e-06
1.4602993833126248e-06   -2.522503281091092e-07   9.575636797577074e-07
1.4602993833126248e-06   -2.522503281091092e-07   9.575636797577074e-07
1.4602993833126248e-06   -2.522503281091092e-07   9.575636797577074e-07
1.4602993833126248e-06   -2.522503281091092e-07   9.575636797577074e-07
1.2193314141391617e-06   -1.0672231855635584e-06   7.47235125786352e-06
1.2193314141391617e-06   -1.0672231855635584e-06   7.47235125786352e-06
1.2193314141391617e-06   -1.0672231855635584e-06   7.47235125786352e-06
1.2193314141391617e-06   -1.0672231855635584e-06   7.47235125786352e-06
5.236679386034957e-06   -3.5422579839445786e-07   3.489728724025086e-07
5.236679386034957e-06   -3.5422579839445786e-07   3.489728724025086e-07
5.236679386034957e-06   -3.5422579839445786e-07   3.489728724025086e-07
5.236679386034957e-06   -3.5422579839445786e-07   3.489728724025086e-07
3.282335785124736e-06   -6.266370706336502e-07   3.769658970596444e-06
3.282335785124736e-06   -6.266370706336502e-07   3.769658970596444e-06
3.282335785124736e-06   -6.266370706336502e-07   3.769658970596444e-06
3.282335785124736e-06   -6.266370706336502e-07   3.769658970596444e-06
5.23667938603496e-06   -1.0672231855635584e-06   7.0445528255620705e-06
5.23667938603496e-06   -1.0672231855635584e-06   7.0445528255620705e-06
5.23667938603496e-06   -1.0672231855635584e-06   7.0445528255620705e-06
5.23667938603496e-06   -1.0672231855635584e-06   7.0445528255620705e-06
1.2193314141391583e-06   -3.5422579839445786e-07   7.767713047039377e-07
1.2193314141391583e-06   -3.5422579839445786e-07   7.767713047039377e-07
1.2193314141391583e-06   -3.5422579839445786e-07   7.767713047039377e-07
1.2193314141391583e-06   -3.5422579839445786e-07   7.767713047039377e-07
1.0100841682939137e-06   -1.1838088907488485e-06   6.883987846115138e-06
1.0100841682939137e-06   -1.1838088907488485e-06   6.883987846115138e-06
1.0100841682939137e-06   -1.1838088907488485e-06   6.883987846115138e-06
1.0100841682939137e-06   -1.1838088907488485e-06   6.883987846115138e-06
4.727679189100222e-06   -5.213796882892361e-07   2.905386232956628e-07
4.727679189100222e-06   -5.213796882892361e-07   2.905386232956628e-07
4.727679189100222e-06   -5.213796882892361e-07   2.905386232956628e-07
4.727679189100222e-06   -5.213796882892361e-07   2.905386232956628e-07
2.9141425849357064e-06   -6.781002092818948e-07   3.4071319428322327e-06
2.9141425849357064e-06   -6.781002092818948e-07   3.4071319428322327e-06
2.9141425849357064e-06   -6.781002092818948e-07   3.4071319428322327e-06
2.9141425849357064e-06   -6.781002092818948e-07   3.4071319428322327e-06
1.666291826493972e-06   3.423627498151758e-07   1.1691867149214176e-05
1.666291826493972e-06   3.423627498151758e-07   1.1691867149214176e-05
1.666291826493972e-06   3.423627498151758e-07   1.1691867149214176e-05
1.666291826493972e-06   3.423627498151758e-07   1.1691867149214176e-05
-2.4381146346656103e-06   6.613034742677416e-07   5.042554148619702e-06
-2.4381146346656103e-06   6.613034742677416e-07   5.042554148619702e-06
-2.4381146346656103e-06   6.613034742677416e-07   5.042554148619702e-06
-2.4381146346656103e-06   6.613034742677416e-07   5.042554148619702e-06
-2.619565226975355e-06   7.45993169889124e-08   1.1724854103521752e-05
-2.619565226975355e-06   7.45993169889124e-08   1.1724854103521752e-05
-2.619565226975355e-06   7.45993169889124e-08   1.1724854103521752e-05
-2.619565226975355e-06   7.45993169889124e-08   1.1724854103521752e-05
1.4602993833126248e-06   3.921938874546947e-07   4.734523010762394e-06
1.4602993833126248e-06   3.921938874546947e-07   4.734523010762394e-06
1.4602993833126248e-06   3.921938874546947e-07   4.734523010762394e-06
1.4602993833126248e-06   3.921938874546947e-07   4.734523010762394e-06
-5.140749801171169e-07   3.3996538387128395e-07   8.05648405196235e-06
-5.140749801171169e-07   3.3996538387128395e-07   8.05648405196235e-06
-5.140749801171169e-07   3.3996538387128395e-07   8.05648405196235e-06
-5.140749801171169e-07   3.3996538387128395e-07   8.05648405196235e-06
1.4602993833126265e-06   7.45993169889124e-08   1.153429736124224e-05
1.4602993833126265e-06   7.45993169889124e-08   1.153429736124224e-05
1.4602993833126265e-06   7.45993169889124e-08   1.153429736124224e-05
1.4602993833126265e-06   7.45993169889124e-08   1.153429736124224e-05
-2.619565226975355e-06   3.921938874546947e-07   4.925079753041923e-06
-2.619565226975355e-06   3.921938874546947e-07   4.925079753041923e-06
-2.619565226975355e-06   3.921938874546947e-07   4.925079753041923e-06
-2.619565226975355e-06   3.921938874546947e-07   4.925079753041923e-06
-2.8065206854878153e-06   -1.4315821542727931e-07   1.164175706340763e-05
-2.8065206854878153e-06   -1.4315821542727931e-07   1.164175706340763e-05
-2.8065206854878153e-06   -1.4315821542727931e-07   1.164175706340763e-05
-2.8065206854878153e-06   -1.4315821542727931e-07   1.164175706340763e-05
1.2193314141391583e-06   1.6553683941775057e-07   4.746786531122294e-06
1.2193314141391583e-06   1.6553683941775057e-07   4.746786531122294e-06
1.2193314141391583e-06   1.6553683941775057e-07   4.746786531122294e-06
1.2193314141391583e-06   1.6553683941775057e-07   4.746786531122294e-06
-7.083537373430145e-07   1.5316776440579827e-07   7.967016561933221e-06
-7.083537373430145e-07   1.5316776440579827e-07   7.967016561933221e-06
-7.083537373430145e-07   1.5316776440579827e-07   7.967016561933221e-06
-7.083537373430145e-07   1.5316776440579827e-07   7.967016561933221e-06
1.2193314141391617e-06   -1.4315821542738773e-07   1.145654003050059e-05
1.2193314141391617e-06   -1.4315821542738773e-07   1.145654003050059e-05
1.2193314141391617e-06   -1.4315821542738773e-07   1.145654003050059e-05
1.2193314141391617e-06   -1.4315821542738773e-07   1.145654003050059e-05
-2.806520685487822e-06   1.6553683941775057e-07   4.932003564029415e-06
-2.806520685487822e-06   1.6553683941775057e-07   4.932003564029415e-06
-2.806520685487822e-06   1.6553683941775057e-07   4.932003564029415e-06
-2.806520685487822e-06   1.6553683941775057e-07   4.932003564029415e-06
-2.99092252827376e-06   -3.560425506711788e-07   1.1786947248564267e-05
-2.99092252827376e-06   -3.560425506711788e-07   1.1786947248564267e-05
-2.99092252827376e-06   -3.560425506711788e-07   1.1786947248564267e-05
-2.99092252827376e-06   -3.560425506711788e-07   1.1786947248564267e-05
1.0100841682939103e-06   -6.436039473155936e-08   4.943593460721141e-06
1.0100841682939103e-06   -6.436039473155936e-08   4.943593460721141e-06
1.0100841682939103e-06   -6.436039473155936e-08   4.943593460721141e-06
1.0100841682939103e-06   -6.436039473155936e-08   4.943593460721141e-06
-8.719063484215351e-07   -1.2842169789606742e-08   8.049333386948599e-06
-8.719063484215351e-07   -1.2842169789606742e-08   8.049333386948599e-06
-8.719063484215351e-07   -1.2842169789606742e-08   8.049333386948599e-06
-8.719063484215351e-07   -1.2842169789606742e-08   8.049333386948599e-06
-2.4381146346656103e-06   1.3248599548046618e-06   1.2947814241726259e-05
-2.4381146346656103e-06   1.3248599548046618e-06   1.2947814241726259e-05
-2.4381146346656103e-06   1.3248599548046618e-06   1.2947814241726259e-05
-2.4381146346656103e-06   1.3248599548046618e-06   1.2947814241726259e-05
-6.467438616951994e-06   1.2534060888455979e-06   6.189401951673529e-06
-6.467438616951994e-06   1.2534060888455979e-06   6.189401951673529e-06
-6.467438616951994e-06   1.2534060888455979e-06   6.189401951673529e-06
-6.467438616951994e-06   1.2534060888455979e-06   6.189401951673529e-06
-6.641976607656215e-06   1.0830423679615998e-06   1.2833010982886818e-05
-6.641976607656215e-06   1.0830423679615998e-06   1.2833010982886818e-05
-6.641976607656215e-06   1.0830423679615998e-06   1.2833010982886818e-05
-6.641976607656215e-06   1.0830423679615998e-06   1.2833010982886818e-05
-2.6195652269753416e-06   1.0067490519117617e-06   6.1747680047154186e-06
-2.6195652269753416e-06   1.0067490519117617e-06   6.1747680047154186e-06
-2.6195652269753416e-06   1.0067490519117617e-06   6.1747680047154186e-06
-2.6195652269753416e-06   1.0067490519117617e-06   6.1747680047154186e-06
-4.550678837691031e-06   1.1378184916011145e-06   9.314649025428276e-06
-4.550678837691031e-06   1.1378184916011145e-06   9.314649025428276e-06
-4.550678837691031e-06   1.1378184916011145e-06   9.314649025428276e-06
-4.550678837691031e-06   1.1378184916011145e-06   9.314649025428276e-06
-2.619565226975355e-06   1.0830423679615998e-06   1.2878786972516851e-05
-2.619565226975355e-06   1.0830423679615998e-06   1.2878786972516851e-05
-2.619565226975355e-06   1.0830423679615998e-06   1.2878786972516851e-05
-2.619565226975355e-06   1.0830423679615998e-06   1.2878786972516851e-05
-6.641976607656201e-06   1.0067490519116533e-06   6.128992015085494e-06
-6.641976607656201e-06   1.0067490519116533e-06   6.128992015085494e-06
-6.641976607656201e-06   1.0067490519116533e-06   6.128992015085494e-06
-6.641976607656201e-06   1.0067490519116533e-06   6.128992015085494e-06
-6.822067951291563e-06   8.440460288661102e-07   1.291385195427105e-05
-6.822067951291563e-06   8.440460288661102e-07   1.291385195427105e-05
-6.822067951291563e-06   8.440460288661102e-07   1.291385195427105e-05
-6.822067951291563e-06   8.440460288661102e-07   1.291385195427105e-05
-2.8065206854878085e-06   7.613974976429299e-07   6.27086229666542e-06
-2.8065206854878085e-06   7.613974976429299e-07   6.27086229666542e-06
-2.8065206854878085e-06   7.613974976429299e-07   6.27086229666542e-06
-2.8065206854878085e-06   7.613974976429299e-07   6.27086229666542e-06
-4.705734333208197e-06   9.508698611944639e-07   9.32253495806846e-06
-4.705734333208197e-06   9.508698611944639e-07   9.32253495806846e-06
-4.705734333208197e-06   9.508698611944639e-07   9.32253495806846e-06
-4.705734333208197e-06   9.508698611944639e-07   9.32253495806846e-06
-2.806520685487822e-06   8.440460288661102e-07   1.2963441073005001e-05
-2.806520685487822e-06   8.440460288661102e-07   1.2963441073005001e-05
-2.806520685487822e-06   8.440460288661102e-07   1.2963441073005001e-05
-2.806520685487822e-06   8.440460288661102e-07   1.2963441073005001e-05
-6.822067951291549e-06   7.613974976429299e-07   6.221273177931577e-06
-6.822067951291549e-06   7.613974976429299e-07   6.221273177931577e-06
-6.822067951291549e-06   7.613974976429299e-07   6.221273177931577e-06
-6.822067951291549e-06   7.613974976429299e-07   6.221273177931577e-06
-6.999231203856765e-06   6.141724639686886e-07   1.3116668484399808e-05
-6.999231203856765e-06   6.141724639686886e-07   1.3116668484399808e-05
-6.999231203856765e-06   6.141724639686886e-07   1.3116668484399808e-05
-6.999231203856765e-06   6.141724639686886e-07   1.3116668484399808e-05
-2.9909225282737534e-06   5.268427360686882e-07   6.48855186183494e-06
-2.9909225282737534e-06   5.268427360686882e-07   6.48855186183494e-06
-2.9909225282737534e-06   5.268427360686882e-07   6.48855186183494e-06
-2.9909225282737534e-06   5.268427360686882e-07   6.48855186183494e-06
-4.870856217133051e-06   7.678550683043982e-07   9.477167277259133e-06
-4.870856217133051e-06   7.678550683043982e-07   9.477167277259133e-06
-4.870856217133051e-06   7.678550683043982e-07   9.477167277259133e-06
-4.870856217133051e-06   7.678550683043982e-07   9.477167277259133e-06
-6.467438616951994e-06   2.2818197208974164e-06   1.1419025736425178e-05
-6.467438616951994e-06   2.2818197208974164e-06   1.1419025736425178e-05
-6.467438616951994e-06   2.2818197208974164e-06   1.1419025736425178e-05
-6.467438616951994e-06   2.2818197208974164e-06   1.1419025736425178e-05
-1.0431255948779324e-05   1.8717755462359245e-06   4.566637011916099e-06
-1.0431255948779324e-05   1.8717755462359245e-06   4.566637011916099e-06
-1.0431255948779324e-05   1.8717755462359245e-06   4.566637011916099e-06
-1.0431255948779324e-05   1.8717755462359245e-06   4.566637011916099e-06
-1.0621980716505475e-05   2.046633759105539e-06   1.1211562612007558e-05
-1.0621980716505475e-05   2.046633759105539e-06   1.1211562612007558e-05
-1.0621980716505475e-05   2.046633759105539e-06   1.1211562612007558e-05
-1.0621980716505475e-05   2.046633759105539e-06   1.1211562612007558e-05
-6.641976607656188e-06   1.623683477220317e-06   4.831992599723425e-06
-6.641976607656188e-06   1.623683477220317e-06   4.831992599723425e-06
-6.641976607656188e-06   1.623683477220317e-06   4.831992599723425e-06
-6.641976607656188e-06   1.623683477220317e-06   4.831992599723425e-06
-8.519871488065589e-06   1.922345862256491e-06   7.782619969384547e-06
-8.519871488065589e-06   1.922345862256491e-06   7.782619969384547e-06
-8.519871488065589e-06   1.922345862256491e-06   7.782619969384547e-06
-8.519871488065589e-06   1.922345862256491e-06   7.782619969384547e-06
-6.641976607656215e-06   2.046633759105539e-06   1.14653327811388e-05
-6.641976607656215e-06   2.046633759105539e-06   1.14653327811388e-05
-6.641976607656215e-06   2.046633759105539e-06   1.14653327811388e-05
-6.641976607656215e-06   2.046633759105539e-06   1.14653327811388e-05
-1.0621980716505447e-05   1.6236834772204254e-06   4.578222430592292e-06
-1.0621980716505447e-05   1.6236834772204254e-06   4.578222430592292e-06
-1.0621980716505447e-05   1.6236834772204254e-06   4.578222430592292e-06
-1.0621980716505447e-05   1.6236834772204254e-06   4.578222430592292e-06
-1.0847275133804411e-05   1.8279102479419433e-06   1.1579690160932478e-05
-1.0847275133804411e-05   1.8279102479419433e-06   1.1579690160932478e-05
-1.0847275133804411e-05   1.8279102479419433e-06   1.1579690160932478e-05
-1.0847275133804411e-05   1.8279102479419433e-06   1.1579690160932478e-05
-6.822067951291522e-06   1.3971937817604816e-06   5.1294414031199855e-06
-6.822067951291522e-06   1.3971937817604816e-06   5.1294414031199855e-06
-6.822067951291522e-06   1.3971937817604816e-06   5.1294414031199855e-06
-6.822067951291522e-06   1.3971937817604816e-06   5.1294414031199855e-06
-8.641959728369517e-06   1.7473860912385923e-06   7.952478979229713e-06
-8.641959728369517e-06   1.7473860912385923e-06   7.952478979229713e-06
-8.641959728369517e-06   1.7473860912385923e-06   7.952478979229713e-06
-8.641959728369517e-06   1.7473860912385923e-06   7.952478979229713e-06
-6.822067951291563e-06   1.8279102479419433e-06   1.1838120040641236e-05
-6.822067951291563e-06   1.8279102479419433e-06   1.1838120040641236e-05
-6.822067951291563e-06   1.8279102479419433e-06   1.1838120040641236e-05
-6.822067951291563e-06   1.8279102479419433e-06   1.1838120040641236e-05
-1.0847275133804357e-05   1.3971937817604816e-06   4.871011523411119e-06
-1.0847275133804357e-05   1.3971937817604816e-06   4.871011523411119e-06
-1.0847275133804357e-05   1.3971937817604816e-06   4.871011523411119e-06
-1.0847275133804357e-05   1.3971937817604816e-06   4.871011523411119e-06
-1.1039877078434146e-05   1.5823142573067814e-06   1.1931505691936857e-05
-1.1039877078434146e-05   1.5823142573067814e-06   1.1931505691936857e-05
-1.1039877078434146e-05   1.5823142573067814e-06   1.1931505691936857e-05
-1.1039877078434146e-05   1.5823142573067814e-06   1.1931505691936857e-05
-6.999231203856738e-06   1.1541674187776898e-06   5.453984004092174e-06
-6.999231203856738e-06   1.1541674187776898e-06   5.453984004092174e-06
-6.999231203856738e-06   1.1541674187776898e-06   5.453984004092174e-06
-6.999231203856738e-06   1.1541674187776898e-06   5.453984004092174e-06
-8.854715620038264e-06   1.5711089208584597e-06   8.296293129813286e-06
-8.854715620038264e-06   1.5711089208584597e-06   8.296293129813286e-06
-8.854715620038264e-06   1.5711089208584597e-06   8.296293129813286e-06
-8.854715620038264e-06   1.5711089208584597e-06   8.296293129813286e-06
-1.0431255948779351e-05   3.009223403528964e-06   5.35822446643948e-06
-1.0431255948779351e-05   3.009223403528964e-06   5.35822446643948e-06
-1.0431255948779351e-05   3.009223403528964e-06   5.35822446643948e-06
-1.0431255948779351e-05   3.009223403528964e-06   5.35822446643948e-06
-1.4035817996969392e-05   2.3181577688279097e-06   -1.0640183280310843e-06
-1.4035817996969392e-05   2.3181577688279097e-06   -1.0640183280310843e-06
-1.4035817996969392e-05   2.3181577688279097e-06   -1.0640183280310843e-06
-1.4035817996969392e-05   2.3181577688279097e-06   -1.0640183280310843e-06
-1.4526050596682717e-05   2.936592618818859e-06   6.625557191667058e-06
-1.4526050596682717e-05   2.936592618818859e-06   6.625557191667058e-06
-1.4526050596682717e-05   2.936592618818859e-06   6.625557191667058e-06
-1.4526050596682717e-05   2.936592618818859e-06   6.625557191667058e-06
-1.062198071650542e-05   2.192517876176115e-06   5.652189036238573e-07
-1.062198071650542e-05   2.192517876176115e-06   5.652189036238573e-07
-1.062198071650542e-05   2.192517876176115e-06   5.652189036238573e-07
-1.062198071650542e-05   2.192517876176115e-06   5.652189036238573e-07
-1.1951250836937709e-05   2.5640118494382443e-06   2.5577727203876044e-06
-1.1951250836937709e-05   2.5640118494382443e-06   2.5577727203876044e-06
-1.1951250836937709e-05   2.5640118494382443e-06   2.5577727203876044e-06
-1.1951250836937709e-05   2.5640118494382443e-06   2.5577727203876044e-06
-1.0621980716505447e-05   2.936592618818859e-06   7.072002037252585e-06
-1.0621980716505447e-05   2.936592618818859e-06   7.072002037252585e-06
-1.0621980716505447e-05   2.936592618818859e-06   7.072002037252585e-06
-1.0621980716505447e-05   2.936592618818859e-06   7.072002037252585e-06
-1.4526050596682798e-05   2.192517876176115e-06   1.1877405803827588e-07
-1.4526050596682798e-05   2.192517876176115e-06   1.1877405803827588e-07
-1.4526050596682798e-05   2.192517876176115e-06   1.1877405803827588e-07
-1.4526050596682798e-05   2.192517876176115e-06   1.1877405803827588e-07
-1.4946812044450023e-05   2.8436221772936126e-06   7.841712583323479e-06
-1.4946812044450023e-05   2.8436221772936126e-06   7.841712583323479e-06
-1.4946812044450023e-05   2.8436221772936126e-06   7.841712583323479e-06
-1.4946812044450023e-05   2.8436221772936126e-06   7.841712583323479e-06
-1.0847275133804357e-05   2.0856389664028778e-06   1.4639409921151703e-06
-1.0847275133804357e-05   2.0856389664028778e-06   1.4639409921151703e-06
-1.0847275133804357e-05   2.0856389664028778e-06   1.4639409921151703e-06
-1.0847275133804357e-05   2.0856389664028778e-06   1.4639409921151703e-06
-1.24248183610128e-05   2.5327050212683305e-06   3.824940071210149e-06
-1.24248183610128e-05   2.5327050212683305e-06   3.824940071210149e-06
-1.24248183610128e-05   2.5327050212683305e-06   3.824940071210149e-06
-1.24248183610128e-05   2.5327050212683305e-06   3.824940071210149e-06
-1.0847275133804384e-05   2.843622177293721e-06   8.29650250985792e-06
-1.0847275133804384e-05   2.843622177293721e-06   8.29650250985792e-06
-1.0847275133804384e-05   2.843622177293721e-06   8.29650250985792e-06
-1.0847275133804384e-05   2.843622177293721e-06   8.29650250985792e-06
-1.4946812044450077e-05   2.0856389664028778e-06   1.009151065580743e-06
-1.4946812044450077e-05   2.0856389664028778e-06   1.009151065580743e-06
-1.4946812044450077e-05   2.0856389664028778e-06   1.009151065580743e-06
-1.4946812044450077e-05   2.0856389664028778e-06   1.009151065580743e-06
-1.5448928120015458e-05   2.5283683832469893e-06   9.98982928329163e-06
-1.5448928120015458e-05   2.5283683832469893e-06   9.98982928329163e-06
-1.5448928120015458e-05   2.5283683832469893e-06   9.98982928329163e-06
-1.5448928120015458e-05   2.5283683832469893e-06   9.98982928329163e-06
-1.1039877078434119e-05   1.7918393083193613e-06   3.0833283256127613e-06
-1.1039877078434119e-05   1.7918393083193613e-06   3.0833283256127613e-06
-1.1039877078434119e-05   1.7918393083193613e-06   3.0833283256127613e-06
-1.1039877078434119e-05   1.7918393083193613e-06   3.0833283256127613e-06
-1.2536816125869647e-05   2.399085644131261e-06   5.213878936518354e-06
-1.2536816125869647e-05   2.399085644131261e-06   5.213878936518354e-06
-1.2536816125869647e-05   2.399085644131261e-06   5.213878936518354e-06
-1.2536816125869647e-05   2.399085644131261e-06   5.213878936518354e-06
1.4271790539454698e-06   -1.2415076545697727e-08   6.4630070537739694e-06
1.4271790539454698e-06   -1.2415076545697727e-08   6.4630070537739694e-06
1.4271790539454698e-06   -1.2415076545697727e-08   6.4630070537739694e-06
1.4271790539454698e-06   -1.2415076545697727e-08   6.4630070537739694e-06
-1.2125412229229928e-06   6.623410470087371e-07   2.468326933125907e-06
-1.2125412229229928e-06   6.623410470087371e-07   2.468326933125907e-06
-1.2125412229229928e-06   6.623410470087371e-07   2.468326933125907e-06
-1.2125412229229928e-06   6.623410470087371e-07   2.468326933125907e-06
-1.3613150481941191e-06   -2.522503281090008e-07   6.350651612404027e-06
-1.3613150481941191e-06   -2.522503281090008e-07   6.350651612404027e-06
-1.3613150481941191e-06   -2.522503281090008e-07   6.350651612404027e-06
-1.3613150481941191e-06   -2.522503281090008e-07   6.350651612404027e-06
9.767678444662784e-07   4.3840834058997717e-07   2.0394515900839567e-06
9.767678444662784e-07   4.3840834058997717e-07   2.0394515900839567e-06
9.767678444662784e-07   4.3840834058997717e-07   2.0394515900839567e-06
9.767678444662784e-07   4.3840834058997717e-07   2.0394515900839567e-06
-1.0960838468408721e-07   1.6998328419696226e-07   4.011133672503729e-06
-1.0960838468408721e-07   1.6998328419696226e-07   4.011133672503729e-06
-1.0960838468408721e-07   1.6998328419696226e-07   4.011133672503729e-06
-1.0960838468408721e-07   1.6998328419696226e-07   4.011133672503729e-06
9.767678444662784e-07   -2.522503281090008e-07   5.936256411184608e-06
9.767678444662784e-07   -2.522503281090008e-07   5.936256411184608e-06
9.767678444662784e-07   -2.522503281090008e-07   5.936256411184608e-06
9.767678444662784e-07   -2.522503281090008e-07   5.936256411184608e-06
-1.3613150481941191e-06   4.3840834058997717e-07   2.4538467913033895e-06
-1.3613150481941191e-06   4.3840834058997717e-07   2.4538467913033895e-06
-1.3613150481941191e-06   4.3840834058997717e-07   2.4538467913033895e-06
-1.3613150481941191e-06   4.3840834058997717e-07   2.4538467913033895e-06
-1.5455820517231521e-06   -3.5422579839445786e-07   6.169293398395356e-06
-1.5455820517231521e-06   -3.5422579839445786e-07   6.169293398395356e-06
-1.5455820517231521e-06   -3.5422579839445786e-07   6.169293398395356e-06
-1.5455820517231521e-06   -3.5422579839445786e-07   6.169293398395356e-06
5.846613821379939e-07   3.1717131050951024e-07   2.2160494099510863e-06
5.846613821379939e-07   3.1717131050951024e-07   2.2160494099510863e-06
5.846613821379939e-07   3.1717131050951024e-07   2.2160494099510863e-06
5.846613821379939e-07   3.1717131050951024e-07   2.2160494099510863e-06
-3.50560703177494e-07   7.471942483792612e-08   3.920224016879838e-06
-3.50560703177494e-07   7.471942483792612e-08   3.920224016879838e-06
-3.50560703177494e-07   7.471942483792612e-08   3.920224016879838e-06
-3.50560703177494e-07   7.471942483792612e-08   3.920224016879838e-06
5.846613821379939e-07   -3.5422579839445786e-07   5.7664551330529755e-06
5.846613821379939e-07   -3.5422579839445786e-07   5.7664551330529755e-06
5.846613821379939e-07   -3.5422579839445786e-07   5.7664551330529755e-06
5.846613821379939e-07   -3.5422579839445786e-07   5.7664551330529755e-06
-1.5455820517231504e-06   3.1717131050951024e-07   2.6188876752934265e-06
-1.5455820517231504e-06   3.1717131050951024e-07   2.6188876752934265e-06
-1.5455820517231504e-06   3.1717131050951024e-07   2.6188876752934265e-06
-1.5455820517231504e-06   3.1717131050951024e-07   2.6188876752934265e-06
-1.700403480638749e-06   -5.213796882892361e-07   6.082388333090538e-06
-1.700403480638749e-06   -5.213796882892361e-07   6.082388333090538e-06
-1.700403480638749e-06   -5.213796882892361e-07   6.082388333090538e-06
-1.700403480638749e-06   -5.213796882892361e-07   6.082388333090538e-06
9.174076129760106e-08   6.19977249499519e-08   2.7454548152531217e-06
9.174076129760106e-08   6.19977249499519e-08   2.7454548152531217e-06
9.174076129760106e-08   6.19977249499519e-08   2.7454548152531217e-06
9.174076129760106e-08   6.19977249499519e-08   2.7454548152531217e-06
-6.17233765934369e-07   -9.628641410553383e-09   3.970054847122725e-06
-6.17233765934369e-07   -9.628641410553383e-09   3.970054847122725e-06
-6.17233765934369e-07   -9.628641410553383e-09   3.970054847122725e-06
-6.17233765934369e-07   -9.628641410553383e-09   3.970054847122725e-06
-1.2125412229229928e-06   6.613034742677416e-07   1.025357661518084e-05
-1.2125412229229928e-06   6.613034742677416e-07   1.025357661518084e-05
-1.2125412229229928e-06   6.613034742677416e-07   1.025357661518084e-05
-1.2125412229229928e-06   6.613034742677416e-07   1.025357661518084e-05
-3.4180035804634e-06   7.983017465910806e-07   6.660004982674206e-06
-3.4180035804634e-06   7.983017465910806e-07   6.660004982674206e-06
-3.4180035804634e-06   7.983017465910806e-07   6.660004982674206e-06
-3.4180035804634e-06   7.983017465910806e-07   6.660004982674206e-06
-3.531217481345003e-06   3.921938874546947e-07   1.0221887560687688e-05
-3.531217481345003e-06   3.921938874546947e-07   1.0221887560687688e-05
-3.531217481345003e-06   3.921938874546947e-07   1.0221887560687688e-05
-3.531217481345003e-06   3.921938874546947e-07   1.0221887560687688e-05
-1.3613150481941191e-06   5.493215829196606e-07   6.5111068881572565e-06
-1.3613150481941191e-06   5.493215829196606e-07   6.5111068881572565e-06
-1.3613150481941191e-06   5.493215829196606e-07   6.5111068881572565e-06
-1.3613150481941191e-06   5.493215829196606e-07   6.5111068881572565e-06
-2.397046706574617e-06   5.702504533408224e-07   8.224768996538723e-06
-2.397046706574617e-06   5.702504533408224e-07   8.224768996538723e-06
-2.397046706574617e-06   5.702504533408224e-07   8.224768996538723e-06
-2.397046706574617e-06   5.702504533408224e-07   8.224768996538723e-06
-1.3613150481941175e-06   3.921938874546947e-07   1.0127610943408676e-05
-1.3613150481941175e-06   3.921938874546947e-07   1.0127610943408676e-05
-1.3613150481941175e-06   3.921938874546947e-07   1.0127610943408676e-05
-1.3613150481941175e-06   3.921938874546947e-07   1.0127610943408676e-05
-3.5312174813449893e-06   5.493215829196606e-07   6.605383505436225e-06
-3.5312174813449893e-06   5.493215829196606e-07   6.605383505436225e-06
-3.5312174813449893e-06   5.493215829196606e-07   6.605383505436225e-06
-3.5312174813449893e-06   5.493215829196606e-07   6.605383505436225e-06
-3.648136838369198e-06   1.6553683941764215e-07   1.0232774022848738e-05
-3.648136838369198e-06   1.6553683941764215e-07   1.0232774022848738e-05
-3.648136838369198e-06   1.6553683941764215e-07   1.0232774022848738e-05
-3.648136838369198e-06   1.6553683941764215e-07   1.0232774022848738e-05
-1.5455820517231504e-06   3.213125028093955e-07   6.635050647070376e-06
-1.5455820517231504e-06   3.213125028093955e-07   6.635050647070376e-06
-1.5455820517231504e-06   3.213125028093955e-07   6.635050647070376e-06
-1.5455820517231504e-06   3.213125028093955e-07   6.635050647070376e-06
-2.5129627742065754e-06   3.8938134887213025e-07   8.206510543571851e-06
-2.5129627742065754e-06   3.8938134887213025e-07   8.206510543571851e-06
-2.5129627742065754e-06   3.8938134887213025e-07   8.206510543571851e-06
-2.5129627742065754e-06   3.8938134887213025e-07   8.206510543571851e-06
-1.5455820517231521e-06   1.6553683941775057e-07   1.013930862481374e-05
-1.5455820517231521e-06   1.6553683941775057e-07   1.013930862481374e-05
-1.5455820517231521e-06   1.6553683941775057e-07   1.013930862481374e-05
-1.5455820517231521e-06   1.6553683941775057e-07   1.013930862481374e-05
-3.648136838369198e-06   3.213125028093955e-07   6.728516045105364e-06
-3.648136838369198e-06   3.213125028093955e-07   6.728516045105364e-06
-3.648136838369198e-06   3.213125028093955e-07   6.728516045105364e-06
-3.648136838369198e-06   3.213125028093955e-07   6.728516045105364e-06
-3.763212526227605e-06   -6.436039473155936e-08   1.042233812054025e-05
-3.763212526227605e-06   -6.436039473155936e-08   1.042233812054025e-05
-3.763212526227605e-06   -6.436039473155936e-08   1.042233812054025e-05
-3.763212526227605e-06   -6.436039473155936e-08   1.042233812054025e-05
-1.700403480638749e-06   7.622705776837027e-08   6.899970573058951e-06
-1.700403480638749e-06   7.622705776837027e-08   6.899970573058951e-06
-1.700403480638749e-06   7.622705776837027e-08   6.899970573058951e-06
-1.700403480638749e-06   7.622705776837027e-08   6.899970573058951e-06
-2.628085378799962e-06   2.1335749607234288e-07   8.363828807011873e-06
-2.628085378799962e-06   2.1335749607234288e-07   8.363828807011873e-06
-2.628085378799962e-06   2.1335749607234288e-07   8.363828807011873e-06
-2.628085378799962e-06   2.1335749607234288e-07   8.363828807011873e-06
-3.4180035804634e-06   1.2534060888455979e-06   1.152549570120412e-05
-3.4180035804634e-06   1.2534060888455979e-06   1.152549570120412e-05
-3.4180035804634e-06   1.2534060888455979e-06   1.152549570120412e-05
-3.4180035804634e-06   1.2534060888455979e-06   1.152549570120412e-05
-5.605725788091273e-06   9.69370661102096e-07   7.708870765178293e-06
-5.605725788091273e-06   9.69370661102096e-07   7.708870765178293e-06
-5.605725788091273e-06   9.69370661102096e-07   7.708870765178293e-06
-5.605725788091273e-06   9.69370661102096e-07   7.708870765178293e-06
-5.702214381948805e-06   1.0067490519117617e-06   1.131157803937956e-05
-5.702214381948805e-06   1.0067490519117617e-06   1.131157803937956e-05
-5.702214381948805e-06   1.0067490519117617e-06   1.131157803937956e-05
-5.702214381948805e-06   1.0067490519117617e-06   1.131157803937956e-05
-3.5312174813449893e-06   7.400860969422347e-07   7.853247644688184e-06
-3.5312174813449893e-06   7.400860969422347e-07   7.853247644688184e-06
-3.5312174813449893e-06   7.400860969422347e-07   7.853247644688184e-06
-3.5312174813449893e-06   7.400860969422347e-07   7.853247644688184e-06
-4.567285896933459e-06   9.717487292118239e-07   9.441030757973866e-06
-4.567285896933459e-06   9.717487292118239e-07   9.441030757973866e-06
-4.567285896933459e-06   9.717487292118239e-07   9.441030757973866e-06
-4.567285896933459e-06   9.717487292118239e-07   9.441030757973866e-06
-3.5312174813449893e-06   1.0067490519117617e-06   1.147157581236121e-05
-3.5312174813449893e-06   1.0067490519117617e-06   1.147157581236121e-05
-3.5312174813449893e-06   1.0067490519117617e-06   1.147157581236121e-05
-3.5312174813449893e-06   1.0067490519117617e-06   1.147157581236121e-05
-5.702214381948805e-06   7.400860969422347e-07   7.693249871706492e-06
-5.702214381948805e-06   7.400860969422347e-07   7.693249871706492e-06
-5.702214381948805e-06   7.400860969422347e-07   7.693249871706492e-06
-5.702214381948805e-06   7.400860969422347e-07   7.693249871706492e-06
-5.805348574555426e-06   7.613974976430384e-07   1.141911668222674e-05
-5.805348574555426e-06   7.613974976430384e-07   1.141911668222674e-05
-5.805348574555426e-06   7.613974976430384e-07   1.141911668222674e-05
-5.805348574555426e-06   7.613974976430384e-07   1.141911668222674e-05
-3.648136838369198e-06   5.072040422127188e-07   7.976279861841051e-06
-3.648136838369198e-06   5.072040422127188e-07   7.976279861841051e-06
-3.648136838369198e-06   5.072040422127188e-07   7.976279861841051e-06
-3.648136838369198e-06   5.072040422127188e-07   7.976279861841051e-06
-4.649768714586396e-06   7.889286847657462e-07   9.476631536671268e-06
-4.649768714586396e-06   7.889286847657462e-07   9.476631536671268e-06
-4.649768714586396e-06   7.889286847657462e-07   9.476631536671268e-06
-4.649768714586396e-06   7.889286847657462e-07   9.476631536671268e-06
-3.648136838369198e-06   7.613974976429299e-07   1.1571632755484715e-05
-3.648136838369198e-06   7.613974976429299e-07   1.1571632755484715e-05
-3.648136838369198e-06   7.613974976429299e-07   1.1571632755484715e-05
-3.648136838369198e-06   7.613974976429299e-07   1.1571632755484715e-05
-5.805348574555426e-06   5.07204042212773e-07   7.823763788582954e-06
-5.805348574555426e-06   5.07204042212773e-07   7.823763788582954e-06
-5.805348574555426e-06   5.07204042212773e-07   7.823763788582954e-06
-5.805348574555426e-06   5.07204042212773e-07   7.823763788582954e-06
-5.90636934975924e-06   5.268427360686882e-07   1.1648473174327256e-05
-5.90636934975924e-06   5.268427360686882e-07   1.1648473174327256e-05
-5.90636934975924e-06   5.268427360686882e-07   1.1648473174327256e-05
-5.90636934975924e-06   5.268427360686882e-07   1.1648473174327256e-05
-3.7632125262275983e-06   2.8715264646368525e-07   8.220359188870893e-06
-3.7632125262275983e-06   2.8715264646368525e-07   8.220359188870893e-06
-3.7632125262275983e-06   2.8715264646368525e-07   8.220359188870893e-06
-3.7632125262275983e-06   2.8715264646368525e-07   8.220359188870893e-06
-4.741614071414612e-06   6.091565140867324e-07   9.65782611027534e-06
-4.741614071414612e-06   6.091565140867324e-07   9.65782611027534e-06
-4.741614071414612e-06   6.091565140867324e-07   9.65782611027534e-06
-4.741614071414612e-06   6.091565140867324e-07   9.65782611027534e-06
-5.605725788091287e-06   1.8717755462359245e-06   9.978336009597592e-06
-5.605725788091287e-06   1.8717755462359245e-06   9.978336009597592e-06
-5.605725788091287e-06   1.8717755462359245e-06   9.978336009597592e-06
-5.605725788091287e-06   1.8717755462359245e-06   9.978336009597592e-06
-7.76224604176503e-06   1.318307722622113e-06   6.052054892639644e-06
-7.76224604176503e-06   1.318307722622113e-06   6.052054892639644e-06
-7.76224604176503e-06   1.318307722622113e-06   6.052054892639644e-06
-7.76224604176503e-06   1.318307722622113e-06   6.052054892639644e-06
-7.868494533953705e-06   1.623683477220317e-06   9.686722635459137e-06
-7.868494533953705e-06   1.623683477220317e-06   9.686722635459137e-06
-7.868494533953705e-06   1.623683477220317e-06   9.686722635459137e-06
-7.868494533953705e-06   1.623683477220317e-06   9.686722635459137e-06
-5.702214381948805e-06   1.077256829623151e-06   6.404111704009298e-06
-5.702214381948805e-06   1.077256829623151e-06   6.404111704009298e-06
-5.702214381948805e-06   1.077256829623151e-06   6.404111704009298e-06
-5.702214381948805e-06   1.077256829623151e-06   6.404111704009298e-06
-6.720365370870322e-06   1.4582050606345683e-06   7.872461080271642e-06
-6.720365370870322e-06   1.4582050606345683e-06   7.872461080271642e-06
-6.720365370870322e-06   1.4582050606345683e-06   7.872461080271642e-06
-6.720365370870322e-06   1.4582050606345683e-06   7.872461080271642e-06
-5.702214381948805e-06   1.623683477220317e-06   1.0014578624017436e-05
-5.702214381948805e-06   1.623683477220317e-06   1.0014578624017436e-05
-5.702214381948805e-06   1.623683477220317e-06   1.0014578624017436e-05
-5.702214381948805e-06   1.623683477220317e-06   1.0014578624017436e-05
-7.868494533953705e-06   1.077256829623151e-06   6.076255715450944e-06
-7.868494533953705e-06   1.077256829623151e-06   6.076255715450944e-06
-7.868494533953705e-06   1.077256829623151e-06   6.076255715450944e-06
-7.868494533953705e-06   1.077256829623151e-06   6.076255715450944e-06
-8.013947687228354e-06   1.3971937817604816e-06   1.000622160316942e-05
-8.013947687228354e-06   1.3971937817604816e-06   1.000622160316942e-05
-8.013947687228354e-06   1.3971937817604816e-06   1.000622160316942e-05
-8.013947687228354e-06   1.3971937817604816e-06   1.000622160316942e-05
-5.805348574555426e-06   8.620882746843486e-07   6.6462863862936305e-06
-5.805348574555426e-06   8.620882746843486e-07   6.6462863862936305e-06
-5.805348574555426e-06   8.620882746843486e-07   6.6462863862936305e-06
-5.805348574555426e-06   8.620882746843486e-07   6.6462863862936305e-06
-6.778016429059605e-06   1.2810727634254967e-06   8.01600878388921e-06
-6.778016429059605e-06   1.2810727634254967e-06   8.01600878388921e-06
-6.778016429059605e-06   1.2810727634254967e-06   8.01600878388921e-06
-6.778016429059605e-06   1.2810727634254967e-06   8.01600878388921e-06
-5.805348574555426e-06   1.39719378176059e-06   1.032728490741496e-05
-5.805348574555426e-06   1.39719378176059e-06   1.032728490741496e-05
-5.805348574555426e-06   1.39719378176059e-06   1.032728490741496e-05
-5.805348574555426e-06   1.39719378176059e-06   1.032728490741496e-05
-8.013947687228327e-06   8.620882746843486e-07   6.325223082047902e-06
-8.013947687228327e-06   8.620882746843486e-07   6.325223082047902e-06
-8.013947687228327e-06   8.620882746843486e-07   6.325223082047902e-06
-8.013947687228327e-06   8.620882746843486e-07   6.325223082047902e-06
-8.130233090123854e-06   1.1541674187775814e-06   1.0359077157729248e-05
-8.130233090123854e-06   1.1541674187775814e-06   1.0359077157729248e-05
-8.130233090123854e-06   1.1541674187775814e-06   1.0359077157729248e-05
-8.130233090123854e-06   1.1541674187775814e-06   1.0359077157729248e-05
-5.90636934975924e-06   6.421240927855518e-07   6.9598635860501764e-06
-5.90636934975924e-06   6.421240927855518e-07   6.9598635860501764e-06
-5.90636934975924e-06   6.421240927855518e-07   6.9598635860501764e-06
-5.90636934975924e-06   6.421240927855518e-07   6.9598635860501764e-06
-6.899253283547323e-06   1.1117920622191269e-06   8.332869360703788e-06
-6.899253283547323e-06   1.1117920622191269e-06   8.332869360703788e-06
-6.899253283547323e-06   1.1117920622191269e-06   8.332869360703788e-06
-6.899253283547323e-06   1.1117920622191269e-06   8.332869360703788e-06
-7.76224604176503e-06   2.3181577688279097e-06   4.430239356302502e-06
-7.76224604176503e-06   2.3181577688279097e-06   4.430239356302502e-06
-7.76224604176503e-06   2.3181577688279097e-06   4.430239356302502e-06
-7.76224604176503e-06   2.3181577688279097e-06   4.430239356302502e-06
-9.49093710126767e-06   1.5711022808633738e-06   1.1008542976860226e-06
-9.49093710126767e-06   1.5711022808633738e-06   1.1008542976860226e-06
-9.49093710126767e-06   1.5711022808633738e-06   1.1008542976860226e-06
-9.49093710126767e-06   1.5711022808633738e-06   1.1008542976860226e-06
-9.889516332368638e-06   2.192517876176115e-06   5.204751053151176e-06
-9.889516332368638e-06   2.192517876176115e-06   5.204751053151176e-06
-9.889516332368638e-06   2.192517876176115e-06   5.204751053151176e-06
-9.889516332368638e-06   2.192517876176115e-06   5.204751053151176e-06
-7.868494533953705e-06   1.4109044506101383e-06   2.3053494444658757e-06
-7.868494533953705e-06   1.4109044506101383e-06   2.3053494444658757e-06
-7.868494533953705e-06   1.4109044506101383e-06   2.3053494444658757e-06
-7.868494533953705e-06   1.4109044506101383e-06   2.3053494444658757e-06
-8.44823266726715e-06   1.851740570432323e-06   3.0070779947615487e-06
-8.44823266726715e-06   1.851740570432323e-06   3.0070779947615487e-06
-8.44823266726715e-06   1.851740570432323e-06   3.0070779947615487e-06
-8.44823266726715e-06   1.851740570432323e-06   3.0070779947615487e-06
-7.868494533953677e-06   2.192517876176115e-06   5.673719108490675e-06
-7.868494533953677e-06   2.192517876176115e-06   5.673719108490675e-06
-7.868494533953677e-06   2.192517876176115e-06   5.673719108490675e-06
-7.868494533953677e-06   2.192517876176115e-06   5.673719108490675e-06
-9.889516332368638e-06   1.4109044506101383e-06   1.8363813891262325e-06
-9.889516332368638e-06   1.4109044506101383e-06   1.8363813891262325e-06
-9.889516332368638e-06   1.4109044506101383e-06   1.8363813891262325e-06
-9.889516332368638e-06   1.4109044506101383e-06   1.8363813891262325e-06
-1.0230673014086073e-05   2.0856389664028778e-06   6.127906706164554e-06
-1.0230673014086073e-05   2.0856389664028778e-06   6.127906706164554e-06
-1.0230673014086073e-05   2.0856389664028778e-06   6.127906706164554e-06
-1.0230673014086073e-05   2.0856389664028778e-06   6.127906706164554e-06
-8.013947687228327e-06   1.3002316902215104e-06   2.9046088604438856e-06
-8.013947687228327e-06   1.3002316902215104e-06   2.9046088604438856e-06
-8.013947687228327e-06   1.3002316902215104e-06   2.9046088604438856e-06
-8.013947687228327e-06   1.3002316902215104e-06   2.9046088604438856e-06
-8.787739269789112e-06   1.790222240932466e-06   3.900267167618906e-06
-8.787739269789112e-06   1.790222240932466e-06   3.900267167618906e-06
-8.787739269789112e-06   1.790222240932466e-06   3.900267167618906e-06
-8.787739269789112e-06   1.790222240932466e-06   3.900267167618906e-06
-8.013947687228327e-06   2.0856389664028778e-06   6.599151071873363e-06
-8.013947687228327e-06   2.0856389664028778e-06   6.599151071873363e-06
-8.013947687228327e-06   2.0856389664028778e-06   6.599151071873363e-06
-8.013947687228327e-06   2.0856389664028778e-06   6.599151071873363e-06
-1.0230673014086127e-05   1.3002316902215104e-06   2.4333644947350743e-06
-1.0230673014086127e-05   1.3002316902215104e-06   2.4333644947350743e-06
-1.0230673014086127e-05   1.3002316902215104e-06   2.4333644947350743e-06
-1.0230673014086127e-05   1.3002316902215104e-06   2.4333644947350743e-06
-1.0662780940102828e-05   1.7918393083194697e-06   7.795930443001402e-06
-1.0662780940102828e-05   1.7918393083194697e-06   7.795930443001402e-06
-1.0662780940102828e-05   1.7918393083194697e-06   7.795930443001402e-06
-1.0662780940102828e-05   1.7918393083194697e-06   7.795930443001402e-06
-8.130233090123827e-06   1.0428740760431337e-06   4.0243964990689706e-06
-8.130233090123827e-06   1.0428740760431337e-06   4.0243964990689706e-06
-8.130233090123827e-06   1.0428740760431337e-06   4.0243964990689706e-06
-8.130233090123827e-06   1.0428740760431337e-06   4.0243964990689706e-06
-8.88183587809318e-06   1.6679207367110592e-06   4.902039815950329e-06
-8.88183587809318e-06   1.6679207367110592e-06   4.902039815950329e-06
-8.88183587809318e-06   1.6679207367110592e-06   4.902039815950329e-06
-8.88183587809318e-06   1.6679207367110592e-06   4.902039815950329e-06
-3.566019270857045e-06   6.623410470087371e-07   4.6745650230073615e-06
-3.566019270857045e-06   6.623410470087371e-07   4.6745650230073615e-06
-3.566019270857045e-06   6.623410470087371e-07   4.6745650230073615e-06
-3.566019270857045e-06   6.623410470087371e-07   4.6745650230073615e-06
-4.0391523336098646e-06   1.2763883069683186e-06   4.254438274395078e-06
-4.0391523336098646e-06   1.2763883069683186e-06   4.254438274395078e-06
-4.0391523336098646e-06   1.2763883069683186e-06   4.254438274395078e-06
-4.0391523336098646e-06   1.2763883069683186e-06   4.254438274395078e-06
-4.150041735527045e-06   4.3840834058997717e-07   4.983349041473746e-06
-4.150041735527045e-06   4.3840834058997717e-07   4.983349041473746e-06
-4.150041735527045e-06   4.3840834058997717e-07   4.983349041473746e-06
-4.150041735527045e-06   4.3840834058997717e-07   4.983349041473746e-06
-4.018896167286133e-06   9.92141103058335e-07   4.432533436924564e-06
-4.018896167286133e-06   9.92141103058335e-07   4.432533436924564e-06
-4.018896167286133e-06   9.92141103058335e-07   4.432533436924564e-06
-4.018896167286133e-06   9.92141103058335e-07   4.432533436924564e-06
-3.849752198647775e-06   7.846994187872482e-07   4.2750918330899425e-06
-3.849752198647775e-06   7.846994187872482e-07   4.2750918330899425e-06
-3.849752198647775e-06   7.846994187872482e-07   4.2750918330899425e-06
-3.849752198647775e-06   7.846994187872482e-07   4.2750918330899425e-06
-4.018896167286146e-06   4.3840834058997717e-07   4.651109383992688e-06
-4.018896167286146e-06   4.3840834058997717e-07   4.651109383992688e-06
-4.018896167286146e-06   4.3840834058997717e-07   4.651109383992688e-06
-4.018896167286146e-06   4.3840834058997717e-07   4.651109383992688e-06
-4.150041735527045e-06   9.92141103058335e-07   4.764773094405561e-06
-4.150041735527045e-06   9.92141103058335e-07   4.764773094405561e-06
-4.150041735527045e-06   9.92141103058335e-07   4.764773094405561e-06
-4.150041735527045e-06   9.92141103058335e-07   4.764773094405561e-06
-4.293695782050877e-06   3.1717131050951024e-07   5.118881421864398e-06
-4.293695782050877e-06   3.1717131050951024e-07   5.118881421864398e-06
-4.293695782050877e-06   3.1717131050951024e-07   5.118881421864398e-06
-4.293695782050877e-06   3.1717131050951024e-07   5.118881421864398e-06
-4.4609796580479936e-06   7.976399448091933e-07   5.109406701279697e-06
-4.4609796580479936e-06   7.976399448091933e-07   5.109406701279697e-06
-4.4609796580479936e-06   7.976399448091933e-07   5.109406701279697e-06
-4.4609796580479936e-06   7.976399448091933e-07   5.109406701279697e-06
-4.118529844817946e-06   6.626939408575913e-07   4.619624614933781e-06
-4.118529844817946e-06   6.626939408575913e-07   4.619624614933781e-06
-4.118529844817946e-06   6.626939408575913e-07   4.619624614933781e-06
-4.118529844817946e-06   6.626939408575913e-07   4.619624614933781e-06
-4.460979658048e-06   3.1717131050951024e-07   4.830600241284458e-06
-4.460979658048e-06   3.1717131050951024e-07   4.830600241284458e-06
-4.460979658048e-06   3.1717131050951024e-07   4.830600241284458e-06
-4.460979658048e-06   3.1717131050951024e-07   4.830600241284458e-06
-4.293695782050877e-06   7.976399448091933e-07   5.397687881859522e-06
-4.293695782050877e-06   7.976399448091933e-07   5.397687881859522e-06
-4.293695782050877e-06   7.976399448091933e-07   5.397687881859522e-06
-4.293695782050877e-06   7.976399448091933e-07   5.397687881859522e-06
-4.387669711626259e-06   6.19977249499519e-08   5.587290600154494e-06
-4.387669711626259e-06   6.19977249499519e-08   5.587290600154494e-06
-4.387669711626259e-06   6.19977249499519e-08   5.587290600154494e-06
-4.387669711626259e-06   6.19977249499519e-08   5.587290600154494e-06
-4.932700194764216e-06   3.203520887173905e-07   6.3406621204572e-06
-4.932700194764216e-06   3.203520887173905e-07   6.3406621204572e-06
-4.932700194764216e-06   3.203520887173905e-07   6.3406621204572e-06
-4.932700194764216e-06   3.203520887173905e-07   6.3406621204572e-06
-4.314637805558719e-06   5.154740410144272e-07   5.193484967069733e-06
-4.314637805558719e-06   5.154740410144272e-07   5.193484967069733e-06
-4.314637805558719e-06   5.154740410144272e-07   5.193484967069733e-06
-4.314637805558719e-06   5.154740410144272e-07   5.193484967069733e-06
-4.039152333609858e-06   7.983017465910806e-07   9.152472465137444e-06
-4.039152333609858e-06   7.983017465910806e-07   9.152472465137444e-06
-4.039152333609858e-06   7.983017465910806e-07   9.152472465137444e-06
-4.039152333609858e-06   7.983017465910806e-07   9.152472465137444e-06
-4.179516396394316e-06   3.316721858495782e-07   8.638554624051785e-06
-4.179516396394316e-06   3.316721858495782e-07   8.638554624051785e-06
-4.179516396394316e-06   3.316721858495782e-07   8.638554624051785e-06
-4.179516396394316e-06   3.316721858495782e-07   8.638554624051785e-06
-4.217560747389728e-06   5.493215829196064e-07   8.804082803050446e-06
-4.217560747389728e-06   5.493215829196064e-07   8.804082803050446e-06
-4.217560747389728e-06   5.493215829196064e-07   8.804082803050446e-06
-4.217560747389728e-06   5.493215829196064e-07   8.804082803050446e-06
-4.150041735527045e-06   1.551110241243569e-07   8.928077451889852e-06
-4.150041735527045e-06   1.551110241243569e-07   8.928077451889852e-06
-4.150041735527045e-06   1.551110241243569e-07   8.928077451889852e-06
-4.150041735527045e-06   1.551110241243569e-07   8.928077451889852e-06
-4.135743932745657e-06   4.040074803657919e-07   8.75490990684268e-06
-4.135743932745657e-06   4.040074803657919e-07   8.75490990684268e-06
-4.135743932745657e-06   4.040074803657919e-07   8.75490990684268e-06
-4.135743932745657e-06   4.040074803657919e-07   8.75490990684268e-06
-4.150041735527041e-06   5.493215829196606e-07   9.040609138327515e-06
-4.150041735527041e-06   5.493215829196606e-07   9.040609138327515e-06
-4.150041735527041e-06   5.493215829196606e-07   9.040609138327515e-06
-4.150041735527041e-06   5.493215829196606e-07   9.040609138327515e-06
-4.217560747389728e-06   1.551110241243569e-07   8.691551116612648e-06
-4.217560747389728e-06   1.551110241243569e-07   8.691551116612648e-06
-4.217560747389728e-06   1.551110241243569e-07   8.691551116612648e-06
-4.217560747389728e-06   1.551110241243569e-07   8.691551116612648e-06
-4.263964928638338e-06   3.213125028093955e-07   8.9146153156114e-06
-4.263964928638338e-06   3.213125028093955e-07   8.9146153156114e-06
-4.263964928638338e-06   3.213125028093955e-07   8.9146153156114e-06
-4.263964928638338e-06   3.213125028093955e-07   8.9146153156114e-06
-4.293695782050877e-06   -4.60692939071119e-08   9.184595815995454e-06
-4.293695782050877e-06   -4.60692939071119e-08   9.184595815995454e-06
-4.293695782050877e-06   -4.60692939071119e-08   9.184595815995454e-06
-4.293695782050877e-06   -4.60692939071119e-08   9.184595815995454e-06
-4.18156633975519e-06   2.59663878579943e-07   8.814273508677038e-06
-4.18156633975519e-06   2.59663878579943e-07   8.814273508677038e-06
-4.18156633975519e-06   2.59663878579943e-07   8.814273508677038e-06
-4.18156633975519e-06   2.59663878579943e-07   8.814273508677038e-06
-4.293695782050877e-06   3.213125028093955e-07   9.135044393641174e-06
-4.293695782050877e-06   3.213125028093955e-07   9.135044393641174e-06
-4.293695782050877e-06   3.213125028093955e-07   9.135044393641174e-06
-4.293695782050877e-06   3.213125028093955e-07   9.135044393641174e-06
-4.263964928638324e-06   -4.606929390705769e-08   8.964166737965561e-06
-4.263964928638324e-06   -4.606929390705769e-08   8.964166737965561e-06
-4.263964928638324e-06   -4.606929390705769e-08   8.964166737965561e-06
-4.263964928638324e-06   -4.606929390705769e-08   8.964166737965561e-06
-4.2998607387073875e-06   7.622705776837027e-08   9.16109375224543e-06
-4.2998607387073875e-06   7.622705776837027e-08   9.16109375224543e-06
-4.2998607387073875e-06   7.622705776837027e-08   9.16109375224543e-06
-4.2998607387073875e-06   7.622705776837027e-08   9.16109375224543e-06
-4.387669711626256e-06   -3.0824987185044906e-07   9.538128198214728e-06
-4.387669711626256e-06   -3.0824987185044906e-07   9.538128198214728e-06
-4.387669711626256e-06   -3.0824987185044906e-07   9.538128198214728e-06
-4.387669711626256e-06   -3.0824987185044906e-07   9.538128198214728e-06
-4.250593479675124e-06   9.218652161421944e-08   9.069405975550504e-06
-4.250593479675124e-06   9.218652161421944e-08   9.069405975550504e-06
-4.250593479675124e-06   9.218652161421944e-08   9.069405975550504e-06
-4.250593479675124e-06   9.218652161421944e-08   9.069405975550504e-06
-4.1795163963943296e-06   9.69370661102096e-07   1.0091781767842731e-05
-4.1795163963943296e-06   9.69370661102096e-07   1.0091781767842731e-05
-4.1795163963943296e-06   9.69370661102096e-07   1.0091781767842731e-05
-4.1795163963943296e-06   9.69370661102096e-07   1.0091781767842731e-05
-4.569798764279278e-06   9.412003199000618e-08   8.916160777233873e-06
-4.569798764279278e-06   9.412003199000618e-08   8.916160777233873e-06
-4.569798764279278e-06   9.412003199000618e-08   8.916160777233873e-06
-4.569798764279278e-06   9.412003199000618e-08   8.916160777233873e-06
-4.5862964935793895e-06   7.400860969422347e-07   9.576202596525945e-06
-4.5862964935793895e-06   7.400860969422347e-07   9.576202596525945e-06
-4.5862964935793895e-06   7.400860969422347e-07   9.576202596525945e-06
-4.5862964935793895e-06   7.400860969422347e-07   9.576202596525945e-06
-4.217560747389728e-06   -5.282114601853731e-08   9.437387365319601e-06
-4.217560747389728e-06   -5.282114601853731e-08   9.437387365319601e-06
-4.217560747389728e-06   -5.282114601853731e-08   9.437387365319601e-06
-4.217560747389728e-06   -5.282114601853731e-08   9.437387365319601e-06
-4.381720707202177e-06   4.2178535352300605e-07   9.426223398615458e-06
-4.381720707202177e-06   4.2178535352300605e-07   9.426223398615458e-06
-4.381720707202177e-06   4.2178535352300605e-07   9.426223398615458e-06
-4.381720707202177e-06   4.2178535352300605e-07   9.426223398615458e-06
-4.217560747389728e-06   7.400860969422347e-07   1.005194694230231e-05
-4.217560747389728e-06   7.400860969422347e-07   1.005194694230231e-05
-4.217560747389728e-06   7.400860969422347e-07   1.005194694230231e-05
-4.217560747389728e-06   7.400860969422347e-07   1.005194694230231e-05
-4.5862964935793895e-06   -5.282114601853731e-08   8.961643019543154e-06
-4.5862964935793895e-06   -5.282114601853731e-08   8.961643019543154e-06
-4.5862964935793895e-06   -5.282114601853731e-08   8.961643019543154e-06
-4.5862964935793895e-06   -5.282114601853731e-08   8.961643019543154e-06
-4.612001890613767e-06   5.07204042212773e-07   9.720889280431908e-06
-4.612001890613767e-06   5.07204042212773e-07   9.720889280431908e-06
-4.612001890613767e-06   5.07204042212773e-07   9.720889280431908e-06
-4.612001890613767e-06   5.07204042212773e-07   9.720889280431908e-06
-4.263964928638324e-06   -2.2861237764605418e-07   9.58231752905469e-06
-4.263964928638324e-06   -2.2861237764605418e-07   9.58231752905469e-06
-4.263964928638324e-06   -2.2861237764605418e-07   9.58231752905469e-06
-4.263964928638324e-06   -2.2861237764605418e-07   9.58231752905469e-06
-4.389374423429136e-06   2.771889747611028e-07   9.487852542261423e-06
-4.389374423429136e-06   2.771889747611028e-07   9.487852542261423e-06
-4.389374423429136e-06   2.771889747611028e-07   9.487852542261423e-06
-4.389374423429136e-06   2.771889747611028e-07   9.487852542261423e-06
-4.263964928638338e-06   5.072040422127188e-07   1.016237913234702e-05
-4.263964928638338e-06   5.072040422127188e-07   1.016237913234702e-05
-4.263964928638338e-06   5.072040422127188e-07   1.016237913234702e-05
-4.263964928638338e-06   5.072040422127188e-07   1.016237913234702e-05
-4.612001890613753e-06   -2.286123776461084e-07   9.140827677139374e-06
-4.612001890613753e-06   -2.286123776461084e-07   9.140827677139374e-06
-4.612001890613753e-06   -2.286123776461084e-07   9.140827677139374e-06
-4.612001890613753e-06   -2.286123776461084e-07   9.140827677139374e-06
-4.6305920679488415e-06   2.8715264646363104e-07   9.982586279589506e-06
-4.6305920679488415e-06   2.8715264646363104e-07   9.982586279589506e-06
-4.6305920679488415e-06   2.8715264646363104e-07   9.982586279589506e-06
-4.6305920679488415e-06   2.8715264646363104e-07   9.982586279589506e-06
-4.299860738707381e-06   -4.037533818162988e-07   9.845911014488251e-06
-4.299860738707381e-06   -4.037533818162988e-07   9.845911014488251e-06
-4.299860738707381e-06   -4.037533818162988e-07   9.845911014488251e-06
-4.299860738707381e-06   -4.037533818162988e-07   9.845911014488251e-06
-4.404612019316676e-06   1.2883296988182736e-07   9.7009446711513e-06
-4.404612019316676e-06   1.2883296988182736e-07   9.7009446711513e-06
-4.404612019316676e-06   1.2883296988182736e-07   9.7009446711513e-06
-4.404612019316676e-06   1.2883296988182736e-07   9.7009446711513e-06
-4.569798764279278e-06   1.318307722622113e-06   8.241896212005139e-06
-4.569798764279278e-06   1.318307722622113e-06   8.241896212005139e-06
-4.569798764279278e-06   1.318307722622113e-06   8.241896212005139e-06
-4.569798764279278e-06   1.318307722622113e-06   8.241896212005139e-06
-5.103527694150673e-06   4.366797366557769e-07   6.8233712039730405e-06
-5.103527694150673e-06   4.366797366557769e-07   6.8233712039730405e-06
-5.103527694150673e-06   4.366797366557769e-07   6.8233712039730405e-06
-5.103527694150673e-06   4.366797366557769e-07   6.8233712039730405e-06
-5.117484807415986e-06   1.077256829623151e-06   7.786112388775013e-06
-5.117484807415986e-06   1.077256829623151e-06   7.786112388775013e-06
-5.117484807415986e-06   1.077256829623151e-06   7.786112388775013e-06
-5.117484807415986e-06   1.077256829623151e-06   7.786112388775013e-06
-4.5862964935793895e-06   2.423367628669572e-07   7.401750572434397e-06
-4.5862964935793895e-06   2.423367628669572e-07   7.401750572434397e-06
-4.5862964935793895e-06   2.423367628669572e-07   7.401750572434397e-06
-4.5862964935793895e-06   2.423367628669572e-07   7.401750572434397e-06
-4.831776944861022e-06   7.850045318014208e-07   7.485283996543161e-06
-4.831776944861022e-06   7.850045318014208e-07   7.485283996543161e-06
-4.831776944861022e-06   7.850045318014208e-07   7.485283996543161e-06
-4.831776944861022e-06   7.850045318014208e-07   7.485283996543161e-06
-4.5862964935793895e-06   1.077256829623151e-06   8.287064428828643e-06
-4.5862964935793895e-06   1.077256829623151e-06   8.287064428828643e-06
-4.5862964935793895e-06   1.077256829623151e-06   8.287064428828643e-06
-4.5862964935793895e-06   1.077256829623151e-06   8.287064428828643e-06
-5.117484807415986e-06   2.4233676286701143e-07   6.900798532380692e-06
-5.117484807415986e-06   2.4233676286701143e-07   6.900798532380692e-06
-5.117484807415986e-06   2.4233676286701143e-07   6.900798532380692e-06
-5.117484807415986e-06   2.4233676286701143e-07   6.900798532380692e-06
-5.177498847959991e-06   8.620882746843486e-07   8.071462286321214e-06
-5.177498847959991e-06   8.620882746843486e-07   8.071462286321214e-06
-5.177498847959991e-06   8.620882746843486e-07   8.071462286321214e-06
-5.177498847959991e-06   8.620882746843486e-07   8.071462286321214e-06
-4.612001890613753e-06   7.55056216489758e-08   7.6009169492320065e-06
-4.612001890613753e-06   7.55056216489758e-08   7.6009169492320065e-06
-4.612001890613753e-06   7.55056216489758e-08   7.6009169492320065e-06
-4.612001890613753e-06   7.55056216489758e-08   7.6009169492320065e-06
-4.82299254557471e-06   6.263787523000755e-07   7.622044162442572e-06
-4.82299254557471e-06   6.263787523000755e-07   7.622044162442572e-06
-4.82299254557471e-06   6.263787523000755e-07   7.622044162442572e-06
-4.82299254557471e-06   6.263787523000755e-07   7.622044162442572e-06
-4.612001890613753e-06   8.620882746843486e-07   8.543411878142259e-06
-4.612001890613753e-06   8.620882746843486e-07   8.543411878142259e-06
-4.612001890613753e-06   8.620882746843486e-07   8.543411878142259e-06
-4.612001890613753e-06   8.620882746843486e-07   8.543411878142259e-06
-5.177498847959991e-06   7.55056216489758e-08   7.128967357410857e-06
-5.177498847959991e-06   7.55056216489758e-08   7.128967357410857e-06
-5.177498847959991e-06   7.55056216489758e-08   7.128967357410857e-06
-5.177498847959991e-06   7.55056216489758e-08   7.128967357410857e-06
-5.214801567695514e-06   6.421240927855518e-07   8.424863041460928e-06
-5.214801567695514e-06   6.421240927855518e-07   8.424863041460928e-06
-5.214801567695514e-06   6.421240927855518e-07   8.424863041460928e-06
-5.214801567695514e-06   6.421240927855518e-07   8.424863041460928e-06
-4.630592067948828e-06   -9.294538899922052e-08   7.892222230953893e-06
-4.630592067948828e-06   -9.294538899922052e-08   7.892222230953893e-06
-4.630592067948828e-06   -9.294538899922052e-08   7.892222230953893e-06
-4.630592067948828e-06   -9.294538899922052e-08   7.892222230953893e-06
-4.852496494208167e-06   4.84134278315603e-07   7.915815140997068e-06
-4.852496494208167e-06   4.84134278315603e-07   7.915815140997068e-06
-4.852496494208167e-06   4.84134278315603e-07   7.915815140997068e-06
-4.852496494208167e-06   4.84134278315603e-07   7.915815140997068e-06
-5.103527694150646e-06   1.5711022808633738e-06   3.2099521182504006e-06
-5.103527694150646e-06   1.5711022808633738e-06   3.2099521182504006e-06
-5.103527694150646e-06   1.5711022808633738e-06   3.2099521182504006e-06
-5.103527694150646e-06   1.5711022808633738e-06   3.2099521182504006e-06
-5.119242439880091e-06   7.290827219835457e-07   2.6785491400402068e-06
-5.119242439880091e-06   7.290827219835457e-07   2.6785491400402068e-06
-5.119242439880091e-06   7.290827219835457e-07   2.6785491400402068e-06
-5.119242439880091e-06   7.290827219835457e-07   2.6785491400402068e-06
-5.382874931942553e-06   1.4109044506101383e-06   3.522880550134867e-06
-5.382874931942553e-06   1.4109044506101383e-06   3.522880550134867e-06
-5.382874931942553e-06   1.4109044506101383e-06   3.522880550134867e-06
-5.382874931942553e-06   1.4109044506101383e-06   3.522880550134867e-06
-5.117484807415959e-06   5.903618378516932e-07   3.5728892435788633e-06
-5.117484807415959e-06   5.903618378516932e-07   3.5728892435788633e-06
-5.117484807415959e-06   5.903618378516932e-07   3.5728892435788633e-06
-5.117484807415959e-06   5.903618378516932e-07   3.5728892435788633e-06
-5.0117181627030766e-06   1.1087683080194632e-06   3.0855676202900736e-06
-5.0117181627030766e-06   1.1087683080194632e-06   3.0855676202900736e-06
-5.0117181627030766e-06   1.1087683080194632e-06   3.0855676202900736e-06
-5.0117181627030766e-06   1.1087683080194632e-06   3.0855676202900736e-06
-5.117484807415959e-06   1.4109044506101383e-06   4.015206117789755e-06
-5.117484807415959e-06   1.4109044506101383e-06   4.015206117789755e-06
-5.117484807415959e-06   1.4109044506101383e-06   4.015206117789755e-06
-5.117484807415959e-06   1.4109044506101383e-06   4.015206117789755e-06
-5.38287493194258e-06   5.903618378516932e-07   3.0805636759238667e-06
-5.38287493194258e-06   5.903618378516932e-07   3.0805636759238667e-06
-5.38287493194258e-06   5.903618378516932e-07   3.0805636759238667e-06
-5.38287493194258e-06   5.903618378516932e-07   3.0805636759238667e-06
-5.613767253305013e-06   1.3002316902215104e-06   4.170681300049426e-06
-5.613767253305013e-06   1.3002316902215104e-06   4.170681300049426e-06
-5.613767253305013e-06   1.3002316902215104e-06   4.170681300049426e-06
-5.613767253305013e-06   1.3002316902215104e-06   4.170681300049426e-06
-5.177498847959991e-06   4.999537491085491e-07   3.923734055808728e-06
-5.177498847959991e-06   4.999537491085491e-07   3.923734055808728e-06
-5.177498847959991e-06   4.999537491085491e-07   3.923734055808728e-06
-5.177498847959991e-06   4.999537491085491e-07   3.923734055808728e-06
-5.201633290351129e-06   1.0295953333837662e-06   3.6461731758952805e-06
-5.201633290351129e-06   1.0295953333837662e-06   3.6461731758952805e-06
-5.201633290351129e-06   1.0295953333837662e-06   3.6461731758952805e-06
-5.201633290351129e-06   1.0295953333837662e-06   3.6461731758952805e-06
-5.177498847959964e-06   1.3002316902215104e-06   4.650848064717116e-06
-5.177498847959964e-06   1.3002316902215104e-06   4.650848064717116e-06
-5.177498847959964e-06   1.3002316902215104e-06   4.650848064717116e-06
-5.177498847959964e-06   1.3002316902215104e-06   4.650848064717116e-06
-5.613767253305013e-06   4.999537491085491e-07   3.443567291140957e-06
-5.613767253305013e-06   4.999537491085491e-07   3.443567291140957e-06
-5.613767253305013e-06   4.999537491085491e-07   3.443567291140957e-06
-5.613767253305013e-06   4.999537491085491e-07   3.443567291140957e-06
-5.952347783511909e-06   1.0428740760431337e-06   5.359694213948995e-06
-5.952347783511909e-06   1.0428740760431337e-06   5.359694213948995e-06
-5.952347783511909e-06   1.0428740760431337e-06   5.359694213948995e-06
-5.952347783511909e-06   1.0428740760431337e-06   5.359694213948995e-06
-5.214801567695514e-06   3.1466118249992873e-07   4.567378257047455e-06
-5.214801567695514e-06   3.1466118249992873e-07   4.567378257047455e-06
-5.214801567695514e-06   3.1466118249992873e-07   4.567378257047455e-06
-5.214801567695514e-06   3.1466118249992873e-07   4.567378257047455e-06
-5.26630614172414e-06   9.327658574590858e-07   4.2823564087859315e-06
-5.26630614172414e-06   9.327658574590858e-07   4.2823564087859315e-06
-5.26630614172414e-06   9.327658574590858e-07   4.2823564087859315e-06
-5.26630614172414e-06   9.327658574590858e-07   4.2823564087859315e-06
-9.626531848659933e-06   1.2763883069683729e-06   3.960933182926206e-06
-9.626531848659933e-06   1.2763883069683729e-06   3.960933182926206e-06
-9.626531848659933e-06   1.2763883069683729e-06   3.960933182926206e-06
-9.626531848659933e-06   1.2763883069683729e-06   3.960933182926206e-06
-6.562699535702677e-06   1.759579362820544e-06   9.357235004699632e-06
-6.562699535702677e-06   1.759579362820544e-06   9.357235004699632e-06
-6.562699535702677e-06   1.759579362820544e-06   9.357235004699632e-06
-6.562699535702677e-06   1.759579362820544e-06   9.357235004699632e-06
-6.563979563610203e-06   9.92141103058335e-07   4.43985746583422e-06
-6.563979563610203e-06   9.92141103058335e-07   4.43985746583422e-06
-6.563979563610203e-06   9.92141103058335e-07   4.43985746583422e-06
-6.563979563610203e-06   9.92141103058335e-07   4.43985746583422e-06
-1.0639178657980951e-05   6.813363294071303e-07   1.141833882064294e-05
-1.0639178657980951e-05   6.813363294071303e-07   1.141833882064294e-05
-1.0639178657980951e-05   6.813363294071303e-07   1.141833882064294e-05
-1.0639178657980951e-05   6.813363294071303e-07   1.141833882064294e-05
-7.915983654334858e-06   1.035390352436172e-06   6.667248067415346e-06
-7.915983654334858e-06   1.035390352436172e-06   6.667248067415346e-06
-7.915983654334858e-06   1.035390352436172e-06   6.667248067415346e-06
-7.915983654334858e-06   1.035390352436172e-06   6.667248067415346e-06
-1.0639178657980968e-05   9.921411030583893e-07   4.626340330024964e-06
-1.0639178657980968e-05   9.921411030583893e-07   4.626340330024964e-06
-1.0639178657980968e-05   9.921411030583893e-07   4.626340330024964e-06
-1.0639178657980968e-05   9.921411030583893e-07   4.626340330024964e-06
-6.563979563610203e-06   6.813363294071303e-07   1.1231855956452216e-05
-6.563979563610203e-06   6.813363294071303e-07   1.1231855956452216e-05
-6.563979563610203e-06   6.813363294071303e-07   1.1231855956452216e-05
-6.563979563610203e-06   6.813363294071303e-07   1.1231855956452216e-05
-6.66473148070257e-06   7.976399448091933e-07   4.938065137478838e-06
-6.66473148070257e-06   7.976399448091933e-07   4.938065137478838e-06
-6.66473148070257e-06   7.976399448091933e-07   4.938065137478838e-06
-6.66473148070257e-06   7.976399448091933e-07   4.938065137478838e-06
-1.0686788314601143e-05   4.777376978114766e-07   1.183343454217505e-05
-1.0686788314601143e-05   4.777376978114766e-07   1.183343454217505e-05
-1.0686788314601143e-05   4.777376978114766e-07   1.183343454217505e-05
-1.0686788314601143e-05   4.777376978114766e-07   1.183343454217505e-05
-8.464974217372187e-06   6.352699413406798e-07   8.035891700675823e-06
-8.464974217372187e-06   6.352699413406798e-07   8.035891700675823e-06
-8.464974217372187e-06   6.352699413406798e-07   8.035891700675823e-06
-8.464974217372187e-06   6.352699413406798e-07   8.035891700675823e-06
-1.068678831460116e-05   7.976399448091933e-07   5.130006485677501e-06
-1.068678831460116e-05   7.976399448091933e-07   5.130006485677501e-06
-1.068678831460116e-05   7.976399448091933e-07   5.130006485677501e-06
-1.068678831460116e-05   7.976399448091933e-07   5.130006485677501e-06
-6.664731480702557e-06   4.777376978114766e-07   1.16414931939764e-05
-6.664731480702557e-06   4.777376978114766e-07   1.16414931939764e-05
-6.664731480702557e-06   4.777376978114766e-07   1.16414931939764e-05
-6.664731480702557e-06   4.777376978114766e-07   1.16414931939764e-05
-6.604632008033645e-06   3.203520887173905e-07   5.8073022366026685e-06
-6.604632008033645e-06   3.203520887173905e-07   5.8073022366026685e-06
-6.604632008033645e-06   3.203520887173905e-07   5.8073022366026685e-06
-6.604632008033645e-06   3.203520887173905e-07   5.8073022366026685e-06
-1.0819981567464102e-05   -3.946948912801477e-07   1.3261913023651909e-05
-1.0819981567464102e-05   -3.946948912801477e-07   1.3261913023651909e-05
-1.0819981567464102e-05   -3.946948912801477e-07   1.3261913023651909e-05
-1.0819981567464102e-05   -3.946948912801477e-07   1.3261913023651909e-05
-8.347149978468575e-06   2.9407530128755196e-07   8.727264926452107e-06
-8.347149978468575e-06   2.9407530128755196e-07   8.727264926452107e-06
-8.347149978468575e-06   2.9407530128755196e-07   8.727264926452107e-06
-8.347149978468575e-06   2.9407530128755196e-07   8.727264926452107e-06
-6.562699535702689e-06   3.316721858495782e-07   8.914941902539095e-06
-6.562699535702689e-06   3.316721858495782e-07   8.914941902539095e-06
-6.562699535702689e-06   3.316721858495782e-07   8.914941902539095e-06
-6.562699535702689e-06   3.316721858495782e-07   8.914941902539095e-06
-4.057416693040856e-06   -2.088187414558127e-06   1.1638497546730886e-05
-4.057416693040856e-06   -2.088187414558127e-06   1.1638497546730886e-05
-4.057416693040856e-06   -2.088187414558127e-06   1.1638497546730886e-05
-4.057416693040856e-06   -2.088187414558127e-06   1.1638497546730886e-05
-4.0728298177582066e-06   1.551110241243027e-07   7.478001007241625e-06
-4.0728298177582066e-06   1.551110241243027e-07   7.478001007241625e-06
-4.0728298177582066e-06   1.551110241243027e-07   7.478001007241625e-06
-4.0728298177582066e-06   1.551110241243027e-07   7.478001007241625e-06
-6.563979563610203e-06   -1.720157002670444e-06   1.2755078066405258e-05
-6.563979563610203e-06   -1.720157002670444e-06   1.2755078066405258e-05
-6.563979563610203e-06   -1.720157002670444e-06   1.2755078066405258e-05
-6.563979563610203e-06   -1.720157002670444e-06   1.2755078066405258e-05
-5.288729543515418e-06   -1.034712288913714e-06   1.0218394537993234e-05
-5.288729543515418e-06   -1.034712288913714e-06   1.0218394537993234e-05
-5.288729543515418e-06   -1.034712288913714e-06   1.0218394537993234e-05
-5.288729543515418e-06   -1.034712288913714e-06   1.0218394537993234e-05
-6.56397956361021e-06   1.551110241243027e-07   8.60316182331843e-06
-6.56397956361021e-06   1.551110241243027e-07   8.60316182331843e-06
-6.56397956361021e-06   1.551110241243027e-07   8.60316182331843e-06
-6.56397956361021e-06   1.551110241243027e-07   8.60316182331843e-06
-4.0728298177582066e-06   -1.720157002670444e-06   1.1629917250328358e-05
-4.0728298177582066e-06   -1.720157002670444e-06   1.1629917250328358e-05
-4.0728298177582066e-06   -1.720157002670444e-06   1.1629917250328358e-05
-4.0728298177582066e-06   -1.720157002670444e-06   1.1629917250328358e-05
-4.099082726712066e-06   -4.60692939071119e-08   7.699186840713103e-06
-4.099082726712066e-06   -4.60692939071119e-08   7.699186840713103e-06
-4.099082726712066e-06   -4.60692939071119e-08   7.699186840713103e-06
-4.099082726712066e-06   -4.60692939071119e-08   7.699186840713103e-06
-6.664731480702557e-06   -1.7557130120765855e-06   1.3001054328265587e-05
-6.664731480702557e-06   -1.7557130120765855e-06   1.3001054328265587e-05
-6.664731480702557e-06   -1.7557130120765855e-06   1.3001054328265587e-05
-6.664731480702557e-06   -1.7557130120765855e-06   1.3001054328265587e-05
-5.257469220196025e-06   -9.045191897435827e-07   1.0144900934021467e-05
-5.257469220196025e-06   -9.045191897435827e-07   1.0144900934021467e-05
-5.257469220196025e-06   -9.045191897435827e-07   1.0144900934021467e-05
-5.257469220196025e-06   -9.045191897435827e-07   1.0144900934021467e-05
-6.66473148070257e-06   -4.60692939071119e-08   8.724973071614787e-06
-6.66473148070257e-06   -4.60692939071119e-08   8.724973071614787e-06
-6.66473148070257e-06   -4.60692939071119e-08   8.724973071614787e-06
-6.66473148070257e-06   -4.60692939071119e-08   8.724973071614787e-06
-4.09908272671206e-06   -1.7557130120765855e-06   1.1975268097363882e-05
-4.09908272671206e-06   -1.7557130120765855e-06   1.1975268097363882e-05
-4.09908272671206e-06   -1.7557130120765855e-06   1.1975268097363882e-05
-4.09908272671206e-06   -1.7557130120765855e-06   1.1975268097363882e-05
-4.0713734642717646e-06   -3.0824987185044906e-07   7.977508318975963e-06
-4.0713734642717646e-06   -3.0824987185044906e-07   7.977508318975963e-06
-4.0713734642717646e-06   -3.0824987185044906e-07   7.977508318975963e-06
-4.0713734642717646e-06   -3.0824987185044906e-07   7.977508318975963e-06
-6.604632008033628e-06   -1.7619955003901557e-06   1.307185326903614e-05
-6.604632008033628e-06   -1.7619955003901557e-06   1.307185326903614e-05
-6.604632008033628e-06   -1.7619955003901557e-06   1.307185326903614e-05
-6.604632008033628e-06   -1.7619955003901557e-06   1.307185326903614e-05
-5.292828632029994e-06   -1.0090019891255018e-06   1.0433718202271323e-05
-5.292828632029994e-06   -1.0090019891255018e-06   1.0433718202271323e-05
-5.292828632029994e-06   -1.0090019891255018e-06   1.0433718202271323e-05
-5.292828632029994e-06   -1.0090019891255018e-06   1.0433718202271323e-05
-4.057416693040856e-06   9.412003199000618e-08   8.265782672943847e-06
-4.057416693040856e-06   9.412003199000618e-08   8.265782672943847e-06
-4.057416693040856e-06   9.412003199000618e-08   8.265782672943847e-06
-4.057416693040856e-06   9.412003199000618e-08   8.265782672943847e-06
-3.0223496867067684e-06   -1.632413082617402e-06   8.954974481402934e-06
-3.0223496867067684e-06   -1.632413082617402e-06   8.954974481402934e-06
-3.0223496867067684e-06   -1.632413082617402e-06   8.954974481402934e-06
-3.0223496867067684e-06   -1.632413082617402e-06   8.954974481402934e-06
-3.0036233826801097e-06   -5.282114601853731e-08   7.293569177198116e-06
-3.0036233826801097e-06   -5.282114601853731e-08   7.293569177198116e-06
-3.0036233826801097e-06   -5.282114601853731e-08   7.293569177198116e-06
-3.0036233826801097e-06   -5.282114601853731e-08   7.293569177198116e-06
-4.0728298177582066e-06   -1.6032679439359238e-06   1.0005847981078812e-05
-4.0728298177582066e-06   -1.6032679439359238e-06   1.0005847981078812e-05
-4.0728298177582066e-06   -1.6032679439359238e-06   1.0005847981078812e-05
-4.0728298177582066e-06   -1.6032679439359238e-06   1.0005847981078812e-05
-3.518560989228157e-06   -8.227480496697743e-07   8.613754663635789e-06
-3.518560989228157e-06   -8.227480496697743e-07   8.613754663635789e-06
-3.518560989228157e-06   -8.227480496697743e-07   8.613754663635789e-06
-3.518560989228157e-06   -8.227480496697743e-07   8.613754663635789e-06
-4.0728298177582066e-06   -5.282114601853731e-08   8.223837255948591e-06
-4.0728298177582066e-06   -5.282114601853731e-08   8.223837255948591e-06
-4.0728298177582066e-06   -5.282114601853731e-08   8.223837255948591e-06
-4.0728298177582066e-06   -5.282114601853731e-08   8.223837255948591e-06
-3.0036233826801097e-06   -1.6032679439359238e-06   9.075579902328394e-06
-3.0036233826801097e-06   -1.6032679439359238e-06   9.075579902328394e-06
-3.0036233826801097e-06   -1.6032679439359238e-06   9.075579902328394e-06
-3.0036233826801097e-06   -1.6032679439359238e-06   9.075579902328394e-06
-2.9903499843768984e-06   -2.2861237764605418e-07   7.4643682736583086e-06
-2.9903499843768984e-06   -2.2861237764605418e-07   7.4643682736583086e-06
-2.9903499843768984e-06   -2.2861237764605418e-07   7.4643682736583086e-06
-2.9903499843768984e-06   -2.2861237764605418e-07   7.4643682736583086e-06
-4.09908272671206e-06   -1.6502279745525788e-06   1.0165225535694079e-05
-4.09908272671206e-06   -1.6502279745525788e-06   1.0165225535694079e-05
-4.09908272671206e-06   -1.6502279745525788e-06   1.0165225535694079e-05
-4.09908272671206e-06   -1.6502279745525788e-06   1.0165225535694079e-05
-3.4958336133878313e-06   -8.729306017403221e-07   8.693431923132832e-06
-3.4958336133878313e-06   -8.729306017403221e-07   8.693431923132832e-06
-3.4958336133878313e-06   -8.729306017403221e-07   8.693431923132832e-06
-3.4958336133878313e-06   -8.729306017403221e-07   8.693431923132832e-06
-4.09908272671206e-06   -2.286123776461084e-07   8.31733763180219e-06
-4.09908272671206e-06   -2.286123776461084e-07   8.31733763180219e-06
-4.09908272671206e-06   -2.286123776461084e-07   8.31733763180219e-06
-4.09908272671206e-06   -2.286123776461084e-07   8.31733763180219e-06
-2.990349984376912e-06   -1.650227974552606e-06   9.31225617755018e-06
-2.990349984376912e-06   -1.650227974552606e-06   9.31225617755018e-06
-2.990349984376912e-06   -1.650227974552606e-06   9.31225617755018e-06
-2.990349984376912e-06   -1.650227974552606e-06   9.31225617755018e-06
-2.9433377850505158e-06   -4.037533818162988e-07   7.730133538079312e-06
-2.9433377850505158e-06   -4.037533818162988e-07   7.730133538079312e-06
-2.9433377850505158e-06   -4.037533818162988e-07   7.730133538079312e-06
-2.9433377850505158e-06   -4.037533818162988e-07   7.730133538079312e-06
-4.0713734642717646e-06   -1.7134929733854224e-06   1.0396036758389477e-05
-4.0713734642717646e-06   -1.7134929733854224e-06   1.0396036758389477e-05
-4.0713734642717646e-06   -1.7134929733854224e-06   1.0396036758389477e-05
-4.0713734642717646e-06   -1.7134929733854224e-06   1.0396036758389477e-05
-3.469890960537393e-06   -9.480732226777228e-07   8.93431406840764e-06
-3.469890960537393e-06   -9.480732226777228e-07   8.93431406840764e-06
-3.469890960537393e-06   -9.480732226777228e-07   8.93431406840764e-06
-3.469890960537393e-06   -9.480732226777228e-07   8.93431406840764e-06
-3.0223496867067684e-06   4.366797366557227e-07   5.6660500224983874e-06
-3.0223496867067684e-06   4.366797366557227e-07   5.6660500224983874e-06
-3.0223496867067684e-06   4.366797366557227e-07   5.6660500224983874e-06
-3.0223496867067684e-06   4.366797366557227e-07   5.6660500224983874e-06
-2.5637632341677567e-06   -6.736009872208978e-07   5.7641923424040425e-06
-2.5637632341677567e-06   -6.736009872208978e-07   5.7641923424040425e-06
-2.5637632341677567e-06   -6.736009872208978e-07   5.7641923424040425e-06
-2.5637632341677567e-06   -6.736009872208978e-07   5.7641923424040425e-06
-2.518225478964078e-06   2.423367628669572e-07   5.117281660990604e-06
-2.518225478964078e-06   2.423367628669572e-07   5.117281660990604e-06
-2.518225478964078e-06   2.423367628669572e-07   5.117281660990604e-06
-2.518225478964078e-06   2.423367628669572e-07   5.117281660990604e-06
-3.0036233826801097e-06   -7.849883522976391e-07   6.542673236282863e-06
-3.0036233826801097e-06   -7.849883522976391e-07   6.542673236282863e-06
-3.0036233826801097e-06   -7.849883522976391e-07   6.542673236282863e-06
-3.0036233826801097e-06   -7.849883522976391e-07   6.542673236282863e-06
-2.757152433831441e-06   -1.5428524317278995e-07   5.753466456060217e-06
-2.757152433831441e-06   -1.5428524317278995e-07   5.753466456060217e-06
-2.757152433831441e-06   -1.5428524317278995e-07   5.753466456060217e-06
-2.757152433831441e-06   -1.5428524317278995e-07   5.753466456060217e-06
-3.0036233826801097e-06   2.423367628669572e-07   5.733676730089373e-06
-3.0036233826801097e-06   2.423367628669572e-07   5.733676730089373e-06
-3.0036233826801097e-06   2.423367628669572e-07   5.733676730089373e-06
-3.0036233826801097e-06   2.423367628669572e-07   5.733676730089373e-06
-2.518225478964078e-06   -7.849883522976391e-07   5.926278167184095e-06
-2.518225478964078e-06   -7.849883522976391e-07   5.926278167184095e-06
-2.518225478964078e-06   -7.849883522976391e-07   5.926278167184095e-06
-2.518225478964078e-06   -7.849883522976391e-07   5.926278167184095e-06
-2.5032444894100266e-06   7.55056216489758e-08   5.356583083654365e-06
-2.5032444894100266e-06   7.55056216489758e-08   5.356583083654365e-06
-2.5032444894100266e-06   7.55056216489758e-08   5.356583083654365e-06
-2.5032444894100266e-06   7.55056216489758e-08   5.356583083654365e-06
-2.9903499843768984e-06   -8.709518151786587e-07   6.736300037362303e-06
-2.9903499843768984e-06   -8.709518151786587e-07   6.736300037362303e-06
-2.9903499843768984e-06   -8.709518151786587e-07   6.736300037362303e-06
-2.9903499843768984e-06   -8.709518151786587e-07   6.736300037362303e-06
-2.711683132604922e-06   -2.712979671051839e-07   5.912062975564684e-06
-2.711683132604922e-06   -2.712979671051839e-07   5.912062975564684e-06
-2.711683132604922e-06   -2.712979671051839e-07   5.912062975564684e-06
-2.711683132604922e-06   -2.712979671051839e-07   5.912062975564684e-06
-2.9903499843768984e-06   7.55056216489758e-08   5.9244575457508865e-06
-2.9903499843768984e-06   7.55056216489758e-08   5.9244575457508865e-06
-2.9903499843768984e-06   7.55056216489758e-08   5.9244575457508865e-06
-2.9903499843768984e-06   7.55056216489758e-08   5.9244575457508865e-06
-2.5032444894100266e-06   -8.709518151786587e-07   6.168425575265809e-06
-2.5032444894100266e-06   -8.709518151786587e-07   6.168425575265809e-06
-2.5032444894100266e-06   -8.709518151786587e-07   6.168425575265809e-06
-2.5032444894100266e-06   -8.709518151786587e-07   6.168425575265809e-06
-2.472449872292792e-06   -9.294538899922052e-08   5.657069964605402e-06
-2.472449872292792e-06   -9.294538899922052e-08   5.657069964605402e-06
-2.472449872292792e-06   -9.294538899922052e-08   5.657069964605402e-06
-2.472449872292792e-06   -9.294538899922052e-08   5.657069964605402e-06
-2.9433377850505158e-06   -9.828094005117684e-07   6.975801559442349e-06
-2.9433377850505158e-06   -9.828094005117684e-07   6.975801559442349e-06
-2.9433377850505158e-06   -9.828094005117684e-07   6.975801559442349e-06
-2.9433377850505158e-06   -9.828094005117684e-07   6.975801559442349e-06
-2.679850964588609e-06   -3.747344339247345e-07   6.1718118787204405e-06
-2.679850964588609e-06   -3.747344339247345e-07   6.1718118787204405e-06
-2.679850964588609e-06   -3.747344339247345e-07   6.1718118787204405e-06
-2.679850964588609e-06   -3.747344339247345e-07   6.1718118787204405e-06
-2.5637632341677567e-06   7.290827219835457e-07   1.3602712595674074e-06
-2.5637632341677567e-06   7.290827219835457e-07   1.3602712595674074e-06
-2.5637632341677567e-06   7.290827219835457e-07   1.3602712595674074e-06
-2.5637632341677567e-06   7.290827219835457e-07   1.3602712595674074e-06
-1.5506544680909788e-06   -6.928266972939536e-08   2.5697666346676494e-06
-1.5506544680909788e-06   -6.928266972939536e-08   2.5697666346676494e-06
-1.5506544680909788e-06   -6.928266972939536e-08   2.5697666346676494e-06
-1.5506544680909788e-06   -6.928266972939536e-08   2.5697666346676494e-06
-1.6462121706909056e-06   5.903618378516932e-07   1.3756658804281278e-06
-1.6462121706909056e-06   5.903618378516932e-07   1.3756658804281278e-06
-1.6462121706909056e-06   5.903618378516932e-07   1.3756658804281278e-06
-1.6462121706909056e-06   5.903618378516932e-07   1.3756658804281278e-06
-2.518225478964078e-06   -9.914898174955824e-08   3.2427278859774376e-06
-2.518225478964078e-06   -9.914898174955824e-08   3.2427278859774376e-06
-2.518225478964078e-06   -9.914898174955824e-08   3.2427278859774376e-06
-2.518225478964078e-06   -9.914898174955824e-08   3.2427278859774376e-06
-1.99834224148441e-06   3.7631373912117407e-07   2.0909781909890404e-06
-1.99834224148441e-06   3.7631373912117407e-07   2.0909781909890404e-06
-1.99834224148441e-06   3.7631373912117407e-07   2.0909781909890404e-06
-1.99834224148441e-06   3.7631373912117407e-07   2.0909781909890404e-06
-2.518225478964078e-06   5.903618378516932e-07   1.789372372188754e-06
-2.518225478964078e-06   5.903618378516932e-07   1.789372372188754e-06
-2.518225478964078e-06   5.903618378516932e-07   1.789372372188754e-06
-2.518225478964078e-06   5.903618378516932e-07   1.789372372188754e-06
-1.6462121706909327e-06   -9.914898174953114e-08   2.8290213942167844e-06
-1.6462121706909327e-06   -9.914898174953114e-08   2.8290213942167844e-06
-1.6462121706909327e-06   -9.914898174953114e-08   2.8290213942167844e-06
-1.6462121706909327e-06   -9.914898174953114e-08   2.8290213942167844e-06
-1.7258756059075782e-06   4.999537491085491e-07   1.768138036579536e-06
-1.7258756059075782e-06   4.999537491085491e-07   1.768138036579536e-06
-1.7258756059075782e-06   4.999537491085491e-07   1.768138036579536e-06
-1.7258756059075782e-06   4.999537491085491e-07   1.768138036579536e-06
-2.5032444894100266e-06   -1.387324933461206e-07   3.446964587889591e-06
-2.5032444894100266e-06   -1.387324933461206e-07   3.446964587889591e-06
-2.5032444894100266e-06   -1.387324933461206e-07   3.446964587889591e-06
-2.5032444894100266e-06   -1.387324933461206e-07   3.446964587889591e-06
-2.0434969428356845e-06   3.0925807047193403e-07   2.41192433864145e-06
-2.0434969428356845e-06   3.0925807047193403e-07   2.41192433864145e-06
-2.0434969428356845e-06   3.0925807047193403e-07   2.41192433864145e-06
-2.0434969428356845e-06   3.0925807047193403e-07   2.41192433864145e-06
-2.5032444894100266e-06   4.999537491085491e-07   2.1513497820522946e-06
-2.5032444894100266e-06   4.999537491085491e-07   2.1513497820522946e-06
-2.5032444894100266e-06   4.999537491085491e-07   2.1513497820522946e-06
-2.5032444894100266e-06   4.999537491085491e-07   2.1513497820522946e-06
-1.7258756059076053e-06   -1.387324933461206e-07   3.0637528424168055e-06
-1.7258756059076053e-06   -1.387324933461206e-07   3.0637528424168055e-06
-1.7258756059076053e-06   -1.387324933461206e-07   3.0637528424168055e-06
-1.7258756059076053e-06   -1.387324933461206e-07   3.0637528424168055e-06
-1.905573568685917e-06   3.1466118249992873e-07   2.470685590210222e-06
-1.905573568685917e-06   3.1466118249992873e-07   2.470685590210222e-06
-1.905573568685917e-06   3.1466118249992873e-07   2.470685590210222e-06
-1.905573568685917e-06   3.1466118249992873e-07   2.470685590210222e-06
-2.472449872292792e-06   -1.8964230009949458e-07   3.7180615191145577e-06
-2.472449872292792e-06   -1.8964230009949458e-07   3.7180615191145577e-06
-2.472449872292792e-06   -1.8964230009949458e-07   3.7180615191145577e-06
-2.472449872292792e-06   -1.8964230009949458e-07   3.7180615191145577e-06
-2.056430760271835e-06   2.6236989266877303e-07   2.753489016752038e-06
-2.056430760271835e-06   2.6236989266877303e-07   2.753489016752038e-06
-2.056430760271835e-06   2.6236989266877303e-07   2.753489016752038e-06
-2.056430760271835e-06   2.6236989266877303e-07   2.753489016752038e-06
-2.2904072262800954e-05   1.759579362820544e-06   1.0227972362697368e-05
-2.2904072262800954e-05   1.759579362820544e-06   1.0227972362697368e-05
-2.2904072262800954e-05   1.759579362820544e-06   1.0227972362697368e-05
-2.2904072262800954e-05   1.759579362820544e-06   1.0227972362697368e-05
-5.336934138921023e-06   -1.169836765393474e-05   3.143176769244412e-05
-5.336934138921023e-06   -1.169836765393474e-05   3.143176769244412e-05
-5.336934138921023e-06   -1.169836765393474e-05   3.143176769244412e-05
-5.336934138921023e-06   -1.169836765393474e-05   3.143176769244412e-05
-6.296742361732832e-06   6.813363294071303e-07   5.572936684422497e-06
-6.296742361732832e-06   6.813363294071303e-07   5.572936684422497e-06
-6.296742361732832e-06   6.813363294071303e-07   5.572936684422497e-06
-6.296742361732832e-06   6.813363294071303e-07   5.572936684422497e-06
-2.0889509875203198e-05   -9.169008707130054e-06   3.580442289546202e-05
-2.0889509875203198e-05   -9.169008707130054e-06   3.580442289546202e-05
-2.0889509875203198e-05   -9.169008707130054e-06   3.580442289546202e-05
-2.0889509875203198e-05   -9.169008707130054e-06   3.580442289546202e-05
-1.3915451869759904e-05   -4.561392559412425e-06   2.141642319775928e-05
-1.3915451869759904e-05   -4.561392559412425e-06   2.141642319775928e-05
-1.3915451869759904e-05   -4.561392559412425e-06   2.141642319775928e-05
-1.3915451869759904e-05   -4.561392559412425e-06   2.141642319775928e-05
-2.088950987520316e-05   6.813363294071303e-07   1.1483143706344796e-05
-2.088950987520316e-05   6.813363294071303e-07   1.1483143706344796e-05
-2.088950987520316e-05   6.813363294071303e-07   1.1483143706344796e-05
-2.088950987520316e-05   6.813363294071303e-07   1.1483143706344796e-05
-6.296742361732842e-06   -9.169008707130054e-06   2.9894215873539722e-05
-6.296742361732842e-06   -9.169008707130054e-06   2.9894215873539722e-05
-6.296742361732842e-06   -9.169008707130054e-06   2.9894215873539722e-05
-6.296742361732842e-06   -9.169008707130054e-06   2.9894215873539722e-05
-6.455391435632539e-06   4.777376978114495e-07   6.126929123998139e-06
-6.455391435632539e-06   4.777376978114495e-07   6.126929123998139e-06
-6.455391435632539e-06   4.777376978114495e-07   6.126929123998139e-06
-6.455391435632539e-06   4.777376978114495e-07   6.126929123998139e-06
-1.9713417059535317e-05   -7.960423215142678e-06   3.328653504494187e-05
-1.9713417059535317e-05   -7.960423215142678e-06   3.328653504494187e-05
-1.9713417059535317e-05   -7.960423215142678e-06   3.328653504494187e-05
-1.9713417059535317e-05   -7.960423215142678e-06   3.328653504494187e-05
-1.3512040933684348e-05   -4.329557698717088e-06   2.0772388858668248e-05
-1.3512040933684348e-05   -4.329557698717088e-06   2.0772388858668248e-05
-1.3512040933684348e-05   -4.329557698717088e-06   2.0772388858668248e-05
-1.3512040933684348e-05   -4.329557698717088e-06   2.0772388858668248e-05
-1.9713417059535283e-05   4.777376978114495e-07   1.118982567177061e-05
-1.9713417059535283e-05   4.777376978114495e-07   1.118982567177061e-05
-1.9713417059535283e-05   4.777376978114495e-07   1.118982567177061e-05
-1.9713417059535283e-05   4.777376978114495e-07   1.118982567177061e-05
-6.455391435632549e-06   -7.960423215142678e-06   2.8223638497169383e-05
-6.455391435632549e-06   -7.960423215142678e-06   2.8223638497169383e-05
-6.455391435632549e-06   -7.960423215142678e-06   2.8223638497169383e-05
-6.455391435632549e-06   -7.960423215142678e-06   2.8223638497169383e-05
-7.104358294116664e-06   -3.946948912801477e-07   7.65713900863348e-06
-7.104358294116664e-06   -3.946948912801477e-07   7.65713900863348e-06
-7.104358294116664e-06   -3.946948912801477e-07   7.65713900863348e-06
-7.104358294116664e-06   -3.946948912801477e-07   7.65713900863348e-06
-1.8200411157275844e-05   -6.348888398121945e-06   2.972307655133714e-05
-1.8200411157275844e-05   -6.348888398121945e-06   2.972307655133714e-05
-1.8200411157275844e-05   -6.348888398121945e-06   2.972307655133714e-05
-1.8200411157275844e-05   -6.348888398121945e-06   2.972307655133714e-05
-1.3013681131211202e-05   -4.0001801093896445e-06   1.966930153465671e-05
-1.3013681131211202e-05   -4.0001801093896445e-06   1.966930153465671e-05
-1.3013681131211202e-05   -4.0001801093896445e-06   1.966930153465671e-05
-1.3013681131211202e-05   -4.0001801093896445e-06   1.966930153465671e-05
-5.3369341389210124e-06   -2.088187414558127e-06   5.886382454920074e-06
-5.3369341389210124e-06   -2.088187414558127e-06   5.886382454920074e-06
-5.3369341389210124e-06   -2.088187414558127e-06   5.886382454920074e-06
-5.3369341389210124e-06   -2.088187414558127e-06   5.886382454920074e-06
-1.845158907904908e-06   -3.7663114844905655e-06   1.0699133397987494e-05
-1.845158907904908e-06   -3.7663114844905655e-06   1.0699133397987494e-05
-1.845158907904908e-06   -3.7663114844905655e-06   1.0699133397987494e-05
-1.845158907904908e-06   -3.7663114844905655e-06   1.0699133397987494e-05
-2.0803649373053035e-06   -1.7201570026704712e-06   5.167227387911411e-06
-2.0803649373053035e-06   -1.7201570026704712e-06   5.167227387911411e-06
-2.0803649373053035e-06   -1.7201570026704712e-06   5.167227387911411e-06
-2.0803649373053035e-06   -1.7201570026704712e-06   5.167227387911411e-06
-6.296742361732842e-06   -4.93504268011064e-06   1.412345450175472e-05
-6.296742361732842e-06   -4.93504268011064e-06   1.412345450175472e-05
-6.296742361732842e-06   -4.93504268011064e-06   1.412345450175472e-05
-6.296742361732842e-06   -4.93504268011064e-06   1.412345450175472e-05
-3.686680953303039e-06   -2.564491944483018e-06   8.351021712995092e-06
-3.686680953303039e-06   -2.564491944483018e-06   8.351021712995092e-06
-3.686680953303039e-06   -2.564491944483018e-06   8.351021712995092e-06
-3.686680953303039e-06   -2.564491944483018e-06   8.351021712995092e-06
-6.296742361732825e-06   -1.7201570026704712e-06   7.09615879437545e-06
-6.296742361732825e-06   -1.7201570026704712e-06   7.09615879437545e-06
-6.296742361732825e-06   -1.7201570026704712e-06   7.09615879437545e-06
-6.296742361732825e-06   -1.7201570026704712e-06   7.09615879437545e-06
-2.0803649373053035e-06   -4.93504268011064e-06   1.2194523095290616e-05
-2.0803649373053035e-06   -4.93504268011064e-06   1.2194523095290616e-05
-2.0803649373053035e-06   -4.93504268011064e-06   1.2194523095290616e-05
-2.0803649373053035e-06   -4.93504268011064e-06   1.2194523095290616e-05
-2.2833471770059667e-06   -1.7557130120765584e-06   5.8124080331880255e-06
-2.2833471770059667e-06   -1.7557130120765584e-06   5.8124080331880255e-06
-2.2833471770059667e-06   -1.7557130120765584e-06   5.8124080331880255e-06
-2.2833471770059667e-06   -1.7557130120765584e-06   5.8124080331880255e-06
-6.455391435632549e-06   -4.54585005390866e-06   1.443989735599824e-05
-6.455391435632549e-06   -4.54585005390866e-06   1.443989735599824e-05
-6.455391435632549e-06   -4.54585005390866e-06   1.443989735599824e-05
-6.455391435632549e-06   -4.54585005390866e-06   1.443989735599824e-05
-4.178733340335029e-06   -3.1169257223473586e-06   9.788112598232315e-06
-4.178733340335029e-06   -3.1169257223473586e-06   9.788112598232315e-06
-4.178733340335029e-06   -3.1169257223473586e-06   9.788112598232315e-06
-4.178733340335029e-06   -3.1169257223473586e-06   9.788112598232315e-06
-6.455391435632539e-06   -1.7557130120765584e-06   7.486490258287284e-06
-6.455391435632539e-06   -1.7557130120765584e-06   7.486490258287284e-06
-6.455391435632539e-06   -1.7557130120765584e-06   7.486490258287284e-06
-6.455391435632539e-06   -1.7557130120765584e-06   7.486490258287284e-06
-2.2833471770059667e-06   -4.54585005390866e-06   1.2765815130898978e-05
-2.2833471770059667e-06   -4.54585005390866e-06   1.2765815130898978e-05
-2.2833471770059667e-06   -4.54585005390866e-06   1.2765815130898978e-05
-2.2833471770059667e-06   -4.54585005390866e-06   1.2765815130898978e-05
-2.6167331771586097e-06   -1.7619955003901828e-06   6.3751435770128336e-06
-2.6167331771586097e-06   -1.7619955003901828e-06   6.3751435770128336e-06
-2.6167331771586097e-06   -1.7619955003901828e-06   6.3751435770128336e-06
-2.6167331771586097e-06   -1.7619955003901828e-06   6.3751435770128336e-06
-7.104358294116671e-06   -4.29693527539588e-06   1.5375482636946313e-05
-7.104358294116671e-06   -4.29693527539588e-06   1.5375482636946313e-05
-7.104358294116671e-06   -4.29693527539588e-06   1.5375482636946313e-05
-7.104358294116671e-06   -4.29693527539588e-06   1.5375482636946313e-05
-4.477033571052715e-06   -2.8489451999144687e-06   1.0127814053217555e-05
-4.477033571052715e-06   -2.8489451999144687e-06   1.0127814053217555e-05
-4.477033571052715e-06   -2.8489451999144687e-06   1.0127814053217555e-05
-4.477033571052715e-06   -2.8489451999144687e-06   1.0127814053217555e-05
-1.845158907904908e-06   -1.6324130826173748e-06   3.231904816397029e-06
-1.845158907904908e-06   -1.6324130826173748e-06   3.231904816397029e-06
-1.845158907904908e-06   -1.6324130826173748e-06   3.231904816397029e-06
-1.845158907904908e-06   -1.6324130826173748e-06   3.231904816397029e-06
-1.0380701473953108e-06   -1.131319372903127e-06   4.87770897640829e-06
-1.0380701473953108e-06   -1.131319372903127e-06   4.87770897640829e-06
-1.0380701473953108e-06   -1.131319372903127e-06   4.87770897640829e-06
-1.0380701473953108e-06   -1.131319372903127e-06   4.87770897640829e-06
-1.0077416181913495e-06   -1.6032679439359238e-06   3.632191080312077e-06
-1.0077416181913495e-06   -1.6032679439359238e-06   3.632191080312077e-06
-1.0077416181913495e-06   -1.6032679439359238e-06   3.632191080312077e-06
-1.0077416181913495e-06   -1.6032679439359238e-06   3.632191080312077e-06
-2.0803649373053035e-06   -1.454879674518978e-06   5.330863650518443e-06
-2.0803649373053035e-06   -1.454879674518978e-06   5.330863650518443e-06
-2.0803649373053035e-06   -1.454879674518978e-06   5.330863650518443e-06
-2.0803649373053035e-06   -1.454879674518978e-06   5.330863650518443e-06
-1.3974215000437984e-06   -1.364904079470666e-06   4.138639231386892e-06
-1.3974215000437984e-06   -1.364904079470666e-06   4.138639231386892e-06
-1.3974215000437984e-06   -1.364904079470666e-06   4.138639231386892e-06
-1.3974215000437984e-06   -1.364904079470666e-06   4.138639231386892e-06
-2.08036493730529e-06   -1.6032679439359238e-06   3.543158118661898e-06
-2.08036493730529e-06   -1.6032679439359238e-06   3.543158118661898e-06
-2.08036493730529e-06   -1.6032679439359238e-06   3.543158118661898e-06
-2.08036493730529e-06   -1.6032679439359238e-06   3.543158118661898e-06
-1.0077416181913495e-06   -1.454879674518978e-06   5.419896612168608e-06
-1.0077416181913495e-06   -1.454879674518978e-06   5.419896612168608e-06
-1.0077416181913495e-06   -1.454879674518978e-06   5.419896612168608e-06
-1.0077416181913495e-06   -1.454879674518978e-06   5.419896612168608e-06
-1.0197757386968826e-06   -1.650227974552606e-06   3.890260694885131e-06
-1.0197757386968826e-06   -1.650227974552606e-06   3.890260694885131e-06
-1.0197757386968826e-06   -1.650227974552606e-06   3.890260694885131e-06
-1.0197757386968826e-06   -1.650227974552606e-06   3.890260694885131e-06
-2.2833471770059667e-06   -1.8370692689411125e-06   6.108317868699979e-06
-2.2833471770059667e-06   -1.8370692689411125e-06   6.108317868699979e-06
-2.2833471770059667e-06   -1.8370692689411125e-06   6.108317868699979e-06
-2.2833471770059667e-06   -1.8370692689411125e-06   6.108317868699979e-06
-1.4945508966928363e-06   -1.4917164826922706e-06   4.586445729762154e-06
-1.4945508966928363e-06   -1.4917164826922706e-06   4.586445729762154e-06
-1.4945508966928363e-06   -1.4917164826922706e-06   4.586445729762154e-06
-1.4945508966928363e-06   -1.4917164826922706e-06   4.586445729762154e-06
-2.283347177005953e-06   -1.650227974552606e-06   4.002365471518222e-06
-2.283347177005953e-06   -1.650227974552606e-06   4.002365471518222e-06
-2.283347177005953e-06   -1.650227974552606e-06   4.002365471518222e-06
-2.283347177005953e-06   -1.650227974552606e-06   4.002365471518222e-06
-1.0197757386968826e-06   -1.8370692689411125e-06   5.996213092066888e-06
-1.0197757386968826e-06   -1.8370692689411125e-06   5.996213092066888e-06
-1.0197757386968826e-06   -1.8370692689411125e-06   5.996213092066888e-06
-1.0197757386968826e-06   -1.8370692689411125e-06   5.996213092066888e-06
-1.0539376148298844e-06   -1.7134929733854224e-06   4.280430885573891e-06
-1.0539376148298844e-06   -1.7134929733854224e-06   4.280430885573891e-06
-1.0539376148298844e-06   -1.7134929733854224e-06   4.280430885573891e-06
-1.0539376148298844e-06   -1.7134929733854224e-06   4.280430885573891e-06
-2.6167331771586097e-06   -2.1987322365789304e-06   7.176233714037815e-06
-2.6167331771586097e-06   -2.1987322365789304e-06   7.176233714037815e-06
-2.6167331771586097e-06   -2.1987322365789304e-06   7.176233714037815e-06
-2.6167331771586097e-06   -2.1987322365789304e-06   7.176233714037815e-06
-1.6076716321309804e-06   -1.6195025283308098e-06   5.146926647376271e-06
-1.6076716321309804e-06   -1.6195025283308098e-06   5.146926647376271e-06
-1.6076716321309804e-06   -1.6195025283308098e-06   5.146926647376271e-06
-1.6076716321309804e-06   -1.6195025283308098e-06   5.146926647376271e-06
-1.0380701473953108e-06   -6.736009872208707e-07   1.007947337552763e-06
-1.0380701473953108e-06   -6.736009872208707e-07   1.007947337552763e-06
-1.0380701473953108e-06   -6.736009872208707e-07   1.007947337552763e-06
-1.0380701473953108e-06   -6.736009872208707e-07   1.007947337552763e-06
-7.904872826177908e-07   1.0437353025621955e-07   1.8873701560015574e-06
-7.904872826177908e-07   1.0437353025621955e-07   1.8873701560015574e-06
-7.904872826177908e-07   1.0437353025621955e-07   1.8873701560015574e-06
-7.904872826177908e-07   1.0437353025621955e-07   1.8873701560015574e-06
-6.482811593934944e-07   -7.849883522976391e-07   1.5590895077452808e-06
-6.482811593934944e-07   -7.849883522976391e-07   1.5590895077452808e-06
-6.482811593934944e-07   -7.849883522976391e-07   1.5590895077452808e-06
-6.482811593934944e-07   -7.849883522976391e-07   1.5590895077452808e-06
-1.0077416181913495e-06   -1.8646529832988963e-08   1.6983851789295601e-06
-1.0077416181913495e-06   -1.8646529832988963e-08   1.6983851789295601e-06
-1.0077416181913495e-06   -1.8646529832988963e-08   1.6983851789295601e-06
-1.0077416181913495e-06   -1.8646529832988963e-08   1.6983851789295601e-06
-8.166347788018697e-07   -3.437341795780875e-07   1.5749263697940885e-06
-8.166347788018697e-07   -3.437341795780875e-07   1.5749263697940885e-06
-8.166347788018697e-07   -3.437341795780875e-07   1.5749263697940885e-06
-8.166347788018697e-07   -3.437341795780875e-07   1.5749263697940885e-06
-1.0077416181913495e-06   -7.849883522976391e-07   1.0992844142664683e-06
-1.0077416181913495e-06   -7.849883522976391e-07   1.0992844142664683e-06
-1.0077416181913495e-06   -7.849883522976391e-07   1.0992844142664683e-06
-1.0077416181913495e-06   -7.849883522976391e-07   1.0992844142664683e-06
-6.482811593934944e-07   -1.8646529832988963e-08   2.158190272408305e-06
-6.482811593934944e-07   -1.8646529832988963e-08   2.158190272408305e-06
-6.482811593934944e-07   -1.8646529832988963e-08   2.158190272408305e-06
-6.482811593934944e-07   -1.8646529832988963e-08   2.158190272408305e-06
-5.739722107947758e-07   -8.709518151786587e-07   1.7136557192378886e-06
-5.739722107947758e-07   -8.709518151786587e-07   1.7136557192378886e-06
-5.739722107947758e-07   -8.709518151786587e-07   1.7136557192378886e-06
-5.739722107947758e-07   -8.709518151786587e-07   1.7136557192378886e-06
-1.0197757386968826e-06   -2.0536654094433749e-07   2.0573104345341417e-06
-1.0197757386968826e-06   -2.0536654094433749e-07   2.0573104345341417e-06
-1.0197757386968826e-06   -2.0536654094433749e-07   2.0573104345341417e-06
-1.0197757386968826e-06   -2.0536654094433749e-07   2.0573104345341417e-06
-7.482523154274696e-07   -4.3434010477747377e-07   1.7421555340516731e-06
-7.482523154274696e-07   -4.3434010477747377e-07   1.7421555340516731e-06
-7.482523154274696e-07   -4.3434010477747377e-07   1.7421555340516731e-06
-7.482523154274696e-07   -4.3434010477747377e-07   1.7421555340516731e-06
-1.0197757386968826e-06   -8.709518151786587e-07   1.3143045546972518e-06
-1.0197757386968826e-06   -8.709518151786587e-07   1.3143045546972518e-06
-1.0197757386968826e-06   -8.709518151786587e-07   1.3143045546972518e-06
-1.0197757386968826e-06   -8.709518151786587e-07   1.3143045546972518e-06
-5.739722107947758e-07   -2.0536654094433749e-07   2.4566615990747242e-06
-5.739722107947758e-07   -2.0536654094433749e-07   2.4566615990747242e-06
-5.739722107947758e-07   -2.0536654094433749e-07   2.4566615990747242e-06
-5.739722107947758e-07   -2.0536654094433749e-07   2.4566615990747242e-06
-4.6052827615364897e-07   -9.828094005117684e-07   1.8886399049016021e-06
-4.6052827615364897e-07   -9.828094005117684e-07   1.8886399049016021e-06
-4.6052827615364897e-07   -9.828094005117684e-07   1.8886399049016021e-06
-4.6052827615364897e-07   -9.828094005117684e-07   1.8886399049016021e-06
-1.0539376148298844e-06   -5.784752949560503e-07   2.6350550060285044e-06
-1.0539376148298844e-06   -5.784752949560503e-07   2.6350550060285044e-06
-1.0539376148298844e-06   -5.784752949560503e-07   2.6350550060285044e-06
-1.0539376148298844e-06   -5.784752949560503e-07   2.6350550060285044e-06
-6.967118347836105e-07   -5.689349622349103e-07   2.0339545063188455e-06
-6.967118347836105e-07   -5.689349622349103e-07   2.0339545063188455e-06
-6.967118347836105e-07   -5.689349622349103e-07   2.0339545063188455e-06
-6.967118347836105e-07   -5.689349622349103e-07   2.0339545063188455e-06
-7.904872826177908e-07   -6.928266972942246e-08   -1.2406744246696162e-06
-7.904872826177908e-07   -6.928266972942246e-08   -1.2406744246696162e-06
-7.904872826177908e-07   -6.928266972942246e-08   -1.2406744246696162e-06
-7.904872826177908e-07   -6.928266972942246e-08   -1.2406744246696162e-06
-1.6777485416013746e-07   1.0484971734398693e-07   -9.834094499621901e-08
-1.6777485416013746e-07   1.0484971734398693e-07   -9.834094499621901e-08
-1.6777485416013746e-07   1.0484971734398693e-07   -9.834094499621901e-08
-1.6777485416013746e-07   1.0484971734398693e-07   -9.834094499621901e-08
-2.8895616848242543e-08   -9.914898174955824e-08   -9.581121806309005e-07
-2.8895616848242543e-08   -9.914898174955824e-08   -9.581121806309005e-07
-2.8895616848242543e-08   -9.914898174955824e-08   -9.581121806309005e-07
-2.8895616848242543e-08   -9.914898174955824e-08   -9.581121806309005e-07
-6.482811593934944e-07   1.7809867296782777e-07   -9.215153588592933e-08
-6.482811593934944e-07   1.7809867296782777e-07   -9.215153588592933e-08
-6.482811593934944e-07   1.7809867296782777e-07   -9.215153588592933e-08
-6.482811593934944e-07   1.7809867296782777e-07   -9.215153588592933e-08
-3.735937176898847e-07   5.0981233061831734e-08   -4.7369347478179707e-07
-3.735937176898847e-07   5.0981233061831734e-08   -4.7369347478179707e-07
-3.735937176898847e-07   5.0981233061831734e-08   -4.7369347478179707e-07
-3.735937176898847e-07   5.0981233061831734e-08   -4.7369347478179707e-07
-6.482811593934673e-07   -9.914898174955824e-08   -1.1244607734613355e-06
-6.482811593934673e-07   -9.914898174955824e-08   -1.1244607734613355e-06
-6.482811593934673e-07   -9.914898174955824e-08   -1.1244607734613355e-06
-6.482811593934673e-07   -9.914898174955824e-08   -1.1244607734613355e-06
-2.8895616848269648e-08   1.7809867296782777e-07   7.419705694446501e-08
-2.8895616848269648e-08   1.7809867296782777e-07   7.419705694446501e-08
-2.8895616848269648e-08   1.7809867296782777e-07   7.419705694446501e-08
-2.8895616848269648e-08   1.7809867296782777e-07   7.419705694446501e-08
3.995232338908331e-08   -1.387324933461206e-07   -8.385691021210815e-07
3.995232338908331e-08   -1.387324933461206e-07   -8.385691021210815e-07
3.995232338908331e-08   -1.387324933461206e-07   -8.385691021210815e-07
3.995232338908331e-08   -1.387324933461206e-07   -8.385691021210815e-07
-5.739722107947758e-07   1.4332778334909156e-07   1.5402288834750685e-08
-5.739722107947758e-07   1.4332778334909156e-07   1.5402288834750685e-08
-5.739722107947758e-07   1.4332778334909156e-07   1.5402288834750685e-08
-5.739722107947758e-07   1.4332778334909156e-07   1.5402288834750685e-08
-2.7293303078741043e-07   3.2548468528124366e-08   -4.1986208895142436e-07
-2.7293303078741043e-07   3.2548468528124366e-08   -4.1986208895142436e-07
-2.7293303078741043e-07   3.2548468528124366e-08   -4.1986208895142436e-07
-2.7293303078741043e-07   3.2548468528124366e-08   -4.1986208895142436e-07
-5.739722107947758e-07   -1.387324933461206e-07   -1.0078052681382755e-06
-5.739722107947758e-07   -1.387324933461206e-07   -1.0078052681382755e-06
-5.739722107947758e-07   -1.387324933461206e-07   -1.0078052681382755e-06
-5.739722107947758e-07   -1.387324933461206e-07   -1.0078052681382755e-06
3.995232338908331e-08   1.4332778334909156e-07   1.8463845485189052e-07
3.995232338908331e-08   1.4332778334909156e-07   1.8463845485189052e-07
3.995232338908331e-08   1.4332778334909156e-07   1.8463845485189052e-07
3.995232338908331e-08   1.4332778334909156e-07   1.8463845485189052e-07
1.230539200687802e-07   -1.8964230009949458e-07   -6.581686885082094e-07
1.230539200687802e-07   -1.8964230009949458e-07   -6.581686885082094e-07
1.230539200687802e-07   -1.8964230009949458e-07   -6.581686885082094e-07
1.230539200687802e-07   -1.8964230009949458e-07   -6.581686885082094e-07
-4.6052827615364897e-07   1.0537943325116403e-07   1.3745526518540259e-07
-4.6052827615364897e-07   1.0537943325116403e-07   1.3745526518540259e-07
-4.6052827615364897e-07   1.0537943325116403e-07   1.3745526518540259e-07
-4.6052827615364897e-07   1.0537943325116403e-07   1.3745526518540259e-07
-1.8272716653462055e-07   8.47647844566513e-09   -2.674048112963302e-07
-1.8272716653462055e-07   8.47647844566513e-09   -2.674048112963302e-07
-1.8272716653462055e-07   8.47647844566513e-09   -2.674048112963302e-07
-1.8272716653462055e-07   8.47647844566513e-09   -2.674048112963302e-07
              </DataArray>   
             <DataArray type="Float64" NumberOfComponents="3" Name="Stress" format="ascii">   
-1.1963337128571705   -0.2990834282142926   -0.2990834282142926
-1.1963337128571705   -0.2990834282142926   -0.2990834282142926
-1.1963337128571705   -0.2990834282142926   -0.2990834282142926
-1.1963337128571705   -0.2990834282142926   -0.2990834282142926
-0.6920172982610453   -0.022536346268534124   -0.01411448459987772
-0.6920172982610453   -0.022536346268534124   -0.01411448459987772
-0.6920172982610453   -0.022536346268534124   -0.01411448459987772
-0.6920172982610453   -0.022536346268534124   -0.01411448459987772
-0.7453834114909679   -0.18634585287274197   -0.18634585287274197
-0.7453834114909679   -0.18634585287274197   -0.18634585287274197
-0.7453834114909679   -0.18634585287274197   -0.18634585287274197
-0.7453834114909679   -0.18634585287274197   -0.18634585287274197
-1.1527833821248414   -0.09515011638838317   -0.036539591186471765
-1.1527833821248414   -0.09515011638838317   -0.036539591186471765
-1.1527833821248414   -0.09515011638838317   -0.036539591186471765
-1.1527833821248414   -0.09515011638838317   -0.036539591186471765
-0.903976034870847   -0.1484871025569031   -0.0025295420140281893
-0.903976034870847   -0.1484871025569031   -0.0025295420140281893
-0.903976034870847   -0.1484871025569031   -0.0025295420140281893
-0.903976034870847   -0.1484871025569031   -0.0025295420140281893
-1.2516060451220805   -0.31290151128052013   -0.31290151128052013
-1.2516060451220805   -0.31290151128052013   -0.31290151128052013
-1.2516060451220805   -0.31290151128052013   -0.31290151128052013
-1.2516060451220805   -0.31290151128052013   -0.31290151128052013
-0.6700462425055227   0.007920048007602903   -0.003925908825861087
-0.6700462425055227   0.007920048007602903   -0.003925908825861087
-0.6700462425055227   0.007920048007602903   -0.003925908825861087
-0.6700462425055227   0.007920048007602903   -0.003925908825861087
-0.7471236809366125   -0.18678092023415313   -0.18678092023415313
-0.7471236809366125   -0.18678092023415313   -0.18678092023415313
-0.7471236809366125   -0.18678092023415313   -0.18678092023415313
-0.7471236809366125   -0.18678092023415313   -0.18678092023415313
-1.1911198484296306   -0.09594912981840623   -0.053492949673083635
-1.1911198484296306   -0.09594912981840623   -0.053492949673083635
-1.1911198484296306   -0.09594912981840623   -0.053492949673083635
-1.1911198484296306   -0.09594912981840623   -0.053492949673083635
-0.9373040542630244   -0.13967231090063598   -0.04970607678243551
-0.9373040542630244   -0.13967231090063598   -0.04970607678243551
-0.9373040542630244   -0.13967231090063598   -0.04970607678243551
-0.9373040542630244   -0.13967231090063598   -0.04970607678243551
-1.2902571472570383   -0.3225642868142596   -0.3225642868142596
-1.2902571472570383   -0.3225642868142596   -0.3225642868142596
-1.2902571472570383   -0.3225642868142596   -0.3225642868142596
-1.2902571472570383   -0.3225642868142596   -0.3225642868142596
-0.6677613071894842   0.020059311681422443   0.003190716585912509
-0.6677613071894842   0.020059311681422443   0.003190716585912509
-0.6677613071894842   0.020059311681422443   0.003190716585912509
-0.6677613071894842   0.020059311681422443   0.003190716585912509
-0.7463230773457291   -0.18658076933643228   -0.18658076933643228
-0.7463230773457291   -0.18658076933643228   -0.18658076933643228
-0.7463230773457291   -0.18658076933643228   -0.18658076933643228
-0.7463230773457291   -0.18658076933643228   -0.18658076933643228
-1.2597296288268243   -0.08389645223401224   -0.03228557340107364
-1.2597296288268243   -0.08389645223401224   -0.03228557340107364
-1.2597296288268243   -0.08389645223401224   -0.03228557340107364
-1.2597296288268243   -0.08389645223401224   -0.03228557340107364
-0.9618910785040373   -0.1373883354741312   -0.08976155168983677
-0.9618910785040373   -0.1373883354741312   -0.08976155168983677
-0.9618910785040373   -0.1373883354741312   -0.08976155168983677
-0.9618910785040373   -0.1373883354741312   -0.08976155168983677
-0.7607634800970713   -0.19019087002426782   -0.19019087002426782
-0.7607634800970713   -0.19019087002426782   -0.19019087002426782
-0.7607634800970713   -0.19019087002426782   -0.19019087002426782
-0.7607634800970713   -0.19019087002426782   -0.19019087002426782
-0.3178913241291188   -0.021554447500754838   -0.006968054628636705
-0.3178913241291188   -0.021554447500754838   -0.006968054628636705
-0.3178913241291188   -0.021554447500754838   -0.006968054628636705
-0.3178913241291188   -0.021554447500754838   -0.006968054628636705
-0.3332660782287272   -0.0833165195571818   -0.0833165195571818
-0.3332660782287272   -0.0833165195571818   -0.0833165195571818
-0.3332660782287272   -0.0833165195571818   -0.0833165195571818
-0.3332660782287272   -0.0833165195571818   -0.0833165195571818
-0.6923826253482817   -0.0816729118903623   -0.026014863141690416
-0.6923826253482817   -0.0816729118903623   -0.026014863141690416
-0.6923826253482817   -0.0816729118903623   -0.026014863141690416
-0.6923826253482817   -0.0816729118903623   -0.026014863141690416
-0.510911721559495   -0.0969237200439358   0.003931618479502188
-0.510911721559495   -0.0969237200439358   0.003931618479502188
-0.510911721559495   -0.0969237200439358   0.003931618479502188
-0.510911721559495   -0.0969237200439358   0.003931618479502188
-0.7453834114909672   -0.1863458528727418   -0.1863458528727418
-0.7453834114909672   -0.1863458528727418   -0.1863458528727418
-0.7453834114909672   -0.1863458528727418   -0.1863458528727418
-0.7453834114909672   -0.1863458528727418   -0.1863458528727418
-0.2995919010262363   0.0020298124850025856   -0.00029196558691140656
-0.2995919010262363   0.0020298124850025856   -0.00029196558691140656
-0.2995919010262363   0.0020298124850025856   -0.00029196558691140656
-0.2995919010262363   0.0020298124850025856   -0.00029196558691140656
-0.3254753981868372   -0.0813688495467093   -0.0813688495467093
-0.3254753981868372   -0.0813688495467093   -0.0813688495467093
-0.3254753981868372   -0.0813688495467093   -0.0813688495467093
-0.3254753981868372   -0.0813688495467093   -0.0813688495467093
-0.690290636417071   -0.06653151721742263   -0.022865100653175843
-0.690290636417071   -0.06653151721742263   -0.022865100653175843
-0.690290636417071   -0.06653151721742263   -0.022865100653175843
-0.690290636417071   -0.06653151721742263   -0.022865100653175843
-0.5034479876228829   -0.08152402460218215   -0.026283591737175954
-0.5034479876228829   -0.08152402460218215   -0.026283591737175954
-0.5034479876228829   -0.08152402460218215   -0.026283591737175954
-0.5034479876228829   -0.08152402460218215   -0.026283591737175954
-0.7471236809366125   -0.18678092023415313   -0.18678092023415313
-0.7471236809366125   -0.18678092023415313   -0.18678092023415313
-0.7471236809366125   -0.18678092023415313   -0.18678092023415313
-0.7471236809366125   -0.18678092023415313   -0.18678092023415313
-0.2873619569247341   0.0201609502125827   0.007668557004513941
-0.2873619569247341   0.0201609502125827   0.007668557004513941
-0.2873619569247341   0.0201609502125827   0.007668557004513941
-0.2873619569247341   0.0201609502125827   0.007668557004513941
-0.3183215992386137   -0.07958039980965342   -0.07958039980965342
-0.3183215992386137   -0.07958039980965342   -0.07958039980965342
-0.3183215992386137   -0.07958039980965342   -0.07958039980965342
-0.3183215992386137   -0.07958039980965342   -0.07958039980965342
-0.6848344209475694   -0.05123540681673869   -0.014482849865337051
-0.6848344209475694   -0.05123540681673869   -0.014482849865337051
-0.6848344209475694   -0.05123540681673869   -0.014482849865337051
-0.6848344209475694   -0.05123540681673869   -0.014482849865337051
-0.505560133370684   -0.07204357052456023   -0.05850521593460092
-0.505560133370684   -0.07204357052456023   -0.05850521593460092
-0.505560133370684   -0.07204357052456023   -0.05850521593460092
-0.505560133370684   -0.07204357052456023   -0.05850521593460092
-0.3468742485591567   -0.08671856213978918   -0.08671856213978918
-0.3468742485591567   -0.08671856213978918   -0.08671856213978918
-0.3468742485591567   -0.08671856213978918   -0.08671856213978918
-0.3468742485591567   -0.08671856213978918   -0.08671856213978918
0.04003198544844771   0.0024274575093093083   0.00034410892038369404
0.04003198544844771   0.0024274575093093083   0.00034410892038369404
0.04003198544844771   0.0024274575093093083   0.00034410892038369404
0.04003198544844771   0.0024274575093093083   0.00034410892038369404
0.05271788764072671   0.013179471910181678   0.013179471910181678
0.05271788764072671   0.013179471910181678   0.013179471910181678
0.05271788764072671   0.013179471910181678   0.013179471910181678
0.05271788764072671   0.013179471910181678   0.013179471910181678
-0.3132795650648213   -0.05413804998267566   -0.012562423312161185
-0.3132795650648213   -0.05413804998267566   -0.012562423312161185
-0.3132795650648213   -0.05413804998267566   -0.012562423312161185
-0.3132795650648213   -0.05413804998267566   -0.012562423312161185
-0.1346833070742674   -0.034142371485668996   0.022577648180796668
-0.1346833070742674   -0.034142371485668996   0.022577648180796668
-0.1346833070742674   -0.034142371485668996   0.022577648180796668
-0.1346833070742674   -0.034142371485668996   0.022577648180796668
-0.3332660782287272   -0.0833165195571818   -0.0833165195571818
-0.3332660782287272   -0.0833165195571818   -0.0833165195571818
-0.3332660782287272   -0.0833165195571818   -0.0833165195571818
-0.3332660782287272   -0.0833165195571818   -0.0833165195571818
0.053711192544074776   0.02336473322413038   0.007960735112972883
0.053711192544074776   0.02336473322413038   0.007960735112972883
0.053711192544074776   0.02336473322413038   0.007960735112972883
0.053711192544074776   0.02336473322413038   0.007960735112972883
0.059753700168156926   0.014938425042039231   0.014938425042039231
0.059753700168156926   0.014938425042039231   0.014938425042039231
0.059753700168156926   0.014938425042039231   0.014938425042039231
0.059753700168156926   0.014938425042039231   0.014938425042039231
-0.3018777342116421   -0.036328570413712485   -0.008420808803735674
-0.3018777342116421   -0.036328570413712485   -0.008420808803735674
-0.3018777342116421   -0.036328570413712485   -0.008420808803735674
-0.3018777342116421   -0.036328570413712485   -0.008420808803735674
-0.1288563066734859   -0.021052025350193047   -0.007826657380954826
-0.1288563066734859   -0.021052025350193047   -0.007826657380954826
-0.1288563066734859   -0.021052025350193047   -0.007826657380954826
-0.1288563066734859   -0.021052025350193047   -0.007826657380954826
-0.3254753981868372   -0.0813688495467093   -0.0813688495467093
-0.3254753981868372   -0.0813688495467093   -0.0813688495467093
-0.3254753981868372   -0.0813688495467093   -0.0813688495467093
-0.3254753981868372   -0.0813688495467093   -0.0813688495467093
0.06474126779495504   0.04136860782663981   0.013446080391428677
0.06474126779495504   0.04136860782663981   0.013446080391428677
0.06474126779495504   0.04136860782663981   0.013446080391428677
0.06474126779495504   0.04136860782663981   0.013446080391428677
0.06910030332223221   0.017275075830558054   0.017275075830558054
0.06910030332223221   0.017275075830558054   0.017275075830558054
0.06910030332223221   0.017275075830558054   0.017275075830558054
0.06910030332223221   0.017275075830558054   0.017275075830558054
-0.2894749892253034   -0.01511792504553535   0.00019017549277633265
-0.2894749892253034   -0.01511792504553535   0.00019017549277633265
-0.2894749892253034   -0.01511792504553535   0.00019017549277633265
-0.2894749892253034   -0.01511792504553535   0.00019017549277633265
-0.12464698113081986   -0.008431984649369624   -0.03795895755936969
-0.12464698113081986   -0.008431984649369624   -0.03795895755936969
-0.12464698113081986   -0.008431984649369624   -0.03795895755936969
-0.12464698113081986   -0.008431984649369624   -0.03795895755936969
0.043864080180565757   0.010966020045141439   0.010966020045141439
0.043864080180565757   0.010966020045141439   0.010966020045141439
0.043864080180565757   0.010966020045141439   0.010966020045141439
0.043864080180565757   0.010966020045141439   0.010966020045141439
0.4321264272890995   0.03969444161693568   0.013531573136661788
0.4321264272890995   0.03969444161693568   0.013531573136661788
0.4321264272890995   0.03969444161693568   0.013531573136661788
0.4321264272890995   0.03969444161693568   0.013531573136661788
0.46959259759254585   0.11739814939813646   0.11739814939813646
0.46959259759254585   0.11739814939813646   0.11739814939813646
0.46959259759254585   0.11739814939813646   0.11739814939813646
0.46959259759254585   0.11739814939813646   0.11739814939813646
0.04012759288587968   -0.0303918907165674   -0.006200639237305254
0.04012759288587968   -0.0303918907165674   -0.006200639237305254
0.04012759288587968   -0.0303918907165674   -0.006200639237305254
0.04012759288587968   -0.0303918907165674   -0.006200639237305254
0.24611344041222158   0.030662186457398377   0.044627490614208294
0.24611344041222158   0.030662186457398377   0.044627490614208294
0.24611344041222158   0.030662186457398377   0.044627490614208294
0.24611344041222158   0.030662186457398377   0.044627490614208294
0.0527178876407269   0.013179471910181725   0.013179471910181725
0.0527178876407269   0.013179471910181725   0.013179471910181725
0.0527178876407269   0.013179471910181725   0.013179471910181725
0.0527178876407269   0.013179471910181725   0.013179471910181725
0.4376869946922216   0.05451147862591032   0.020756805668741413
0.4376869946922216   0.05451147862591032   0.020756805668741413
0.4376869946922216   0.05451147862591032   0.020756805668741413
0.4376869946922216   0.05451147862591032   0.020756805668741413
0.467966950856044   0.116991737714011   0.116991737714011
0.467966950856044   0.116991737714011   0.116991737714011
0.467966950856044   0.116991737714011   0.116991737714011
0.467966950856044   0.116991737714011   0.116991737714011
0.05122550045402651   -0.012962332113926054   0.0001981836273519423
0.05122550045402651   -0.012962332113926054   0.0001981836273519423
0.05122550045402651   -0.012962332113926054   0.0001981836273519423
0.05122550045402651   -0.012962332113926054   0.0001981836273519423
0.2446898275060686   0.04038789569414094   0.011520355218467532
0.2446898275060686   0.04038789569414094   0.011520355218467532
0.2446898275060686   0.04038789569414094   0.011520355218467532
0.2446898275060686   0.04038789569414094   0.011520355218467532
0.05975370016815698   0.014938425042039245   0.014938425042039245
0.05975370016815698   0.014938425042039245   0.014938425042039245
0.05975370016815698   0.014938425042039245   0.014938425042039245
0.05975370016815698   0.014938425042039245   0.014938425042039245
0.44031125688854783   0.06996348630468005   0.025741519285861138
0.44031125688854783   0.06996348630468005   0.025741519285861138
0.44031125688854783   0.06996348630468005   0.025741519285861138
0.44031125688854783   0.06996348630468005   0.025741519285861138
0.477400525162255   0.11935013129056375   0.11935013129056375
0.477400525162255   0.11935013129056375   0.11935013129056375
0.477400525162255   0.11935013129056375   0.11935013129056375
0.477400525162255   0.11935013129056375   0.11935013129056375
0.06567668839516694   0.01006052839970505   0.007371548626084108
0.06567668839516694   0.01006052839970505   0.007371548626084108
0.06567668839516694   0.01006052839970505   0.007371548626084108
0.06567668839516694   0.01006052839970505   0.007371548626084108
0.24886166694689513   0.054886394524419346   -0.01917506678336972
0.24886166694689513   0.054886394524419346   -0.01917506678336972
0.24886166694689513   0.054886394524419346   -0.01917506678336972
0.24886166694689513   0.054886394524419346   -0.01917506678336972
0.4683124714870889   0.11707811787177222   0.11707811787177222
0.4683124714870889   0.11707811787177222   0.11707811787177222
0.4683124714870889   0.11707811787177222   0.11707811787177222
0.4683124714870889   0.11707811787177222   0.11707811787177222
0.9737455867255205   0.0743482052323873   0.02596466904842884
0.9737455867255205   0.0743482052323873   0.02596466904842884
0.9737455867255205   0.0743482052323873   0.02596466904842884
0.9737455867255205   0.0743482052323873   0.02596466904842884
0.9957614043253067   0.24894035108132667   0.24894035108132667
0.9957614043253067   0.24894035108132667   0.24894035108132667
0.9957614043253067   0.24894035108132667   0.24894035108132667
0.9957614043253067   0.24894035108132667   0.24894035108132667
0.41751473385226623   -0.023552805025860934   -0.0020402148792642363
0.41751473385226623   -0.023552805025860934   -0.0020402148792642363
0.41751473385226623   -0.023552805025860934   -0.0020402148792642363
0.41751473385226623   -0.023552805025860934   -0.0020402148792642363
0.6941506940156486   0.0983802614826587   0.07820698801769475
0.6941506940156486   0.0983802614826587   0.07820698801769475
0.6941506940156486   0.0983802614826587   0.07820698801769475
0.6941506940156486   0.0983802614826587   0.07820698801769475
0.4695925975925455   0.11739814939813638   0.11739814939813638
0.4695925975925455   0.11739814939813638   0.11739814939813638
0.4695925975925455   0.11739814939813638   0.11739814939813638
0.4695925975925455   0.11739814939813638   0.11739814939813638
0.9229668090993459   0.08727266517165101   0.046635060861213995
0.9229668090993459   0.08727266517165101   0.046635060861213995
0.9229668090993459   0.08727266517165101   0.046635060861213995
0.9229668090993459   0.08727266517165101   0.046635060861213995
0.966474986131286   0.2416187465328215   0.2416187465328215
0.966474986131286   0.2416187465328215   0.2416187465328215
0.966474986131286   0.2416187465328215   0.2416187465328215
0.966474986131286   0.2416187465328215   0.2416187465328215
0.4193393283495231   -0.012783011483001872   0.0036283743784191642
0.4193393283495231   -0.012783011483001872   0.0036283743784191642
0.4193393283495231   -0.012783011483001872   0.0036283743784191642
0.4193393283495231   -0.012783011483001872   0.0036283743784191642
0.6739940430013301   0.1013405523199599   0.03747759930807097
0.6739940430013301   0.1013405523199599   0.03747759930807097
0.6739940430013301   0.1013405523199599   0.03747759930807097
0.6739940430013301   0.1013405523199599   0.03747759930807097
0.467966950856044   0.116991737714011   0.116991737714011
0.467966950856044   0.116991737714011   0.116991737714011
0.467966950856044   0.116991737714011   0.116991737714011
0.467966950856044   0.116991737714011   0.116991737714011
0.8936750832998396   0.08767171701088608   0.0315662618975404
0.8936750832998396   0.08767171701088608   0.0315662618975404
0.8936750832998396   0.08767171701088608   0.0315662618975404
0.8936750832998396   0.08767171701088608   0.0315662618975404
0.9226062692763107   0.23065156731907768   0.23065156731907768
0.9226062692763107   0.23065156731907768   0.23065156731907768
0.9226062692763107   0.23065156731907768   0.23065156731907768
0.9226062692763107   0.23065156731907768   0.23065156731907768
0.4352486191483931   0.014337031695769789   0.013603700816048028
0.4352486191483931   0.014337031695769789   0.013603700816048028
0.4352486191483931   0.014337031695769789   0.013603700816048028
0.4352486191483931   0.014337031695769789   0.013603700816048028
0.645774517973736   0.11002280443098231   -0.00993995986010354
0.645774517973736   0.11002280443098231   -0.00993995986010354
0.645774517973736   0.11002280443098231   -0.00993995986010354
0.645774517973736   0.11002280443098231   -0.00993995986010354
-0.9421968368676175   -0.06752896754306592   0.011101947634036317
-0.9421968368676175   -0.06752896754306592   0.011101947634036317
-0.9421968368676175   -0.06752896754306592   0.011101947634036317
-0.9421968368676175   -0.06752896754306592   0.011101947634036317
-0.6002102244006652   -0.014315733736553898   -0.004055228513497225
-0.6002102244006652   -0.014315733736553898   -0.004055228513497225
-0.6002102244006652   -0.014315733736553898   -0.004055228513497225
-0.6002102244006652   -0.014315733736553898   -0.004055228513497225
-0.6038818437016191   0.024523004840310725   0.012924476533776291
-0.6038818437016191   0.024523004840310725   0.012924476533776291
-0.6038818437016191   0.024523004840310725   0.012924476533776291
-0.6038818437016191   0.024523004840310725   0.012924476533776291
-0.9560251803163187   -0.06546319942616557   -0.011539312502847524
-0.9560251803163187   -0.06546319942616557   -0.011539312502847524
-0.9560251803163187   -0.06546319942616557   -0.011539312502847524
-0.9560251803163187   -0.06546319942616557   -0.011539312502847524
-0.7451083697568656   -0.025594837207985166   -0.0032079813804956198
-0.7451083697568656   -0.025594837207985166   -0.0032079813804956198
-0.7451083697568656   -0.025594837207985166   -0.0032079813804956198
-0.7451083697568656   -0.025594837207985166   -0.0032079813804956198
-0.9488509409643504   -0.04606831079402099   0.004936995624849033
-0.9488509409643504   -0.04606831079402099   0.004936995624849033
-0.9488509409643504   -0.04606831079402099   0.004936995624849033
-0.9488509409643504   -0.04606831079402099   0.004936995624849033
-0.6120354069510301   0.004148792310725374   -0.007469127183683082
-0.6120354069510301   0.004148792310725374   -0.007469127183683082
-0.6120354069510301   0.004148792310725374   -0.007469127183683082
-0.6120354069510301   0.004148792310725374   -0.007469127183683082
-0.6043638900654907   0.03502704395954495   0.014631960852533425
-0.6043638900654907   0.03502704395954495   0.014631960852533425
-0.6043638900654907   0.03502704395954495   0.014631960852533425
-0.6043638900654907   0.03502704395954495   0.014631960852533425
-0.9614868064605357   -0.057573407306141106   -0.015209219999671925
-0.9614868064605357   -0.057573407306141106   -0.015209219999671925
-0.9614868064605357   -0.057573407306141106   -0.015209219999671925
-0.9614868064605357   -0.057573407306141106   -0.015209219999671925
-0.7657348577341332   -0.01703803772984308   -0.0073847020957139575
-0.7657348577341332   -0.01703803772984308   -0.0073847020957139575
-0.7657348577341332   -0.01703803772984308   -0.0073847020957139575
-0.7657348577341332   -0.01703803772984308   -0.0073847020957139575
-0.9439744587178494   -0.027388033049925792   0.04216714445753827
-0.9439744587178494   -0.027388033049925792   0.04216714445753827
-0.9439744587178494   -0.027388033049925792   0.04216714445753827
-0.9439744587178494   -0.027388033049925792   0.04216714445753827
-0.614641506569074   0.012076400942432564   -0.013805478648265243
-0.614641506569074   0.012076400942432564   -0.013805478648265243
-0.614641506569074   0.012076400942432564   -0.013805478648265243
-0.614641506569074   0.012076400942432564   -0.013805478648265243
-0.5931035364743538   0.061154127703361455   0.026341233933326075
-0.5931035364743538   0.061154127703361455   0.026341233933326075
-0.5931035364743538   0.061154127703361455   0.026341233933326075
-0.5931035364743538   0.061154127703361455   0.026341233933326075
-0.934415714608026   -0.04624739772926312   -0.024764807682058014
-0.934415714608026   -0.04624739772926312   -0.024764807682058014
-0.934415714608026   -0.04624739772926312   -0.024764807682058014
-0.934415714608026   -0.04624739772926312   -0.024764807682058014
-0.7360789567175104   0.007087502525393752   0.016394102389043312
-0.7360789567175104   0.007087502525393752   0.016394102389043312
-0.7360789567175104   0.007087502525393752   0.016394102389043312
-0.7360789567175104   0.007087502525393752   0.016394102389043312
-0.6149806820127183   -0.08168613184484222   -0.010537118465474121
-0.6149806820127183   -0.08168613184484222   -0.010537118465474121
-0.6149806820127183   -0.08168613184484222   -0.010537118465474121
-0.6149806820127183   -0.08168613184484222   -0.010537118465474121
-0.2839345363060923   -0.006619128081194886   0.002940378631793694
-0.2839345363060923   -0.006619128081194886   0.002940378631793694
-0.2839345363060923   -0.006619128081194886   0.002940378631793694
-0.2839345363060923   -0.006619128081194886   0.002940378631793694
-0.28783099988847105   0.005324339347777596   0.004419767589199427
-0.28783099988847105   0.005324339347777596   0.004419767589199427
-0.28783099988847105   0.005324339347777596   0.004419767589199427
-0.28783099988847105   0.005324339347777596   0.004419767589199427
-0.6270216520069198   -0.05974766072081615   -0.01850389943160061
-0.6270216520069198   -0.05974766072081615   -0.01850389943160061
-0.6270216520069198   -0.05974766072081615   -0.01850389943160061
-0.6270216520069198   -0.05974766072081615   -0.01850389943160061
-0.45345228726792874   -0.036964591263291526   -0.01052044088977864
-0.45345228726792874   -0.036964591263291526   -0.01052044088977864
-0.45345228726792874   -0.036964591263291526   -0.01052044088977864
-0.45345228726792874   -0.036964591263291526   -0.01052044088977864
-0.6263831788956638   -0.06523490740894046   -0.009824287187198247
-0.6263831788956638   -0.06523490740894046   -0.009824287187198247
-0.6263831788956638   -0.06523490740894046   -0.009824287187198247
-0.6263831788956638   -0.06523490740894046   -0.009824287187198247
-0.28735720572683293   0.011923853308796153   0.0001892244363739977
-0.28735720572683293   0.011923853308796153   0.0001892244363739977
-0.28735720572683293   0.011923853308796153   0.0001892244363739977
-0.28735720572683293   0.011923853308796153   0.0001892244363739977
-0.286533857209052   0.019974578011167823   0.005908596281758403
-0.286533857209052   0.019974578011167823   0.005908596281758403
-0.286533857209052   0.019974578011167823   0.005908596281758403
-0.286533857209052   0.019974578011167823   0.005908596281758403
-0.627034568362342   -0.04366305728673929   -0.02003132938543876
-0.627034568362342   -0.04366305728673929   -0.02003132938543876
-0.627034568362342   -0.04366305728673929   -0.02003132938543876
-0.627034568362342   -0.04366305728673929   -0.02003132938543876
-0.452358409805962   -0.020521199344215174   -0.00501090592236042
-0.452358409805962   -0.020521199344215174   -0.00501090592236042
-0.452358409805962   -0.020521199344215174   -0.00501090592236042
-0.452358409805962   -0.020521199344215174   -0.00501090592236042
-0.6245422272854095   -0.04921279293163214   -0.002019888355883813
-0.6245422272854095   -0.04921279293163214   -0.002019888355883813
-0.6245422272854095   -0.04921279293163214   -0.002019888355883813
-0.6245422272854095   -0.04921279293163214   -0.002019888355883813
-0.2869578942663275   0.027592617675718717   -0.00382962866916502
-0.2869578942663275   0.027592617675718717   -0.00382962866916502
-0.2869578942663275   0.027592617675718717   -0.00382962866916502
-0.2869578942663275   0.027592617675718717   -0.00382962866916502
-0.28153283621165287   0.03466866492128619   0.011735924088870746
-0.28153283621165287   0.03466866492128619   0.011735924088870746
-0.28153283621165287   0.03466866492128619   0.011735924088870746
-0.28153283621165287   0.03466866492128619   0.011735924088870746
-0.620082322596012   -0.025074705774555547   -0.022323863197050663
-0.620082322596012   -0.025074705774555547   -0.022323863197050663
-0.620082322596012   -0.025074705774555547   -0.022323863197050663
-0.620082322596012   -0.025074705774555547   -0.022323863197050663
-0.4502371706150603   -0.004956215871153205   0.0022492858458164275
-0.4502371706150603   -0.004956215871153205   0.0022492858458164275
-0.4502371706150603   -0.004956215871153205   0.0022492858458164275
-0.4502371706150603   -0.004956215871153205   0.0022492858458164275
-0.29931161314776816   -0.06801909227130597   -0.012545041386476807
-0.29931161314776816   -0.06801909227130597   -0.012545041386476807
-0.29931161314776816   -0.06801909227130597   -0.012545041386476807
-0.29931161314776816   -0.06801909227130597   -0.012545041386476807
0.029840045024686148   0.006770582529759255   0.011658571922236557
0.029840045024686148   0.006770582529759255   0.011658571922236557
0.029840045024686148   0.006770582529759255   0.011658571922236557
0.029840045024686148   0.006770582529759255   0.011658571922236557
0.028643338438225946   0.016953326024647625   0.0009715532214070038
0.028643338438225946   0.016953326024647625   0.0009715532214070038
0.028643338438225946   0.016953326024647625   0.0009715532214070038
0.028643338438225946   0.016953326024647625   0.0009715532214070038
-0.30037913661501703   -0.04497655073500039   -0.008020025960752361
-0.30037913661501703   -0.04497655073500039   -0.008020025960752361
-0.30037913661501703   -0.04497655073500039   -0.008020025960752361
-0.30037913661501703   -0.04497655073500039   -0.008020025960752361
-0.13661422988144853   -0.022635692255891213   -0.004387081125256155
-0.13661422988144853   -0.022635692255891213   -0.004387081125256155
-0.13661422988144853   -0.022635692255891213   -0.004387081125256155
-0.13661422988144853   -0.022635692255891213   -0.004387081125256155
-0.3024634681359471   -0.051788327328790865   -0.011629906971612355
-0.3024634681359471   -0.051788327328790865   -0.011629906971612355
-0.3024634681359471   -0.051788327328790865   -0.011629906971612355
-0.3024634681359471   -0.051788327328790865   -0.011629906971612355
0.031867903351740355   0.024905336011022412   0.009142367802604258
0.031867903351740355   0.024905336011022412   0.009142367802604258
0.031867903351740355   0.024905336011022412   0.009142367802604258
0.031867903351740355   0.024905336011022412   0.009142367802604258
0.03120859568749154   0.03305240744398688   0.005397750585627536
0.03120859568749154   0.03305240744398688   0.005397750585627536
0.03120859568749154   0.03305240744398688   0.005397750585627536
0.03120859568749154   0.03305240744398688   0.005397750585627536
-0.29917829961139225   -0.02731606059706493   -0.010022977121709891
-0.29917829961139225   -0.02731606059706493   -0.010022977121709891
-0.29917829961139225   -0.02731606059706493   -0.010022977121709891
-0.29917829961139225   -0.02731606059706493   -0.010022977121709891
-0.1342679326013695   -0.005541504168464835   0.0015534360548965986
-0.1342679326013695   -0.005541504168464835   0.0015534360548965986
-0.1342679326013695   -0.005541504168464835   0.0015534360548965986
-0.1342679326013695   -0.005541504168464835   0.0015534360548965986
-0.30000057548173387   -0.035465883600900264   -0.005984533469582801
-0.30000057548173387   -0.035465883600900264   -0.005984533469582801
-0.30000057548173387   -0.035465883600900264   -0.005984533469582801
-0.30000057548173387   -0.035465883600900264   -0.005984533469582801
0.03325997153396476   0.04243133042395343   0.006275706838026833
0.03325997153396476   0.04243133042395343   0.006275706838026833
0.03325997153396476   0.04243133042395343   0.006275706838026833
0.03325997153396476   0.04243133042395343   0.006275706838026833
0.0321661093165035   0.050941380198284   0.00884560317006721
0.0321661093165035   0.050941380198284   0.00884560317006721
0.0321661093165035   0.050941380198284   0.00884560317006721
0.0321661093165035   0.050941380198284   0.00884560317006721
-0.29503539000462675   -0.008453773835618711   -0.012654406119092437
-0.29503539000462675   -0.008453773835618711   -0.012654406119092437
-0.29503539000462675   -0.008453773835618711   -0.012654406119092437
-0.29503539000462675   -0.008453773835618711   -0.012654406119092437
-0.13068579717932327   0.012334257726825382   0.008057395475401047
-0.13068579717932327   0.012334257726825382   0.008057395475401047
-0.13068579717932327   0.012334257726825382   0.008057395475401047
-0.13068579717932327   0.012334257726825382   0.008057395475401047
0.013064421777156629   -0.04992838872492951   -0.015520573060722286
0.013064421777156629   -0.04992838872492951   -0.015520573060722286
0.013064421777156629   -0.04992838872492951   -0.015520573060722286
0.013064421777156629   -0.04992838872492951   -0.015520573060722286
0.3540935322122726   0.024302885199871914   0.021472962697301312
0.3540935322122726   0.024302885199871914   0.021472962697301312
0.3540935322122726   0.024302885199871914   0.021472962697301312
0.3540935322122726   0.024302885199871914   0.021472962697301312
0.35386352232700957   0.03289942060759476   -0.0034800120576243005
0.35386352232700957   0.03289942060759476   -0.0034800120576243005
0.35386352232700957   0.03289942060759476   -0.0034800120576243005
0.35386352232700957   0.03289942060759476   -0.0034800120576243005
0.019545033197464194   -0.029843416673828865   0.002276769716074734
0.019545033197464194   -0.029843416673828865   0.002276769716074734
0.019545033197464194   -0.029843416673828865   0.002276769716074734
0.019545033197464194   -0.029843416673828865   0.002276769716074734
0.18284592981060196   -0.004376796938989062   0.0003125921618255343
0.18284592981060196   -0.004376796938989062   0.0003125921618255343
0.18284592981060196   -0.004376796938989062   0.0003125921618255343
0.18284592981060196   -0.004376796938989062   0.0003125921618255343
0.01544492190808597   -0.03641811478799509   -0.011649088616649973
0.01544492190808597   -0.03641811478799509   -0.011649088616649973
0.01544492190808597   -0.03641811478799509   -0.011649088616649973
0.01544492190808597   -0.03641811478799509   -0.011649088616649973
0.360026846652766   0.04153733175813872   0.01869869842061088
0.360026846652766   0.04153733175813872   0.01869869842061088
0.360026846652766   0.04153733175813872   0.01869869842061088
0.360026846652766   0.04153733175813872   0.01869869842061088
0.3569460856914326   0.04883688941329717   0.0034737060260609832
0.3569460856914326   0.04883688941329717   0.0034737060260609832
0.3569460856914326   0.04883688941329717   0.0034737060260609832
0.3569460856914326   0.04883688941329717   0.0034737060260609832
0.020526214186730174   -0.014045593534658465   -0.0009161559395339542
0.020526214186730174   -0.014045593534658465   -0.0009161559395339542
0.020526214186730174   -0.014045593534658465   -0.0009161559395339542
0.020526214186730174   -0.014045593534658465   -0.0009161559395339542
0.18556620072331664   0.010848062317785723   0.007615401661203163
0.18556620072331664   0.010848062317785723   0.007615401661203163
0.18556620072331664   0.010848062317785723   0.007615401661203163
0.18556620072331664   0.010848062317785723   0.007615401661203163
0.017514247961995154   -0.02145711288114684   -0.008564467716720627
0.017514247961995154   -0.02145711288114684   -0.008564467716720627
0.017514247961995154   -0.02145711288114684   -0.008564467716720627
0.017514247961995154   -0.02145711288114684   -0.008564467716720627
0.3614533644064138   0.05774372125003062   0.017103267764227874
0.3614533644064138   0.05774372125003062   0.017103267764227874
0.3614533644064138   0.05774372125003062   0.017103267764227874
0.3614533644064138   0.05774372125003062   0.017103267764227874
0.3514455573191982   0.06722409258490178   0.007420500628035558
0.3514455573191982   0.06722409258490178   0.007420500628035558
0.3514455573191982   0.06722409258490178   0.007420500628035558
0.3514455573191982   0.06722409258490178   0.007420500628035558
0.020573097871134337   0.005474883434029448   -0.0036529572925240498
0.020573097871134337   0.005474883434029448   -0.0036529572925240498
0.020573097871134337   0.005474883434029448   -0.0036529572925240498
0.020573097871134337   0.005474883434029448   -0.0036529572925240498
0.18858368893389665   0.028244919466270953   0.014389833215457289
0.18858368893389665   0.028244919466270953   0.014389833215457289
0.18858368893389665   0.028244919466270953   0.014389833215457289
0.18858368893389665   0.028244919466270953   0.014389833215457289
0.32592416776789007   -0.0661860060281437   -0.02888496829659573
0.32592416776789007   -0.0661860060281437   -0.02888496829659573
0.32592416776789007   -0.0661860060281437   -0.02888496829659573
0.32592416776789007   -0.0661860060281437   -0.02888496829659573
0.672282061390121   0.044419292991756565   0.021146058605338983
0.672282061390121   0.044419292991756565   0.021146058605338983
0.672282061390121   0.044419292991756565   0.021146058605338983
0.672282061390121   0.044419292991756565   0.021146058605338983
0.680189255835187   0.020694681990993044   -0.043477301777917005
0.680189255835187   0.020694681990993044   -0.043477301777917005
0.680189255835187   0.020694681990993044   -0.043477301777917005
0.680189255835187   0.020694681990993044   -0.043477301777917005
0.34787941717942544   -0.013225566532261215   0.012724449344305059
0.34787941717942544   -0.013225566532261215   0.012724449344305059
0.34787941717942544   -0.013225566532261215   0.012724449344305059
0.34787941717942544   -0.013225566532261215   0.012724449344305059
0.48133761664436536   -0.008663955918946808   -0.012233663244012767
0.48133761664436536   -0.008663955918946808   -0.012233663244012767
0.48133761664436536   -0.008663955918946808   -0.012233663244012767
0.48133761664436536   -0.008663955918946808   -0.012233663244012767
0.3354411012924215   -0.04341502323880912   -0.019277673384162402
0.3354411012924215   -0.04341502323880912   -0.019277673384162402
0.3354411012924215   -0.04341502323880912   -0.019277673384162402
0.3354411012924215   -0.04341502323880912   -0.019277673384162402
0.6988548710211653   0.057111437996516065   0.013434018146451673
0.6988548710211653   0.057111437996516065   0.013434018146451673
0.6988548710211653   0.057111437996516065   0.013434018146451673
0.6988548710211653   0.057111437996516065   0.013434018146451673
0.6881143248589008   0.038216999103071594   -0.01014656920059127
0.6881143248589008   0.038216999103071594   -0.01014656920059127
0.6881143248589008   0.038216999103071594   -0.01014656920059127
0.6881143248589008   0.038216999103071594   -0.01014656920059127
0.3467545773373949   -0.00531977044728732   0.0066728241164514535
0.3467545773373949   -0.00531977044728732   0.0066728241164514535
0.3467545773373949   -0.00531977044728732   0.0066728241164514535
0.3467545773373949   -0.00531977044728732   0.0066728241164514535
0.5070066107975992   0.012690021266903495   0.008380069761959662
0.5070066107975992   0.012690021266903495   0.008380069761959662
0.5070066107975992   0.012690021266903495   0.008380069761959662
0.5070066107975992   0.012690021266903495   0.008380069761959662
0.33673496806468667   -0.03314879746210625   -0.015596195232268267
0.33673496806468667   -0.03314879746210625   -0.015596195232268267
0.33673496806468667   -0.03314879746210625   -0.015596195232268267
0.33673496806468667   -0.03314879746210625   -0.015596195232268267
0.6973374724229284   0.06524956440921065   0.008936603313407829
0.6973374724229284   0.06524956440921065   0.008936603313407829
0.6973374724229284   0.06524956440921065   0.008936603313407829
0.6973374724229284   0.06524956440921065   0.008936603313407829
0.6874527293248207   0.05897354490408073   -0.015417843318824832
0.6874527293248207   0.05897354490408073   -0.015417843318824832
0.6874527293248207   0.05897354490408073   -0.015417843318824832
0.6874527293248207   0.05897354490408073   -0.015417843318824832
0.33983643585285334   0.012806540064748267   0.0037924458164593187
0.33983643585285334   0.012806540064748267   0.0037924458164593187
0.33983643585285334   0.012806540064748267   0.0037924458164593187
0.33983643585285334   0.012806540064748267   0.0037924458164593187
0.49438188399662075   0.02241016416223425   0.006365521905205899
0.49438188399662075   0.02241016416223425   0.006365521905205899
0.49438188399662075   0.02241016416223425   0.006365521905205899
0.49438188399662075   0.02241016416223425   0.006365521905205899
-0.7378155600587202   -0.03331948424862914   0.03853135458417968
-0.7378155600587202   -0.03331948424862914   0.03853135458417968
-0.7378155600587202   -0.03331948424862914   0.03853135458417968
-0.7378155600587202   -0.03331948424862914   0.03853135458417968
-0.4908460740054294   -0.019003149078993267   -0.010025700448376976
-0.4908460740054294   -0.019003149078993267   -0.010025700448376976
-0.4908460740054294   -0.019003149078993267   -0.010025700448376976
-0.4908460740054294   -0.019003149078993267   -0.010025700448376976
-0.4728420920041817   0.03993498924943065   0.03226854256299659
-0.4728420920041817   0.03993498924943065   0.03226854256299659
-0.4728420920041817   0.03993498924943065   0.03226854256299659
-0.4728420920041817   0.03993498924943065   0.03226854256299659
-0.7411048309131035   -0.05303540044327293   -0.01567554150850293
-0.7411048309131035   -0.05303540044327293   -0.01567554150850293
-0.7411048309131035   -0.05303540044327293   -0.01567554150850293
-0.7411048309131035   -0.05303540044327293   -0.01567554150850293
-0.5859138716907698   -0.00905215949737384   -0.0013281122323145003
-0.5859138716907698   -0.00905215949737384   -0.0013281122323145003
-0.5859138716907698   -0.00905215949737384   -0.0013281122323145003
-0.5859138716907698   -0.00905215949737384   -0.0013281122323145003
-0.7202216800554618   -0.007378062005115149   0.04308287434154785
-0.7202216800554618   -0.007378062005115149   0.04308287434154785
-0.7202216800554618   -0.007378062005115149   0.04308287434154785
-0.7202216800554618   -0.007378062005115149   0.04308287434154785
-0.4904416363481052   -0.0024387426750090146   -0.013355447232181746
-0.4904416363481052   -0.0024387426750090146   -0.013355447232181746
-0.4904416363481052   -0.0024387426750090146   -0.013355447232181746
-0.4904416363481052   -0.0024387426750090146   -0.013355447232181746
-0.47079080415088664   0.049580879311003204   0.029866210776400615
-0.47079080415088664   0.049580879311003204   0.029866210776400615
-0.47079080415088664   0.049580879311003204   0.029866210776400615
-0.47079080415088664   0.049580879311003204   0.029866210776400615
-0.7293555977853505   -0.04427820868359693   -0.02142321544280502
-0.7293555977853505   -0.04427820868359693   -0.02142321544280502
-0.7293555977853505   -0.04427820868359693   -0.02142321544280502
-0.7293555977853505   -0.04427820868359693   -0.02142321544280502
-0.5869367178087076   0.0022773557679739154   0.0066437133218598884
-0.5869367178087076   0.0022773557679739154   0.0066437133218598884
-0.5869367178087076   0.0022773557679739154   0.0066437133218598884
-0.5869367178087076   0.0022773557679739154   0.0066437133218598884
-0.7099243441858278   0.001726581602480931   0.029728262268730432
-0.7099243441858278   0.001726581602480931   0.029728262268730432
-0.7099243441858278   0.001726581602480931   0.029728262268730432
-0.7099243441858278   0.001726581602480931   0.029728262268730432
-0.489141413455591   0.004656733319745088   -0.0169626897558583
-0.489141413455591   0.004656733319745088   -0.0169626897558583
-0.489141413455591   0.004656733319745088   -0.0169626897558583
-0.489141413455591   0.004656733319745088   -0.0169626897558583
-0.4711353134573796   0.05610181249416166   0.023700842284419384
-0.4711353134573796   0.05610181249416166   0.023700842284419384
-0.4711353134573796   0.05610181249416166   0.023700842284419384
-0.4711353134573796   0.05610181249416166   0.023700842284419384
-0.7141782649857664   -0.03490404180797177   -0.027284645878374925
-0.7141782649857664   -0.03490404180797177   -0.027284645878374925
-0.7141782649857664   -0.03490404180797177   -0.027284645878374925
-0.7141782649857664   -0.03490404180797177   -0.027284645878374925
-0.5698779220490245   0.012455916045610319   0.014036344259998272
-0.5698779220490245   0.012455916045610319   0.014036344259998272
-0.5698779220490245   0.012455916045610319   0.014036344259998272
-0.5698779220490245   0.012455916045610319   0.014036344259998272
-0.49214765273116945   -0.046630979769819225   0.011094236613749073
-0.49214765273116945   -0.046630979769819225   0.011094236613749073
-0.49214765273116945   -0.046630979769819225   0.011094236613749073
-0.49214765273116945   -0.046630979769819225   0.011094236613749073
-0.24933128911378927   -0.009215363878481847   0.0004395687258056877
-0.24933128911378927   -0.009215363878481847   0.0004395687258056877
-0.24933128911378927   -0.009215363878481847   0.0004395687258056877
-0.24933128911378927   -0.009215363878481847   0.0004395687258056877
-0.24210789156114235   0.02443935197298333   0.01751740359161932
-0.24210789156114235   0.02443935197298333   0.01751740359161932
-0.24210789156114235   0.02443935197298333   0.01751740359161932
-0.24210789156114235   0.02443935197298333   0.01751740359161932
-0.49992745631792695   -0.04598495221768868   -0.01723833753861557
-0.49992745631792695   -0.04598495221768868   -0.01723833753861557
-0.49992745631792695   -0.04598495221768868   -0.01723833753861557
-0.49992745631792695   -0.04598495221768868   -0.01723833753861557
-0.3695892864255982   -0.01813951072212558   -0.007606966265870291
-0.3695892864255982   -0.01813951072212558   -0.007606966265870291
-0.3695892864255982   -0.01813951072212558   -0.007606966265870291
-0.3695892864255982   -0.01813951072212558   -0.007606966265870291
-0.4904626522653894   -0.026595778987427127   0.010696509493814007
-0.4904626522653894   -0.026595778987427127   0.010696509493814007
-0.4904626522653894   -0.026595778987427127   0.010696509493814007
-0.4904626522653894   -0.026595778987427127   0.010696509493814007
-0.249663983393539   0.00695889096286359   -0.0027825945602421957
-0.249663983393539   0.00695889096286359   -0.0027825945602421957
-0.249663983393539   0.00695889096286359   -0.0027825945602421957
-0.249663983393539   0.00695889096286359   -0.0027825945602421957
-0.24123265459340143   0.040530691817079974   0.015135502364717054
-0.24123265459340143   0.040530691817079974   0.015135502364717054
-0.24123265459340143   0.040530691817079974   0.015135502364717054
-0.24123265459340143   0.040530691817079974   0.015135502364717054
-0.49695080101687283   -0.03098613550966163   -0.02036675873286579
-0.49695080101687283   -0.03098613550966163   -0.02036675873286579
-0.49695080101687283   -0.03098613550966163   -0.02036675873286579
-0.49695080101687283   -0.03098613550966163   -0.02036675873286579
-0.3654360292168081   -0.0018954357547839584   -9.181783438839616e-05
-0.3654360292168081   -0.0018954357547839584   -9.181783438839616e-05
-0.3654360292168081   -0.0018954357547839584   -9.181783438839616e-05
-0.3654360292168081   -0.0018954357547839584   -9.181783438839616e-05
-0.4872953399815526   -0.01027005295556542   0.007194463889639357
-0.4872953399815526   -0.01027005295556542   0.007194463889639357
-0.4872953399815526   -0.01027005295556542   0.007194463889639357
-0.4872953399815526   -0.01027005295556542   0.007194463889639357
-0.2493346494596635   0.021368075432043096   -0.006211855581551493
-0.2493346494596635   0.021368075432043096   -0.006211855581551493
-0.2493346494596635   0.021368075432043096   -0.006211855581551493
-0.2493346494596635   0.021368075432043096   -0.006211855581551493
-0.24105549810993282   0.05746030954944256   0.011324388936858693
-0.24105549810993282   0.05746030954944256   0.011324388936858693
-0.24105549810993282   0.05746030954944256   0.011324388936858693
-0.24105549810993282   0.05746030954944256   0.011324388936858693
-0.4944318835985511   -0.01477338789906632   -0.021906808028212602
-0.4944318835985511   -0.01477338789906632   -0.021906808028212602
-0.4944318835985511   -0.01477338789906632   -0.021906808028212602
-0.4944318835985511   -0.01477338789906632   -0.021906808028212602
-0.3655439457737841   0.013038472364283127   0.005669619582336249
-0.3655439457737841   0.013038472364283127   0.005669619582336249
-0.3655439457737841   0.013038472364283127   0.005669619582336249
-0.3655439457737841   0.013038472364283127   0.005669619582336249
-0.2585507082453858   -0.053511550559028814   -0.0013613402516318006
-0.2585507082453858   -0.053511550559028814   -0.0013613402516318006
-0.2585507082453858   -0.053511550559028814   -0.0013613402516318006
-0.2585507082453858   -0.053511550559028814   -0.0013613402516318006
-0.009995137711177814   0.0023844033119856667   0.011032454676743101
-0.009995137711177814   0.0023844033119856667   0.011032454676743101
-0.009995137711177814   0.0023844033119856667   0.011032454676743101
-0.009995137711177814   0.0023844033119856667   0.011032454676743101
-0.010837094568779505   0.01559340454782947   0.00528770840715747
-0.010837094568779505   0.01559340454782947   0.00528770840715747
-0.010837094568779505   0.01559340454782947   0.00528770840715747
-0.010837094568779505   0.01559340454782947   0.00528770840715747
-0.2586178760775928   -0.034182075938659184   -0.006411091078990488
-0.2586178760775928   -0.034182075938659184   -0.006411091078990488
-0.2586178760775928   -0.034182075938659184   -0.006411091078990488
-0.2586178760775928   -0.034182075938659184   -0.006411091078990488
-0.13491890643728516   -0.016853566015928998   -0.004282989890773804
-0.13491890643728516   -0.016853566015928998   -0.004282989890773804
-0.13491890643728516   -0.016853566015928998   -0.004282989890773804
-0.13491890643728516   -0.016853566015928998   -0.004282989890773804
-0.2583382761100324   -0.035669505731518766   -0.003525661448328889
-0.2583382761100324   -0.035669505731518766   -0.003525661448328889
-0.2583382761100324   -0.035669505731518766   -0.003525661448328889
-0.2583382761100324   -0.035669505731518766   -0.003525661448328889
-0.009695820923534805   0.018501707953493846   0.008085773227716656
-0.009695820923534805   0.018501707953493846   0.008085773227716656
-0.009695820923534805   0.018501707953493846   0.008085773227716656
-0.009695820923534805   0.018501707953493846   0.008085773227716656
-0.009548052491912123   0.033114798059903056   0.002501069043649889
-0.009548052491912123   0.033114798059903056   0.002501069043649889
-0.009548052491912123   0.033114798059903056   0.002501069043649889
-0.009548052491912123   0.033114798059903056   0.002501069043649889
-0.25785600778110607   -0.018031495105329413   -0.00941907665139421
-0.25785600778110607   -0.018031495105329413   -0.00941907665139421
-0.25785600778110607   -0.018031495105329413   -0.00941907665139421
-0.25785600778110607   -0.018031495105329413   -0.00941907665139421
-0.13350402944442558   -0.0006674798106031006   0.0017947752519127868
-0.13350402944442558   -0.0006674798106031006   0.0017947752519127868
-0.13350402944442558   -0.0006674798106031006   0.0017947752519127868
-0.13350402944442558   -0.0006674798106031006   0.0017947752519127868
-0.2574710978668149   -0.01839602438405115   -0.00712999780121646
-0.2574710978668149   -0.01839602438405115   -0.00712999780121646
-0.2574710978668149   -0.01839602438405115   -0.00712999780121646
-0.2574710978668149   -0.01839602438405115   -0.00712999780121646
-0.008760600522445516   0.034651689222382306   0.0049014377285038595
-0.008760600522445516   0.034651689222382306   0.0049014377285038595
-0.008760600522445516   0.034651689222382306   0.0049014377285038595
-0.008760600522445516   0.034651689222382306   0.0049014377285038595
-0.009187259039956683   0.05115284636335849   -0.00046943608887644456
-0.009187259039956683   0.05115284636335849   -0.00046943608887644456
-0.009187259039956683   0.05115284636335849   -0.00046943608887644456
-0.009187259039956683   0.05115284636335849   -0.00046943608887644456
-0.25762831213209225   -0.001612640351709757   -0.012466731272787815
-0.25762831213209225   -0.001612640351709757   -0.012466731272787815
-0.25762831213209225   -0.001612640351709757   -0.012466731272787815
-0.25762831213209225   -0.001612640351709757   -0.012466731272787815
-0.13238050187238207   0.015534594249143586   0.00737014696903515
-0.13238050187238207   0.015534594249143586   0.00737014696903515
-0.13238050187238207   0.015534594249143586   0.00737014696903515
-0.13238050187238207   0.015534594249143586   0.00737014696903515
-0.026996667946219438   -0.05877325500715248   -0.012817538179326715
-0.026996667946219438   -0.05877325500715248   -0.012817538179326715
-0.026996667946219438   -0.05877325500715248   -0.012817538179326715
-0.026996667946219438   -0.05877325500715248   -0.012817538179326715
0.22825017034713294   0.015930090368148818   0.020989523032414747
0.22825017034713294   0.015930090368148818   0.020989523032414747
0.22825017034713294   0.015930090368148818   0.020989523032414747
0.22825017034713294   0.015930090368148818   0.020989523032414747
0.22075185859726124   0.00826187984352137   -0.00840357309697108
0.22075185859726124   0.00826187984352137   -0.00840357309697108
0.22075185859726124   0.00826187984352137   -0.00840357309697108
0.22075185859726124   0.00826187984352137   -0.00840357309697108
-0.018366947649693266   -0.021374470396853903   0.004606317947272099
-0.018366947649693266   -0.021374470396853903   0.004606317947272099
-0.018366947649693266   -0.021374470396853903   0.004606317947272099
-0.018366947649693266   -0.021374470396853903   0.004606317947272099
0.09946964446632091   -0.01376446290339451   -0.0024435753881098844
0.09946964446632091   -0.01376446290339451   -0.0024435753881098844
0.09946964446632091   -0.01376446290339451   -0.0024435753881098844
0.09946964446632091   -0.01376446290339451   -0.0024435753881098844
-0.026798146101553545   -0.04279352951552   -0.016130615193363198
-0.026798146101553545   -0.04279352951552   -0.016130615193363198
-0.026798146101553545   -0.04279352951552   -0.016130615193363198
-0.026798146101553545   -0.04279352951552   -0.016130615193363198
0.23079990536932757   0.03129778728239355   0.018800753324488488
0.23079990536932757   0.03129778728239355   0.018800753324488488
0.23079990536932757   0.03129778728239355   0.018800753324488488
0.23079990536932757   0.03129778728239355   0.018800753324488488
0.22450407751105472   0.024573485381501874   -0.011798624683058746
0.22450407751105472   0.024573485381501874   -0.011798624683058746
0.22450407751105472   0.024573485381501874   -0.011798624683058746
0.22450407751105472   0.024573485381501874   -0.011798624683058746
-0.01777338268682691   -0.006900585962816749   0.001389802091796115
-0.01777338268682691   -0.006900585962816749   0.001389802091796115
-0.01777338268682691   -0.006900585962816749   0.001389802091796115
-0.01777338268682691   -0.006900585962816749   0.001389802091796115
0.10049430704677187   0.0009045501072707691   0.0036054867064842875
0.10049430704677187   0.0009045501072707691   0.0036054867064842875
0.10049430704677187   0.0009045501072707691   0.0036054867064842875
0.10049430704677187   0.0009045501072707691   0.0036054867064842875
-0.025976406218929243   -0.02705672227849172   -0.019469179253040807
-0.025976406218929243   -0.02705672227849172   -0.019469179253040807
-0.025976406218929243   -0.02705672227849172   -0.019469179253040807
-0.025976406218929243   -0.02705672227849172   -0.019469179253040807
0.23446994687287773   0.04649246752689717   0.016111739980661052
0.23446994687287773   0.04649246752689717   0.016111739980661052
0.23446994687287773   0.04649246752689717   0.016111739980661052
0.23446994687287773   0.04649246752689717   0.016111739980661052
0.22686584717638167   0.044991071632527906   -0.012364765605279096
0.22686584717638167   0.044991071632527906   -0.012364765605279096
0.22686584717638167   0.044991071632527906   -0.012364765605279096
0.22686584717638167   0.044991071632527906   -0.012364765605279096
-0.017692392485075016   0.009977501297824175   -0.0018197582489336674
-0.017692392485075016   0.009977501297824175   -0.0018197582489336674
-0.017692392485075016   0.009977501297824175   -0.0018197582489336674
-0.017692392485075016   0.009977501297824175   -0.0018197582489336674
0.10414392437725892   0.017222171020108947   0.010772056848646573
0.10414392437725892   0.017222171020108947   0.010772056848646573
0.10414392437725892   0.017222171020108947   0.010772056848646573
0.10414392437725892   0.017222171020108947   0.010772056848646573
0.2041645385765603   -0.058445943652068455   -0.025062601800229227
0.2041645385765603   -0.058445943652068455   -0.025062601800229227
0.2041645385765603   -0.058445943652068455   -0.025062601800229227
0.2041645385765603   -0.058445943652068455   -0.025062601800229227
0.45026984882476934   0.033474374668260615   0.023511342124901167
0.45026984882476934   0.033474374668260615   0.023511342124901167
0.45026984882476934   0.033474374668260615   0.023511342124901167
0.45026984882476934   0.033474374668260615   0.023511342124901167
0.44679821742889564   -0.0026600105294579124   -0.03336657089114861
0.44679821742889564   -0.0026600105294579124   -0.03336657089114861
0.44679821742889564   -0.0026600105294579124   -0.03336657089114861
0.44679821742889564   -0.0026600105294579124   -0.03336657089114861
0.22301787115076047   -0.004640563004551769   0.01582893251860014
0.22301787115076047   -0.004640563004551769   0.01582893251860014
0.22301787115076047   -0.004640563004551769   0.01582893251860014
0.22301787115076047   -0.004640563004551769   0.01582893251860014
0.31498348045846075   -0.011535441735608915   -0.010435732587667862
0.31498348045846075   -0.011535441735608915   -0.010435732587667862
0.31498348045846075   -0.011535441735608915   -0.010435732587667862
0.31498348045846075   -0.011535441735608915   -0.010435732587667862
0.20448897552589576   -0.050616472044902404   -0.03083963656537121
0.20448897552589576   -0.050616472044902404   -0.03083963656537121
0.20448897552589576   -0.050616472044902404   -0.03083963656537121
0.20448897552589576   -0.050616472044902404   -0.03083963656537121
0.4666545063337195   0.044643291790852226   0.018611571312660967
0.4666545063337195   0.044643291790852226   0.018611571312660967
0.4666545063337195   0.044643291790852226   0.018611571312660967
0.4666545063337195   0.044643291790852226   0.018611571312660967
0.4580631971239135   0.006643820666943523   -0.044817840098913
0.4580631971239135   0.006643820666943523   -0.044817840098913
0.4580631971239135   0.006643820666943523   -0.044817840098913
0.4580631971239135   0.006643820666943523   -0.044817840098913
0.22480838865969704   0.0024612699296459734   0.011835146512013069
0.22480838865969704   0.0024612699296459734   0.011835146512013069
0.22480838865969704   0.0024612699296459734   0.011835146512013069
0.22480838865969704   0.0024612699296459734   0.011835146512013069
0.3295010887136792   -0.0014523619670600701   -0.0031262870789872874
0.3295010887136792   -0.0014523619670600701   -0.0031262870789872874
0.3295010887136792   -0.0014523619670600701   -0.0031262870789872874
0.3295010887136792   -0.0014523619670600701   -0.0031262870789872874
0.20695972816120706   -0.0413355685966449   -0.03361131745414858
0.20695972816120706   -0.0413355685966449   -0.03361131745414858
0.20695972816120706   -0.0413355685966449   -0.03361131745414858
0.20695972816120706   -0.0413355685966449   -0.03361131745414858
0.4788484027243226   0.05337720429515366   0.012374804274926016
0.4788484027243226   0.05337720429515366   0.012374804274926016
0.4788484027243226   0.05337720429515366   0.012374804274926016
0.4788484027243226   0.05337720429515366   0.012374804274926016
0.4759335245711354   0.030821509184744064   -0.042229797301843716
0.4759335245711354   0.030821509184744064   -0.042229797301843716
0.4759335245711354   0.030821509184744064   -0.042229797301843716
0.4759335245711354   0.030821509184744064   -0.042229797301843716
0.22568676600904541   0.018061908240046942   0.00866899195052454
0.22568676600904541   0.018061908240046942   0.00866899195052454
0.22568676600904541   0.018061908240046942   0.00866899195052454
0.22568676600904541   0.018061908240046942   0.00866899195052454
0.33220827525061136   0.01003976125405516   0.0049993560560772365
0.33220827525061136   0.01003976125405516   0.0049993560560772365
0.33220827525061136   0.01003976125405516   0.0049993560560772365
0.33220827525061136   0.01003976125405516   0.0049993560560772365
-0.5250681718466805   -0.016890265082167552   0.03476081737700276
-0.5250681718466805   -0.016890265082167552   0.03476081737700276
-0.5250681718466805   -0.016890265082167552   0.03476081737700276
-0.5250681718466805   -0.016890265082167552   0.03476081737700276
-0.36844291811815316   -0.024886425501032955   -0.013063480437596493
-0.36844291811815316   -0.024886425501032955   -0.013063480437596493
-0.36844291811815316   -0.024886425501032955   -0.013063480437596493
-0.36844291811815316   -0.024886425501032955   -0.013063480437596493
-0.34661716809315574   0.034918106804575536   0.029604331910791516
-0.34661716809315574   0.034918106804575536   0.029604331910791516
-0.34661716809315574   0.034918106804575536   0.029604331910791516
-0.34661716809315574   0.034918106804575536   0.029604331910791516
-0.5250966991230174   -0.043283958798292915   -0.019122622673064874
-0.5250966991230174   -0.043283958798292915   -0.019122622673064874
-0.5250966991230174   -0.043283958798292915   -0.019122622673064874
-0.5250966991230174   -0.043283958798292915   -0.019122622673064874
-0.423285819404092   -0.0066838893808267436   -0.001153642117544873
-0.423285819404092   -0.0066838893808267436   -0.001153642117544873
-0.423285819404092   -0.0066838893808267436   -0.001153642117544873
-0.423285819404092   -0.0066838893808267436   -0.001153642117544873
-0.5052325865063751   0.0038807942184533734   0.0330331873934001
-0.5052325865063751   0.0038807942184533734   0.0330331873934001
-0.5052325865063751   0.0038807942184533734   0.0330331873934001
-0.5052325865063751   0.0038807942184533734   0.0330331873934001
-0.3648600356272916   -0.010625401129665007   -0.016066497825643438
-0.3648600356272916   -0.010625401129665007   -0.016066497825643438
-0.3648600356272916   -0.010625401129665007   -0.016066497825643438
-0.3648600356272916   -0.010625401129665007   -0.016066497825643438
-0.34334287419943277   0.04220769777985266   0.02499359328852509
-0.34334287419943277   0.04220769777985266   0.02499359328852509
-0.34334287419943277   0.04220769777985266   0.02499359328852509
-0.34334287419943277   0.04220769777985266   0.02499359328852509
-0.5125314240058586   -0.03515257982212401   -0.024140262591822448
-0.5125314240058586   -0.03515257982212401   -0.024140262591822448
-0.5125314240058586   -0.03515257982212401   -0.024140262591822448
-0.5125314240058586   -0.03515257982212401   -0.024140262591822448
-0.42022851690959645   0.0029168716392937166   0.0042962117338922155
-0.42022851690959645   0.0029168716392937166   0.0042962117338922155
-0.42022851690959645   0.0029168716392937166   0.0042962117338922155
-0.42022851690959645   0.0029168716392937166   0.0042962117338922155
-0.4928561257360751   0.012602548834844476   0.02648110010012657
-0.4928561257360751   0.012602548834844476   0.02648110010012657
-0.4928561257360751   0.012602548834844476   0.02648110010012657
-0.4928561257360751   0.012602548834844476   0.02648110010012657
-0.36155721933030255   -0.004086477738201838   -0.019783956847767556
-0.36155721933030255   -0.004086477738201838   -0.019783956847767556
-0.36155721933030255   -0.004086477738201838   -0.019783956847767556
-0.36155721933030255   -0.004086477738201838   -0.019783956847767556
-0.34153446523434317   0.04938241454466359   0.021503836133374976
-0.34153446523434317   0.04938241454466359   0.021503836133374976
-0.34153446523434317   0.04938241454466359   0.021503836133374976
-0.34153446523434317   0.04938241454466359   0.021503836133374976
-0.49574124289063515   -0.024367936177821126   -0.028882113639513027
-0.49574124289063515   -0.024367936177821126   -0.028882113639513027
-0.49574124289063515   -0.024367936177821126   -0.028882113639513027
-0.49574124289063515   -0.024367936177821126   -0.028882113639513027
-0.4043893344790265   0.011945301503164654   0.01189944984282561
-0.4043893344790265   0.011945301503164654   0.01189944984282561
-0.4043893344790265   0.011945301503164654   0.01189944984282561
-0.4043893344790265   0.011945301503164654   0.01189944984282561
-0.3641401731539121   -0.029626908879294298   0.013190727761866278
-0.3641401731539121   -0.029626908879294298   0.013190727761866278
-0.3641401731539121   -0.029626908879294298   0.013190727761866278
-0.3641401731539121   -0.029626908879294298   0.013190727761866278
-0.212133134704939   -0.016119256410238914   -0.002112527584549522
-0.212133134704939   -0.016119256410238914   -0.002112527584549522
-0.212133134704939   -0.016119256410238914   -0.002112527584549522
-0.212133134704939   -0.016119256410238914   -0.002112527584549522
-0.20133053736016604   0.02037360151253329   0.01595751215473336
-0.20133053736016604   0.02037360151253329   0.01595751215473336
-0.20133053736016604   0.02037360151253329   0.01595751215473336
-0.20133053736016604   0.02037360151253329   0.01595751215473336
-0.369666535165535   -0.035327898249719124   -0.015396498396810098
-0.369666535165535   -0.035327898249719124   -0.015396498396810098
-0.369666535165535   -0.035327898249719124   -0.015396498396810098
-0.369666535165535   -0.035327898249719124   -0.015396498396810098
-0.28569372182644265   -0.013864173123183686   -0.005927559433719818
-0.28569372182644265   -0.013864173123183686   -0.005927559433719818
-0.28569372182644265   -0.013864173123183686   -0.005927559433719818
-0.28569372182644265   -0.013864173123183686   -0.005927559433719818
-0.35983827450523725   -0.012363389180363435   0.010780295835320978
-0.35983827450523725   -0.012363389180363435   0.010780295835320978
-0.35983827450523725   -0.012363389180363435   0.010780295835320978
-0.35983827450523725   -0.012363389180363435   0.010780295835320978
-0.20989652417916174   -0.001328633715520687   -0.0051701867121911795
-0.20989652417916174   -0.001328633715520687   -0.0051701867121911795
-0.20989652417916174   -0.001328633715520687   -0.0051701867121911795
-0.20989652417916174   -0.001328633715520687   -0.0051701867121911795
-0.1987736572163259   0.03533685780577673   0.01307106404378286
-0.1987736572163259   0.03533685780577673   0.01307106404378286
-0.1987736572163259   0.03533685780577673   0.01307106404378286
-0.1987736572163259   0.03533685780577673   0.01307106404378286
-0.3646605697445996   -0.02123805186190355   -0.018149134795552933
-0.3646605697445996   -0.02123805186190355   -0.018149134795552933
-0.3646605697445996   -0.02123805186190355   -0.018149134795552933
-0.3646605697445996   -0.02123805186190355   -0.018149134795552933
-0.28020067110349733   0.0008059501480198183   0.00037716827945281917
-0.28020067110349733   0.0008059501480198183   0.00037716827945281917
-0.28020067110349733   0.0008059501480198183   0.00037716827945281917
-0.28020067110349733   0.0008059501480198183   0.00037716827945281917
-0.3540891408168992   0.0036279498942621974   0.009842008086783496
-0.3540891408168992   0.0036279498942621974   0.009842008086783496
-0.3540891408168992   0.0036279498942621974   0.009842008086783496
-0.3540891408168992   0.0036279498942621974   0.009842008086783496
-0.20777767536867708   0.012038266824959114   -0.008650435737154459
-0.20777767536867708   0.012038266824959114   -0.008650435737154459
-0.20777767536867708   0.012038266824959114   -0.008650435737154459
-0.20777767536867708   0.012038266824959114   -0.008650435737154459
-0.19630208677648475   0.05131056400492228   0.0103831546696601
-0.19630208677648475   0.05131056400492228   0.0103831546696601
-0.19630208677648475   0.05131056400492228   0.0103831546696601
-0.19630208677648475   0.05131056400492228   0.0103831546696601
-0.3609253265469591   -0.006023144284652171   -0.020044911600388925
-0.3609253265469591   -0.006023144284652171   -0.020044911600388925
-0.3609253265469591   -0.006023144284652171   -0.020044911600388925
-0.3609253265469591   -0.006023144284652171   -0.020044911600388925
-0.27805749598825996   0.01464995909153656   0.006395944486833366
-0.27805749598825996   0.01464995909153656   0.006395944486833366
-0.27805749598825996   0.01464995909153656   0.006395944486833366
-0.27805749598825996   0.01464995909153656   0.006395944486833366
-0.21656146455021966   -0.041008366362841796   0.0006349331416476238
-0.21656146455021966   -0.041008366362841796   0.0006349331416476238
-0.21656146455021966   -0.041008366362841796   0.0006349331416476238
-0.21656146455021966   -0.041008366362841796   0.0006349331416476238
-0.05734242403148861   -0.005012648725206762   0.008807550811710228
-0.05734242403148861   -0.005012648725206762   0.008807550811710228
-0.05734242403148861   -0.005012648725206762   0.008807550811710228
-0.05734242403148861   -0.005012648725206762   0.008807550811710228
-0.05597981234088968   0.008228627960583604   0.003004364680520317
-0.05597981234088968   0.008228627960583604   0.003004364680520317
-0.05597981234088968   0.008228627960583604   0.003004364680520317
-0.05597981234088968   0.008228627960583604   0.003004364680520317
-0.2141905762174233   -0.02389076334501956   -0.004078317274002514
-0.2141905762174233   -0.02389076334501956   -0.004078317274002514
-0.2141905762174233   -0.02389076334501956   -0.004078317274002514
-0.2141905762174233   -0.02389076334501956   -0.004078317274002514
-0.13625528928909902   -0.01475501169220173   -0.004224866493308353
-0.13625528928909902   -0.01475501169220173   -0.004224866493308353
-0.13625528928909902   -0.01475501169220173   -0.004224866493308353
-0.13625528928909902   -0.01475501169220173   -0.004224866493308353
-0.21383469415442372   -0.024317629499193413   -0.0018720408048307343
-0.21383469415442372   -0.024317629499193413   -0.0018720408048307343
-0.21383469415442372   -0.024317629499193413   -0.0018720408048307343
-0.21383469415442372   -0.024317629499193413   -0.0018720408048307343
-0.05507004266620339   0.009921145852443334   0.005860695162092029
-0.05507004266620339   0.009921145852443334   0.005860695162092029
-0.05507004266620339   0.009921145852443334   0.005860695162092029
-0.05507004266620339   0.009921145852443334   0.005860695162092029
-0.05288965119476342   0.024994713186221235   0.0007456082200164079
-0.05288965119476342   0.024994713186221235   0.0007456082200164079
-0.05288965119476342   0.024994713186221235   0.0007456082200164079
-0.05288965119476342   0.024994713186221235   0.0007456082200164079
-0.2116293692109136   -0.008849674289951266   -0.007020963833427667
-0.2116293692109136   -0.008849674289951266   -0.007020963833427667
-0.2116293692109136   -0.008849674289951266   -0.007020963833427667
-0.2116293692109136   -0.008849674289951266   -0.007020963833427667
-0.13295318169251372   0.00029580513234539474   0.0017238915187528028
-0.13295318169251372   0.00029580513234539474   0.0017238915187528028
-0.13295318169251372   0.00029580513234539474   0.0017238915187528028
-0.13295318169251372   0.00029580513234539474   0.0017238915187528028
-0.21083777370550202   -0.007605470899327664   -0.0043071896969933444
-0.21083777370550202   -0.007605470899327664   -0.0043071896969933444
-0.21083777370550202   -0.007605470899327664   -0.0043071896969933444
-0.21083777370550202   -0.007605470899327664   -0.0043071896969933444
-0.052512484827743094   0.02491927166803026   0.0027068815733094654
-0.052512484827743094   0.02491927166803026   0.0027068815733094654
-0.052512484827743094   0.02491927166803026   0.0027068815733094654
-0.052512484827743094   0.02491927166803026   0.0027068815733094654
-0.05011270896065315   0.042004127267096666   -0.0018984963501947928
-0.05011270896065315   0.042004127267096666   -0.0018984963501947928
-0.05011270896065315   0.042004127267096666   -0.0018984963501947928
-0.05011270896065315   0.042004127267096666   -0.0018984963501947928
-0.20938994808094874   0.006362463164051688   -0.010108051011790273
-0.20938994808094874   0.006362463164051688   -0.010108051011790273
-0.20938994808094874   0.006362463164051688   -0.010108051011790273
-0.20938994808094874   0.006362463164051688   -0.010108051011790273
-0.12993931840175557   0.01541909714719844   0.007455093950252279
-0.12993931840175557   0.01541909714719844   0.007455093950252279
-0.12993931840175557   0.01541909714719844   0.007455093950252279
-0.12993931840175557   0.01541909714719844   0.007455093950252279
-0.07049135126287112   -0.05033838781201404   -0.0116113462583955
-0.07049135126287112   -0.05033838781201404   -0.0116113462583955
-0.07049135126287112   -0.05033838781201404   -0.0116113462583955
-0.07049135126287112   -0.05033838781201404   -0.0116113462583955
0.09518592875794467   0.007422314829183933   0.01908693109668178
0.09518592875794467   0.007422314829183933   0.01908693109668178
0.09518592875794467   0.007422314829183933   0.01908693109668178
0.09518592875794467   0.007422314829183933   0.01908693109668178
0.08829729782944094   -0.003125311249409301   -0.01081213179463527
0.08829729782944094   -0.003125311249409301   -0.01081213179463527
0.08829729782944094   -0.003125311249409301   -0.01081213179463527
0.08829729782944094   -0.003125311249409301   -0.01081213179463527
-0.05912030339055211   -0.01160330607678909   0.00713384346958087
-0.05912030339055211   -0.01160330607678909   0.00713384346958087
-0.05912030339055211   -0.01160330607678909   0.00713384346958087
-0.05912030339055211   -0.01160330607678909   0.00713384346958087
0.012871500729003017   -0.0140088420271072   -0.003016043656530964
0.012871500729003017   -0.0140088420271072   -0.003016043656530964
0.012871500729003017   -0.0140088420271072   -0.003016043656530964
0.012871500729003017   -0.0140088420271072   -0.003016043656530964
-0.06811205336419074   -0.03510866468690675   -0.014319547788494653
-0.06811205336419074   -0.03510866468690675   -0.014319547788494653
-0.06811205336419074   -0.03510866468690675   -0.014319547788494653
-0.06811205336419074   -0.03510866468690675   -0.014319547788494653
0.09879426789325421   0.021885267450883462   0.016662139824137306
0.09879426789325421   0.021885267450883462   0.016662139824137306
0.09879426789325421   0.021885267450883462   0.016662139824137306
0.09879426789325421   0.021885267450883462   0.016662139824137306
0.0940635588029063   0.012737111695537307   -0.012258651106166816
0.0940635588029063   0.012737111695537307   -0.012258651106166816
0.0940635588029063   0.012737111695537307   -0.012258651106166816
0.0940635588029063   0.012737111695537307   -0.012258651106166816
-0.05689189823398085   0.0018474927767525538   0.0038815934333983806
-0.05689189823398085   0.0018474927767525538   0.0038815934333983806
-0.05689189823398085   0.0018474927767525538   0.0038815934333983806
-0.05689189823398085   0.0018474927767525538   0.0038815934333983806
0.01594916325077891   -0.00033962231937758897   0.0030427289516835932
0.01594916325077891   -0.00033962231937758897   0.0030427289516835932
0.01594916325077891   -0.00033962231937758897   0.0030427289516835932
0.01594916325077891   -0.00033962231937758897   0.0030427289516835932
-0.06556986437759389   -0.0202249930174269   -0.017435751490487653
-0.06556986437759389   -0.0202249930174269   -0.017435751490487653
-0.06556986437759389   -0.0202249930174269   -0.017435751490487653
-0.06556986437759389   -0.0202249930174269   -0.017435751490487653
0.10404761136401051   0.03611568390720644   0.014283039487684104
0.10404761136401051   0.03611568390720644   0.014283039487684104
0.10404761136401051   0.03611568390720644   0.014283039487684104
0.10404761136401051   0.03611568390720644   0.014283039487684104
0.09871359135918253   0.03078650499059392   -0.014180723629338643
0.09871359135918253   0.03078650499059392   -0.014180723629338643
0.09871359135918253   0.03078650499059392   -0.014180723629338643
0.09871359135918253   0.03078650499059392   -0.014180723629338643
-0.054512022932998574   0.017321617863768284   0.0007874431914059749
-0.054512022932998574   0.017321617863768284   0.0007874431914059749
-0.054512022932998574   0.017321617863768284   0.0007874431914059749
-0.054512022932998574   0.017321617863768284   0.0007874431914059749
0.02066808219368878   0.014488113216050862   0.00930301539883571
0.02066808219368878   0.014488113216050862   0.00930301539883571
0.02066808219368878   0.014488113216050862   0.00930301539883571
0.02066808219368878   0.014488113216050862   0.00930301539883571
0.075113312682992   -0.050858306562378844   -0.022995527886518777
0.075113312682992   -0.050858306562378844   -0.022995527886518777
0.075113312682992   -0.050858306562378844   -0.022995527886518777
0.075113312682992   -0.050858306562378844   -0.022995527886518777
0.2300571526784711   0.022814103096208606   0.024857175547434898
0.2300571526784711   0.022814103096208606   0.024857175547434898
0.2300571526784711   0.022814103096208606   0.024857175547434898
0.2300571526784711   0.022814103096208606   0.024857175547434898
0.22767823014197303   -0.012931926061552662   -0.03028824175762075
0.22767823014197303   -0.012931926061552662   -0.03028824175762075
0.22767823014197303   -0.012931926061552662   -0.03028824175762075
0.22767823014197303   -0.012931926061552662   -0.03028824175762075
0.09567059510867575   0.004358034959281661   0.01857100839284773
0.09567059510867575   0.004358034959281661   0.01857100839284773
0.09567059510867575   0.004358034959281661   0.01857100839284773
0.09567059510867575   0.004358034959281661   0.01857100839284773
0.1489242268598715   -0.010653392206175186   -0.007997651521277559
0.1489242268598715   -0.010653392206175186   -0.007997651521277559
0.1489242268598715   -0.010653392206175186   -0.007997651521277559
0.1489242268598715   -0.010653392206175186   -0.007997651521277559
0.07730845466908906   -0.04227047047813923   -0.026611188367665767
0.07730845466908906   -0.04227047047813923   -0.026611188367665767
0.07730845466908906   -0.04227047047813923   -0.026611188367665767
0.07730845466908906   -0.04227047047813923   -0.026611188367665767
0.2475749380027279   0.03523114679703626   0.02103222468756853
0.2475749380027279   0.03523114679703626   0.02103222468756853
0.2475749380027279   0.03523114679703626   0.02103222468756853
0.2475749380027279   0.03523114679703626   0.02103222468756853
0.24043221468557124   -0.004055524211051743   -0.036372650217349686
0.24043221468557124   -0.004055524211051743   -0.036372650217349686
0.24043221468557124   -0.004055524211051743   -0.036372650217349686
0.24043221468557124   -0.004055524211051743   -0.036372650217349686
0.09904195548945789   0.010863183474105044   0.014507260548022356
0.09904195548945789   0.010863183474105044   0.014507260548022356
0.09904195548945789   0.010863183474105044   0.014507260548022356
0.09904195548945789   0.010863183474105044   0.014507260548022356
0.16172953342230656   -0.0016814395052110465   -0.0008799783104934504
0.16172953342230656   -0.0016814395052110465   -0.0008799783104934504
0.16172953342230656   -0.0016814395052110465   -0.0008799783104934504
0.16172953342230656   -0.0016814395052110465   -0.0008799783104934504
0.08081202409337174   -0.03488406239806912   -0.030895150560233217
0.08081202409337174   -0.03488406239806912   -0.030895150560233217
0.08081202409337174   -0.03488406239806912   -0.030895150560233217
0.08081202409337174   -0.03488406239806912   -0.030895150560233217
0.2602653539939418   0.04329492957340825   0.015442592540046794
0.2602653539939418   0.04329492957340825   0.015442592540046794
0.2602653539939418   0.04329492957340825   0.015442592540046794
0.2602653539939418   0.04329492957340825   0.015442592540046794
0.2600602332680283   0.015407447090277734   -0.03897678105730823
0.2600602332680283   0.015407447090277734   -0.03897678105730823
0.2600602332680283   0.015407447090277734   -0.03897678105730823
0.2600602332680283   0.015407447090277734   -0.03897678105730823
0.10248935268365231   0.023946947511194177   0.011537640472410012
0.10248935268365231   0.023946947511194177   0.011537640472410012
0.10248935268365231   0.023946947511194177   0.011537640472410012
0.10248935268365231   0.023946947511194177   0.011537640472410012
0.16824193078539926   0.008170318554768009   0.005278627016234228
0.16824193078539926   0.008170318554768009   0.005278627016234228
0.16824193078539926   0.008170318554768009   0.005278627016234228
0.16824193078539926   0.008170318554768009   0.005278627016234228
-0.31272446009369537   -0.004925327531385866   0.03102355138618115
-0.31272446009369537   -0.004925327531385866   0.03102355138618115
-0.31272446009369537   -0.004925327531385866   0.03102355138618115
-0.31272446009369537   -0.004925327531385866   0.03102355138618115
-0.2453042038515445   -0.03136497445494512   -0.015242445617755706
-0.2453042038515445   -0.03136497445494512   -0.015242445617755706
-0.2453042038515445   -0.03136497445494512   -0.015242445617755706
-0.2453042038515445   -0.03136497445494512   -0.015242445617755706
-0.22198776730046918   0.026461790693810217   0.026497192964910283
-0.22198776730046918   0.026461790693810217   0.026497192964910283
-0.22198776730046918   0.026461790693810217   0.026497192964910283
-0.22198776730046918   0.026461790693810217   0.026497192964910283
-0.3114716310243088   -0.033981323415325324   -0.020789370101067853
-0.3114716310243088   -0.033981323415325324   -0.020789370101067853
-0.3114716310243088   -0.033981323415325324   -0.020789370101067853
-0.3114716310243088   -0.033981323415325324   -0.020789370101067853
-0.26249279574078943   -0.007154388153991796   -0.004079652183626976
-0.26249279574078943   -0.007154388153991796   -0.004079652183626976
-0.26249279574078943   -0.007154388153991796   -0.004079652183626976
-0.26249279574078943   -0.007154388153991796   -0.004079652183626976
-0.2919759793192846   0.013088518915675529   0.02961904609305226
-0.2919759793192846   0.013088518915675529   0.02961904609305226
-0.2919759793192846   0.013088518915675529   0.02961904609305226
-0.2919759793192846   0.013088518915675529   0.02961904609305226
-0.24011644945295418   -0.019241082084651098   -0.01844334501905136
-0.24011644945295418   -0.019241082084651098   -0.01844334501905136
-0.24011644945295418   -0.019241082084651098   -0.01844334501905136
-0.24011644945295418   -0.019241082084651098   -0.01844334501905136
-0.21655398375136053   0.03334887427316195   0.02238956763010931
-0.21655398375136053   0.03334887427316195   0.02238956763010931
-0.21655398375136053   0.03334887427316195   0.02238956763010931
-0.21655398375136053   0.03334887427316195   0.02238956763010931
-0.2970999687740411   -0.026173751314229304   -0.025938130056460593
-0.2970999687740411   -0.026173751314229304   -0.025938130056460593
-0.2970999687740411   -0.026173751314229304   -0.025938130056460593
-0.2970999687740411   -0.026173751314229304   -0.025938130056460593
-0.2549778587370684   0.0018443741064179953   0.0016836328637716072
-0.2549778587370684   0.0018443741064179953   0.0016836328637716072
-0.2549778587370684   0.0018443741064179953   0.0016836328637716072
-0.2549778587370684   0.0018443741064179953   0.0016836328637716072
-0.2776080250911168   0.02144143323997892   0.023906403803950455
-0.2776080250911168   0.02144143323997892   0.023906403803950455
-0.2776080250911168   0.02144143323997892   0.023906403803950455
-0.2776080250911168   0.02144143323997892   0.023906403803950455
-0.2347567018128059   -0.012977084659567685   -0.022298063744387715
-0.2347567018128059   -0.012977084659567685   -0.022298063744387715
-0.2347567018128059   -0.012977084659567685   -0.022298063744387715
-0.2347567018128059   -0.012977084659567685   -0.022298063744387715
-0.21217508309642213   0.041982991352348065   0.01930636421711985
-0.21217508309642213   0.041982991352348065   0.01930636421711985
-0.21217508309642213   0.041982991352348065   0.01930636421711985
-0.21217508309642213   0.041982991352348065   0.01930636421711985
-0.2778024840892277   -0.013662848290587407   -0.030003196422791915
-0.2778024840892277   -0.013662848290587407   -0.030003196422791915
-0.2778024840892277   -0.013662848290587407   -0.030003196422791915
-0.2778024840892277   -0.013662848290587407   -0.030003196422791915
-0.23986487932646627   0.010749600408647891   0.008807880124999945
-0.23986487932646627   0.010749600408647891   0.008807880124999945
-0.23986487932646627   0.010749600408647891   0.008807880124999945
-0.23986487932646627   0.010749600408647891   0.008807880124999945
-0.23655517083725497   -0.017628007600035727   0.014765752598782399
-0.23655517083725497   -0.017628007600035727   0.014765752598782399
-0.23655517083725497   -0.017628007600035727   0.014765752598782399
-0.23655517083725497   -0.017628007600035727   0.014765752598782399
-0.17489208321124408   -0.023763837072127283   -0.004505098639360601
-0.17489208321124408   -0.023763837072127283   -0.004505098639360601
-0.17489208321124408   -0.023763837072127283   -0.004505098639360601
-0.17489208321124408   -0.023763837072127283   -0.004505098639360601
-0.1619455852930055   0.012005581375131025   0.013549949854911163
-0.1619455852930055   0.012005581375131025   0.013549949854911163
-0.1619455852930055   0.012005581375131025   0.013549949854911163
-0.1619455852930055   0.012005581375131025   0.013549949854911163
-0.24017892633527732   -0.025043680243170868   -0.01295313127214743
-0.24017892633527732   -0.025043680243170868   -0.01295313127214743
-0.24017892633527732   -0.025043680243170868   -0.01295313127214743
-0.24017892633527732   -0.025043680243170868   -0.01295313127214743
-0.20286133568871897   -0.012515386750448068   -0.0055369710333187
-0.20286133568871897   -0.012515386750448068   -0.0055369710333187
-0.20286133568871897   -0.012515386750448068   -0.0055369710333187
-0.20286133568871897   -0.012515386750448068   -0.0055369710333187
-0.2304452661500979   -0.0018917057376276261   0.012563195148202594
-0.2304452661500979   -0.0018917057376276261   0.012563195148202594
-0.2304452661500979   -0.0018917057376276261   0.012563195148202594
-0.2304452661500979   -0.0018917057376276261   0.012563195148202594
-0.1705771361286192   -0.010044283780845844   -0.007557939167180435
-0.1705771361286192   -0.010044283780845844   -0.007557939167180435
-0.1705771361286192   -0.010044283780845844   -0.007557939167180435
-0.1705771361286192   -0.010044283780845844   -0.007557939167180435
-0.15726805134022984   0.026035964268563395   0.010828427452412017
-0.15726805134022984   0.026035964268563395   0.010828427452412017
-0.15726805134022984   0.026035964268563395   0.010828427452412017
-0.15726805134022984   0.026035964268563395   0.010828427452412017
-0.23312261872951415   -0.011590308775049837   -0.015514424212443104
-0.23312261872951415   -0.011590308775049837   -0.015514424212443104
-0.23312261872951415   -0.011590308775049837   -0.015514424212443104
-0.23312261872951415   -0.011590308775049837   -0.015514424212443104
-0.196061223618478   0.0009766110977616274   0.0005052477795876292
-0.196061223618478   0.0009766110977616274   0.0005052477795876292
-0.196061223618478   0.0009766110977616274   0.0005052477795876292
-0.196061223618478   0.0009766110977616274   0.0005052477795876292
-0.22281611581000013   0.013038518505116725   0.011389263104956646
-0.22281611581000013   0.013038518505116725   0.011389263104956646
-0.22281611581000013   0.013038518505116725   0.011389263104956646
-0.22281611581000013   0.013038518505116725   0.011389263104956646
-0.1663024170666768   0.0026792741814605364   -0.01098671109272092
-0.1663024170666768   0.0026792741814605364   -0.01098671109272092
-0.1663024170666768   0.0026792741814605364   -0.01098671109272092
-0.1663024170666768   0.0026792741814605364   -0.01098671109272092
-0.15260404833111846   0.041297313478819625   0.008236099001129371
-0.15260404833111846   0.041297313478819625   0.008236099001129371
-0.15260404833111846   0.041297313478819625   0.008236099001129371
-0.15260404833111846   0.041297313478819625   0.008236099001129371
-0.22732349701239923   0.0031360765349826084   -0.017588790545396325
-0.22732349701239923   0.0031360765349826084   -0.017588790545396325
-0.22732349701239923   0.0031360765349826084   -0.017588790545396325
-0.22732349701239923   0.0031360765349826084   -0.017588790545396325
-0.19115518655142125   0.014241738207444093   0.006429327562455513
-0.19115518655142125   0.014241738207444093   0.006429327562455513
-0.19115518655142125   0.014241738207444093   0.006429327562455513
-0.19115518655142125   0.014241738207444093   0.006429327562455513
-0.17464469658848575   -0.029700844932073395   0.0026688423343742274
-0.17464469658848575   -0.029700844932073395   0.0026688423343742274
-0.17464469658848575   -0.029700844932073395   0.0026688423343742274
-0.17464469658848575   -0.029700844932073395   0.0026688423343742274
-0.10533829411089184   -0.01271172453398456   0.006378552043660456
-0.10533829411089184   -0.01271172453398456   0.006378552043660456
-0.10533829411089184   -0.01271172453398456   0.006378552043660456
-0.10533829411089184   -0.01271172453398456   0.006378552043660456
-0.10188477885142364   -0.0004516859359022969   0.0008112724055841193
-0.10188477885142364   -0.0004516859359022969   0.0008112724055841193
-0.10188477885142364   -0.0004516859359022969   0.0008112724055841193
-0.10188477885142364   -0.0004516859359022969   0.0008112724055841193
-0.17004665602043648   -0.013472147183615835   -0.0014776752234967883
-0.17004665602043648   -0.013472147183615835   -0.0014776752234967883
-0.17004665602043648   -0.013472147183615835   -0.0014776752234967883
-0.17004665602043648   -0.013472147183615835   -0.0014776752234967883
-0.13820065761780437   -0.013421182039892881   -0.004043468609397863
-0.13820065761780437   -0.013421182039892881   -0.004043468609397863
-0.13820065761780437   -0.013421182039892881   -0.004043468609397863
-0.13820065761780437   -0.013421182039892881   -0.004043468609397863
-0.16983025164890092   -0.014147162572001621   0.00027936202256479466
-0.16983025164890092   -0.014147162572001621   0.00027936202256479466
-0.16983025164890092   -0.014147162572001621   0.00027936202256479466
-0.16983025164890092   -0.014147162572001621   0.00027936202256479466
-0.10100421243975999   0.0013203002356823486   0.003442118292317657
-0.10100421243975999   0.0013203002356823486   0.003442118292317657
-0.10100421243975999   0.0013203002356823486   0.003442118292317657
-0.10100421243975999   0.0013203002356823486   0.003442118292317657
-0.09679352249566893   0.015237543567632069   -0.0014207212607633326
-0.09679352249566893   0.015237543567632069   -0.0014207212607633326
-0.09679352249566893   0.015237543567632069   -0.0014207212607633326
-0.09679352249566893   0.015237543567632069   -0.0014207212607633326
-0.16535925778194327   0.0007615552117361257   -0.004353195699328854
-0.16535925778194327   0.0007615552117361257   -0.004353195699328854
-0.16535925778194327   0.0007615552117361257   -0.004353195699328854
-0.16535925778194327   0.0007615552117361257   -0.004353195699328854
-0.13282468408513948   0.0006679082290574484   0.001824091560682745
-0.13282468408513948   0.0006679082290574484   0.001824091560682745
-0.13282468408513948   0.0006679082290574484   0.001824091560682745
-0.13282468408513948   0.0006679082290574484   0.001824091560682745
-0.16477385567977518   0.0014939126563440278   -0.0021585426330972875
-0.16477385567977518   0.0014939126563440278   -0.0021585426330972875
-0.16477385567977518   0.0014939126563440278   -0.0021585426330972875
-0.16477385567977518   0.0014939126563440278   -0.0021585426330972875
-0.0963862666078204   0.015497844113039477   0.0003552576330727031
-0.0963862666078204   0.015497844113039477   0.0003552576330727031
-0.0963862666078204   0.015497844113039477   0.0003552576330727031
-0.0963862666078204   0.015497844113039477   0.0003552576330727031
-0.09198311167784776   0.031074188563505103   -0.003956260417616497
-0.09198311167784776   0.031074188563505103   -0.003956260417616497
-0.09198311167784776   0.031074188563505103   -0.003956260417616497
-0.09198311167784776   0.031074188563505103   -0.003956260417616497
-0.160977328602016   0.015103799467951734   -0.00743678834249052
-0.160977328602016   0.015103799467951734   -0.00743678834249052
-0.160977328602016   0.015103799467951734   -0.00743678834249052
-0.160977328602016   0.015103799467951734   -0.00743678834249052
-0.12774615037919038   0.014808110568566433   0.007454623151805059
-0.12774615037919038   0.014808110568566433   0.007454623151805059
-0.12774615037919038   0.014808110568566433   0.007454623151805059
-0.12774615037919038   0.014808110568566433   0.007454623151805059
-0.11401120284166635   -0.04014503411576194   -0.009552682028436545
-0.11401120284166635   -0.04014503411576194   -0.009552682028436545
-0.11401120284166635   -0.04014503411576194   -0.009552682028436545
-0.11401120284166635   -0.04014503411576194   -0.009552682028436545
-0.03797694268979877   -0.0009824371376853536   0.01670506852697862
-0.03797694268979877   -0.0009824371376853536   0.01670506852697862
-0.03797694268979877   -0.0009824371376853536   0.01670506852697862
-0.03797694268979877   -0.0009824371376853536   0.01670506852697862
-0.042858743746769686   -0.01226985012080037   -0.012460436394257953
-0.042858743746769686   -0.01226985012080037   -0.012460436394257953
-0.042858743746769686   -0.01226985012080037   -0.012460436394257953
-0.042858743746769686   -0.01226985012080037   -0.012460436394257953
-0.10033803742540418   -0.001523045573147197   0.00961633917292546
-0.10033803742540418   -0.001523045573147197   0.00961633917292546
-0.10033803742540418   -0.001523045573147197   0.00961633917292546
-0.10033803742540418   -0.001523045573147197   0.00961633917292546
-0.07375575542252447   -0.013134862446375253   -0.002921267094285464
-0.07375575542252447   -0.013134862446375253   -0.002921267094285464
-0.07375575542252447   -0.013134862446375253   -0.002921267094285464
-0.07375575542252447   -0.013134862446375253   -0.002921267094285464
-0.10948397893033082   -0.025525077219694752   -0.012111336705161074
-0.10948397893033082   -0.025525077219694752   -0.012111336705161074
-0.10948397893033082   -0.025525077219694752   -0.012111336705161074
-0.10948397893033082   -0.025525077219694752   -0.012111336705161074
-0.032485260764011266   0.012959723003577703   0.014177405395157047
-0.032485260764011266   0.012959723003577703   0.014177405395157047
-0.032485260764011266   0.012959723003577703   0.014177405395157047
-0.032485260764011266   0.012959723003577703   0.014177405395157047
-0.03536163960791522   0.0025708403979493206   -0.014031927086683412
-0.03536163960791522   0.0025708403979493206   -0.014031927086683412
-0.03536163960791522   0.0025708403979493206   -0.014031927086683412
-0.03536163960791522   0.0025708403979493206   -0.014031927086683412
-0.096020872204364   0.011254456225944308   0.006425617537449054
-0.096020872204364   0.011254456225944308   0.006425617537449054
-0.096020872204364   0.011254456225944308   0.006425617537449054
-0.096020872204364   0.011254456225944308   0.006425617537449054
-0.06801404509538865   5.346854476093871e-06   0.0030646914914096816
-0.06801404509538865   5.346854476093871e-06   0.0030646914914096816
-0.06801404509538865   5.346854476093871e-06   0.0030646914914096816
-0.06801404509538865   5.346854476093871e-06   0.0030646914914096816
-0.10487568607945795   -0.011536985501198388   -0.015057010110879234
-0.10487568607945795   -0.011536985501198388   -0.015057010110879234
-0.10487568607945795   -0.011536985501198388   -0.015057010110879234
-0.10487568607945795   -0.011536985501198388   -0.015057010110879234
-0.025363569152739254   0.026505538705175115   0.012023726881970653
-0.025363569152739254   0.026505538705175115   0.012023726881970653
-0.025363569152739254   0.026505538705175115   0.012023726881970653
-0.025363569152739254   0.026505538705175115   0.012023726881970653
-0.029024518634117903   0.019115338986026163   -0.015731455496177632
-0.029024518634117903   0.019115338986026163   -0.015731455496177632
-0.029024518634117903   0.019115338986026163   -0.015731455496177632
-0.029024518634117903   0.019115338986026163   -0.015731455496177632
-0.09160061902023524   0.02568131092164111   0.0033490805123100632
-0.09160061902023524   0.02568131092164111   0.0033490805123100632
-0.09160061902023524   0.02568131092164111   0.0033490805123100632
-0.09160061902023524   0.02568131092164111   0.0033490805123100632
-0.06209632251246586   0.013662175981825   0.009037463677610491
-0.06209632251246586   0.013662175981825   0.009037463677610491
-0.06209632251246586   0.013662175981825   0.009037463677610491
-0.06209632251246586   0.013662175981825   0.009037463677610491
-0.05391371001120723   -0.043119787995636545   -0.020841417222112503
-0.05391371001120723   -0.043119787995636545   -0.020841417222112503
-0.05391371001120723   -0.043119787995636545   -0.020841417222112503
-0.05391371001120723   -0.043119787995636545   -0.020841417222112503
0.012016975722110395   0.01233652569553553   0.025608199057260746
0.012016975722110395   0.01233652569553553   0.025608199057260746
0.012016975722110395   0.01233652569553553   0.025608199057260746
0.012016975722110395   0.01233652569553553   0.025608199057260746
0.012022889056572648   -0.021612716134318546   -0.02763504102305023
0.012022889056572648   -0.021612716134318546   -0.02763504102305023
0.012022889056572648   -0.021612716134318546   -0.02763504102305023
0.012022889056572648   -0.021612716134318546   -0.02763504102305023
-0.031043465401506837   0.013381544832568211   0.020964560378687724
-0.031043465401506837   0.013381544832568211   0.020964560378687724
-0.031043465401506837   0.013381544832568211   0.020964560378687724
-0.031043465401506837   0.013381544832568211   0.020964560378687724
-0.015585680945400745   -0.009289195755095073   -0.004769607329708786
-0.015585680945400745   -0.009289195755095073   -0.004769607329708786
-0.015585680945400745   -0.009289195755095073   -0.004769607329708786
-0.015585680945400745   -0.009289195755095073   -0.004769607329708786
-0.04933744410020704   -0.03315211018126121   -0.02397167810098388
-0.04933744410020704   -0.03315211018126121   -0.02397167810098388
-0.04933744410020704   -0.03315211018126121   -0.02397167810098388
-0.04933744410020704   -0.03315211018126121   -0.02397167810098388
0.031627202936204135   0.02623127406044344   0.022542538180345226
0.031627202936204135   0.02623127406044344   0.022542538180345226
0.031627202936204135   0.02623127406044344   0.022542538180345226
0.031627202936204135   0.02623127406044344   0.022542538180345226
0.026460498811587976   -0.013127019242797102   -0.032862296358626135
0.026460498811587976   -0.013127019242797102   -0.032862296358626135
0.026460498811587976   -0.013127019242797102   -0.032862296358626135
0.026460498811587976   -0.013127019242797102   -0.032862296358626135
-0.025795082216672455   0.01954016980297557   0.01683153046450419
-0.025795082216672455   0.01954016980297557   0.01683153046450419
-0.025795082216672455   0.01954016980297557   0.01683153046450419
-0.025795082216672455   0.01954016980297557   0.01683153046450419
-0.0037990499036778336   -0.0005394654534529623   0.00169626826463976
-0.0037990499036778336   -0.0005394654534529623   0.00169626826463976
-0.0037990499036778336   -0.0005394654534529623   0.00169626826463976
-0.0037990499036778336   -0.0005394654534529623   0.00169626826463976
-0.04385388010572886   -0.026168244658414365   -0.027754044519387934
-0.04385388010572886   -0.026168244658414365   -0.027754044519387934
-0.04385388010572886   -0.026168244658414365   -0.027754044519387934
-0.04385388010572886   -0.026168244658414365   -0.027754044519387934
0.04583422115123047   0.03389631966917891   0.016982976427610288
0.04583422115123047   0.03389631966917891   0.016982976427610288
0.04583422115123047   0.03389631966917891   0.016982976427610288
0.04583422115123047   0.03389631966917891   0.016982976427610288
0.04677104125055438   0.003450735359823   -0.03522510885134793
0.04677104125055438   0.003450735359823   -0.03522510885134793
0.04677104125055438   0.003450735359823   -0.03522510885134793
0.04677104125055438   0.003450735359823   -0.03522510885134793
-0.020898494049524576   0.030331976876029544   0.013682029536784664
-0.020898494049524576   0.030331976876029544   0.013682029536784664
-0.020898494049524576   0.030331976876029544   0.013682029536784664
-0.020898494049524576   0.030331976876029544   0.013682029536784664
0.006958347877392537   0.00861916963091656   0.008046338848782673
0.006958347877392537   0.00861916963091656   0.008046338848782673
0.006958347877392537   0.00861916963091656   0.008046338848782673
0.006958347877392537   0.00861916963091656   0.008046338848782673
-0.10144218169891227   0.006310912488070586   0.029274966944690638
-0.10144218169891227   0.006310912488070586   0.029274966944690638
-0.10144218169891227   0.006310912488070586   0.029274966944690638
-0.10144218169891227   0.006310912488070586   0.029274966944690638
-0.12317662982693074   -0.038033260110092074   -0.017132312740992656
-0.12317662982693074   -0.038033260110092074   -0.017132312740992656
-0.12317662982693074   -0.038033260110092074   -0.017132312740992656
-0.12317662982693074   -0.038033260110092074   -0.017132312740992656
-0.09834395591478264   0.01759021395720016   0.023940641652025717
-0.09834395591478264   0.01759021395720016   0.023940641652025717
-0.09834395591478264   0.01759021395720016   0.023940641652025717
-0.09834395591478264   0.01759021395720016   0.023940641652025717
-0.09858089212738315   -0.02466973941138844   -0.022133021157098434
-0.09858089212738315   -0.02466973941138844   -0.022133021157098434
-0.09858089212738315   -0.02466973941138844   -0.022133021157098434
-0.09858089212738315   -0.02466973941138844   -0.022133021157098434
-0.1028043998364918   -0.007893226298606785   -0.008125653357381067
-0.1028043998364918   -0.007893226298606785   -0.008125653357381067
-0.1028043998364918   -0.007893226298606785   -0.008125653357381067
-0.1028043998364918   -0.007893226298606785   -0.008125653357381067
-0.07935940813438841   0.022049939218476027   0.027254720178010818
-0.07935940813438841   0.022049939218476027   0.027254720178010818
-0.07935940813438841   0.022049939218476027   0.027254720178010818
-0.07935940813438841   0.022049939218476027   0.027254720178010818
-0.11634297477944755   -0.027906999544334475   -0.020557239169764197
-0.11634297477944755   -0.027906999544334475   -0.020557239169764197
-0.11634297477944755   -0.027906999544334475   -0.020557239169764197
-0.11634297477944755   -0.027906999544334475   -0.020557239169764197
-0.09081039384242513   0.024296881445188975   0.02012545880902246
-0.09081039384242513   0.024296881445188975   0.02012545880902246
-0.09081039384242513   0.024296881445188975   0.02012545880902246
-0.09081039384242513   0.024296881445188975   0.02012545880902246
-0.08222332123761189   -0.01709033146811521   -0.027526684608115772
-0.08222332123761189   -0.01709033146811521   -0.027526684608115772
-0.08222332123761189   -0.01709033146811521   -0.027526684608115772
-0.08222332123761189   -0.01709033146811521   -0.027526684608115772
-0.09074154940641387   0.0006572232010038509   -0.0018025561404495568
-0.09074154940641387   0.0006572232010038509   -0.0018025561404495568
-0.09074154940641387   0.0006572232010038509   -0.0018025561404495568
-0.09074154940641387   0.0006572232010038509   -0.0018025561404495568
-0.06290998155122753   0.03020150717730117   0.021748175178385835
-0.06290998155122753   0.03020150717730117   0.021748175178385835
-0.06290998155122753   0.03020150717730117   0.021748175178385835
-0.06290998155122753   0.03020150717730117   0.021748175178385835
-0.10897650722605194   -0.02184773089747273   -0.024560495766448
-0.10897650722605194   -0.02184773089747273   -0.024560495766448
-0.10897650722605194   -0.02184773089747273   -0.024560495766448
-0.10897650722605194   -0.02184773089747273   -0.024560495766448
-0.08393651855645955   0.03458673132112874   0.017378736103020643
-0.08393651855645955   0.03458673132112874   0.017378736103020643
-0.08393651855645955   0.03458673132112874   0.017378736103020643
-0.08393651855645955   0.03458673132112874   0.017378736103020643
-0.06037988709075556   -0.0026874699168142856   -0.0309958992273872
-0.06037988709075556   -0.0026874699168142856   -0.0309958992273872
-0.06037988709075556   -0.0026874699168142856   -0.0309958992273872
-0.06037988709075556   -0.0026874699168142856   -0.0309958992273872
-0.07629211457621214   0.009622389764404538   0.004945371483235273
-0.07629211457621214   0.009622389764404538   0.004945371483235273
-0.07629211457621214   0.009622389764404538   0.004945371483235273
-0.07629211457621214   0.009622389764404538   0.004945371483235273
-0.11010196435703272   -0.006552702228110167   0.016760456726513634
-0.11010196435703272   -0.006552702228110167   0.016760456726513634
-0.11010196435703272   -0.006552702228110167   0.016760456726513634
-0.11010196435703272   -0.006552702228110167   0.016760456726513634
-0.13840304574708276   -0.031034994423837798   -0.006689865588702728
-0.13840304574708276   -0.031034994423837798   -0.006689865588702728
-0.13840304574708276   -0.031034994423837798   -0.006689865588702728
-0.13840304574708276   -0.031034994423837798   -0.006689865588702728
-0.12362760719287648   0.0030805444119650673   0.01111667286113139
-0.12362760719287648   0.0030805444119650673   0.01111667286113139
-0.12362760719287648   0.0030805444119650673   0.01111667286113139
-0.12362760719287648   0.0030805444119650673   0.01111667286113139
-0.11154500993189946   -0.014395898113658715   -0.010078516362699536
-0.11154500993189946   -0.014395898113658715   -0.010078516362699536
-0.11154500993189946   -0.014395898113658715   -0.010078516362699536
-0.11154500993189946   -0.014395898113658715   -0.010078516362699536
-0.12103361009455926   -0.011273191770673648   -0.0056587735346705454
-0.12103361009455926   -0.011273191770673648   -0.0056587735346705454
-0.12103361009455926   -0.011273191770673648   -0.0056587735346705454
-0.12103361009455926   -0.011273191770673648   -0.0056587735346705454
-0.1021082265499243   0.008085822045859017   0.014623680387656638
-0.1021082265499243   0.008085822045859017   0.014623680387656638
-0.1021082265499243   0.008085822045859017   0.014623680387656638
-0.1021082265499243   0.008085822045859017   0.014623680387656638
-0.13210486019968606   -0.018441645372388845   -0.0097474023885636
-0.13210486019968606   -0.018441645372388845   -0.0097474023885636
-0.13210486019968606   -0.018441645372388845   -0.0097474023885636
-0.13210486019968606   -0.018441645372388845   -0.0097474023885636
-0.11691125900430877   0.01644965272421877   0.008474023558694574
-0.11691125900430877   0.01644965272421877   0.008474023558694574
-0.11691125900430877   0.01644965272421877   0.008474023558694574
-0.11691125900430877   0.01644965272421877   0.008474023558694574
-0.10250785953101499   -0.0015468099812710016   -0.012518178207464994
-0.10250785953101499   -0.0015468099812710016   -0.012518178207464994
-0.10250785953101499   -0.0015468099812710016   -0.012518178207464994
-0.10250785953101499   -0.0015468099812710016   -0.012518178207464994
-0.11298416734195384   0.0011696885674248349   0.00016684575876807755
-0.11298416734195384   0.0011696885674248349   0.00016684575876807755
-0.11298416734195384   0.0011696885674248349   0.00016684575876807755
-0.11298416734195384   0.0011696885674248349   0.00016684575876807755
-0.09260934839156744   0.022250619697272142   0.013176947811227744
-0.09260934839156744   0.022250619697272142   0.013176947811227744
-0.09260934839156744   0.022250619697272142   0.013176947811227744
-0.09260934839156744   0.022250619697272142   0.013176947811227744
-0.1257862905348376   -0.006324297345407886   -0.013127184024326808
-0.1257862905348376   -0.006324297345407886   -0.013127184024326808
-0.1257862905348376   -0.006324297345407886   -0.013127184024326808
-0.1257862905348376   -0.006324297345407886   -0.013127184024326808
-0.11015931082437308   0.031279044734954846   0.005961864266438688
-0.11015931082437308   0.031279044734954846   0.005961864266438688
-0.11015931082437308   0.031279044734954846   0.005961864266438688
-0.11015931082437308   0.031279044734954846   0.005961864266438688
-0.09473898178982192   0.012747163130870813   -0.014794011873533287
-0.09473898178982192   0.012747163130870813   -0.014794011873533287
-0.09473898178982192   0.012747163130870813   -0.014794011873533287
-0.09473898178982192   0.012747163130870813   -0.014794011873533287
-0.10537065133145046   0.01405586990355447   0.006109048524147025
-0.10537065133145046   0.01405586990355447   0.006109048524147025
-0.10537065133145046   0.01405586990355447   0.006109048524147025
-0.10537065133145046   0.01405586990355447   0.006109048524147025
-0.1336461071337556   -0.018697525780391005   0.0047573588344843485
-0.1336461071337556   -0.018697525780391005   0.0047573588344843485
-0.1336461071337556   -0.018697525780391005   0.0047573588344843485
-0.1336461071337556   -0.018697525780391005   0.0047573588344843485
-0.15349303761532318   -0.019788193752410782   0.004024586407032373
-0.15349303761532318   -0.019788193752410782   0.004024586407032373
-0.15349303761532318   -0.019788193752410782   0.004024586407032373
-0.15349303761532318   -0.019788193752410782   0.004024586407032373
-0.14814544039086575   -0.009087995285531059   -0.0014581313626436249
-0.14814544039086575   -0.009087995285531059   -0.0014581313626436249
-0.14814544039086575   -0.009087995285531059   -0.0014581313626436249
-0.14814544039086575   -0.009087995285531059   -0.0014581313626436249
-0.12671698742505866   -0.002586690706904215   0.0013370068190888115
-0.12671698742505866   -0.002586690706904215   0.0013370068190888115
-0.12671698742505866   -0.002586690706904215   0.0013370068190888115
-0.12671698742505866   -0.002586690706904215   0.0013370068190888115
-0.1407116221800438   -0.011830300216576793   -0.003774329109000777
-0.1407116221800438   -0.011830300216576793   -0.003774329109000777
-0.1407116221800438   -0.011830300216576793   -0.003774329109000777
-0.1407116221800438   -0.011830300216576793   -0.003774329109000777
-0.12679698297502687   -0.004047174881137112   0.0023975132434795833
-0.12679698297502687   -0.004047174881137112   0.0023975132434795833
-0.12679698297502687   -0.004047174881137112   0.0023975132434795833
-0.12679698297502687   -0.004047174881137112   0.0023975132434795833
-0.1471583392646636   -0.006720405535062899   0.0011097845179003007
-0.1471583392646636   -0.006720405535062899   0.0011097845179003007
-0.1471583392646636   -0.006720405535062899   0.0011097845179003007
-0.1471583392646636   -0.006720405535062899   0.0011097845179003007
-0.1410795208490408   0.0057507719279644015   -0.0036868490510822832
-0.1410795208490408   0.0057507719279644015   -0.0036868490510822832
-0.1410795208490408   0.0057507719279644015   -0.0036868490510822832
-0.1410795208490408   0.0057507719279644015   -0.0036868490510822832
-0.1200229623652964   0.01083987768765262   -0.0014747182096773725
-0.1200229623652964   0.01083987768765262   -0.0014747182096773725
-0.1200229623652964   0.01083987768765262   -0.0014747182096773725
-0.1200229623652964   0.01083987768765262   -0.0014747182096773725
-0.13332296816955527   0.0014188776661248764   0.0019860273068578755
-0.13332296816955527   0.0014188776661248764   0.0019860273068578755
-0.13332296816955527   0.0014188776661248764   0.0019860273068578755
-0.13332296816955527   0.0014188776661248764   0.0019860273068578755
-0.1197616704586805   0.010738363015387185   -6.67440043363287e-05
-0.1197616704586805   0.010738363015387185   -6.67440043363287e-05
-0.1197616704586805   0.010738363015387185   -6.67440043363287e-05
-0.1197616704586805   0.010738363015387185   -6.67440043363287e-05
-0.14054796195610736   0.006645137399779823   -0.0019234200582304226
-0.14054796195610736   0.006645137399779823   -0.0019234200582304226
-0.14054796195610736   0.006645137399779823   -0.0019234200582304226
-0.14054796195610736   0.006645137399779823   -0.0019234200582304226
-0.13431257731412807   0.020685617424860983   -0.006192449845824526
-0.13431257731412807   0.020685617424860983   -0.006192449845824526
-0.13431257731412807   0.020685617424860983   -0.006192449845824526
-0.13431257731412807   0.020685617424860983   -0.006192449845824526
-0.11365765666904307   0.024321481300108833   -0.004572301522064365
-0.11365765666904307   0.024321481300108833   -0.004572301522064365
-0.11365765666904307   0.024321481300108833   -0.004572301522064365
-0.11365765666904307   0.024321481300108833   -0.004572301522064365
-0.12628458393832973   0.014693728443583288   0.007475805747781195
-0.12628458393832973   0.014693728443583288   0.007475805747781195
-0.12628458393832973   0.014693728443583288   0.007475805747781195
-0.12628458393832973   0.014693728443583288   0.007475805747781195
-0.1578057697548541   -0.029795558220584023   -0.0075317098224517015
-0.1578057697548541   -0.029795558220584023   -0.0075317098224517015
-0.1578057697548541   -0.029795558220584023   -0.0075317098224517015
-0.1578057697548541   -0.029795558220584023   -0.0075317098224517015
-0.1699753608826606   -0.008765786682610719   0.014243093251554744
-0.1699753608826606   -0.008765786682610719   0.014243093251554744
-0.1699753608826606   -0.008765786682610719   0.014243093251554744
-0.1699753608826606   -0.008765786682610719   0.014243093251554744
-0.1728334899934097   -0.020790994398515304   -0.014227952385909553
-0.1728334899934097   -0.020790994398515304   -0.014227952385909553
-0.1728334899934097   -0.020790994398515304   -0.014227952385909553
-0.1728334899934097   -0.020790994398515304   -0.014227952385909553
-0.14184387361732553   0.008874707718677058   0.012086999500849278
-0.14184387361732553   0.008874707718677058   0.012086999500849278
-0.14184387361732553   0.008874707718677058   0.012086999500849278
-0.14184387361732553   0.008874707718677058   0.012086999500849278
-0.1599294465576886   -0.01181507344792463   -0.002379882594169453
-0.1599294465576886   -0.01181507344792463   -0.002379882594169453
-0.1599294465576886   -0.01181507344792463   -0.002379882594169453
-0.1599294465576886   -0.01181507344792463   -0.002379882594169453
-0.1511512959540113   -0.015603371671862043   -0.009972032792041674
-0.1511512959540113   -0.015603371671862043   -0.009972032792041674
-0.1511512959540113   -0.015603371671862043   -0.009972032792041674
-0.1511512959540113   -0.015603371671862043   -0.009972032792041674
-0.1625753863281947   0.004637766320552808   0.011633805221097212
-0.1625753863281947   0.004637766320552808   0.011633805221097212
-0.1625753863281947   0.004637766320552808   0.011633805221097212
-0.1625753863281947   0.004637766320552808   0.011633805221097212
-0.16351797674334362   -0.00672323403086085   -0.015965729207597132
-0.16351797674334362   -0.00672323403086085   -0.015965729207597132
-0.16351797674334362   -0.00672323403086085   -0.015965729207597132
-0.16351797674334362   -0.00672323403086085   -0.015965729207597132
-0.13550013712251802   0.020979446213460755   0.008981395296033947
-0.13550013712251802   0.020979446213460755   0.008981395296033947
-0.13550013712251802   0.020979446213460755   0.008981395296033947
-0.13550013712251802   0.020979446213460755   0.008981395296033947
-0.15149549451848418   0.0009572556050045228   0.003572600015608964
-0.15149549451848418   0.0009572556050045228   0.003572600015608964
-0.15149549451848418   0.0009572556050045228   0.003572600015608964
-0.15149549451848418   0.0009572556050045228   0.003572600015608964
-0.14451743677953025   -0.0022959262930757132   -0.012829730482492493
-0.14451743677953025   -0.0022959262930757132   -0.012829730482492493
-0.14451743677953025   -0.0022959262930757132   -0.012829730482492493
-0.14451743677953025   -0.0022959262930757132   -0.012829730482492493
-0.15354003477187594   0.017512780790132347   0.009687965828749843
-0.15354003477187594   0.017512780790132347   0.009687965828749843
-0.15354003477187594   0.017512780790132347   0.009687965828749843
-0.15354003477187594   0.017512780790132347   0.009687965828749843
-0.15537429895496327   0.008750889029512134   -0.017529349013606747
-0.15537429895496327   0.008750889029512134   -0.017529349013606747
-0.15537429895496327   0.008750889029512134   -0.017529349013606747
-0.15537429895496327   0.008750889029512134   -0.017529349013606747
-0.12913953041870144   0.034440969405728994   0.005917432650440594
-0.12913953041870144   0.034440969405728994   0.005917432650440594
-0.12913953041870144   0.034440969405728994   0.005917432650440594
-0.12913953041870144   0.034440969405728994   0.005917432650440594
-0.1443842415590346   0.013595392322910724   0.00925163411709927
-0.1443842415590346   0.013595392322910724   0.00925163411709927
-0.1443842415590346   0.013595392322910724   0.00925163411709927
-0.1443842415590346   0.013595392322910724   0.00925163411709927
-0.18193745932046076   -0.03536886520703566   -0.01896432041302403
-0.18193745932046076   -0.03536886520703566   -0.01896432041302403
-0.18193745932046076   -0.03536886520703566   -0.01896432041302403
-0.18193745932046076   -0.03536886520703566   -0.01896432041302403
-0.20298732099363712   0.0023177475946310894   0.02579062844403237
-0.20298732099363712   0.0023177475946310894   0.02579062844403237
-0.20298732099363712   0.0023177475946310894   0.02579062844403237
-0.20298732099363712   0.0023177475946310894   0.02579062844403237
-0.20052158893072022   -0.02977120390780514   -0.025321059793973318
-0.20052158893072022   -0.02977120390780514   -0.025321059793973318
-0.20052158893072022   -0.02977120390780514   -0.025321059793973318
-0.20052158893072022   -0.02977120390780514   -0.025321059793973318
-0.1567372914529097   0.022348484536705952   0.02311356138136806
-0.1567372914529097   0.022348484536705952   0.02311356138136806
-0.1567372914529097   0.022348484536705952   0.02311356138136806
-0.1567372914529097   0.022348484536705952   0.02311356138136806
-0.1780730564729215   -0.007734102928714893   -0.001038321007175511
-0.1780730564729215   -0.007734102928714893   -0.001038321007175511
-0.1780730564729215   -0.007734102928714893   -0.001038321007175511
-0.1780730564729215   -0.007734102928714893   -0.001038321007175511
-0.1749552677115889   -0.023932745650208902   -0.021695089725115798
-0.1749552677115889   -0.023932745650208902   -0.021695089725115798
-0.1749552677115889   -0.023932745650208902   -0.021695089725115798
-0.1749552677115889   -0.023932745650208902   -0.021695089725115798
-0.18129953794414827   0.01751410100699819   0.023503890224083144
-0.18129953794414827   0.01751410100699819   0.023503890224083144
-0.18129953794414827   0.01751410100699819   0.023503890224083144
-0.18129953794414827   0.01751410100699819   0.023503890224083144
-0.1843192384916089   -0.02157246721705601   -0.030207498360717268
-0.1843192384916089   -0.02157246721705601   -0.030207498360717268
-0.1843192384916089   -0.02157246721705601   -0.030207498360717268
-0.1843192384916089   -0.02157246721705601   -0.030207498360717268
-0.14956885255415833   0.02812424916306204   0.018932408544406334
-0.14956885255415833   0.02812424916306204   0.018932408544406334
-0.14956885255415833   0.02812424916306204   0.018932408544406334
-0.14956885255415833   0.02812424916306204   0.018932408544406334
-0.16722684816255942   0.0008522052850597969   0.0046555168078599145
-0.16722684816255942   0.0008522052850597969   0.0046555168078599145
-0.16722684816255942   0.0008522052850597969   0.0046555168078599145
-0.16722684816255942   0.0008522052850597969   0.0046555168078599145
-0.16744236757158737   -0.01718148069736985   -0.025129436682307965
-0.16744236757158737   -0.01718148069736985   -0.025129436682307965
-0.16744236757158737   -0.01718148069736985   -0.025129436682307965
-0.16744236757158737   -0.01718148069736985   -0.025129436682307965
-0.16539185709679324   0.02478712902075978   0.018069812375545245
-0.16539185709679324   0.02478712902075978   0.018069812375545245
-0.16539185709679324   0.02478712902075978   0.018069812375545245
-0.16539185709679324   0.02478712902075978   0.018069812375545245
-0.1629681033771086   -0.0074267722700238   -0.03304210686589806
-0.1629681033771086   -0.0074267722700238   -0.03304210686589806
-0.1629681033771086   -0.0074267722700238   -0.03304210686589806
-0.1629681033771086   -0.0074267722700238   -0.03304210686589806
-0.14316602555014615   0.036668912937434   0.015593994102555943
-0.14316602555014615   0.036668912937434   0.015593994102555943
-0.14316602555014615   0.036668912937434   0.015593994102555943
-0.14316602555014615   0.036668912937434   0.015593994102555943
-0.15214504444493593   0.0093992470898248   0.011278245391634766
-0.15214504444493593   0.0093992470898248   0.011278245391634766
-0.15214504444493593   0.0093992470898248   0.011278245391634766
-0.15214504444493593   0.0093992470898248   0.011278245391634766
0.11042156726809964   0.01774283914371643   0.028149986433019476
0.11042156726809964   0.01774283914371643   0.028149986433019476
0.11042156726809964   0.01774283914371643   0.028149986433019476
0.11042156726809964   0.01774283914371643   0.028149986433019476
-0.0019445360598098014   -0.04512636469038175   -0.01849484377450306
-0.0019445360598098014   -0.04512636469038175   -0.01849484377450306
-0.0019445360598098014   -0.04512636469038175   -0.01849484377450306
-0.0019445360598098014   -0.04512636469038175   -0.01849484377450306
0.024363563252973192   0.008689824453649816   0.02172034278773651
0.024363563252973192   0.008689824453649816   0.02172034278773651
0.024363563252973192   0.008689824453649816   0.02172034278773651
0.024363563252973192   0.008689824453649816   0.02172034278773651
0.11487635814567634   -0.015441793856591078   -0.02319945730188059
0.11487635814567634   -0.015441793856591078   -0.02319945730188059
0.11487635814567634   -0.015441793856591078   -0.02319945730188059
0.11487635814567634   -0.015441793856591078   -0.02319945730188059
0.05642195474740422   -0.008627316128175355   -0.01348075867795229
0.05642195474740422   -0.008627316128175355   -0.01348075867795229
0.05642195474740422   -0.008627316128175355   -0.01348075867795229
0.05642195474740422   -0.008627316128175355   -0.01348075867795229
0.13395208963556107   0.0313424520256754   0.02539495426527656
0.13395208963556107   0.0313424520256754   0.02539495426527656
0.13395208963556107   0.0313424520256754   0.02539495426527656
0.13395208963556107   0.0313424520256754   0.02539495426527656
0.006479372551117026   -0.0369028806405881   -0.0221079056273064
0.006479372551117026   -0.0369028806405881   -0.0221079056273064
0.006479372551117026   -0.0369028806405881   -0.0221079056273064
0.006479372551117026   -0.0369028806405881   -0.0221079056273064
0.03381754488985728   0.015244199597494325   0.018105104592462718
0.03381754488985728   0.015244199597494325   0.018105104592462718
0.03381754488985728   0.015244199597494325   0.018105104592462718
0.03381754488985728   0.015244199597494325   0.018105104592462718
0.13318261084684638   -0.008042410041801125   -0.028968784785359684
0.13318261084684638   -0.008042410041801125   -0.028968784785359684
0.13318261084684638   -0.008042410041801125   -0.028968784785359684
0.13318261084684638   -0.008042410041801125   -0.028968784785359684
0.07296359577846821   -0.0004777140899645503   -0.006397736645645922
0.07296359577846821   -0.0004777140899645503   -0.006397736645645922
0.07296359577846821   -0.0004777140899645503   -0.006397736645645922
0.07296359577846821   -0.0004777140899645503   -0.006397736645645922
0.15244906697896432   0.03934475021959083   0.019976335613838186
0.15244906697896432   0.03934475021959083   0.019976335613838186
0.15244906697896432   0.03934475021959083   0.019976335613838186
0.15244906697896432   0.03934475021959083   0.019976335613838186
0.015708486307288636   -0.030985563114345756   -0.02621042560854045
0.015708486307288636   -0.030985563114345756   -0.02621042560854045
0.015708486307288636   -0.030985563114345756   -0.02621042560854045
0.015708486307288636   -0.030985563114345756   -0.02621042560854045
0.04298422633742116   0.027317470874423676   0.0156646913006259
0.04298422633742116   0.027317470874423676   0.0156646913006259
0.04298422633742116   0.027317470874423676   0.0156646913006259
0.04298422633742116   0.027317470874423676   0.0156646913006259
0.15750554459235455   0.008506756228674087   -0.0319300238596889
0.15750554459235455   0.008506756228674087   -0.0319300238596889
0.15750554459235455   0.008506756228674087   -0.0319300238596889
0.15750554459235455   0.008506756228674087   -0.0319300238596889
0.0867416745674125   0.008685976893131437   0.0002739328979494576
0.0867416745674125   0.008685976893131437   0.0002739328979494576
0.0867416745674125   0.008685976893131437   0.0002739328979494576
0.0867416745674125   0.008685976893131437   0.0002739328979494576
0.015614465450666623   0.004951033959126741   0.01922276512837058
0.015614465450666623   0.004951033959126741   0.01922276512837058
0.015614465450666623   0.004951033959126741   0.01922276512837058
0.015614465450666623   0.004951033959126741   0.01922276512837058
-0.10321819796796491   -0.03836557193705538   -0.008494621791594537
-0.10321819796796491   -0.03836557193705538   -0.008494621791594537
-0.10321819796796491   -0.03836557193705538   -0.008494621791594537
-0.10321819796796491   -0.03836557193705538   -0.008494621791594537
-0.08669786194162972   -0.005665761699618507   0.00872501771723174
-0.08669786194162972   -0.005665761699618507   0.00872501771723174
-0.08669786194162972   -0.005665761699618507   0.00872501771723174
-0.08669786194162972   -0.005665761699618507   0.00872501771723174
0.01612042963395915   -0.004124102630009134   -0.006681398223674746
0.01612042963395915   -0.004124102630009134   -0.006681398223674746
0.01612042963395915   -0.004124102630009134   -0.006681398223674746
0.01612042963395915   -0.004124102630009134   -0.006681398223674746
-0.04041214985969206   -0.009819543808483829   -0.0064506034955675185
-0.04041214985969206   -0.009819543808483829   -0.0064506034955675185
-0.04041214985969206   -0.009819543808483829   -0.0064506034955675185
-0.04041214985969206   -0.009819543808483829   -0.0064506034955675185
0.02537435612751033   0.01841375391131463   0.017050377702757386
0.02537435612751033   0.01841375391131463   0.017050377702757386
0.02537435612751033   0.01841375391131463   0.017050377702757386
0.02537435612751033   0.01841375391131463   0.017050377702757386
-0.09507879435631206   -0.027330624162073443   -0.01151478189372507
-0.09507879435631206   -0.027330624162073443   -0.01151478189372507
-0.09507879435631206   -0.027330624162073443   -0.01151478189372507
-0.09507879435631206   -0.027330624162073443   -0.01151478189372507
-0.07808784896400231   0.007072597458581031   0.006158848424767126
-0.07808784896400231   0.007072597458581031   0.006158848424767126
-0.07808784896400231   0.007072597458581031   0.006158848424767126
-0.07808784896400231   0.007072597458581031   0.006158848424767126
0.026923679922734377   0.007932039482673176   -0.00905206012833067
0.026923679922734377   0.007932039482673176   -0.00905206012833067
0.026923679922734377   0.007932039482673176   -0.00905206012833067
0.026923679922734377   0.007932039482673176   -0.00905206012833067
-0.03128028784972362   0.001393003554406593   -0.0008103322790319464
-0.03128028784972362   0.001393003554406593   -0.0008103322790319464
-0.03128028784972362   0.001393003554406593   -0.0008103322790319464
-0.03128028784972362   0.001393003554406593   -0.0008103322790319464
0.03657041267559596   0.031829340604395226   0.01528430251425517
0.03657041267559596   0.031829340604395226   0.01528430251425517
0.03657041267559596   0.031829340604395226   0.01528430251425517
0.03657041267559596   0.031829340604395226   0.01528430251425517
-0.0868921894054347   -0.01598231135171438   -0.01480794497209937
-0.0868921894054347   -0.01598231135171438   -0.01480794497209937
-0.0868921894054347   -0.01598231135171438   -0.01480794497209937
-0.0868921894054347   -0.01598231135171438   -0.01480794497209937
-0.06942180867598131   0.02151199426213305   0.0037129706689526375
-0.06942180867598131   0.02151199426213305   0.0037129706689526375
-0.06942180867598131   0.02151199426213305   0.0037129706689526375
-0.06942180867598131   0.02151199426213305   0.0037129706689526375
0.03640603122278453   0.021637492170367076   -0.011546305568498704
0.03640603122278453   0.021637492170367076   -0.011546305568498704
0.03640603122278453   0.021637492170367076   -0.011546305568498704
0.03640603122278453   0.021637492170367076   -0.011546305568498704
-0.02114571119083109   0.013807590748949772   0.005215806652229287
-0.02114571119083109   0.013807590748949772   0.005215806652229287
-0.02114571119083109   0.013807590748949772   0.005215806652229287
-0.02114571119083109   0.013807590748949772   0.005215806652229287
-0.0939114994317255   -0.0072851196721567275   0.0069584186247049415
-0.0939114994317255   -0.0072851196721567275   0.0069584186247049415
-0.0939114994317255   -0.0072851196721567275   0.0069584186247049415
-0.0939114994317255   -0.0072851196721567275   0.0069584186247049415
-0.20263066508110184   -0.02745705557660524   0.0017160365944289381
-0.20263066508110184   -0.02745705557660524   0.0017160365944289381
-0.20263066508110184   -0.02745705557660524   0.0017160365944289381
-0.20263066508110184   -0.02745705557660524   0.0017160365944289381
-0.19512990818793044   -0.01729761043197683   -0.0038046710434024794
-0.19512990818793044   -0.01729761043197683   -0.0038046710434024794
-0.19512990818793044   -0.01729761043197683   -0.0038046710434024794
-0.19512990818793044   -0.01729761043197683   -0.0038046710434024794
-0.08501751304284529   0.007201975775579687   0.004259024735956592
-0.08501751304284529   0.007201975775579687   0.004259024735956592
-0.08501751304284529   0.007201975775579687   0.004259024735956592
-0.08501751304284529   0.007201975775579687   0.004259024735956592
-0.1443816182112008   -0.01030285927685998   -0.0037811394011345563
-0.1443816182112008   -0.01030285927685998   -0.0037811394011345563
-0.1443816182112008   -0.01030285927685998   -0.0037811394011345563
-0.1443816182112008   -0.01030285927685998   -0.0037811394011345563
-0.08510768012235251   0.006391502010516071   0.004618663103484094
-0.08510768012235251   0.006391502010516071   0.004618663103484094
-0.08510768012235251   0.006391502010516071   0.004618663103484094
-0.08510768012235251   0.006391502010516071   0.004618663103484094
-0.19428589062646212   -0.015733286184954665   -0.0011489074830830235
-0.19428589062646212   -0.015733286184954665   -0.0011489074830830235
-0.19428589062646212   -0.015733286184954665   -0.0011489074830830235
-0.19428589062646212   -0.015733286184954665   -0.0011489074830830235
-0.1860672703626623   -0.0032704420716901036   -0.005982009009025079
-0.1860672703626623   -0.0032704420716901036   -0.005982009009025079
-0.1860672703626623   -0.0032704420716901036   -0.005982009009025079
-0.1860672703626623   -0.0032704420716901036   -0.005982009009025079
-0.07649450150547474   0.019608318055940138   0.0015898651200449195
-0.07649450150547474   0.019608318055940138   0.0015898651200449195
-0.07649450150547474   0.019608318055940138   0.0015898651200449195
-0.07649450150547474   0.019608318055940138   0.0015898651200449195
-0.13501792194585058   0.0020056195337836737   0.0019102264815959204
-0.13501792194585058   0.0020056195337836737   0.0019102264815959204
-0.13501792194585058   0.0020056195337836737   0.0019102264815959204
-0.13501792194585058   0.0020056195337836737   0.0019102264815959204
-0.07625061255786586   0.0203106807282334   0.0021069471857959893
-0.07625061255786586   0.0203106807282334   0.0021069471857959893
-0.07625061255786586   0.0203106807282334   0.0021069471857959893
-0.07625061255786586   0.0203106807282334   0.0021069471857959893
-0.1857049193013867   -0.003366564735099137   -0.00407413103923953
-0.1857049193013867   -0.003366564735099137   -0.00407413103923953
-0.1857049193013867   -0.003366564735099137   -0.00407413103923953
-0.1857049193013867   -0.003366564735099137   -0.00407413103923953
-0.17736826918203294   0.01080262219296816   -0.008455984544777872
-0.17736826918203294   0.01080262219296816   -0.008455984544777872
-0.17736826918203294   0.01080262219296816   -0.008455984544777872
-0.17736826918203294   0.01080262219296816   -0.008455984544777872
-0.0683553889671829   0.03205098840765408   -0.0014939249325753197
-0.0683553889671829   0.03205098840765408   -0.0014939249325753197
-0.0683553889671829   0.03205098840765408   -0.0014939249325753197
-0.0683553889671829   0.03205098840765408   -0.0014939249325753197
-0.12615165340967555   0.014283700453961379   0.007230328388857808
-0.12615165340967555   0.014283700453961379   0.007230328388857808
-0.12615165340967555   0.014283700453961379   0.007230328388857808
-0.12615165340967555   0.014283700453961379   0.007230328388857808
-0.20246342933735498   -0.019244155897123864   -0.005660684366316604
-0.20246342933735498   -0.019244155897123864   -0.005660684366316604
-0.20246342933735498   -0.019244155897123864   -0.005660684366316604
-0.20246342933735498   -0.019244155897123864   -0.005660684366316604
-0.30129482839928146   -0.017194972345535867   0.011718620347670562
-0.30129482839928146   -0.017194972345535867   0.011718620347670562
-0.30129482839928146   -0.017194972345535867   0.011718620347670562
-0.30129482839928146   -0.017194972345535867   0.011718620347670562
-0.3016224311841855   -0.028713579572198396   -0.01607587938666797
-0.3016224311841855   -0.028713579572198396   -0.01607587938666797
-0.3016224311841855   -0.028713579572198396   -0.01607587938666797
-0.3016224311841855   -0.028713579572198396   -0.01607587938666797
-0.1843991517474487   0.018081458625457444   0.014470042101571906
-0.1843991517474487   0.018081458625457444   0.014470042101571906
-0.1843991517474487   0.018081458625457444   0.014470042101571906
-0.1843991517474487   0.018081458625457444   0.014470042101571906
-0.24605013006110774   -0.010586367364284241   -0.0016120976464093217
-0.24605013006110774   -0.010586367364284241   -0.0016120976464093217
-0.24605013006110774   -0.010586367364284241   -0.0016120976464093217
-0.24605013006110774   -0.010586367364284241   -0.0016120976464093217
-0.1935906087643339   -0.0054776634019778545   -0.007928120955416946
-0.1935906087643339   -0.0054776634019778545   -0.007928120955416946
-0.1935906087643339   -0.0054776634019778545   -0.007928120955416946
-0.1935906087643339   -0.0054776634019778545   -0.007928120955416946
-0.29180121455902086   -0.004524697936482865   0.008841322103442517
-0.29180121455902086   -0.004524697936482865   0.008841322103442517
-0.29180121455902086   -0.004524697936482865   0.008841322103442517
-0.29180121455902086   -0.004524697936482865   0.008841322103442517
-0.29021941387675865   -0.015338748861603524   -0.017890303325046836
-0.29021941387675865   -0.015338748861603524   -0.017890303325046836
-0.29021941387675865   -0.015338748861603524   -0.017890303325046836
-0.29021941387675865   -0.015338748861603524   -0.017890303325046836
-0.17603981137758165   0.029364898534170077   0.011519945310518018
-0.17603981137758165   0.029364898534170077   0.011519945310518018
-0.17603981137758165   0.029364898534170077   0.011519945310518018
-0.17603981137758165   0.029364898534170077   0.011519945310518018
-0.23476419439664534   0.0018275409615981994   0.004261438446564498
-0.23476419439664534   0.0018275409615981994   0.004261438446564498
-0.23476419439664534   0.0018275409615981994   0.004261438446564498
-0.23476419439664534   0.0018275409615981994   0.004261438446564498
-0.18492410587618993   0.007159206394873968   -0.01069583504322811
-0.18492410587618993   0.007159206394873968   -0.01069583504322811
-0.18492410587618993   0.007159206394873968   -0.01069583504322811
-0.18492410587618993   0.007159206394873968   -0.01069583504322811
-0.2806284019624875   0.0075736606933553136   0.00715234669135003
-0.2806284019624875   0.0075736606933553136   0.00715234669135003
-0.2806284019624875   0.0075736606933553136   0.00715234669135003
-0.2806284019624875   0.0075736606933553136   0.00715234669135003
-0.2800253487819543   -0.0007729285659043156   -0.01926623884447315
-0.2800253487819543   -0.0007729285659043156   -0.01926623884447315
-0.2800253487819543   -0.0007729285659043156   -0.01926623884447315
-0.2800253487819543   -0.0007729285659043156   -0.01926623884447315
-0.16776926948435383   0.041796103554499114   0.008545532582086693
-0.16776926948435383   0.041796103554499114   0.008545532582086693
-0.16776926948435383   0.041796103554499114   0.008545532582086693
-0.16776926948435383   0.041796103554499114   0.008545532582086693
-0.22639663857463832   0.013375633247649434   0.009516659416368957
-0.22639663857463832   0.013375633247649434   0.009516659416368957
-0.22639663857463832   0.013375633247649434   0.009516659416368957
-0.22639663857463832   0.013375633247649434   0.009516659416368957
-0.309180506424909   -0.02754996967135867   -0.017354772454644528
-0.309180506424909   -0.02754996967135867   -0.017354772454644528
-0.309180506424909   -0.02754996967135867   -0.017354772454644528
-0.309180506424909   -0.02754996967135867   -0.017354772454644528
-0.41400872929454435   -0.007611566781024856   0.02561082031404773
-0.41400872929454435   -0.007611566781024856   0.02561082031404773
-0.41400872929454435   -0.007611566781024856   0.02561082031404773
-0.41400872929454435   -0.007611566781024856   0.02561082031404773
-0.408577308817882   -0.03729209889636846   -0.023249338419016333
-0.408577308817882   -0.03729209889636846   -0.023249338419016333
-0.408577308817882   -0.03729209889636846   -0.023249338419016333
-0.408577308817882   -0.03729209889636846   -0.023249338419016333
-0.2814885198371882   0.030634351039103502   0.0252457467370169
-0.2814885198371882   0.030634351039103502   0.0252457467370169
-0.2814885198371882   0.030634351039103502   0.0252457467370169
-0.2814885198371882   0.030634351039103502   0.0252457467370169
-0.338057502033269   -0.006035492783486321   0.002915547337405882
-0.338057502033269   -0.006035492783486321   0.002915547337405882
-0.338057502033269   -0.006035492783486321   0.002915547337405882
-0.338057502033269   -0.006035492783486321   0.002915547337405882
-0.29954544383222587   -0.014763968879372785   -0.019640553319694134
-0.29954544383222587   -0.014763968879372785   -0.019640553319694134
-0.29954544383222587   -0.014763968879372785   -0.019640553319694134
-0.29954544383222587   -0.014763968879372785   -0.019640553319694134
-0.38994425185833664   0.008682353986611976   0.02394149349572311
-0.38994425185833664   0.008682353986611976   0.02394149349572311
-0.38994425185833664   0.008682353986611976   0.02394149349572311
-0.38994425185833664   0.008682353986611976   0.02394149349572311
-0.39041302815774626   -0.029370201323483364   -0.02769566828473277
-0.39041302815774626   -0.029370201323483364   -0.02769566828473277
-0.39041302815774626   -0.029370201323483364   -0.02769566828473277
-0.39041302815774626   -0.029370201323483364   -0.02769566828473277
-0.27223897895413324   0.03584534467896453   0.020827777747509515
-0.27223897895413324   0.03584534467896453   0.020827777747509515
-0.27223897895413324   0.03584534467896453   0.020827777747509515
-0.27223897895413324   0.03584534467896453   0.020827777747509515
-0.3279309080700356   0.002295918240768649   0.007644187671016309
-0.3279309080700356   0.002295918240768649   0.007644187671016309
-0.3279309080700356   0.002295918240768649   0.007644187671016309
-0.3279309080700356   0.002295918240768649   0.007644187671016309
-0.2897637386576676   -0.008242787487300063   -0.02270788860389496
-0.2897637386576676   -0.008242787487300063   -0.02270788860389496
-0.2897637386576676   -0.008242787487300063   -0.02270788860389496
-0.2897637386576676   -0.008242787487300063   -0.02270788860389496
-0.37218811896875437   0.015418080328238604   0.018640596008500997
-0.37218811896875437   0.015418080328238604   0.018640596008500997
-0.37218811896875437   0.015418080328238604   0.018640596008500997
-0.37218811896875437   0.015418080328238604   0.018640596008500997
-0.3679527396782613   -0.017590819476750258   -0.030917953840250194
-0.3679527396782613   -0.017590819476750258   -0.030917953840250194
-0.3679527396782613   -0.017590819476750258   -0.030917953840250194
-0.3679527396782613   -0.017590819476750258   -0.030917953840250194
-0.2641377194741634   0.04205269006519405   0.017346289063382588
-0.2641377194741634   0.04205269006519405   0.017346289063382588
-0.2641377194741634   0.04205269006519405   0.017346289063382588
-0.2641377194741634   0.04205269006519405   0.017346289063382588
-0.3085195648645551   0.010070157454840079   0.014341573228749935
-0.3085195648645551   0.010070157454840079   0.014341573228749935
-0.3085195648645551   0.010070157454840079   0.014341573228749935
-0.3085195648645551   0.010070157454840079   0.014341573228749935
0.32543680990960777   0.029634449607129264   0.02792788174364977
0.32543680990960777   0.029634449607129264   0.02792788174364977
0.32543680990960777   0.029634449607129264   0.02792788174364977
0.32543680990960777   0.029634449607129264   0.02792788174364977
0.11882719037953812   -0.053486157870360845   -0.01836742896545987
0.11882719037953812   -0.053486157870360845   -0.01836742896545987
0.11882719037953812   -0.053486157870360845   -0.01836742896545987
0.11882719037953812   -0.053486157870360845   -0.01836742896545987
0.14623514685368305   -0.0005175744847524186   0.02006285084932137
0.14623514685368305   -0.0005175744847524186   0.02006285084932137
0.14623514685368305   -0.0005175744847524186   0.02006285084932137
0.14623514685368305   -0.0005175744847524186   0.02006285084932137
0.33105305613010666   -0.006963225636822293   -0.023470991293168524
0.33105305613010666   -0.006963225636822293   -0.023470991293168524
0.33105305613010666   -0.006963225636822293   -0.023470991293168524
0.33105305613010666   -0.006963225636822293   -0.023470991293168524
0.21622273300940634   -0.009537259932551154   -0.020732226587773184
0.21622273300940634   -0.009537259932551154   -0.020732226587773184
0.21622273300940634   -0.009537259932551154   -0.020732226587773184
0.21622273300940634   -0.009537259932551154   -0.020732226587773184
0.350218221970194   0.041120660685645245   0.02427095158479873
0.350218221970194   0.041120660685645245   0.02427095158479873
0.350218221970194   0.041120660685645245   0.02427095158479873
0.350218221970194   0.041120660685645245   0.02427095158479873
0.12844114421247668   -0.0472302976083393   -0.02219443923312354
0.12844114421247668   -0.0472302976083393   -0.02219443923312354
0.12844114421247668   -0.0472302976083393   -0.02219443923312354
0.12844114421247668   -0.0472302976083393   -0.02219443923312354
0.15691976859274448   0.005803050423206023   0.016521359793777918
0.15691976859274448   0.005803050423206023   0.016521359793777918
0.15691976859274448   0.005803050423206023   0.016521359793777918
0.15691976859274448   0.005803050423206023   0.016521359793777918
0.35071678167702003   0.00020991301227013537   -0.029499215525953748
0.35071678167702003   0.00020991301227013537   -0.029499215525953748
0.35071678167702003   0.00020991301227013537   -0.029499215525953748
0.35071678167702003   0.00020991301227013537   -0.029499215525953748
0.23682172510060553   -0.001807448184234263   -0.012598372061884964
0.23682172510060553   -0.001807448184234263   -0.012598372061884964
0.23682172510060553   -0.001807448184234263   -0.012598372061884964
0.23682172510060553   -0.001807448184234263   -0.012598372061884964
0.3700780304002878   0.04886151587207475   0.018655425230578268
0.3700780304002878   0.04886151587207475   0.018655425230578268
0.3700780304002878   0.04886151587207475   0.018655425230578268
0.3700780304002878   0.04886151587207475   0.018655425230578268
0.1390041852950913   -0.04140288701098437   -0.02585061926029754
0.1390041852950913   -0.04140288701098437   -0.02585061926029754
0.1390041852950913   -0.04140288701098437   -0.02585061926029754
0.1390041852950913   -0.04140288701098437   -0.02585061926029754
0.16759265940229498   0.019773841967985362   0.014318290026927045
0.16759265940229498   0.019773841967985362   0.014318290026927045
0.16759265940229498   0.019773841967985362   0.014318290026927045
0.16759265940229498   0.019773841967985362   0.014318290026927045
0.3765720117770989   0.018908767173955107   -0.03179953670530389
0.3765720117770989   0.018908767173955107   -0.03179953670530389
0.3765720117770989   0.018908767173955107   -0.03179953670530389
0.3765720117770989   0.018908767173955107   -0.03179953670530389
0.2493609072988691   0.007629532613358518   -0.005600941696608392
0.2493609072988691   0.007629532613358518   -0.005600941696608392
0.2493609072988691   0.007629532613358518   -0.005600941696608392
0.2493609072988691   0.007629532613358518   -0.005600941696608392
0.14102443316033442   0.016673670050465515   0.022458957017695232
0.14102443316033442   0.016673670050465515   0.022458957017695232
0.14102443316033442   0.016673670050465515   0.022458957017695232
0.14102443316033442   0.016673670050465515   0.022458957017695232
-0.06939352063682164   -0.049930662583249574   -0.009646054242095973
-0.06939352063682164   -0.049930662583249574   -0.009646054242095973
-0.06939352063682164   -0.049930662583249574   -0.009646054242095973
-0.06939352063682164   -0.049930662583249574   -0.009646054242095973
-0.05063384893790371   -0.01479125647841771   0.006737111106145237
-0.05063384893790371   -0.01479125647841771   0.006737111106145237
-0.05063384893790371   -0.01479125647841771   0.006737111106145237
-0.05063384893790371   -0.01479125647841771   0.006737111106145237
0.14192528344693928   0.0008721150906313181   -0.0028761557597812067
0.14192528344693928   0.0008721150906313181   -0.0028761557597812067
0.14192528344693928   0.0008721150906313181   -0.0028761557597812067
0.14192528344693928   0.0008721150906313181   -0.0028761557597812067
0.03887083637196419   -0.010420594123951736   -0.00878341527379899
0.03887083637196419   -0.010420594123951736   -0.00878341527379899
0.03887083637196419   -0.010420594123951736   -0.00878341527379899
0.03887083637196419   -0.010420594123951736   -0.00878341527379899
0.15201923705599965   0.02840423664530361   0.020061490730848477
0.15201923705599965   0.02840423664530361   0.020061490730848477
0.15201923705599965   0.02840423664530361   0.020061490730848477
0.15201923705599965   0.02840423664530361   0.020061490730848477
-0.05989001455854473   -0.04148559004467079   -0.01284938343080775
-0.05989001455854473   -0.04148559004467079   -0.01284938343080775
-0.05989001455854473   -0.04148559004467079   -0.01284938343080775
-0.05989001455854473   -0.04148559004467079   -0.01284938343080775
-0.04068917707120038   -0.0029315277201096366   0.004242960851690026
-0.04068917707120038   -0.0029315277201096366   0.004242960851690026
-0.04068917707120038   -0.0029315277201096366   0.004242960851690026
-0.04068917707120038   -0.0029315277201096366   0.004242960851690026
0.153671751832566   0.011488820502941418   -0.00540449408684972
0.153671751832566   0.011488820502941418   -0.00540449408684972
0.153671751832566   0.011488820502941418   -0.00540449408684972
0.153671751832566   0.011488820502941418   -0.00540449408684972
0.04846183287435481   -0.0010627406468373766   -0.0034856268987435053
0.04846183287435481   -0.0010627406468373766   -0.0034856268987435053
0.04846183287435481   -0.0010627406468373766   -0.0034856268987435053
0.04846183287435481   -0.0010627406468373766   -0.0034856268987435053
0.16417284763168172   0.040758538443718996   0.017831266967951117
0.16417284763168172   0.040758538443718996   0.017831266967951117
0.16417284763168172   0.040758538443718996   0.017831266967951117
0.16417284763168172   0.040758538443718996   0.017831266967951117
-0.05035258353960474   -0.0313635563301759   -0.015642042880265536
-0.05035258353960474   -0.0313635563301759   -0.015642042880265536
-0.05035258353960474   -0.0313635563301759   -0.015642042880265536
-0.05035258353960474   -0.0313635563301759   -0.015642042880265536
-0.030861612117532425   0.010845990799136758   0.0017638309156513135
-0.030861612117532425   0.010845990799136758   0.0017638309156513135
-0.030861612117532425   0.010845990799136758   0.0017638309156513135
-0.030861612117532425   0.010845990799136758   0.0017638309156513135
0.16406172328319424   0.024163321383240705   -0.007725869983831934
0.16406172328319424   0.024163321383240705   -0.007725869983831934
0.16406172328319424   0.024163321383240705   -0.007725869983831934
0.16406172328319424   0.024163321383240705   -0.007725869983831934
0.06038933002927457   0.010445171855852982   0.002709295828058989
0.06038933002927457   0.010445171855852982   0.002709295828058989
0.06038933002927457   0.010445171855852982   0.002709295828058989
0.06038933002927457   0.010445171855852982   0.002709295828058989
-0.05482352966024201   0.0036798431668262077   0.009593394890726359
-0.05482352966024201   0.0036798431668262077   0.009593394890726359
-0.05482352966024201   0.0036798431668262077   0.009593394890726359
-0.05482352966024201   0.0036798431668262077   0.009593394890726359
-0.2538937198580879   -0.044173285627792505   -0.0013295385934058747
-0.2538937198580879   -0.044173285627792505   -0.0013295385934058747
-0.2538937198580879   -0.044173285627792505   -0.0013295385934058747
-0.2538937198580879   -0.044173285627792505   -0.0013295385934058747
-0.24213952974225075   -0.02626364328749144   -0.005947053879978279
-0.24213952974225075   -0.02626364328749144   -0.005947053879978279
-0.24213952974225075   -0.02626364328749144   -0.005947053879978279
-0.24213952974225075   -0.02626364328749144   -0.005947053879978279
-0.046363022415101485   0.0069615077690331   0.0063384794727045935
-0.046363022415101485   0.0069615077690331   0.0063384794727045935
-0.046363022415101485   0.0069615077690331   0.0063384794727045935
-0.046363022415101485   0.0069615077690331   0.0063384794727045935
-0.14956275432988372   -0.01353616415801085   -0.005495032236673714
-0.14956275432988372   -0.01353616415801085   -0.005495032236673714
-0.14956275432988372   -0.01353616415801085   -0.005495032236673714
-0.14956275432988372   -0.01353616415801085   -0.005495032236673714
-0.044380917835246496   0.015932993248425703   0.00727751689258787
-0.044380917835246496   0.015932993248425703   0.00727751689258787
-0.044380917835246496   0.015932993248425703   0.00727751689258787
-0.044380917835246496   0.015932993248425703   0.00727751689258787
-0.24355083469726957   -0.03466432914204517   -0.004602892800518666
-0.24355083469726957   -0.03466432914204517   -0.004602892800518666
-0.24355083469726957   -0.03466432914204517   -0.004602892800518666
-0.24355083469726957   -0.03466432914204517   -0.004602892800518666
-0.2311717159189407   -0.013251021782999584   -0.008029619661187724
-0.2311717159189407   -0.013251021782999584   -0.008029619661187724
-0.2311717159189407   -0.013251021782999584   -0.008029619661187724
-0.2311717159189407   -0.013251021782999584   -0.008029619661187724
-0.036687846745344116   0.017691597183414412   0.0036264875774492224
-0.036687846745344116   0.017691597183414412   0.0036264875774492224
-0.036687846745344116   0.017691597183414412   0.0036264875774492224
-0.036687846745344116   0.017691597183414412   0.0036264875774492224
-0.1384948394121181   -0.0026536838075664378   -7.751385832795079e-05
-0.1384948394121181   -0.0026536838075664378   -7.751385832795079e-05
-0.1384948394121181   -0.0026536838075664378   -7.751385832795079e-05
-0.1384948394121181   -0.0026536838075664378   -7.751385832795079e-05
-0.03429157063269745   0.028659020226088336   0.004640445098008624
-0.03429157063269745   0.028659020226088336   0.004640445098008624
-0.03429157063269745   0.028659020226088336   0.004640445098008624
-0.03429157063269745   0.028659020226088336   0.004640445098008624
-0.23304015531084218   -0.023690608104928342   -0.006932230298766479
-0.23304015531084218   -0.023690608104928342   -0.006932230298766479
-0.23304015531084218   -0.023690608104928342   -0.006932230298766479
-0.23304015531084218   -0.023690608104928342   -0.006932230298766479
-0.2209577549913853   -0.00027185089241488214   -0.010505755408702404
-0.2209577549913853   -0.00027185089241488214   -0.010505755408702404
-0.2209577549913853   -0.00027185089241488214   -0.010505755408702404
-0.2209577549913853   -0.00027185089241488214   -0.010505755408702404
-0.027468407759644875   0.028640283302054113   0.0009355602021726295
-0.027468407759644875   0.028640283302054113   0.0009355602021726295
-0.027468407759644875   0.028640283302054113   0.0009355602021726295
-0.027468407759644875   0.028640283302054113   0.0009355602021726295
-0.1283368703635857   0.008190258594113615   0.005072974529055925
-0.1283368703635857   0.008190258594113615   0.005072974529055925
-0.1283368703635857   0.008190258594113615   0.005072974529055925
-0.1283368703635857   0.008190258594113615   0.005072974529055925
-0.24742188057351053   -0.009494027007981402   -0.0036496007903280316
-0.24742188057351053   -0.009494027007981402   -0.0036496007903280316
-0.24742188057351053   -0.009494027007981402   -0.0036496007903280316
-0.24742188057351053   -0.009494027007981402   -0.0036496007903280316
-0.4345831639307891   -0.03594545245977714   0.008128158505375271
-0.4345831639307891   -0.03594545245977714   0.008128158505375271
-0.4345831639307891   -0.03594545245977714   0.008128158505375271
-0.4345831639307891   -0.03594545245977714   0.008128158505375271
-0.42906821471670287   -0.037318515497967844   -0.01786076554630031
-0.42906821471670287   -0.037318515497967844   -0.01786076554630031
-0.42906821471670287   -0.037318515497967844   -0.01786076554630031
-0.42906821471670287   -0.037318515497967844   -0.01786076554630031
-0.2291462280313244   0.016917662074715345   0.015838149312448386
-0.2291462280313244   0.016917662074715345   0.015838149312448386
-0.2291462280313244   0.016917662074715345   0.015838149312448386
-0.2291462280313244   0.016917662074715345   0.015838149312448386
-0.33273829852410824   -0.014420518673487981   -0.0019275295793677524
-0.33273829852410824   -0.014420518673487981   -0.0019275295793677524
-0.33273829852410824   -0.014420518673487981   -0.0019275295793677524
-0.33273829852410824   -0.014420518673487981   -0.0019275295793677524
-0.23607426466699874   0.0037296277191595506   -0.005613999510367507
-0.23607426466699874   0.0037296277191595506   -0.005613999510367507
-0.23607426466699874   0.0037296277191595506   -0.005613999510367507
-0.23607426466699874   0.0037296277191595506   -0.005613999510367507
-0.4220781758892338   -0.02406847895061666   0.0038393920436977126
-0.4220781758892338   -0.02406847895061666   0.0038393920436977126
-0.4220781758892338   -0.02406847895061666   0.0038393920436977126
-0.4220781758892338   -0.02406847895061666   0.0038393920436977126
-0.41469703845465755   -0.024621996417735798   -0.01975730237193541
-0.41469703845465755   -0.024621996417735798   -0.01975730237193541
-0.41469703845465755   -0.024621996417735798   -0.01975730237193541
-0.41469703845465755   -0.024621996417735798   -0.01975730237193541
-0.2189546251868312   0.02712966440532026   0.012675147811041905
-0.2189546251868312   0.02712966440532026   0.012675147811041905
-0.2189546251868312   0.02712966440532026   0.012675147811041905
-0.2189546251868312   0.02712966440532026   0.012675147811041905
-0.3180770127838937   -0.0024020200919274842   0.003520031230219302
-0.3180770127838937   -0.0024020200919274842   0.003520031230219302
-0.3180770127838937   -0.0024020200919274842   0.003520031230219302
-0.3180770127838937   -0.0024020200919274842   0.003520031230219302
-0.22545925361243704   0.015527795868968172   -0.008246125780636139
-0.22545925361243704   0.015527795868968172   -0.008246125780636139
-0.22545925361243704   0.015527795868968172   -0.008246125780636139
-0.22545925361243704   0.015527795868968172   -0.008246125780636139
-0.4078147490578416   -0.012642466910173733   0.002674615104582327
-0.4078147490578416   -0.012642466910173733   0.002674615104582327
-0.4078147490578416   -0.012642466910173733   0.002674615104582327
-0.4078147490578416   -0.012642466910173733   0.002674615104582327
-0.40185077294850724   -0.010886120399639473   -0.020784083724452874
-0.40185077294850724   -0.010886120399639473   -0.020784083724452874
-0.40185077294850724   -0.010886120399639473   -0.020784083724452874
-0.40185077294850724   -0.010886120399639473   -0.020784083724452874
-0.20908434906530732   0.038326975631623614   0.01026244769765089
-0.20908434906530732   0.038326975631623614   0.01026244769765089
-0.20908434906530732   0.038326975631623614   0.01026244769765089
-0.20908434906530732   0.038326975631623614   0.01026244769765089
-0.308273946832361   0.007848093495872455   0.008210456886263581
-0.308273946832361   0.007848093495872455   0.008210456886263581
-0.308273946832361   0.007848093495872455   0.008210456886263581
-0.308273946832361   0.007848093495872455   0.008210456886263581
-0.43627617362442456   -0.02036974016194111   -0.015912602260637964
-0.43627617362442456   -0.02036974016194111   -0.015912602260637964
-0.43627617362442456   -0.02036974016194111   -0.015912602260637964
-0.43627617362442456   -0.02036974016194111   -0.015912602260637964
-0.6225982774309698   -0.02256502267239735   0.027527676964799373
-0.6225982774309698   -0.02256502267239735   0.027527676964799373
-0.6225982774309698   -0.02256502267239735   0.027527676964799373
-0.6225982774309698   -0.02256502267239735   0.027527676964799373
-0.6111424283564362   -0.044587813792265174   -0.021211168900578524
-0.6111424283564362   -0.044587813792265174   -0.021211168900578524
-0.6111424283564362   -0.044587813792265174   -0.021211168900578524
-0.6111424283564362   -0.044587813792265174   -0.021211168900578524
-0.405511737406007   0.03455964267243704   0.028043462836774346
-0.405511737406007   0.03455964267243704   0.028043462836774346
-0.405511737406007   0.03455964267243704   0.028043462836774346
-0.405511737406007   0.03455964267243704   0.028043462836774346
-0.49583873317023575   -0.006117891183501839   0.0059148339631184405
-0.49583873317023575   -0.006117891183501839   0.0059148339631184405
-0.49583873317023575   -0.006117891183501839   0.0059148339631184405
-0.49583873317023575   -0.006117891183501839   0.0059148339631184405
-0.4228166732693665   -0.006220619796879573   -0.017700954010704803
-0.4228166732693665   -0.006220619796879573   -0.017700954010704803
-0.4228166732693665   -0.006220619796879573   -0.017700954010704803
-0.4228166732693665   -0.006220619796879573   -0.017700954010704803
-0.5935248226971025   -0.003494881526977592   0.025783927130796743
-0.5935248226971025   -0.003494881526977592   0.025783927130796743
-0.5935248226971025   -0.003494881526977592   0.025783927130796743
-0.5935248226971025   -0.003494881526977592   0.025783927130796743
-0.5892633140811192   -0.0367258706720444   -0.025003963880564497
-0.5892633140811192   -0.0367258706720444   -0.025003963880564497
-0.5892633140811192   -0.0367258706720444   -0.025003963880564497
-0.5892633140811192   -0.0367258706720444   -0.025003963880564497
-0.39348984412499727   0.03940493222663505   0.02225174063199537
-0.39348984412499727   0.03940493222663505   0.02225174063199537
-0.39348984412499727   0.03940493222663505   0.02225174063199537
-0.39348984412499727   0.03940493222663505   0.02225174063199537
-0.4847966343287288   0.0024746160233174302   0.010404560805537026
-0.4847966343287288   0.0024746160233174302   0.010404560805537026
-0.4847966343287288   0.0024746160233174302   0.010404560805537026
-0.4847966343287288   0.0024746160233174302   0.010404560805537026
-0.4098316208115065   0.00012568220267325514   -0.02017789277658903
-0.4098316208115065   0.00012568220267325514   -0.02017789277658903
-0.4098316208115065   0.00012568220267325514   -0.02017789277658903
-0.4098316208115065   0.00012568220267325514   -0.02017789277658903
-0.5726041595470237   0.0028707571995019165   0.018695180918356195
-0.5726041595470237   0.0028707571995019165   0.018695180918356195
-0.5726041595470237   0.0028707571995019165   0.018695180918356195
-0.5726041595470237   0.0028707571995019165   0.018695180918356195
-0.5652733508636187   -0.027349695117288922   -0.028530005459576988
-0.5652733508636187   -0.027349695117288922   -0.028530005459576988
-0.5652733508636187   -0.027349695117288922   -0.028530005459576988
-0.5652733508636187   -0.027349695117288922   -0.028530005459576988
-0.38296112670303306   0.043836828454749746   0.01894119864852873
-0.38296112670303306   0.043836828454749746   0.01894119864852873
-0.38296112670303306   0.043836828454749746   0.01894119864852873
-0.38296112670303306   0.043836828454749746   0.01894119864852873
-0.4604827926834598   0.009587462754964152   0.017261178606570858
-0.4604827926834598   0.009587462754964152   0.017261178606570858
-0.4604827926834598   0.009587462754964152   0.017261178606570858
-0.4604827926834598   0.009587462754964152   0.017261178606570858
0.542881062102897   0.040682867992865246   0.028423828627327043
0.542881062102897   0.040682867992865246   0.028423828627327043
0.542881062102897   0.040682867992865246   0.028423828627327043
0.542881062102897   0.040682867992865246   0.028423828627327043
0.23891202903549857   -0.06330063037551067   -0.013205869776181198
0.23891202903549857   -0.06330063037551067   -0.013205869776181198
0.23891202903549857   -0.06330063037551067   -0.013205869776181198
0.23891202903549857   -0.06330063037551067   -0.013205869776181198
0.2659224044373536   -0.011401446492403336   0.019468556121694732
0.2659224044373536   -0.011401446492403336   0.019468556121694732
0.2659224044373536   -0.011401446492403336   0.019468556121694732
0.2659224044373536   -0.011401446492403336   0.019468556121694732
0.5486001871605237   -0.00036867453208626333   -0.020598817963561316
0.5486001871605237   -0.00036867453208626333   -0.020598817963561316
0.5486001871605237   -0.00036867453208626333   -0.020598817963561316
0.5486001871605237   -0.00036867453208626333   -0.020598817963561316
0.37573289634875107   -0.011134881076046085   -0.029161033816419598
0.37573289634875107   -0.011134881076046085   -0.029161033816419598
0.37573289634875107   -0.011134881076046085   -0.029161033816419598
0.37573289634875107   -0.011134881076046085   -0.029161033816419598
0.5675029304362755   0.04977516021638621   0.023771063666720545
0.5675029304362755   0.04977516021638621   0.023771063666720545
0.5675029304362755   0.04977516021638621   0.023771063666720545
0.5675029304362755   0.04977516021638621   0.023771063666720545
0.24884074919355842   -0.05972419320891971   -0.017616973380763155
0.24884074919355842   -0.05972419320891971   -0.017616973380763155
0.24884074919355842   -0.05972419320891971   -0.017616973380763155
0.24884074919355842   -0.05972419320891971   -0.017616973380763155
0.276380523366938   -0.005614162834026187   0.01571666355263135
0.276380523366938   -0.005614162834026187   0.01571666355263135
0.276380523366938   -0.005614162834026187   0.01571666355263135
0.276380523366938   -0.005614162834026187   0.01571666355263135
0.5670322693153764   0.006002368794700938   -0.025670700922654433
0.5670322693153764   0.006002368794700938   -0.025670700922654433
0.5670322693153764   0.006002368794700938   -0.025670700922654433
0.5670322693153764   0.006002368794700938   -0.025670700922654433
0.3989845045133272   -0.004348819564665776   -0.019875541423707684
0.3989845045133272   -0.004348819564665776   -0.019875541423707684
0.3989845045133272   -0.004348819564665776   -0.019875541423707684
0.3989845045133272   -0.004348819564665776   -0.019875541423707684
0.5858151250695594   0.056648845103803386   0.017597101539157868
0.5858151250695594   0.056648845103803386   0.017597101539157868
0.5858151250695594   0.056648845103803386   0.017597101539157868
0.5858151250695594   0.056648845103803386   0.017597101539157868
0.25918558641529177   -0.054672720340591924   -0.021199463699034127
0.25918558641529177   -0.054672720340591924   -0.021199463699034127
0.25918558641529177   -0.054672720340591924   -0.021199463699034127
0.25918558641529177   -0.054672720340591924   -0.021199463699034127
0.285868472275903   0.009883885127488654   0.013779592563559793
0.285868472275903   0.009883885127488654   0.013779592563559793
0.285868472275903   0.009883885127488654   0.013779592563559793
0.285868472275903   0.009883885127488654   0.013779592563559793
0.5897599411153827   0.024665311227472286   -0.026858999415688475
0.5897599411153827   0.024665311227472286   -0.026858999415688475
0.5897599411153827   0.024665311227472286   -0.026858999415688475
0.5897599411153827   0.024665311227472286   -0.026858999415688475
0.40747197111214906   0.004826908095608248   -0.01348464872732244
0.40747197111214906   0.004826908095608248   -0.01348464872732244
0.40747197111214906   0.004826908095608248   -0.01348464872732244
0.40747197111214906   0.004826908095608248   -0.01348464872732244
0.2642485925523851   0.023968528657965935   0.02620778877477488
0.2642485925523851   0.023968528657965935   0.02620778877477488
0.2642485925523851   0.023968528657965935   0.02620778877477488
0.2642485925523851   0.023968528657965935   0.02620778877477488
-0.03378586919752559   -0.07773825014625578   -0.007558249539355282
-0.03378586919752559   -0.07773825014625578   -0.007558249539355282
-0.03378586919752559   -0.07773825014625578   -0.007558249539355282
-0.03378586919752559   -0.07773825014625578   -0.007558249539355282
-0.010636028350419525   -0.02775687580261902   0.00654020157131056
-0.010636028350419525   -0.02775687580261902   0.00654020157131056
-0.010636028350419525   -0.02775687580261902   0.00654020157131056
-0.010636028350419525   -0.02775687580261902   0.00654020157131056
0.26191008307986097   -0.013373636888304528   0.0013791397301327092
0.26191008307986097   -0.013373636888304528   0.0013791397301327092
0.26191008307986097   -0.013373636888304528   0.0013791397301327092
0.26191008307986097   -0.013373636888304528   0.0013791397301327092
0.11716488177073586   -0.02138813204047037   -0.013777453495077982
0.11716488177073586   -0.02138813204047037   -0.013777453495077982
0.11716488177073586   -0.02138813204047037   -0.013777453495077982
0.11716488177073586   -0.02138813204047037   -0.013777453495077982
0.275517114179231   0.03281153671398751   0.023229121624692692
0.275517114179231   0.03281153671398751   0.023229121624692692
0.275517114179231   0.03281153671398751   0.023229121624692692
0.275517114179231   0.03281153671398751   0.023229121624692692
-0.023271759206771218   -0.07297074916189242   -0.011424579351174514
-0.023271759206771218   -0.07297074916189242   -0.011424579351174514
-0.023271759206771218   -0.07297074916189242   -0.011424579351174514
-0.023271759206771218   -0.07297074916189242   -0.011424579351174514
2.2268430932143903e-05   -0.017368894921678188   0.003956412191686146
2.2268430932143903e-05   -0.017368894921678188   0.003956412191686146
2.2268430932143903e-05   -0.017368894921678188   0.003956412191686146
2.2268430932143903e-05   -0.017368894921678188   0.003956412191686146
0.2728574207550291   -0.005536843261878352   -0.0019761690790609347
0.2728574207550291   -0.005536843261878352   -0.0019761690790609347
0.2728574207550291   -0.005536843261878352   -0.0019761690790609347
0.2728574207550291   -0.005536843261878352   -0.0019761690790609347
0.12638071784039598   -0.015000271071728417   -0.008908373649963717
0.12638071784039598   -0.015000271071728417   -0.008908373649963717
0.12638071784039598   -0.015000271071728417   -0.008908373649963717
0.12638071784039598   -0.015000271071728417   -0.008908373649963717
0.2871957174804289   0.04342517225591066   0.02075329903014899
0.2871957174804289   0.04342517225591066   0.02075329903014899
0.2871957174804289   0.04342517225591066   0.02075329903014899
0.2871957174804289   0.04342517225591066   0.02075329903014899
-0.01372803221998329   -0.0657429143649854   -0.016421071619583807
-0.01372803221998329   -0.0657429143649854   -0.016421071619583807
-0.01372803221998329   -0.0657429143649854   -0.016421071619583807
-0.01372803221998329   -0.0657429143649854   -0.016421071619583807
0.008395460782065095   -0.005154897573122935   0.0013492977354790238
0.008395460782065095   -0.005154897573122935   0.0013492977354790238
0.008395460782065095   -0.005154897573122935   0.0013492977354790238
0.008395460782065095   -0.005154897573122935   0.0013492977354790238
0.28103444687334617   0.004490415181304198   -0.004997064503044027
0.28103444687334617   0.004490415181304198   -0.004997064503044027
0.28103444687334617   0.004490415181304198   -0.004997064503044027
0.28103444687334617   0.004490415181304198   -0.004997064503044027
0.1377893830682399   -0.005426383610687088   -0.0036534701781131967
0.1377893830682399   -0.005426383610687088   -0.0036534701781131967
0.1377893830682399   -0.005426383610687088   -0.0036534701781131967
0.1377893830682399   -0.005426383610687088   -0.0036534701781131967
-0.012726702382552496   0.006938243719872186   0.013061090669382207
-0.012726702382552496   0.006938243719872186   0.013061090669382207
-0.012726702382552496   0.006938243719872186   0.013061090669382207
-0.012726702382552496   0.006938243719872186   0.013061090669382207
-0.30432834900540817   -0.0972958349784877   -0.006006095498859795
-0.30432834900540817   -0.0972958349784877   -0.006006095498859795
-0.30432834900540817   -0.0972958349784877   -0.006006095498859795
-0.30432834900540817   -0.0972958349784877   -0.006006095498859795
-0.2810509035803619   -0.04253023750106284   -0.006432365712514741
-0.2810509035803619   -0.04253023750106284   -0.006432365712514741
-0.2810509035803619   -0.04253023750106284   -0.006432365712514741
-0.2810509035803619   -0.04253023750106284   -0.006432365712514741
-0.011657571021622615   -0.032282873093666835   0.005958485506342913
-0.011657571021622615   -0.032282873093666835   0.005958485506342913
-0.011657571021622615   -0.032282873093666835   0.005958485506342913
-0.011657571021622615   -0.032282873093666835   0.005958485506342913
-0.15311077441679802   -0.03907493318803959   -0.012274420339336064
-0.15311077441679802   -0.03907493318803959   -0.012274420339336064
-0.15311077441679802   -0.03907493318803959   -0.012274420339336064
-0.15311077441679802   -0.03907493318803959   -0.012274420339336064
-0.0008829500470231939   0.0169163081710354   0.010632409114637795
-0.0008829500470231939   0.0169163081710354   0.010632409114637795
-0.0008829500470231939   0.0169163081710354   0.010632409114637795
-0.0008829500470231939   0.0169163081710354   0.010632409114637795
-0.29111963527415496   -0.0910235294849613   -0.008282732197581764
-0.29111963527415496   -0.0910235294849613   -0.008282732197581764
-0.29111963527415496   -0.0910235294849613   -0.008282732197581764
-0.29111963527415496   -0.0910235294849613   -0.008282732197581764
-0.2678206025223868   -0.031005257911362046   -0.008725032119405687
-0.2678206025223868   -0.031005257911362046   -0.008725032119405687
-0.2678206025223868   -0.031005257911362046   -0.008725032119405687
-0.2678206025223868   -0.031005257911362046   -0.008725032119405687
-0.0017382850046607553   -0.024742929357985655   0.002527679450029123
-0.0017382850046607553   -0.024742929357985655   0.002527679450029123
-0.0017382850046607553   -0.024742929357985655   0.002527679450029123
-0.0017382850046607553   -0.024742929357985655   0.002527679450029123
-0.14026714590645625   -0.030772219006736278   -0.006774551095554133
-0.14026714590645625   -0.030772219006736278   -0.006774551095554133
-0.14026714590645625   -0.030772219006736278   -0.006774551095554133
-0.14026714590645625   -0.030772219006736278   -0.006774551095554133
0.00995114278289146   0.027950396149613047   0.008281492880191494
0.00995114278289146   0.027950396149613047   0.008281492880191494
0.00995114278289146   0.027950396149613047   0.008281492880191494
0.00995114278289146   0.027950396149613047   0.008281492880191494
-0.27948865839832715   -0.08367721150734592   -0.01439335790312115
-0.27948865839832715   -0.08367721150734592   -0.01439335790312115
-0.27948865839832715   -0.08367721150734592   -0.01439335790312115
-0.27948865839832715   -0.08367721150734592   -0.01439335790312115
-0.25846530526108347   -0.020002120804413555   -0.01127956282871178
-0.25846530526108347   -0.020002120804413555   -0.01127956282871178
-0.25846530526108347   -0.020002120804413555   -0.01127956282871178
-0.25846530526108347   -0.020002120804413555   -0.01127956282871178
0.0047596757159935315   -0.018674648340509435   -0.003309876827493248
0.0047596757159935315   -0.018674648340509435   -0.003309876827493248
0.0047596757159935315   -0.018674648340509435   -0.003309876827493248
0.0047596757159935315   -0.018674648340509435   -0.003309876827493248
-0.13085328329478552   -0.02300613961210106   -0.00330009325339207
-0.13085328329478552   -0.02300613961210106   -0.00330009325339207
-0.13085328329478552   -0.02300613961210106   -0.00330009325339207
-0.13085328329478552   -0.02300613961210106   -0.00330009325339207
-0.2852895668085205   -0.007778307195814772   -0.00032971229709685863
-0.2852895668085205   -0.007778307195814772   -0.00032971229709685863
-0.2852895668085205   -0.007778307195814772   -0.00032971229709685863
-0.2852895668085205   -0.007778307195814772   -0.00032971229709685863
-0.5763695107520495   -0.10460454109381326   -0.004759877090597907
-0.5763695107520495   -0.10460454109381326   -0.004759877090597907
-0.5763695107520495   -0.10460454109381326   -0.004759877090597907
-0.5763695107520495   -0.10460454109381326   -0.004759877090597907
-0.5515151490549342   -0.054518314164579154   -0.018972810860414326
-0.5515151490549342   -0.054518314164579154   -0.018972810860414326
-0.5515151490549342   -0.054518314164579154   -0.018972810860414326
-0.5515151490549342   -0.054518314164579154   -0.018972810860414326
-0.27547344020147047   -0.033582782980623   0.012507496661500292
-0.27547344020147047   -0.033582782980623   0.012507496661500292
-0.27547344020147047   -0.033582782980623   0.012507496661500292
-0.27547344020147047   -0.033582782980623   0.012507496661500292
-0.4185023413133515   -0.047115730956082576   -0.008633052464970257
-0.4185023413133515   -0.047115730956082576   -0.008633052464970257
-0.4185023413133515   -0.047115730956082576   -0.008633052464970257
-0.4185023413133515   -0.047115730956082576   -0.008633052464970257
-0.2706705872124302   0.005027463417683488   -0.0020884847916050713
-0.2706705872124302   0.005027463417683488   -0.0020884847916050713
-0.2706705872124302   0.005027463417683488   -0.0020884847916050713
-0.2706705872124302   0.005027463417683488   -0.0020884847916050713
-0.5564982889262959   -0.09330884744520375   -0.005097976936593398
-0.5564982889262959   -0.09330884744520375   -0.005097976936593398
-0.5564982889262959   -0.09330884744520375   -0.005097976936593398
-0.5564982889262959   -0.09330884744520375   -0.005097976936593398
-0.5325628656577757   -0.042516440911515074   -0.02194713830219034
-0.5325628656577757   -0.042516440911515074   -0.02194713830219034
-0.5325628656577757   -0.042516440911515074   -0.02194713830219034
-0.5325628656577757   -0.042516440911515074   -0.02194713830219034
-0.2626547519888672   -0.02459665643302934   0.010695619069862189
-0.2626547519888672   -0.02459665643302934   0.010695619069862189
-0.2626547519888672   -0.02459665643302934   0.010695619069862189
-0.2626547519888672   -0.02459665643302934   0.010695619069862189
-0.39895962494717263   -0.03559808646049084   -0.0027454966807944764
-0.39895962494717263   -0.03559808646049084   -0.0027454966807944764
-0.39895962494717263   -0.03559808646049084   -0.0027454966807944764
-0.39895962494717263   -0.03559808646049084   -0.0027454966807944764
-0.25741630438890717   0.016133782608352   -0.0038425819717234078
-0.25741630438890717   0.016133782608352   -0.0038425819717234078
-0.25741630438890717   0.016133782608352   -0.0038425819717234078
-0.25741630438890717   0.016133782608352   -0.0038425819717234078
-0.5386786277996224   -0.08412419449478317   -0.010918195428151659
-0.5386786277996224   -0.08412419449478317   -0.010918195428151659
-0.5386786277996224   -0.08412419449478317   -0.010918195428151659
-0.5386786277996224   -0.08412419449478317   -0.010918195428151659
-0.5172556039068079   -0.029892476430040504   -0.02266355776918431
-0.5172556039068079   -0.029892476430040504   -0.02266355776918431
-0.5172556039068079   -0.029892476430040504   -0.02266355776918431
-0.5172556039068079   -0.029892476430040504   -0.02266355776918431
-0.2553052348963406   -0.01888341742346155   0.0034020856140530315
-0.2553052348963406   -0.01888341742346155   0.0034020856140530315
-0.2553052348963406   -0.01888341742346155   0.0034020856140530315
-0.2553052348963406   -0.01888341742346155   0.0034020856140530315
-0.3883621963748342   -0.028590262160274334   -0.0008036122816795794
-0.3883621963748342   -0.028590262160274334   -0.0008036122816795794
-0.3883621963748342   -0.028590262160274334   -0.0008036122816795794
-0.3883621963748342   -0.028590262160274334   -0.0008036122816795794
-0.5609176470156494   -0.018462876568976883   -0.013642222933434048
-0.5609176470156494   -0.018462876568976883   -0.013642222933434048
-0.5609176470156494   -0.018462876568976883   -0.013642222933434048
-0.5609176470156494   -0.018462876568976883   -0.013642222933434048
-0.8459506947186963   -0.07135700223765067   0.031288010802906815
-0.8459506947186963   -0.07135700223765067   0.031288010802906815
-0.8459506947186963   -0.07135700223765067   0.031288010802906815
-0.8459506947186963   -0.07135700223765067   0.031288010802906815
-0.8177323547327849   -0.05717750015884403   -0.01842163399285299
-0.8177323547327849   -0.05717750015884403   -0.01842163399285299
-0.8177323547327849   -0.05717750015884403   -0.01842163399285299
-0.8177323547327849   -0.05717750015884403   -0.01842163399285299
-0.5279489865090037   0.015412126439900004   0.028927561264753716
-0.5279489865090037   0.015412126439900004   0.028927561264753716
-0.5279489865090037   0.015412126439900004   0.028927561264753716
-0.5279489865090037   0.015412126439900004   0.028927561264753716
-0.6572759429473387   -0.022205183827262276   0.003531048272145565
-0.6572759429473387   -0.022205183827262276   0.003531048272145565
-0.6572759429473387   -0.022205183827262276   0.003531048272145565
-0.6572759429473387   -0.022205183827262276   0.003531048272145565
-0.5400404654449417   -0.0009819474147586826   -0.015135759560269569
-0.5400404654449417   -0.0009819474147586826   -0.015135759560269569
-0.5400404654449417   -0.0009819474147586826   -0.015135759560269569
-0.5400404654449417   -0.0009819474147586826   -0.015135759560269569
-0.8036935630654362   -0.03883611357277317   0.03343093775782025
-0.8036935630654362   -0.03883611357277317   0.03343093775782025
-0.8036935630654362   -0.03883611357277317   0.03343093775782025
-0.8036935630654362   -0.03883611357277317   0.03343093775782025
-0.7874134862526303   -0.048217823104451274   -0.02193839389580316
-0.7874134862526303   -0.048217823104451274   -0.02193839389580316
-0.7874134862526303   -0.048217823104451274   -0.02193839389580316
-0.7874134862526303   -0.048217823104451274   -0.02193839389580316
-0.5092376210844269   0.02428893127684796   0.027873712376190553
-0.5092376210844269   0.02428893127684796   0.027873712376190553
-0.5092376210844269   0.02428893127684796   0.027873712376190553
-0.5092376210844269   0.02428893127684796   0.027873712376190553
-0.6397210262907409   -0.008952186080716157   0.013197794069315594
-0.6397210262907409   -0.008952186080716157   0.013197794069315594
-0.6397210262907409   -0.008952186080716157   0.013197794069315594
-0.6397210262907409   -0.008952186080716157   0.013197794069315594
-0.5217394411213107   0.006029477828915039   -0.016375934360291243
-0.5217394411213107   0.006029477828915039   -0.016375934360291243
-0.5217394411213107   0.006029477828915039   -0.016375934360291243
-0.5217394411213107   0.006029477828915039   -0.016375934360291243
-0.7744946853866883   -0.02954138882746321   0.02397917615691149
-0.7744946853866883   -0.02954138882746321   0.02397917615691149
-0.7744946853866883   -0.02954138882746321   0.02397917615691149
-0.7744946853866883   -0.02954138882746321   0.02397917615691149
-0.7560213630301517   -0.039870771650014236   -0.02653656554817261
-0.7560213630301517   -0.039870771650014236   -0.02653656554817261
-0.7560213630301517   -0.039870771650014236   -0.02653656554817261
-0.7560213630301517   -0.039870771650014236   -0.02653656554817261
-0.4955018070970386   0.034725785198583714   0.021487164651038303
-0.4955018070970386   0.034725785198583714   0.021487164651038303
-0.4955018070970386   0.034725785198583714   0.021487164651038303
-0.4955018070970386   0.034725785198583714   0.021487164651038303
-0.6057746511555873   0.0023343270618868817   0.022994937217170795
-0.6057746511555873   0.0023343270618868817   0.022994937217170795
-0.6057746511555873   0.0023343270618868817   0.022994937217170795
-0.6057746511555873   0.0023343270618868817   0.022994937217170795
0.7386547409271512   0.04456901197634619   0.02639963009145045
0.7386547409271512   0.04456901197634619   0.02639963009145045
0.7386547409271512   0.04456901197634619   0.02639963009145045
0.7386547409271512   0.04456901197634619   0.02639963009145045
0.35138729915991085   -0.06536535233839268   0.005521960885467969
0.35138729915991085   -0.06536535233839268   0.005521960885467969
0.35138729915991085   -0.06536535233839268   0.005521960885467969
0.35138729915991085   -0.06536535233839268   0.005521960885467969
0.37043675708141105   -0.027843496430808162   0.020190502621941993
0.37043675708141105   -0.027843496430808162   0.020190502621941993
0.37043675708141105   -0.027843496430808162   0.020190502621941993
0.37043675708141105   -0.027843496430808162   0.020190502621941993
0.7423398972492755   0.007057398511065127   -0.0061988751353937305
0.7423398972492755   0.007057398511065127   -0.0061988751353937305
0.7423398972492755   0.007057398511065127   -0.0061988751353937305
0.7423398972492755   0.007057398511065127   -0.0061988751353937305
0.5188929692679163   -0.013823508438041185   -0.034225425936813325
0.5188929692679163   -0.013823508438041185   -0.034225425936813325
0.5188929692679163   -0.013823508438041185   -0.034225425936813325
0.5188929692679163   -0.013823508438041185   -0.034225425936813325
0.7562294981612268   0.049448547373210125   0.020857980562217677
0.7562294981612268   0.049448547373210125   0.020857980562217677
0.7562294981612268   0.049448547373210125   0.020857980562217677
0.7562294981612268   0.049448547373210125   0.020857980562217677
0.3598542877130251   -0.06692751374938782   0.006362173098591967
0.3598542877130251   -0.06692751374938782   0.006362173098591967
0.3598542877130251   -0.06692751374938782   0.006362173098591967
0.3598542877130251   -0.06692751374938782   0.006362173098591967
0.37756920066445926   -0.02368895170824109   0.015335765213552548
0.37756920066445926   -0.02368895170824109   0.015335765213552548
0.37756920066445926   -0.02368895170824109   0.015335765213552548
0.37756920066445926   -0.02368895170824109   0.015335765213552548
0.7550814590412442   0.011727041622695472   -0.002201550568571818
0.7550814590412442   0.011727041622695472   -0.002201550568571818
0.7550814590412442   0.011727041622695472   -0.002201550568571818
0.7550814590412442   0.011727041622695472   -0.002201550568571818
0.5400293898656799   -0.010876759656720442   -0.023455955282578843
0.5400293898656799   -0.010876759656720442   -0.023455955282578843
0.5400293898656799   -0.010876759656720442   -0.023455955282578843
0.5400293898656799   -0.010876759656720442   -0.023455955282578843
0.7668587357093264   0.053986814280773884   0.01442506011376039
0.7668587357093264   0.053986814280773884   0.01442506011376039
0.7668587357093264   0.053986814280773884   0.01442506011376039
0.7668587357093264   0.053986814280773884   0.01442506011376039
0.3680916989171488   -0.06364894944554783   0.00790825421430702
0.3680916989171488   -0.06364894944554783   0.00790825421430702
0.3680916989171488   -0.06364894944554783   0.00790825421430702
0.3680916989171488   -0.06364894944554783   0.00790825421430702
0.38810501074074594   -0.007489668664044116   0.01402103150136626
0.38810501074074594   -0.007489668664044116   0.01402103150136626
0.38810501074074594   -0.007489668664044116   0.01402103150136626
0.38810501074074594   -0.007489668664044116   0.01402103150136626
0.7683930642154215   0.022566111987670168   -0.0006948539449120744
0.7683930642154215   0.022566111987670168   -0.0006948539449120744
0.7683930642154215   0.022566111987670168   -0.0006948539449120744
0.7683930642154215   0.022566111987670168   -0.0006948539449120744
0.5424129255346098   -0.0048580497733266   -0.01763591131472507
0.5424129255346098   -0.0048580497733266   -0.01763591131472507
0.5424129255346098   -0.0048580497733266   -0.01763591131472507
0.5424129255346098   -0.0048580497733266   -0.01763591131472507
0.3710073149708117   0.01031947842966291   0.027937209171916336
0.3710073149708117   0.01031947842966291   0.027937209171916336
0.3710073149708117   0.01031947842966291   0.027937209171916336
0.3710073149708117   0.01031947842966291   0.027937209171916336
0.01771906153438369   -0.12913667551269492   0.012896149757573964
0.01771906153438369   -0.12913667551269492   0.012896149757573964
0.01771906153438369   -0.12913667551269492   0.012896149757573964
0.01771906153438369   -0.12913667551269492   0.012896149757573964
0.0423967046337102   -0.05511141403367662   0.012203632449407711
0.0423967046337102   -0.05511141403367662   0.012203632449407711
0.0423967046337102   -0.05511141403367662   0.012203632449407711
0.0423967046337102   -0.05511141403367662   0.012203632449407711
0.361590371213975   -0.060433807425008715   0.008548884278957593
0.361590371213975   -0.060433807425008715   0.008548884278957593
0.361590371213975   -0.060433807425008715   0.008548884278957593
0.361590371213975   -0.060433807425008715   0.008548884278957593
0.19178417815413012   -0.05733115072825148   -0.02161751576524406
0.19178417815413012   -0.05733115072825148   -0.02161751576524406
0.19178417815413012   -0.05733115072825148   -0.02161751576524406
0.19178417815413012   -0.05733115072825148   -0.02161751576524406
0.3795549048179847   0.014555873740081146   0.02338187113392208
0.3795549048179847   0.014555873740081146   0.02338187113392208
0.3795549048179847   0.014555873740081146   0.02338187113392208
0.3795549048179847   0.014555873740081146   0.02338187113392208
0.0291787834112784   -0.1253544828171873   0.016357095120761306
0.0291787834112784   -0.1253544828171873   0.016357095120761306
0.0291787834112784   -0.1253544828171873   0.016357095120761306
0.0291787834112784   -0.1253544828171873   0.016357095120761306
0.05226603650635937   -0.04750464621983038   0.00877620037986401
0.05226603650635937   -0.04750464621983038   0.00877620037986401
0.05226603650635937   -0.04750464621983038   0.00877620037986401
0.05226603650635937   -0.04750464621983038   0.00877620037986401
0.3700610443236037   -0.05640249614129289   0.010508527942326686
0.3700610443236037   -0.05640249614129289   0.010508527942326686
0.3700610443236037   -0.05640249614129289   0.010508527942326686
0.3700610443236037   -0.05640249614129289   0.010508527942326686
0.20012890404843375   -0.05438221251984238   -0.010814880657858076
0.20012890404843375   -0.05438221251984238   -0.010814880657858076
0.20012890404843375   -0.05438221251984238   -0.010814880657858076
0.20012890404843375   -0.05438221251984238   -0.010814880657858076
0.3875400614840394   0.021745951850315262   0.019755165752896837
0.3875400614840394   0.021745951850315262   0.019755165752896837
0.3875400614840394   0.021745951850315262   0.019755165752896837
0.3875400614840394   0.021745951850315262   0.019755165752896837
0.039348922340674004   -0.12109119121668552   0.017777174548293258
0.039348922340674004   -0.12109119121668552   0.017777174548293258
0.039348922340674004   -0.12109119121668552   0.017777174548293258
0.039348922340674004   -0.12109119121668552   0.017777174548293258
0.0674493801166025   -0.03607769429717671   0.005747454861295092
0.0674493801166025   -0.03607769429717671   0.005747454861295092
0.0674493801166025   -0.03607769429717671   0.005747454861295092
0.0674493801166025   -0.03607769429717671   0.005747454861295092
0.37930376925699366   -0.05029608562735326   0.012821241045915095
0.37930376925699366   -0.05029608562735326   0.012821241045915095
0.37930376925699366   -0.05029608562735326   0.012821241045915095
0.37930376925699366   -0.05029608562735326   0.012821241045915095
0.21495817654678384   -0.04730128230315785   0.0017785852756983973
0.21495817654678384   -0.04730128230315785   0.0017785852756983973
0.21495817654678384   -0.04730128230315785   0.0017785852756983973
0.21495817654678384   -0.04730128230315785   0.0017785852756983973
0.039829526387055905   -0.023667234248809874   0.017979032757050012
0.039829526387055905   -0.023667234248809874   0.017979032757050012
0.039829526387055905   -0.023667234248809874   0.017979032757050012
0.039829526387055905   -0.023667234248809874   0.017979032757050012
-0.3184125541338302   -0.22102028779446264   0.018951205081609995
-0.3184125541338302   -0.22102028779446264   0.018951205081609995
-0.3184125541338302   -0.22102028779446264   0.018951205081609995
-0.3184125541338302   -0.22102028779446264   0.018951205081609995
-0.2795414151154982   -0.08684296599869759   0.0010418650750800215
-0.2795414151154982   -0.08684296599869759   0.0010418650750800215
-0.2795414151154982   -0.08684296599869759   0.0010418650750800215
-0.2795414151154982   -0.08684296599869759   0.0010418650750800215
0.020711211683927408   -0.1588809676860022   0.00754572135282125
0.020711211683927408   -0.1588809676860022   0.00754572135282125
0.020711211683927408   -0.1588809676860022   0.00754572135282125
0.020711211683927408   -0.1588809676860022   0.00754572135282125
-0.13839516397016619   -0.12346345076505541   -0.025924420950984236
-0.13839516397016619   -0.12346345076505541   -0.025924420950984236
-0.13839516397016619   -0.12346345076505541   -0.025924420950984236
-0.13839516397016619   -0.12346345076505541   -0.025924420950984236
0.05016497503727745   -0.018269455747037176   0.014203026180606461
0.05016497503727745   -0.018269455747037176   0.014203026180606461
0.05016497503727745   -0.018269455747037176   0.014203026180606461
0.05016497503727745   -0.018269455747037176   0.014203026180606461
-0.30208197836772854   -0.22054127783654753   0.022037360651781343
-0.30208197836772854   -0.22054127783654753   0.022037360651781343
-0.30208197836772854   -0.22054127783654753   0.022037360651781343
-0.30208197836772854   -0.22054127783654753   0.022037360651781343
-0.26453906069079036   -0.07787604443958412   -0.00033712027183360575
-0.26453906069079036   -0.07787604443958412   -0.00033712027183360575
-0.26453906069079036   -0.07787604443958412   -0.00033712027183360575
-0.26453906069079036   -0.07787604443958412   -0.00033712027183360575
0.03113010746143787   -0.1551886229656698   0.010780531901096894
0.03113010746143787   -0.1551886229656698   0.010780531901096894
0.03113010746143787   -0.1551886229656698   0.010780531901096894
0.03113010746143787   -0.1551886229656698   0.010780531901096894
-0.12316215210899537   -0.11905755064849752   -0.009552878373419005
-0.12316215210899537   -0.11905755064849752   -0.009552878373419005
-0.12316215210899537   -0.11905755064849752   -0.009552878373419005
-0.12316215210899537   -0.11905755064849752   -0.009552878373419005
0.05961644781882233   -0.01114399711568748   0.009167607838036903
0.05961644781882233   -0.01114399711568748   0.009167607838036903
0.05961644781882233   -0.01114399711568748   0.009167607838036903
0.05961644781882233   -0.01114399711568748   0.009167607838036903
-0.28682556035958184   -0.21572082960096772   0.026075166545596253
-0.28682556035958184   -0.21572082960096772   0.026075166545596253
-0.28682556035958184   -0.21572082960096772   0.026075166545596253
-0.28682556035958184   -0.21572082960096772   0.026075166545596253
-0.23977187184181079   -0.06756447306733158   -0.0032274529038150137
-0.23977187184181079   -0.06756447306733158   -0.0032274529038150137
-0.23977187184181079   -0.06756447306733158   -0.0032274529038150137
-0.23977187184181079   -0.06756447306733158   -0.0032274529038150137
0.04738250244770996   -0.1452222971611526   0.014557669380807228
0.04738250244770996   -0.1452222971611526   0.014557669380807228
0.04738250244770996   -0.1452222971611526   0.014557669380807228
0.04738250244770996   -0.1452222971611526   0.014557669380807228
-0.10343678735927185   -0.10948139843095012   0.007467138259500843
-0.10343678735927185   -0.10948139843095012   0.007467138259500843
-0.10343678735927185   -0.10948139843095012   0.007467138259500843
-0.10343678735927185   -0.10948139843095012   0.007467138259500843
-0.285015242386778   -0.04366518066513196   0.008582656687537181
-0.285015242386778   -0.04366518066513196   0.008582656687537181
-0.285015242386778   -0.04366518066513196   0.008582656687537181
-0.285015242386778   -0.04366518066513196   0.008582656687537181
-0.7046825460374276   -0.34290655557389094   -0.015311512313534767
-0.7046825460374276   -0.34290655557389094   -0.015311512313534767
-0.7046825460374276   -0.34290655557389094   -0.015311512313534767
-0.7046825460374276   -0.34290655557389094   -0.015311512313534767
-0.6406875531418255   -0.11298710455307193   -0.01929999826040483
-0.6406875531418255   -0.11298710455307193   -0.01929999826040483
-0.6406875531418255   -0.11298710455307193   -0.01929999826040483
-0.6406875531418255   -0.11298710455307193   -0.01929999826040483
-0.3182226890607188   -0.2853339219207045   0.006126451270983518
-0.3182226890607188   -0.2853339219207045   0.006126451270983518
-0.3182226890607188   -0.2853339219207045   0.006126451270983518
-0.3182226890607188   -0.2853339219207045   0.006126451270983518
-0.4866337269927861   -0.20290135286745725   -0.027319708656828944
-0.4866337269927861   -0.20290135286745725   -0.027319708656828944
-0.4866337269927861   -0.20290135286745725   -0.027319708656828944
-0.4866337269927861   -0.20290135286745725   -0.027319708656828944
-0.2673245759004128   -0.03283157535195806   0.00811467050376731
-0.2673245759004128   -0.03283157535195806   0.00811467050376731
-0.2673245759004128   -0.03283157535195806   0.00811467050376731
-0.2673245759004128   -0.03283157535195806   0.00811467050376731
-0.689817007512474   -0.36372079233215837   -0.014213582334561548
-0.689817007512474   -0.36372079233215837   -0.014213582334561548
-0.689817007512474   -0.36372079233215837   -0.014213582334561548
-0.689817007512474   -0.36372079233215837   -0.014213582334561548
-0.6206145350041206   -0.10227044602362084   -0.01971354586784195
-0.6206145350041206   -0.10227044602362084   -0.01971354586784195
-0.6206145350041206   -0.10227044602362084   -0.01971354586784195
-0.6206145350041206   -0.10227044602362084   -0.01971354586784195
-0.30360775435297144   -0.2828309117036361   0.00927427868131464
-0.30360775435297144   -0.2828309117036361   0.00927427868131464
-0.30360775435297144   -0.2828309117036361   0.00927427868131464
-0.30360775435297144   -0.2828309117036361   0.00927427868131464
-0.4654118152285293   -0.19710367263573347   -0.018732204436251062
-0.4654118152285293   -0.19710367263573347   -0.018732204436251062
-0.4654118152285293   -0.19710367263573347   -0.018732204436251062
-0.4654118152285293   -0.19710367263573347   -0.018732204436251062
-0.2532085346570121   -0.024298869740946413   0.0027383351984217605
-0.2532085346570121   -0.024298869740946413   0.0027383351984217605
-0.2532085346570121   -0.024298869740946413   0.0027383351984217605
-0.2532085346570121   -0.024298869740946413   0.0027383351984217605
-0.6708272370038689   -0.36061597029009873   -0.012431531600101117
-0.6708272370038689   -0.36061597029009873   -0.012431531600101117
-0.6708272370038689   -0.36061597029009873   -0.012431531600101117
-0.6708272370038689   -0.36061597029009873   -0.012431531600101117
-0.5892078402964415   -0.09081687024167104   -0.02236257307689342
-0.5892078402964415   -0.09081687024167104   -0.02236257307689342
-0.5892078402964415   -0.09081687024167104   -0.02236257307689342
-0.5892078402964415   -0.09081687024167104   -0.02236257307689342
-0.27197334671596785   -0.2533242296137006   0.02152492927177227
-0.27197334671596785   -0.2533242296137006   0.02152492927177227
-0.27197334671596785   -0.2533242296137006   0.02152492927177227
-0.27197334671596785   -0.2533242296137006   0.02152492927177227
-0.4418736278164798   -0.17809148208109463   -0.009886396989731781
-0.4418736278164798   -0.17809148208109463   -0.009886396989731781
-0.4418736278164798   -0.17809148208109463   -0.009886396989731781
-0.4418736278164798   -0.17809148208109463   -0.009886396989731781
-0.6414292394488031   -0.03758385027759756   -0.004367684666705507
-0.6414292394488031   -0.03758385027759756   -0.004367684666705507
-0.6414292394488031   -0.03758385027759756   -0.004367684666705507
-0.6414292394488031   -0.03758385027759756   -0.004367684666705507
-1.1278046813447222   -0.22324702808939118   0.01156954089776635
-1.1278046813447222   -0.22324702808939118   0.01156954089776635
-1.1278046813447222   -0.22324702808939118   0.01156954089776635
-1.1278046813447222   -0.22324702808939118   0.01156954089776635
-1.084001967538438   -0.10624390696004146   -0.023299624705519488
-1.084001967538438   -0.10624390696004146   -0.023299624705519488
-1.084001967538438   -0.10624390696004146   -0.023299624705519488
-1.084001967538438   -0.10624390696004146   -0.023299624705519488
-0.6285317284188298   -0.11667328460288899   0.04516530540438482
-0.6285317284188298   -0.11667328460288899   0.04516530540438482
-0.6285317284188298   -0.11667328460288899   0.04516530540438482
-0.6285317284188298   -0.11667328460288899   0.04516530540438482
-0.8352765171244372   -0.1291464562481932   0.011415382766540598
-0.8352765171244372   -0.1291464562481932   0.011415382766540598
-0.8352765171244372   -0.1291464562481932   0.011415382766540598
-0.8352765171244372   -0.1291464562481932   0.011415382766540598
-0.6157890745805724   -0.007916954524006342   0.00012224451679077736
-0.6157890745805724   -0.007916954524006342   0.00012224451679077736
-0.6157890745805724   -0.007916954524006342   0.00012224451679077736
-0.6157890745805724   -0.007916954524006342   0.00012224451679077736
-1.1007949610151015   -0.21905057667733163   0.0055420776284434425
-1.1007949610151015   -0.21905057667733163   0.0055420776284434425
-1.1007949610151015   -0.21905057667733163   0.0055420776284434425
-1.1007949610151015   -0.21905057667733163   0.0055420776284434425
-1.0602410089399223   -0.09740495261457668   -0.02959231922543728
-1.0602410089399223   -0.09740495261457668   -0.02959231922543728
-1.0602410089399223   -0.09740495261457668   -0.02959231922543728
-1.0602410089399223   -0.09740495261457668   -0.02959231922543728
-0.6078824913524862   -0.11103437749762878   0.052710603864342315
-0.6078824913524862   -0.11103437749762878   0.052710603864342315
-0.6078824913524862   -0.11103437749762878   0.052710603864342315
-0.6078824913524862   -0.11103437749762878   0.052710603864342315
-0.823043376439292   -0.10649525831192871   0.011101639141688368
-0.823043376439292   -0.10649525831192871   0.011101639141688368
-0.823043376439292   -0.10649525831192871   0.011101639141688368
-0.823043376439292   -0.10649525831192871   0.011101639141688368
-0.5974074623483586   -9.125431142181784e-05   -0.0058573743012266186
-0.5974074623483586   -9.125431142181784e-05   -0.0058573743012266186
-0.5974074623483586   -9.125431142181784e-05   -0.0058573743012266186
-0.5974074623483586   -9.125431142181784e-05   -0.0058573743012266186
-1.072095283793511   -0.20972732165024627   0.023458675542279595
-1.072095283793511   -0.20972732165024627   0.023458675542279595
-1.072095283793511   -0.20972732165024627   0.023458675542279595
-1.072095283793511   -0.20972732165024627   0.023458675542279595
-1.0108621251005012   -0.07929262305874071   -0.03324455863210601
-1.0108621251005012   -0.07929262305874071   -0.03324455863210601
-1.0108621251005012   -0.07929262305874071   -0.03324455863210601
-1.0108621251005012   -0.07929262305874071   -0.03324455863210601
-0.575675193520063   -0.10353190049278817   0.05801569105612217
-0.575675193520063   -0.10353190049278817   0.05801569105612217
-0.575675193520063   -0.10353190049278817   0.05801569105612217
-0.575675193520063   -0.10353190049278817   0.05801569105612217
-0.7747088838784391   -0.08151031870905817   0.023282883045399806
-0.7747088838784391   -0.08151031870905817   0.023282883045399806
-0.7747088838784391   -0.08151031870905817   0.023282883045399806
-0.7747088838784391   -0.08151031870905817   0.023282883045399806
0.8091397668882886   0.02732361755023796   0.011214342600243447
0.8091397668882886   0.02732361755023796   0.011214342600243447
0.8091397668882886   0.02732361755023796   0.011214342600243447
0.8091397668882886   0.02732361755023796   0.011214342600243447
0.41192395115109964   -0.02220155385302959   0.007922931584732392
0.41192395115109964   -0.02220155385302959   0.007922931584732392
0.41192395115109964   -0.02220155385302959   0.007922931584732392
0.41192395115109964   -0.02220155385302959   0.007922931584732392
0.39621309660083337   -0.057725154607581625   0.016015159919814677
0.39621309660083337   -0.057725154607581625   0.016015159919814677
0.39621309660083337   -0.057725154607581625   0.016015159919814677
0.39621309660083337   -0.057725154607581625   0.016015159919814677
0.8033154319439404   0.045203720197151354   0.005613825437502655
0.8033154319439404   0.045203720197151354   0.005613825437502655
0.8033154319439404   0.045203720197151354   0.005613825437502655
0.8033154319439404   0.045203720197151354   0.005613825437502655
0.5729039121346364   -0.007924686535279779   -0.02122728443582869
0.5729039121346364   -0.007924686535279779   -0.02122728443582869
0.5729039121346364   -0.007924686535279779   -0.02122728443582869
0.5729039121346364   -0.007924686535279779   -0.02122728443582869
0.7991315651819354   0.021362624574668032   0.00853558724996091
0.7991315651819354   0.021362624574668032   0.00853558724996091
0.7991315651819354   0.021362624574668032   0.00853558724996091
0.7991315651819354   0.021362624574668032   0.00853558724996091
0.3991330306945685   -0.03514799165336811   0.00803766743427712
0.3991330306945685   -0.03514799165336811   0.00803766743427712
0.3991330306945685   -0.03514799165336811   0.00803766743427712
0.3991330306945685   -0.03514799165336811   0.00803766743427712
0.38613104575020885   -0.05898138065689164   0.013206751324527956
0.38613104575020885   -0.05898138065689164   0.013206751324527956
0.38613104575020885   -0.05898138065689164   0.013206751324527956
0.38613104575020885   -0.05898138065689164   0.013206751324527956
0.7941529624027713   0.04333676941990988   0.009929192110938942
0.7941529624027713   0.04333676941990988   0.009929192110938942
0.7941529624027713   0.04333676941990988   0.009929192110938942
0.7941529624027713   0.04333676941990988   0.009929192110938942
0.5714826979495312   -0.010916625126318302   -0.02438499379394314
0.5714826979495312   -0.010916625126318302   -0.02438499379394314
0.5714826979495312   -0.010916625126318302   -0.02438499379394314
0.5714826979495312   -0.010916625126318302   -0.02438499379394314
0.7878509586469544   0.019227033506581087   0.0025289092451766734
0.7878509586469544   0.019227033506581087   0.0025289092451766734
0.7878509586469544   0.019227033506581087   0.0025289092451766734
0.7878509586469544   0.019227033506581087   0.0025289092451766734
0.39013589282728556   -0.03716880142230927   0.011418407475329115
0.39013589282728556   -0.03716880142230927   0.011418407475329115
0.39013589282728556   -0.03716880142230927   0.011418407475329115
0.39013589282728556   -0.03716880142230927   0.011418407475329115
0.3755314239706842   -0.05358546609319807   0.011408895895484043
0.3755314239706842   -0.05358546609319807   0.011408895895484043
0.3755314239706842   -0.05358546609319807   0.011408895895484043
0.3755314239706842   -0.05358546609319807   0.011408895895484043
0.7800761554982397   0.04408259837640313   0.014450242925195457
0.7800761554982397   0.04408259837640313   0.014450242925195457
0.7800761554982397   0.04408259837640313   0.014450242925195457
0.7800761554982397   0.04408259837640313   0.014450242925195457
0.5502844088771152   -0.010899983010030201   -0.0327562052069005
0.5502844088771152   -0.010899983010030201   -0.0327562052069005
0.5502844088771152   -0.010899983010030201   -0.0327562052069005
0.5502844088771152   -0.010899983010030201   -0.0327562052069005
0.4089379322691984   -0.04942822887733957   0.02021951219953609
0.4089379322691984   -0.04942822887733957   0.02021951219953609
0.4089379322691984   -0.04942822887733957   0.02021951219953609
0.4089379322691984   -0.04942822887733957   0.02021951219953609
0.0765000179137258   -0.048640863670142   0.003968434310999417
0.0765000179137258   -0.048640863670142   0.003968434310999417
0.0765000179137258   -0.048640863670142   0.003968434310999417
0.0765000179137258   -0.048640863670142   0.003968434310999417
0.04937433580078231   -0.12039154522995858   0.02097623066740096
0.04937433580078231   -0.12039154522995858   0.02097623066740096
0.04937433580078231   -0.12039154522995858   0.02097623066740096
0.04937433580078231   -0.12039154522995858   0.02097623066740096
0.4110006797266123   0.01670777739223897   0.015520143548888633
0.4110006797266123   0.01670777739223897   0.015520143548888633
0.4110006797266123   0.01670777739223897   0.015520143548888633
0.4110006797266123   0.01670777739223897   0.015520143548888633
0.23280510798523793   -0.05064687850110793   -0.0009535183105004695
0.23280510798523793   -0.05064687850110793   -0.0009535183105004695
0.23280510798523793   -0.05064687850110793   -0.0009535183105004695
0.23280510798523793   -0.05064687850110793   -0.0009535183105004695
0.39764876164883844   -0.05153186673614703   0.017000197288402616
0.39764876164883844   -0.05153186673614703   0.017000197288402616
0.39764876164883844   -0.05153186673614703   0.017000197288402616
0.39764876164883844   -0.05153186673614703   0.017000197288402616
0.059347224041446184   -0.05553093093868301   0.005980057579444798
0.059347224041446184   -0.05553093093868301   0.005980057579444798
0.059347224041446184   -0.05553093093868301   0.005980057579444798
0.059347224041446184   -0.05553093093868301   0.005980057579444798
0.03717571799331892   -0.12132894924551439   0.018761588751503987
0.03717571799331892   -0.12132894924551439   0.018761588751503987
0.03717571799331892   -0.12132894924551439   0.018761588751503987
0.03717571799331892   -0.12132894924551439   0.018761588751503987
0.40170881118740337   0.013776479991742821   0.018337717861866276
0.40170881118740337   0.013776479991742821   0.018337717861866276
0.40170881118740337   0.013776479991742821   0.018337717861866276
0.40170881118740337   0.013776479991742821   0.018337717861866276
0.21619177050057092   -0.05393263657864081   -0.011015591129739408
0.21619177050057092   -0.05393263657864081   -0.011015591129739408
0.21619177050057092   -0.05393263657864081   -0.011015591129739408
0.21619177050057092   -0.05393263657864081   -0.011015591129739408
0.3876797722756212   -0.052155546233679656   0.01412454952837533
0.3876797722756212   -0.052155546233679656   0.01412454952837533
0.3876797722756212   -0.052155546233679656   0.01412454952837533
0.3876797722756212   -0.052155546233679656   0.01412454952837533
0.047526720585694446   -0.059074959339498974   0.008262611807366267
0.047526720585694446   -0.059074959339498974   0.008262611807366267
0.047526720585694446   -0.059074959339498974   0.008262611807366267
0.047526720585694446   -0.059074959339498974   0.008262611807366267
0.023538944083020513   -0.1210902244201156   0.01461537225607655
0.023538944083020513   -0.1210902244201156   0.01461537225607655
0.023538944083020513   -0.1210902244201156   0.01461537225607655
0.023538944083020513   -0.1210902244201156   0.01461537225607655
0.39116294410055   0.014102877030977817   0.021878153420639247
0.39116294410055   0.014102877030977817   0.021878153420639247
0.39116294410055   0.014102877030977817   0.021878153420639247
0.39116294410055   0.014102877030977817   0.021878153420639247
0.206136644607357   -0.053369465057663316   -0.01953444737912004
0.206136644607357   -0.053369465057663316   -0.01953444737912004
0.206136644607357   -0.053369465057663316   -0.01953444737912004
0.206136644607357   -0.053369465057663316   -0.01953444737912004
0.059941574919843074   -0.14552719322146768   0.01806254889291148
0.059941574919843074   -0.14552719322146768   0.01806254889291148
0.059941574919843074   -0.14552719322146768   0.01806254889291148
0.059941574919843074   -0.14552719322146768   0.01806254889291148
-0.24616986546443903   -0.0750526146290861   -3.7309543313353635e-05
-0.24616986546443903   -0.0750526146290861   -3.7309543313353635e-05
-0.24616986546443903   -0.0750526146290861   -3.7309543313353635e-05
-0.24616986546443903   -0.0750526146290861   -3.7309543313353635e-05
-0.2952408459830509   -0.2187735444123298   0.024034895388192423
-0.2952408459830509   -0.2187735444123298   0.024034895388192423
-0.2952408459830509   -0.2187735444123298   0.024034895388192423
-0.2952408459830509   -0.2187735444123298   0.024034895388192423
0.06894883143534354   -0.011441005115919042   0.009898168726167555
0.06894883143534354   -0.011441005115919042   0.009898168726167555
0.06894883143534354   -0.011441005115919042   0.009898168726167555
0.06894883143534354   -0.011441005115919042   0.009898168726167555
-0.10180791925609828   -0.11110095607267023   0.004244647306902809
-0.10180791925609828   -0.11110095607267023   0.004244647306902809
-0.10180791925609828   -0.11110095607267023   0.004244647306902809
-0.10180791925609828   -0.11110095607267023   0.004244647306902809
0.04113596543382407   -0.15368882873838074   0.013081662341031947
0.04113596543382407   -0.15368882873838074   0.013081662341031947
0.04113596543382407   -0.15368882873838074   0.013081662341031947
0.04113596543382407   -0.15368882873838074   0.013081662341031947
-0.2721842990911784   -0.08128203989951555   0.001826125334737686
-0.2721842990911784   -0.08128203989951555   0.001826125334737686
-0.2721842990911784   -0.08128203989951555   0.001826125334737686
-0.2721842990911784   -0.08128203989951555   0.001826125334737686
-0.312183488445097   -0.22206498509006933   0.019712317185603283
-0.312183488445097   -0.22206498509006933   0.019712317185603283
-0.312183488445097   -0.22206498509006933   0.019712317185603283
-0.312183488445097   -0.22206498509006933   0.019712317185603283
0.05750765401181607   -0.01468834180231664   0.013780661400792048
0.05750765401181607   -0.01468834180231664   0.013780661400792048
0.05750765401181607   -0.01468834180231664   0.013780661400792048
0.05750765401181607   -0.01468834180231664   0.013780661400792048
-0.1230050122626004   -0.11772796506374475   -0.009881547489978056
-0.1230050122626004   -0.11772796506374475   -0.009881547489978056
-0.1230050122626004   -0.11772796506374475   -0.009881547489978056
-0.1230050122626004   -0.11772796506374475   -0.009881547489978056
0.02814212162605783   -0.15624116248251835   0.008505820152203462
0.02814212162605783   -0.15624116248251835   0.008505820152203462
0.02814212162605783   -0.15624116248251835   0.008505820152203462
0.02814212162605783   -0.15624116248251835   0.008505820152203462
-0.28851679136382186   -0.08621099971435105   0.002191817216257941
-0.28851679136382186   -0.08621099971435105   0.002191817216257941
-0.28851679136382186   -0.08621099971435105   0.002191817216257941
-0.28851679136382186   -0.08621099971435105   0.002191817216257941
-0.33060210525589295   -0.2204561957090928   0.016372784344709013
-0.33060210525589295   -0.2204561957090928   0.016372784344709013
-0.33060210525589295   -0.2204561957090928   0.016372784344709013
-0.33060210525589295   -0.2204561957090928   0.016372784344709013
0.04479123812794625   -0.016453240935938845   0.01623985899652846
0.04479123812794625   -0.016453240935938845   0.01623985899652846
0.04479123812794625   -0.016453240935938845   0.01623985899652846
0.04479123812794625   -0.016453240935938845   0.01623985899652846
-0.14024642125411774   -0.12019350579721647   -0.024080840983046078
-0.14024642125411774   -0.12019350579721647   -0.024080840983046078
-0.14024642125411774   -0.12019350579721647   -0.024080840983046078
-0.14024642125411774   -0.12019350579721647   -0.024080840983046078
-0.27685485915451896   -0.249984745215968   0.02146985259317097
-0.27685485915451896   -0.249984745215968   0.02146985259317097
-0.27685485915451896   -0.249984745215968   0.02146985259317097
-0.27685485915451896   -0.249984745215968   0.02146985259317097
-0.6115268709025733   -0.09330919941342353   -0.01394551569802792
-0.6115268709025733   -0.09330919941342353   -0.01394551569802792
-0.6115268709025733   -0.09330919941342353   -0.01394551569802792
-0.6115268709025733   -0.09330919941342353   -0.01394551569802792
-0.697404037123345   -0.3660941475735503   -0.018493328930650116
-0.697404037123345   -0.3660941475735503   -0.018493328930650116
-0.697404037123345   -0.3660941475735503   -0.018493328930650116
-0.697404037123345   -0.3660941475735503   -0.018493328930650116
-0.25853103751284945   -0.019742154704962364   0.008552548031829305
-0.25853103751284945   -0.019742154704962364   0.008552548031829305
-0.25853103751284945   -0.019742154704962364   0.008552548031829305
-0.25853103751284945   -0.019742154704962364   0.008552548031829305
-0.4565851257012585   -0.17495593641776644   -0.014476380994510464
-0.4565851257012585   -0.17495593641776644   -0.014476380994510464
-0.4565851257012585   -0.17495593641776644   -0.014476380994510464
-0.4565851257012585   -0.17495593641776644   -0.014476380994510464
-0.31153475755083565   -0.28371938937127555   0.007511182508214309
-0.31153475755083565   -0.28371938937127555   0.007511182508214309
-0.31153475755083565   -0.28371938937127555   0.007511182508214309
-0.31153475755083565   -0.28371938937127555   0.007511182508214309
-0.6431530271266015   -0.10086962294848444   -0.012462803571998336
-0.6431530271266015   -0.10086962294848444   -0.012462803571998336
-0.6431530271266015   -0.10086962294848444   -0.012462803571998336
-0.6431530271266015   -0.10086962294848444   -0.012462803571998336
-0.7176112708916413   -0.37176263130877674   -0.021380802805718677
-0.7176112708916413   -0.37176263130877674   -0.021380802805718677
-0.7176112708916413   -0.37176263130877674   -0.021380802805718677
-0.7176112708916413   -0.37176263130877674   -0.021380802805718677
-0.2742101030926746   -0.025135928047248554   0.01265018690489186
-0.2742101030926746   -0.025135928047248554   0.01265018690489186
-0.2742101030926746   -0.025135928047248554   0.01265018690489186
-0.2742101030926746   -0.025135928047248554   0.01265018690489186
-0.4813414640128829   -0.19409994312326495   -0.021011328072167972
-0.4813414640128829   -0.19409994312326495   -0.021011328072167972
-0.4813414640128829   -0.19409994312326495   -0.021011328072167972
-0.4813414640128829   -0.19409994312326495   -0.021011328072167972
-0.32895321985789194   -0.2891626046121434   0.002961279643698689
-0.32895321985789194   -0.2891626046121434   0.002961279643698689
-0.32895321985789194   -0.2891626046121434   0.002961279643698689
-0.32895321985789194   -0.2891626046121434   0.002961279643698689
-0.6631361226154382   -0.10800392323289727   -0.012763769500588055
-0.6631361226154382   -0.10800392323289727   -0.012763769500588055
-0.6631361226154382   -0.10800392323289727   -0.012763769500588055
-0.6631361226154382   -0.10800392323289727   -0.012763769500588055
-0.7347791662431082   -0.35501054588694686   -0.02410083256731861
-0.7347791662431082   -0.35501054588694686   -0.02410083256731861
-0.7347791662431082   -0.35501054588694686   -0.02410083256731861
-0.7347791662431082   -0.35501054588694686   -0.02410083256731861
-0.2939849011159081   -0.0327814882276458   0.011784097563181557
-0.2939849011159081   -0.0327814882276458   0.011784097563181557
-0.2939849011159081   -0.0327814882276458   0.011784097563181557
-0.2939849011159081   -0.0327814882276458   0.011784097563181557
-0.5042770831687973   -0.20053149492989175   -0.027367105544904378
-0.5042770831687973   -0.20053149492989175   -0.027367105544904378
-0.5042770831687973   -0.20053149492989175   -0.027367105544904378
-0.5042770831687973   -0.20053149492989175   -0.027367105544904378
-0.6016937231978876   -0.10996378329765354   0.05187480670961994
-0.6016937231978876   -0.10996378329765354   0.05187480670961994
-0.6016937231978876   -0.10996378329765354   0.05187480670961994
-0.6016937231978876   -0.10996378329765354   0.05187480670961994
-1.0538003292794238   -0.07818787371610378   -0.018092353319595834
-1.0538003292794238   -0.07818787371610378   -0.018092353319595834
-1.0538003292794238   -0.07818787371610378   -0.018092353319595834
-1.0538003292794238   -0.07818787371610378   -0.018092353319595834
-1.11740410922032   -0.2206468850582906   0.014169683928866916
-1.11740410922032   -0.2206468850582906   0.014169683928866916
-1.11740410922032   -0.2206468850582906   0.014169683928866916
-1.11740410922032   -0.2206468850582906   0.014169683928866916
-0.6175084094723411   0.009475537733424966   0.005415124017388223
-0.6175084094723411   0.009475537733424966   0.005415124017388223
-0.6175084094723411   0.009475537733424966   0.005415124017388223
-0.6175084094723411   0.009475537733424966   0.005415124017388223
-0.8072481788413544   -0.0774639261877557   0.01608774509449443
-0.8072481788413544   -0.0774639261877557   0.01608774509449443
-0.8072481788413544   -0.0774639261877557   0.01608774509449443
-0.8072481788413544   -0.0774639261877557   0.01608774509449443
-0.6348478304599025   -0.11777571227448294   0.04596926908748766
-0.6348478304599025   -0.11777571227448294   0.04596926908748766
-0.6348478304599025   -0.11777571227448294   0.04596926908748766
-0.6348478304599025   -0.11777571227448294   0.04596926908748766
-1.0973921766550876   -0.0907231234727105   -0.01569441483054279
-1.0973921766550876   -0.0907231234727105   -0.01569441483054279
-1.0973921766550876   -0.0907231234727105   -0.01569441483054279
-1.0973921766550876   -0.0907231234727105   -0.01569441483054279
-1.1440199195628886   -0.2298568163142784   -0.005264162008503326
-1.1440199195628886   -0.2298568163142784   -0.005264162008503326
-1.1440199195628886   -0.2298568163142784   -0.005264162008503326
-1.1440199195628886   -0.2298568163142784   -0.005264162008503326
-0.6363639772034414   0.0033534194368071424   0.009739614889691606
-0.6363639772034414   0.0033534194368071424   0.009739614889691606
-0.6363639772034414   0.0033534194368071424   0.009739614889691606
-0.6363639772034414   0.0033534194368071424   0.009739614889691606
-0.8546653781465722   -0.10206922441103819   0.006493766428604629
-0.8546653781465722   -0.10206922441103819   0.006493766428604629
-0.8546653781465722   -0.10206922441103819   0.006493766428604629
-0.8546653781465722   -0.10206922441103819   0.006493766428604629
-0.6561314517822978   -0.12364596505834691   0.03790162649056328
-0.6561314517822978   -0.12364596505834691   0.03790162649056328
-0.6561314517822978   -0.12364596505834691   0.03790162649056328
-0.6561314517822978   -0.12364596505834691   0.03790162649056328
-1.1187656993080388   -0.09737068614312797   -0.011479190905386544
-1.1187656993080388   -0.09737068614312797   -0.011479190905386544
-1.1187656993080388   -0.09737068614312797   -0.011479190905386544
-1.1187656993080388   -0.09737068614312797   -0.011479190905386544
-1.1668026871488035   -0.23340417248906942   -0.0002181752965435546
-1.1668026871488035   -0.23340417248906942   -0.0002181752965435546
-1.1668026871488035   -0.23340417248906942   -0.0002181752965435546
-1.1668026871488035   -0.23340417248906942   -0.0002181752965435546
-0.6629176462757321   -0.02390374085943149   0.004099962242046503
-0.6629176462757321   -0.02390374085943149   0.004099962242046503
-0.6629176462757321   -0.02390374085943149   0.004099962242046503
-0.6629176462757321   -0.02390374085943149   0.004099962242046503
-0.8644652395787997   -0.12309563063931919   0.010204655113297776
-0.8644652395787997   -0.12309563063931919   0.010204655113297776
-0.8644652395787997   -0.12309563063931919   0.010204655113297776
-0.8644652395787997   -0.12309563063931919   0.010204655113297776
0.7120108095227646   0.03322256550742121   -0.015043329984678697
0.7120108095227646   0.03322256550742121   -0.015043329984678697
0.7120108095227646   0.03322256550742121   -0.015043329984678697
0.7120108095227646   0.03322256550742121   -0.015043329984678697
0.3574291723404935   -0.007796735717186018   0.007228598135244842
0.3574291723404935   -0.007796735717186018   0.007228598135244842
0.3574291723404935   -0.007796735717186018   0.007228598135244842
0.3574291723404935   -0.007796735717186018   0.007228598135244842
0.33517675062479835   -0.052233354900175125   -0.013432868729956977
0.33517675062479835   -0.052233354900175125   -0.013432868729956977
0.33517675062479835   -0.052233354900175125   -0.013432868729956977
0.33517675062479835   -0.052233354900175125   -0.013432868729956977
0.7039013683134612   0.051150563227475604   0.008457273552804796
0.7039013683134612   0.051150563227475604   0.008457273552804796
0.7039013683134612   0.051150563227475604   0.008457273552804796
0.7039013683134612   0.051150563227475604   0.008457273552804796
0.4995024938672719   0.0012371312479960428   -0.01927959192410975
0.4995024938672719   0.0012371312479960428   -0.01927959192410975
0.4995024938672719   0.0012371312479960428   -0.01927959192410975
0.4995024938672719   0.0012371312479960428   -0.01927959192410975
0.6927134217491319   0.01891181155200919   -0.015243707593368898
0.6927134217491319   0.01891181155200919   -0.015243707593368898
0.6927134217491319   0.01891181155200919   -0.015243707593368898
0.6927134217491319   0.01891181155200919   -0.015243707593368898
0.3457574176392604   -0.020601882774575503   0.007838994216749974
0.3457574176392604   -0.020601882774575503   0.007838994216749974
0.3457574176392604   -0.020601882774575503   0.007838994216749974
0.3457574176392604   -0.020601882774575503   0.007838994216749974
0.3231746355005932   -0.05507251774737748   -0.01113891682331962
0.3231746355005932   -0.05507251774737748   -0.01113891682331962
0.3231746355005932   -0.05507251774737748   -0.01113891682331962
0.3231746355005932   -0.05507251774737748   -0.01113891682331962
0.6872701760946825   0.04709483622164469   0.012472093460304538
0.6872701760946825   0.04709483622164469   0.012472093460304538
0.6872701760946825   0.04709483622164469   0.012472093460304538
0.6872701760946825   0.04709483622164469   0.012472093460304538
0.4931746984621007   -0.004842150213148919   -0.022854110487132966
0.4931746984621007   -0.004842150213148919   -0.022854110487132966
0.4931746984621007   -0.004842150213148919   -0.022854110487132966
0.4931746984621007   -0.004842150213148919   -0.022854110487132966
0.6759905531390571   0.015293510104786384   -0.012124695200964195
0.6759905531390571   0.015293510104786384   -0.012124695200964195
0.6759905531390571   0.015293510104786384   -0.012124695200964195
0.6759905531390571   0.015293510104786384   -0.012124695200964195
0.33359516916500703   -0.02413028092173082   0.01002151467310258
0.33359516916500703   -0.02413028092173082   0.01002151467310258
0.33359516916500703   -0.02413028092173082   0.01002151467310258
0.33359516916500703   -0.02413028092173082   0.01002151467310258
0.3115824419743845   -0.054039476453713375   -0.007666417701531918
0.3115824419743845   -0.054039476453713375   -0.007666417701531918
0.3115824419743845   -0.054039476453713375   -0.007666417701531918
0.3115824419743845   -0.054039476453713375   -0.007666417701531918
0.666707545547348   0.044528435895171775   0.016331395753982958
0.666707545547348   0.044528435895171775   0.016331395753982958
0.666707545547348   0.044528435895171775   0.016331395753982958
0.666707545547348   0.044528435895171775   0.016331395753982958
0.46916406871103344   -0.008404876834382416   -0.029915142485774256
0.46916406871103344   -0.008404876834382416   -0.029915142485774256
0.46916406871103344   -0.008404876834382416   -0.029915142485774256
0.46916406871103344   -0.008404876834382416   -0.029915142485774256
0.359837527065989   0.007939732089347909   0.0035339039561857605
0.359837527065989   0.007939732089347909   0.0035339039561857605
0.359837527065989   0.007939732089347909   0.0035339039561857605
0.359837527065989   0.007939732089347909   0.0035339039561857605
0.03286729987142838   -0.02188504212784871   -0.0010111278648488042
0.03286729987142838   -0.02188504212784871   -0.0010111278648488042
0.03286729987142838   -0.02188504212784871   -0.0010111278648488042
0.03286729987142838   -0.02188504212784871   -0.0010111278648488042
0.011893642221011521   -0.06881520045558533   -0.012987708184632104
0.011893642221011521   -0.06881520045558533   -0.012987708184632104
0.011893642221011521   -0.06881520045558533   -0.012987708184632104
0.011893642221011521   -0.06881520045558533   -0.012987708184632104
0.36017627419319287   0.04166169046884574   0.017669703742991073
0.36017627419319287   0.04166169046884574   0.017669703742991073
0.36017627419319287   0.04166169046884574   0.017669703742991073
0.36017627419319287   0.04166169046884574   0.017669703742991073
0.18768849731898052   -0.009396642514518258   -0.007305368833364325
0.18768849731898052   -0.009396642514518258   -0.007305368833364325
0.18768849731898052   -0.009396642514518258   -0.007305368833364325
0.18768849731898052   -0.009396642514518258   -0.007305368833364325
0.34996784826846566   0.0025458627570603687   0.005743401831142237
0.34996784826846566   0.0025458627570603687   0.005743401831142237
0.34996784826846566   0.0025458627570603687   0.005743401831142237
0.34996784826846566   0.0025458627570603687   0.005743401831142237
0.022501331520584637   -0.02930010936895374   0.000535647226601892
0.022501331520584637   -0.02930010936895374   0.000535647226601892
0.022501331520584637   -0.02930010936895374   0.000535647226601892
0.022501331520584637   -0.02930010936895374   0.000535647226601892
0.00032009261980585   -0.07199233728915143   -0.009117649974976761
0.00032009261980585   -0.07199233728915143   -0.009117649974976761
0.00032009261980585   -0.07199233728915143   -0.009117649974976761
0.00032009261980585   -0.07199233728915143   -0.009117649974976761
0.3474774722130792   0.03583280608775317   0.019469942903979465
0.3474774722130792   0.03583280608775317   0.019469942903979465
0.3474774722130792   0.03583280608775317   0.019469942903979465
0.3474774722130792   0.03583280608775317   0.019469942903979465
0.174309900567589   -0.014788566250815371   -0.010340798856178493
0.174309900567589   -0.014788566250815371   -0.010340798856178493
0.174309900567589   -0.014788566250815371   -0.010340798856178493
0.174309900567589   -0.014788566250815371   -0.010340798856178493
0.3378499591764308   -0.0010248310176051573   0.00819001482609899
0.3378499591764308   -0.0010248310176051573   0.00819001482609899
0.3378499591764308   -0.0010248310176051573   0.00819001482609899
0.3378499591764308   -0.0010248310176051573   0.00819001482609899
0.009899901871730095   -0.035182403968511605   0.0019714629640046454
0.009899901871730095   -0.035182403968511605   0.0019714629640046454
0.009899901871730095   -0.035182403968511605   0.0019714629640046454
0.009899901871730095   -0.035182403968511605   0.0019714629640046454
-0.012085452259889029   -0.07217854073334164   -0.006280539040518961
-0.012085452259889029   -0.07217854073334164   -0.006280539040518961
-0.012085452259889029   -0.07217854073334164   -0.006280539040518961
-0.012085452259889029   -0.07217854073334164   -0.006280539040518961
0.3346626116494525   0.032194912388131124   0.021500041831964252
0.3346626116494525   0.032194912388131124   0.021500041831964252
0.3346626116494525   0.032194912388131124   0.021500041831964252
0.3346626116494525   0.032194912388131124   0.021500041831964252
0.16395048811600016   -0.0168435458357483   -0.012909544075988308
0.16395048811600016   -0.0168435458357483   -0.012909544075988308
0.16395048811600016   -0.0168435458357483   -0.012909544075988308
0.16395048811600016   -0.0168435458357483   -0.012909544075988308
0.033992099809614776   -0.01872266143831009   0.001450491136543595
0.033992099809614776   -0.01872266143831009   0.001450491136543595
0.033992099809614776   -0.01872266143831009   0.001450491136543595
0.033992099809614776   -0.01872266143831009   0.001450491136543595
-0.2810610822628336   -0.032365991541693534   -0.00880981339953622
-0.2810610822628336   -0.032365991541693534   -0.00880981339953622
-0.2810610822628336   -0.032365991541693534   -0.00880981339953622
-0.2810610822628336   -0.032365991541693534   -0.00880981339953622
-0.30438028501759073   -0.09106274610142796   -0.014881419748412068
-0.30438028501759073   -0.09106274610142796   -0.014881419748412068
-0.30438028501759073   -0.09106274610142796   -0.014881419748412068
-0.30438028501759073   -0.09106274610142796   -0.014881419748412068
0.036435327044815294   0.030688357902835924   0.010217157575965505
0.036435327044815294   0.030688357902835924   0.010217157575965505
0.036435327044815294   0.030688357902835924   0.010217157575965505
0.036435327044815294   0.030688357902835924   0.010217157575965505
-0.12911133784104528   -0.026537771263226064   -0.00720954027480245
-0.12911133784104528   -0.026537771263226064   -0.00720954027480245
-0.12911133784104528   -0.026537771263226064   -0.00720954027480245
-0.12911133784104528   -0.026537771263226064   -0.00720954027480245
0.0252842471130234   -0.02093627713471178   0.006086392954554679
0.0252842471130234   -0.02093627713471178   0.006086392954554679
0.0252842471130234   -0.02093627713471178   0.006086392954554679
0.0252842471130234   -0.02093627713471178   0.006086392954554679
-0.2923647809007988   -0.038573686878880034   -0.007292958387000215
-0.2923647809007988   -0.038573686878880034   -0.007292958387000215
-0.2923647809007988   -0.038573686878880034   -0.007292958387000215
-0.2923647809007988   -0.038573686878880034   -0.007292958387000215
-0.31793835625486677   -0.09452847058274062   -0.009973972234644995
-0.31793835625486677   -0.09452847058274062   -0.009973972234644995
-0.31793835625486677   -0.09452847058274062   -0.009973972234644995
-0.31793835625486677   -0.09452847058274062   -0.009973972234644995
0.02374046330012625   0.02445697556764405   0.011534890569829773
0.02374046330012625   0.02445697556764405   0.011534890569829773
0.02374046330012625   0.02445697556764405   0.011534890569829773
0.02374046330012625   0.02445697556764405   0.011534890569829773
-0.14034225015082347   -0.030211835752621076   -0.008634572101636605
-0.14034225015082347   -0.030211835752621076   -0.008634572101636605
-0.14034225015082347   -0.030211835752621076   -0.008634572101636605
-0.14034225015082347   -0.030211835752621076   -0.008634572101636605
0.013276281934393015   -0.024630463863498445   0.008301423172306085
0.013276281934393015   -0.024630463863498445   0.008301423172306085
0.013276281934393015   -0.024630463863498445   0.008301423172306085
0.013276281934393015   -0.024630463863498445   0.008301423172306085
-0.3072849157768934   -0.045251772039358484   -0.005983468388163256
-0.3072849157768934   -0.045251772039358484   -0.005983468388163256
-0.3072849157768934   -0.045251772039358484   -0.005983468388163256
-0.3072849157768934   -0.045251772039358484   -0.005983468388163256
-0.33296608301032365   -0.09702483874680518   -0.008860808919533248
-0.33296608301032365   -0.09702483874680518   -0.008860808919533248
-0.33296608301032365   -0.09702483874680518   -0.008860808919533248
-0.33296608301032365   -0.09702483874680518   -0.008860808919533248
0.010006806639260943   0.019144075008896932   0.01285813971299233
0.010006806639260943   0.019144075008896932   0.01285813971299233
0.010006806639260943   0.019144075008896932   0.01285813971299233
0.010006806639260943   0.019144075008896932   0.01285813971299233
-0.15491475742660088   -0.03460869166526556   -0.012087778337290122
-0.15491475742660088   -0.03460869166526556   -0.012087778337290122
-0.15491475742660088   -0.03460869166526556   -0.012087778337290122
-0.15491475742660088   -0.03460869166526556   -0.012087778337290122
-0.27647533908785127   -0.022632673103453606   0.004385584037130491
-0.27647533908785127   -0.022632673103453606   0.004385584037130491
-0.27647533908785127   -0.022632673103453606   0.004385584037130491
-0.27647533908785127   -0.022632673103453606   0.004385584037130491
-0.5880330018933284   -0.037911000154121716   -0.01540522925624379
-0.5880330018933284   -0.037911000154121716   -0.01540522925624379
-0.5880330018933284   -0.037911000154121716   -0.01540522925624379
-0.5880330018933284   -0.037911000154121716   -0.01540522925624379
-0.6144899622961464   -0.09564552925708887   -0.015005399945475593
-0.6144899622961464   -0.09564552925708887   -0.015005399945475593
-0.6144899622961464   -0.09564552925708887   -0.015005399945475593
-0.6144899622961464   -0.09564552925708887   -0.015005399945475593
-0.27787023643728764   0.02358710248146763   0.0030189745702052066
-0.27787023643728764   0.02358710248146763   0.0030189745702052066
-0.27787023643728764   0.02358710248146763   0.0030189745702052066
-0.27787023643728764   0.02358710248146763   0.0030189745702052066
-0.43562583779559055   -0.031620988983830214   -0.005973254720824352
-0.43562583779559055   -0.031620988983830214   -0.005973254720824352
-0.43562583779559055   -0.031620988983830214   -0.005973254720824352
-0.43562583779559055   -0.031620988983830214   -0.005973254720824352
-0.2861091308517719   -0.024904968319390042   0.010316573298644088
-0.2861091308517719   -0.024904968319390042   0.010316573298644088
-0.2861091308517719   -0.024904968319390042   0.010316573298644088
-0.2861091308517719   -0.024904968319390042   0.010316573298644088
-0.6045757863549448   -0.04547817692951682   -0.015601872567044619
-0.6045757863549448   -0.04547817692951682   -0.015601872567044619
-0.6045757863549448   -0.04547817692951682   -0.015601872567044619
-0.6045757863549448   -0.04547817692951682   -0.015601872567044619
-0.6332081074925838   -0.10158910970761925   -0.010617716997021756
-0.6332081074925838   -0.10158910970761925   -0.010617716997021756
-0.6332081074925838   -0.10158910970761925   -0.010617716997021756
-0.6332081074925838   -0.10158910970761925   -0.010617716997021756
-0.29295553418924614   0.016756699316356857   0.0036549681943576946
-0.29295553418924614   0.016756699316356857   0.0036549681943576946
-0.29295553418924614   0.016756699316356857   0.0036549681943576946
-0.29295553418924614   0.016756699316356857   0.0036549681943576946
-0.4473582882869282   -0.03484884084166378   -0.005949808442566826
-0.4473582882869282   -0.03484884084166378   -0.005949808442566826
-0.4473582882869282   -0.03484884084166378   -0.005949808442566826
-0.4473582882869282   -0.03484884084166378   -0.005949808442566826
-0.30106612226204293   -0.03088785319396234   0.010746580340691283
-0.30106612226204293   -0.03088785319396234   0.010746580340691283
-0.30106612226204293   -0.03088785319396234   0.010746580340691283
-0.30106612226204293   -0.03088785319396234   0.010746580340691283
-0.6239708927972345   -0.05281793057474529   -0.013202822653149357
-0.6239708927972345   -0.05281793057474529   -0.013202822653149357
-0.6239708927972345   -0.05281793057474529   -0.013202822653149357
-0.6239708927972345   -0.05281793057474529   -0.013202822653149357
-0.6543565944020203   -0.10947298149975995   -0.01130167551127683
-0.6543565944020203   -0.10947298149975995   -0.01130167551127683
-0.6543565944020203   -0.10947298149975995   -0.01130167551127683
-0.6543565944020203   -0.10947298149975995   -0.01130167551127683
-0.30926560526153396   0.008288327462353473   0.004328413615250833
-0.30926560526153396   0.008288327462353473   0.004328413615250833
-0.30926560526153396   0.008288327462353473   0.004328413615250833
-0.30926560526153396   0.008288327462353473   0.004328413615250833
-0.4684906806967893   -0.04300765681710741   -0.00978012219903551
-0.4684906806967893   -0.04300765681710741   -0.00978012219903551
-0.4684906806967893   -0.04300765681710741   -0.00978012219903551
-0.4684906806967893   -0.04300765681710741   -0.00978012219903551
-0.5684074063544862   0.026226275991310083   0.01858547229253587
-0.5684074063544862   0.026226275991310083   0.01858547229253587
-0.5684074063544862   0.026226275991310083   0.01858547229253587
-0.5684074063544862   0.026226275991310083   0.01858547229253587
-0.8808141678380049   -0.04383674808914029   -0.011486838612915454
-0.8808141678380049   -0.04383674808914029   -0.011486838612915454
-0.8808141678380049   -0.04383674808914029   -0.011486838612915454
-0.8808141678380049   -0.04383674808914029   -0.011486838612915454
-0.9018552196130868   -0.044677083777934556   0.018998826601305405
-0.9018552196130868   -0.044677083777934556   0.018998826601305405
-0.9018552196130868   -0.044677083777934556   0.018998826601305405
-0.9018552196130868   -0.044677083777934556   0.018998826601305405
-0.5895155152571891   0.018617364908673245   -0.004396058916456551
-0.5895155152571891   0.018617364908673245   -0.004396058916456551
-0.5895155152571891   0.018617364908673245   -0.004396058916456551
-0.5895155152571891   0.018617364908673245   -0.004396058916456551
-0.7008525204935968   0.0003817278641574384   0.017866629016942012
-0.7008525204935968   0.0003817278641574384   0.017866629016942012
-0.7008525204935968   0.0003817278641574384   0.017866629016942012
-0.7008525204935968   0.0003817278641574384   0.017866629016942012
-0.5836675512653036   0.019877424801402505   0.023583701150238418
-0.5836675512653036   0.019877424801402505   0.023583701150238418
-0.5836675512653036   0.019877424801402505   0.023583701150238418
-0.5836675512653036   0.019877424801402505   0.023583701150238418
-0.9072998430745117   -0.04553380314020894   -0.007367571343544911
-0.9072998430745117   -0.04553380314020894   -0.007367571343544911
-0.9072998430745117   -0.04553380314020894   -0.007367571343544911
-0.9072998430745117   -0.04553380314020894   -0.007367571343544911
-0.9283463729342765   -0.05181157142256232   0.02589705632364868
-0.9283463729342765   -0.05181157142256232   0.02589705632364868
-0.9283463729342765   -0.05181157142256232   0.02589705632364868
-0.9283463729342765   -0.05181157142256232   0.02589705632364868
-0.6089401817013592   0.01375993208491616   -0.004627129833440755
-0.6089401817013592   0.01375993208491616   -0.004627129833440755
-0.6089401817013592   0.01375993208491616   -0.004627129833440755
-0.6089401817013592   0.01375993208491616   -0.004627129833440755
-0.7353467956185529   -0.00793333620742806   0.010030774132464317
-0.7353467956185529   -0.00793333620742806   0.010030774132464317
-0.7353467956185529   -0.00793333620742806   0.010030774132464317
-0.7353467956185529   -0.00793333620742806   0.010030774132464317
-0.6035901213994392   0.012614073643237023   0.02326903011783879
-0.6035901213994392   0.012614073643237023   0.02326903011783879
-0.6035901213994392   0.012614073643237023   0.02326903011783879
-0.6035901213994392   0.012614073643237023   0.02326903011783879
-0.9347046813465054   -0.05167396109119718   -0.006032096068861306
-0.9347046813465054   -0.05167396109119718   -0.006032096068861306
-0.9347046813465054   -0.05167396109119718   -0.006032096068861306
-0.9347046813465054   -0.05167396109119718   -0.006032096068861306
-0.9660897268473863   -0.08088762631156668   0.022352615553055413
-0.9660897268473863   -0.08088762631156668   0.022352615553055413
-0.9660897268473863   -0.08088762631156668   0.022352615553055413
-0.9660897268473863   -0.08088762631156668   0.022352615553055413
-0.6313403082778106   -0.0013167556297345728   -0.004376470760263013
-0.6313403082778106   -0.0013167556297345728   -0.004376470760263013
-0.6313403082778106   -0.0013167556297345728   -0.004376470760263013
-0.6313403082778106   -0.0013167556297345728   -0.004376470760263013
-0.7495302004130875   -0.018491302101724727   0.0032676533961450427
-0.7495302004130875   -0.018491302101724727   0.0032676533961450427
-0.7495302004130875   -0.018491302101724727   0.0032676533961450427
-0.7495302004130875   -0.018491302101724727   0.0032676533961450427
0.580562458268287   0.03135008085518612   -0.02017060493068808
0.580562458268287   0.03135008085518612   -0.02017060493068808
0.580562458268287   0.03135008085518612   -0.02017060493068808
0.580562458268287   0.03135008085518612   -0.02017060493068808
0.2869955423755764   -0.0008628775974883762   0.0071604735954569135
0.2869955423755764   -0.0008628775974883762   0.0071604735954569135
0.2869955423755764   -0.0008628775974883762   0.0071604735954569135
0.2869955423755764   -0.0008628775974883762   0.0071604735954569135
0.2628720510327692   -0.04247026118311797   -0.01861753121948659
0.2628720510327692   -0.04247026118311797   -0.01861753121948659
0.2628720510327692   -0.04247026118311797   -0.01861753121948659
0.2628720510327692   -0.04247026118311797   -0.01861753121948659
0.5699100516778738   0.04667719459807419   0.008999143021345173
0.5699100516778738   0.04667719459807419   0.008999143021345173
0.5699100516778738   0.04667719459807419   0.008999143021345173
0.5699100516778738   0.04667719459807419   0.008999143021345173
0.40310836276698764   0.0035343997606862854   -0.013281445394197483
0.40310836276698764   0.0035343997606862854   -0.013281445394197483
0.40310836276698764   0.0035343997606862854   -0.013281445394197483
0.40310836276698764   0.0035343997606862854   -0.013281445394197483
0.5581602951297833   0.016413670713313927   -0.01948611583434126
0.5581602951297833   0.016413670713313927   -0.01948611583434126
0.5581602951297833   0.016413670713313927   -0.01948611583434126
0.5581602951297833   0.016413670713313927   -0.01948611583434126
0.27412924967621943   -0.012699295202997868   0.007897496017639099
0.27412924967621943   -0.012699295202997868   0.007897496017639099
0.27412924967621943   -0.012699295202997868   0.007897496017639099
0.27412924967621943   -0.012699295202997868   0.007897496017639099
0.25081210245797814   -0.045934516302790065   -0.016216595525149386
0.25081210245797814   -0.045934516302790065   -0.016216595525149386
0.25081210245797814   -0.045934516302790065   -0.016216595525149386
0.25081210245797814   -0.045934516302790065   -0.016216595525149386
0.5518890021568742   0.04188816104744786   0.012385020026285165
0.5518890021568742   0.04188816104744786   0.012385020026285165
0.5518890021568742   0.04188816104744786   0.012385020026285165
0.5518890021568742   0.04188816104744786   0.012385020026285165
0.39388021271501605   -0.0027699487681002444   -0.01727454933870151
0.39388021271501605   -0.0027699487681002444   -0.01727454933870151
0.39388021271501605   -0.0027699487681002444   -0.01727454933870151
0.39388021271501605   -0.0027699487681002444   -0.01727454933870151
0.5403800126512858   0.012140026291720493   -0.015411792745919552
0.5403800126512858   0.012140026291720493   -0.015411792745919552
0.5403800126512858   0.012140026291720493   -0.015411792745919552
0.5403800126512858   0.012140026291720493   -0.015411792745919552
0.26186935859428645   -0.01663811491633893   0.009773283769938933
0.26186935859428645   -0.01663811491633893   0.009773283769938933
0.26186935859428645   -0.01663811491633893   0.009773283769938933
0.26186935859428645   -0.01663811491633893   0.009773283769938933
0.23982660493576013   -0.04676589559960675   -0.013259321108321794
0.23982660493576013   -0.04676589559960675   -0.013259321108321794
0.23982660493576013   -0.04676589559960675   -0.013259321108321794
0.23982660493576013   -0.04676589559960675   -0.013259321108321794
0.5315738381966881   0.03783876599474806   0.015489229563079902
0.5315738381966881   0.03783876599474806   0.015489229563079902
0.5315738381966881   0.03783876599474806   0.015489229563079902
0.5315738381966881   0.03783876599474806   0.015489229563079902
0.3716993194821131   -0.0070480738637069135   -0.023379473069106208
0.3716993194821131   -0.0070480738637069135   -0.023379473069106208
0.3716993194821131   -0.0070480738637069135   -0.023379473069106208
0.3716993194821131   -0.0070480738637069135   -0.023379473069106208
0.2922194241625971   0.030559174408307653   0.0018578305247643062
0.2922194241625971   0.030559174408307653   0.0018578305247643062
0.2922194241625971   0.030559174408307653   0.0018578305247643062
0.2922194241625971   0.030559174408307653   0.0018578305247643062
0.008800619714648544   -0.009983813557988174   -0.0013444531227926524
0.008800619714648544   -0.009983813557988174   -0.0013444531227926524
0.008800619714648544   -0.009983813557988174   -0.0013444531227926524
0.008800619714648544   -0.009983813557988174   -0.0013444531227926524
-0.009389775149893876   -0.03833600733029329   -0.01275273590960198
-0.009389775149893876   -0.03833600733029329   -0.01275273590960198
-0.009389775149893876   -0.03833600733029329   -0.01275273590960198
-0.009389775149893876   -0.03833600733029329   -0.01275273590960198
0.2867169200588923   0.0423826900636564   0.015753862664349045
0.2867169200588923   0.0423826900636564   0.015753862664349045
0.2867169200588923   0.0423826900636564   0.015753862664349045
0.2867169200588923   0.0423826900636564   0.015753862664349045
0.1423284594589401   0.006045238154433363   -0.001566107435704808
0.1423284594589401   0.006045238154433363   -0.001566107435704808
0.1423284594589401   0.006045238154433363   -0.001566107435704808
0.1423284594589401   0.006045238154433363   -0.001566107435704808
0.2803496722718284   0.02285207674542425   0.0034482370472635193
0.2803496722718284   0.02285207674542425   0.0034482370472635193
0.2803496722718284   0.02285207674542425   0.0034482370472635193
0.2803496722718284   0.02285207674542425   0.0034482370472635193
-0.0029052937754058773   -0.018688160424636904   2.1824057180669203e-05
-0.0029052937754058773   -0.018688160424636904   2.1824057180669203e-05
-0.0029052937754058773   -0.018688160424636904   2.1824057180669203e-05
-0.0029052937754058773   -0.018688160424636904   2.1824057180669203e-05
-0.020811937440718527   -0.04392964725226652   -0.011052914142321298
-0.020811937440718527   -0.04392964725226652   -0.011052914142321298
-0.020811937440718527   -0.04392964725226652   -0.011052914142321298
-0.020811937440718527   -0.04392964725226652   -0.011052914142321298
0.27377377929228214   0.03524250946843934   0.017414762875139086
0.27377377929228214   0.03524250946843934   0.017414762875139086
0.27377377929228214   0.03524250946843934   0.017414762875139086
0.27377377929228214   0.03524250946843934   0.017414762875139086
0.12832112260022763   -0.0010127066100713393   -0.005568143302984419
0.12832112260022763   -0.0010127066100713393   -0.005568143302984419
0.12832112260022763   -0.0010127066100713393   -0.005568143302984419
0.12832112260022763   -0.0010127066100713393   -0.005568143302984419
0.2676503220508481   0.016984487251494262   0.005055498884916002
0.2676503220508481   0.016984487251494262   0.005055498884916002
0.2676503220508481   0.016984487251494262   0.005055498884916002
0.2676503220508481   0.016984487251494262   0.005055498884916002
-0.014678973327280862   -0.025662118163317486   0.0013443773359179973
-0.014678973327280862   -0.025662118163317486   0.0013443773359179973
-0.014678973327280862   -0.025662118163317486   0.0013443773359179973
-0.014678973327280862   -0.025662118163317486   0.0013443773359179973
-0.032109856587525326   -0.0472274908463365   -0.008839506103411417
-0.032109856587525326   -0.0472274908463365   -0.008839506103411417
-0.032109856587525326   -0.0472274908463365   -0.008839506103411417
-0.032109856587525326   -0.0472274908463365   -0.008839506103411417
0.2614614858644559   0.029274879773588607   0.018874308161958328
0.2614614858644559   0.029274879773588607   0.018874308161958328
0.2614614858644559   0.029274879773588607   0.018874308161958328
0.2614614858644559   0.029274879773588607   0.018874308161958328
0.1180523612513838   -0.005451561852914736   -0.008492554251714697
0.1180523612513838   -0.005451561852914736   -0.008492554251714697
0.1180523612513838   -0.005451561852914736   -0.008492554251714697
0.1180523612513838   -0.005451561852914736   -0.008492554251714697
0.018518250105675406   0.030636512222319272   0.0066233730520341965
0.018518250105675406   0.030636512222319272   0.0066233730520341965
0.018518250105675406   0.030636512222319272   0.0066233730520341965
0.018518250105675406   0.030636512222319272   0.0066233730520341965
-0.26092887825374267   -0.017174362618462793   -0.008939716218568277
-0.26092887825374267   -0.017174362618462793   -0.008939716218568277
-0.26092887825374267   -0.017174362618462793   -0.008939716218568277
-0.26092887825374267   -0.017174362618462793   -0.008939716218568277
-0.27511746743965915   -0.035307511390171444   -0.00820939440459691
-0.27511746743965915   -0.035307511390171444   -0.00820939440459691
-0.27511746743965915   -0.035307511390171444   -0.00820939440459691
-0.27511746743965915   -0.035307511390171444   -0.00820939440459691
0.009315093825975585   0.034733664356983905   0.007701937282467171
0.009315093825975585   0.034733664356983905   0.007701937282467171
0.009315093825975585   0.034733664356983905   0.007701937282467171
0.009315093825975585   0.034733664356983905   0.007701937282467171
-0.12688996056862753   0.003779372844555935   0.0005204917404255851
-0.12688996056862753   0.003779372844555935   0.0005204917404255851
-0.12688996056862753   0.003779372844555935   0.0005204917404255851
-0.12688996056862753   0.003779372844555935   0.0005204917404255851
0.007379210490915661   0.024487450058077818   0.0082687349060746
0.007379210490915661   0.024487450058077818   0.0082687349060746
0.007379210490915661   0.024487450058077818   0.0082687349060746
0.007379210490915661   0.024487450058077818   0.0082687349060746
-0.2728673687071058   -0.02474708169377441   -0.007519330438227603
-0.2728673687071058   -0.02474708169377441   -0.007519330438227603
-0.2728673687071058   -0.02474708169377441   -0.007519330438227603
-0.2728673687071058   -0.02474708169377441   -0.007519330438227603
-0.28737021857604267   -0.04144583399042738   -0.0068684753443584564
-0.28737021857604267   -0.04144583399042738   -0.0068684753443584564
-0.28737021857604267   -0.04144583399042738   -0.0068684753443584564
-0.28737021857604267   -0.04144583399042738   -0.0068684753443584564
-0.0024719471212825877   0.027392720608049315   0.00932466959454257
-0.0024719471212825877   0.027392720608049315   0.00932466959454257
-0.0024719471212825877   0.027392720608049315   0.00932466959454257
-0.0024719471212825877   0.027392720608049315   0.00932466959454257
-0.1386341478906474   -0.002260175321629275   -0.002470667641725494
-0.1386341478906474   -0.002260175321629275   -0.002470667641725494
-0.1386341478906474   -0.002260175321629275   -0.002470667641725494
-0.1386341478906474   -0.002260175321629275   -0.002470667641725494
-0.004119953463941741   0.018561154832269767   0.009916203657026359
-0.004119953463941741   0.018561154832269767   0.009916203657026359
-0.004119953463941741   0.018561154832269767   0.009916203657026359
-0.004119953463941741   0.018561154832269767   0.009916203657026359
-0.285456429620599   -0.03234848560186297   -0.006396878955702445
-0.285456429620599   -0.03234848560186297   -0.006396878955702445
-0.285456429620599   -0.03234848560186297   -0.006396878955702445
-0.285456429620599   -0.03234848560186297   -0.006396878955702445
-0.29953252350570175   -0.046262443820737326   -0.004635124290200888
-0.29953252350570175   -0.046262443820737326   -0.004635124290200888
-0.29953252350570175   -0.046262443820737326   -0.004635124290200888
-0.29953252350570175   -0.046262443820737326   -0.004635124290200888
-0.014686816051929251   0.02047747775381798   0.010570727974415413
-0.014686816051929251   0.02047747775381798   0.010570727974415413
-0.014686816051929251   0.02047747775381798   0.010570727974415413
-0.014686816051929251   0.02047747775381798   0.010570727974415413
-0.151273590175832   -0.008400161496053389   -0.005748144630634279
-0.151273590175832   -0.008400161496053389   -0.005748144630634279
-0.151273590175832   -0.008400161496053389   -0.005748144630634279
-0.151273590175832   -0.008400161496053389   -0.005748144630634279
-0.2461588895856066   0.03591003421617086   0.011825830287482058
-0.2461588895856066   0.03591003421617086   0.011825830287482058
-0.2461588895856066   0.03591003421617086   0.011825830287482058
-0.2461588895856066   0.03591003421617086   0.011825830287482058
-0.5222420008736565   -0.02352795353864201   -0.014583049988011826
-0.5222420008736565   -0.02352795353864201   -0.014583049988011826
-0.5222420008736565   -0.02352795353864201   -0.014583049988011826
-0.5222420008736565   -0.02352795353864201   -0.014583049988011826
-0.5332876882710117   -0.02861976677032224   -0.0025979198550201595
-0.5332876882710117   -0.02861976677032224   -0.0025979198550201595
-0.5332876882710117   -0.02861976677032224   -0.0025979198550201595
-0.5332876882710117   -0.02861976677032224   -0.0025979198550201595
-0.2611982183289454   0.026365042890600425   -0.0002857031317959856
-0.2611982183289454   0.026365042890600425   -0.0002857031317959856
-0.2611982183289454   0.026365042890600425   -0.0002857031317959856
-0.2611982183289454   0.026365042890600425   -0.0002857031317959856
-0.38789276132149364   0.0036867273897457503   0.0028569252095851684
-0.38789276132149364   0.0036867273897457503   0.0028569252095851684
-0.38789276132149364   0.0036867273897457503   0.0028569252095851684
-0.38789276132149364   0.0036867273897457503   0.0028569252095851684
-0.2578345153052793   0.02964168564104605   0.013256169236088907
-0.2578345153052793   0.02964168564104605   0.013256169236088907
-0.2578345153052793   0.02964168564104605   0.013256169236088907
-0.2578345153052793   0.02964168564104605   0.013256169236088907
-0.536236412424157   -0.03148143065024768   -0.014479876740824914
-0.536236412424157   -0.03148143065024768   -0.014479876740824914
-0.536236412424157   -0.03148143065024768   -0.014479876740824914
-0.536236412424157   -0.03148143065024768   -0.014479876740824914
-0.5483683700675824   -0.035531054461370504   -0.0023709648159427298
-0.5483683700675824   -0.035531054461370504   -0.0023709648159427298
-0.5483683700675824   -0.035531054461370504   -0.0023709648159427298
-0.5483683700675824   -0.035531054461370504   -0.0023709648159427298
-0.27360437410273164   0.0193601901753076   0.0011547228564636434
-0.27360437410273164   0.0193601901753076   0.0011547228564636434
-0.27360437410273164   0.0193601901753076   0.0011547228564636434
-0.27360437410273164   0.0193601901753076   0.0011547228564636434
-0.39837764235804746   -0.0017949702221508879   0.00041057144683133776
-0.39837764235804746   -0.0017949702221508879   0.00041057144683133776
-0.39837764235804746   -0.0017949702221508879   0.00041057144683133776
-0.39837764235804746   -0.0017949702221508879   0.00041057144683133776
-0.26991354031831166   0.023689934035372007   0.015279147918498995
-0.26991354031831166   0.023689934035372007   0.015279147918498995
-0.26991354031831166   0.023689934035372007   0.015279147918498995
-0.26991354031831166   0.023689934035372007   0.015279147918498995
-0.5511998093165498   -0.03900140378598328   -0.013057811736172587
-0.5511998093165498   -0.03900140378598328   -0.013057811736172587
-0.5511998093165498   -0.03900140378598328   -0.013057811736172587
-0.5511998093165498   -0.03900140378598328   -0.013057811736172587
-0.562236705996258   -0.042947974211710954   0.0011180059796526629
-0.562236705996258   -0.042947974211710954   0.0011180059796526629
-0.562236705996258   -0.042947974211710954   0.0011180059796526629
-0.562236705996258   -0.042947974211710954   0.0011180059796526629
-0.2867530517046531   0.010988580955375554   0.002011209938934437
-0.2867530517046531   0.010988580955375554   0.002011209938934437
-0.2867530517046531   0.010988580955375554   0.002011209938934437
-0.2867530517046531   0.010988580955375554   0.002011209938934437
-0.41494466857132073   -0.009587379354724243   -0.002914405458525473
-0.41494466857132073   -0.009587379354724243   -0.002914405458525473
-0.41494466857132073   -0.009587379354724243   -0.002914405458525473
-0.41494466857132073   -0.009587379354724243   -0.002914405458525473
-0.5039089378663917   0.03712710660808237   0.016427204901584558
-0.5039089378663917   0.03712710660808237   0.016427204901584558
-0.5039089378663917   0.03712710660808237   0.016427204901584558
-0.5039089378663917   0.03712710660808237   0.016427204901584558
-0.7713984775908057   -0.035757156242296334   -0.013230246844964932
-0.7713984775908057   -0.035757156242296334   -0.013230246844964932
-0.7713984775908057   -0.035757156242296334   -0.013230246844964932
-0.7713984775908057   -0.035757156242296334   -0.013230246844964932
-0.781630132600868   -0.016148836631565883   0.01388755072602662
-0.781630132600868   -0.016148836631565883   0.01388755072602662
-0.781630132600868   -0.016148836631565883   0.01388755072602662
-0.781630132600868   -0.016148836631565883   0.01388755072602662
-0.5252785660585507   0.016093913961853612   -0.007265989524891353
-0.5252785660585507   0.016093913961853612   -0.007265989524891353
-0.5252785660585507   0.016093913961853612   -0.007265989524891353
-0.5252785660585507   0.016093913961853612   -0.007265989524891353
-0.6169668760824977   0.007579994079903729   0.014317706443838708
-0.6169668760824977   0.007579994079903729   0.014317706443838708
-0.6169668760824977   0.007579994079903729   0.014317706443838708
-0.6169668760824977   0.007579994079903729   0.014317706443838708
-0.515657778875144   0.038045413365976444   0.018886446988014192
-0.515657778875144   0.038045413365976444   0.018886446988014192
-0.515657778875144   0.038045413365976444   0.018886446988014192
-0.515657778875144   0.038045413365976444   0.018886446988014192
-0.7906847116645676   -0.03753412791597985   -0.010000053308041768
-0.7906847116645676   -0.03753412791597985   -0.010000053308041768
-0.7906847116645676   -0.03753412791597985   -0.010000053308041768
-0.7906847116645676   -0.03753412791597985   -0.010000053308041768
-0.8003737965246848   -0.01976717207725867   0.019170964179010527
-0.8003737965246848   -0.01976717207725867   0.019170964179010527
-0.8003737965246848   -0.01976717207725867   0.019170964179010527
-0.8003737965246848   -0.01976717207725867   0.019170964179010527
-0.5396647094560701   0.012071278164505095   -0.006454994384256799
-0.5396647094560701   0.012071278164505095   -0.006454994384256799
-0.5396647094560701   0.012071278164505095   -0.006454994384256799
-0.5396647094560701   0.012071278164505095   -0.006454994384256799
-0.6430469702856914   0.003768908408792876   0.009358645084454664
-0.6430469702856914   0.003768908408792876   0.009358645084454664
-0.6430469702856914   0.003768908408792876   0.009358645084454664
-0.6430469702856914   0.003768908408792876   0.009358645084454664
-0.5290343134542667   0.0353501537157275   0.023418110073538605
-0.5290343134542667   0.0353501537157275   0.023418110073538605
-0.5290343134542667   0.0353501537157275   0.023418110073538605
-0.5290343134542667   0.0353501537157275   0.023418110073538605
-0.8104504379043477   -0.04249229300634039   -0.008487121790206761
-0.8104504379043477   -0.04249229300634039   -0.008487121790206761
-0.8104504379043477   -0.04249229300634039   -0.008487121790206761
-0.8104504379043477   -0.04249229300634039   -0.008487121790206761
-0.8258076423426253   -0.03554011197980633   0.018974081554192723
-0.8258076423426253   -0.03554011197980633   0.018974081554192723
-0.8258076423426253   -0.03554011197980633   0.018974081554192723
-0.8258076423426253   -0.03554011197980633   0.018974081554192723
-0.55512551166079   -0.0001927709224128632   -0.006081225632306158
-0.55512551166079   -0.0001927709224128632   -0.006081225632306158
-0.55512551166079   -0.0001927709224128632   -0.006081225632306158
-0.55512551166079   -0.0001927709224128632   -0.006081225632306158
-0.6502452578365612   -0.0018064384558746927   0.007800676521207618
-0.6502452578365612   -0.0018064384558746927   0.007800676521207618
-0.6502452578365612   -0.0018064384558746927   0.007800676521207618
-0.6502452578365612   -0.0018064384558746927   0.007800676521207618
0.4434845700357558   0.024873494552205735   -0.020646693316251984
0.4434845700357558   0.024873494552205735   -0.020646693316251984
0.4434845700357558   0.024873494552205735   -0.020646693316251984
0.4434845700357558   0.024873494552205735   -0.020646693316251984
0.210356990422331   0.0037270858014065156   0.007754579899752204
0.210356990422331   0.0037270858014065156   0.007754579899752204
0.210356990422331   0.0037270858014065156   0.007754579899752204
0.210356990422331   0.0037270858014065156   0.007754579899752204
0.18747647240746043   -0.03554531545417515   -0.019679827969503638
0.18747647240746043   -0.03554531545417515   -0.019679827969503638
0.18747647240746043   -0.03554531545417515   -0.019679827969503638
0.18747647240746043   -0.03554531545417515   -0.019679827969503638
0.434178784448335   0.040497392679523576   0.009606357215905867
0.434178784448335   0.040497392679523576   0.009606357215905867
0.434178784448335   0.040497392679523576   0.009606357215905867
0.434178784448335   0.040497392679523576   0.009606357215905867
0.3024055449525857   0.004069775925502957   -0.00895566950800023
0.3024055449525857   0.004069775925502957   -0.00895566950800023
0.3024055449525857   0.004069775925502957   -0.00895566950800023
0.3024055449525857   0.004069775925502957   -0.00895566950800023
0.4225436335890697   0.011491401246556676   -0.019563405647453774
0.4225436335890697   0.011491401246556676   -0.019563405647453774
0.4225436335890697   0.011491401246556676   -0.019563405647453774
0.4225436335890697   0.011491401246556676   -0.019563405647453774
0.19888623946290127   -0.006764707825033044   0.008588399678556529
0.19888623946290127   -0.006764707825033044   0.008588399678556529
0.19888623946290127   -0.006764707825033044   0.008588399678556529
0.19888623946290127   -0.006764707825033044   0.008588399678556529
0.17681077671880555   -0.03896849578341123   -0.01682003868992635
0.17681077671880555   -0.03896849578341123   -0.01682003868992635
0.17681077671880555   -0.03896849578341123   -0.01682003868992635
0.17681077671880555   -0.03896849578341123   -0.01682003868992635
0.4175883326607723   0.03558781514910653   0.0127007212637196
0.4175883326607723   0.03558781514910653   0.0127007212637196
0.4175883326607723   0.03558781514910653   0.0127007212637196
0.4175883326607723   0.03558781514910653   0.0127007212637196
0.29302159957732216   -0.0019098464570780072   -0.012434073906453784
0.29302159957732216   -0.0019098464570780072   -0.012434073906453784
0.29302159957732216   -0.0019098464570780072   -0.012434073906453784
0.29302159957732216   -0.0019098464570780072   -0.012434073906453784
0.4062118241245642   0.007130766818403023   -0.015724773086613717
0.4062118241245642   0.007130766818403023   -0.015724773086613717
0.4062118241245642   0.007130766818403023   -0.015724773086613717
0.4062118241245642   0.007130766818403023   -0.015724773086613717
0.1878929442835171   -0.010805788424203891   0.010428091774422728
0.1878929442835171   -0.010805788424203891   0.010428091774422728
0.1878929442835171   -0.010805788424203891   0.010428091774422728
0.1878929442835171   -0.010805788424203891   0.010428091774422728
0.16722098923973758   -0.04093271159666523   -0.014015309437035911
0.16722098923973758   -0.04093271159666523   -0.014015309437035911
0.16722098923973758   -0.04093271159666523   -0.014015309437035911
0.16722098923973758   -0.04093271159666523   -0.014015309437035911
0.3988593173184778   0.03037715151487272   0.015144022146495087
0.3988593173184778   0.03037715151487272   0.015144022146495087
0.3988593173184778   0.03037715151487272   0.015144022146495087
0.3988593173184778   0.03037715151487272   0.015144022146495087
0.27397114274614914   -0.0063775484772154376   -0.017667519425408635
0.27397114274614914   -0.0063775484772154376   -0.017667519425408635
0.27397114274614914   -0.0063775484772154376   -0.017667519425408635
0.27397114274614914   -0.0063775484772154376   -0.017667519425408635
0.2140837563588539   0.031137336226805715   -0.0010218408430285732
0.2140837563588539   0.031137336226805715   -0.0010218408430285732
0.2140837563588539   0.031137336226805715   -0.0010218408430285732
0.2140837563588539   0.031137336226805715   -0.0010218408430285732
-0.01451734486883232   -0.0033918087164613656   -0.00024989721748934366
-0.01451734486883232   -0.0033918087164613656   -0.00024989721748934366
-0.01451734486883232   -0.0033918087164613656   -0.00024989721748934366
-0.01451734486883232   -0.0033918087164613656   -0.00024989721748934366
-0.030639383480586493   -0.026756751444955797   -0.012587041339233183
-0.030639383480586493   -0.026756751444955797   -0.012587041339233183
-0.030639383480586493   -0.026756751444955797   -0.012587041339233183
-0.030639383480586493   -0.026756751444955797   -0.012587041339233183
0.20870894491001551   0.0368813878767392   0.014055831212355645
0.20870894491001551   0.0368813878767392   0.014055831212355645
0.20870894491001551   0.0368813878767392   0.014055831212355645
0.20870894491001551   0.0368813878767392   0.014055831212355645
0.09294682878671899   0.00903576363222585   0.000699839239760019
0.09294682878671899   0.00903576363222585   0.000699839239760019
0.09294682878671899   0.00903576363222585   0.000699839239760019
0.09294682878671899   0.00903576363222585   0.000699839239760019
0.20321834528077423   0.02269087230311762   0.0007933486397731547
0.20321834528077423   0.02269087230311762   0.0007933486397731547
0.20321834528077423   0.02269087230311762   0.0007933486397731547
0.20321834528077423   0.02269087230311762   0.0007933486397731547
-0.025057408735159614   -0.012474860755148233   0.0010409416980936416
-0.025057408735159614   -0.012474860755148233   0.0010409416980936416
-0.025057408735159614   -0.012474860755148233   0.0010409416980936416
-0.025057408735159614   -0.012474860755148233   0.0010409416980936416
-0.04068058289783244   -0.0332192040427988   -0.010439442490937024
-0.04068058289783244   -0.0332192040427988   -0.010439442490937024
-0.04068058289783244   -0.0332192040427988   -0.010439442490937024
-0.04068058289783244   -0.0332192040427988   -0.010439442490937024
0.19686257752421168   0.029111550581555404   0.015358918972136305
0.19686257752421168   0.029111550581555404   0.015358918972136305
0.19686257752421168   0.029111550581555404   0.015358918972136305
0.19686257752421168   0.029111550581555404   0.015358918972136305
0.08052370694056434   0.0013363845722997522   -0.00316018573232117
0.08052370694056434   0.0013363845722997522   -0.00316018573232117
0.08052370694056434   0.0013363845722997522   -0.00316018573232117
0.08052370694056434   0.0013363845722997522   -0.00316018573232117
0.1915571584786667   0.015754089663237592   0.0021892846627304717
0.1915571584786667   0.015754089663237592   0.0021892846627304717
0.1915571584786667   0.015754089663237592   0.0021892846627304717
0.1915571584786667   0.015754089663237592   0.0021892846627304717
-0.03545784521620054   -0.019944424488391316   0.0023994663628149624
-0.03545784521620054   -0.019944424488391316   0.0023994663628149624
-0.03545784521620054   -0.019944424488391316   0.0023994663628149624
-0.03545784521620054   -0.019944424488391316   0.0023994663628149624
-0.05058352462311524   -0.038593547723369134   -0.008422818835259208
-0.05058352462311524   -0.038593547723369134   -0.008422818835259208
-0.05058352462311524   -0.038593547723369134   -0.008422818835259208
-0.05058352462311524   -0.038593547723369134   -0.008422818835259208
0.18592423197219576   0.02197723802632464   0.01659095460226416
0.18592423197219576   0.02197723802632464   0.01659095460226416
0.18592423197219576   0.02197723802632464   0.01659095460226416
0.18592423197219576   0.02197723802632464   0.01659095460226416
0.07106968752797385   -0.004433678919734299   -0.0063538287682905654
0.07106968752797385   -0.004433678919734299   -0.0063538287682905654
0.07106968752797385   -0.004433678919734299   -0.0063538287682905654
0.07106968752797385   -0.004433678919734299   -0.0063538287682905654
-0.005406798001749414   0.0367501686299495   0.005160859771515291
-0.005406798001749414   0.0367501686299495   0.005160859771515291
-0.005406798001749414   0.0367501686299495   0.005160859771515291
-0.005406798001749414   0.0367501686299495   0.005160859771515291
-0.23463738410738652   -0.0105150519288396   -0.0077783041672393385
-0.23463738410738652   -0.0105150519288396   -0.0077783041672393385
-0.23463738410738652   -0.0105150519288396   -0.0077783041672393385
-0.23463738410738652   -0.0105150519288396   -0.0077783041672393385
-0.24502164775718585   -0.01889453222422678   -0.006102304040409517
-0.24502164775718585   -0.01889453222422678   -0.006102304040409517
-0.24502164775718585   -0.01889453222422678   -0.006102304040409517
-0.24502164775718585   -0.01889453222422678   -0.006102304040409517
-0.015581380207277515   0.02977547177020167   0.0061707518121542244
-0.015581380207277515   0.02977547177020167   0.0061707518121542244
-0.015581380207277515   0.02977547177020167   0.0061707518121542244
-0.015581380207277515   0.02977547177020167   0.0061707518121542244
-0.12486291433335939   0.009325711803545404   0.002442371952899633
-0.12486291433335939   0.009325711803545404   0.002442371952899633
-0.12486291433335939   0.009325711803545404   0.002442371952899633
-0.12486291433335939   0.009325711803545404   0.002442371952899633
-0.015392146295142522   0.029691922920724964   0.007200470222305906
-0.015392146295142522   0.029691922920724964   0.007200470222305906
-0.015392146295142522   0.029691922920724964   0.007200470222305906
-0.015392146295142522   0.029691922920724964   0.007200470222305906
-0.24501989843963637   -0.018620000145065624   -0.00636808953182341
-0.24501989843963637   -0.018620000145065624   -0.00636808953182341
-0.24501989843963637   -0.018620000145065624   -0.00636808953182341
-0.24501989843963637   -0.018620000145065624   -0.00636808953182341
-0.25530872802566845   -0.025886673629555653   -0.004235520689096372
-0.25530872802566845   -0.025886673629555653   -0.004235520689096372
-0.25530872802566845   -0.025886673629555653   -0.004235520689096372
-0.25530872802566845   -0.025886673629555653   -0.004235520689096372
-0.026055178597977197   0.021776679240817165   0.0076916957247232035
-0.026055178597977197   0.021776679240817165   0.0076916957247232035
-0.026055178597977197   0.021776679240817165   0.0076916957247232035
-0.026055178597977197   0.021776679240817165   0.0076916957247232035
-0.1352561832620987   0.002400117639553969   -0.0006776308522145197
-0.1352561832620987   0.002400117639553969   -0.0006776308522145197
-0.1352561832620987   0.002400117639553969   -0.0006776308522145197
-0.1352561832620987   0.002400117639553969   -0.0006776308522145197
-0.02565573406025175   0.02265345736015041   0.008812140294017206
-0.02565573406025175   0.02265345736015041   0.008812140294017206
-0.02565573406025175   0.02265345736015041   0.008812140294017206
-0.02565573406025175   0.02265345736015041   0.008812140294017206
-0.2556572019035399   -0.0267124810890349   -0.005152082618974405
-0.2556572019035399   -0.0267124810890349   -0.005152082618974405
-0.2556572019035399   -0.0267124810890349   -0.005152082618974405
-0.2556572019035399   -0.0267124810890349   -0.005152082618974405
-0.2654662796722988   -0.03226915722319782   -0.0023829832903093807
-0.2654662796722988   -0.03226915722319782   -0.0023829832903093807
-0.2654662796722988   -0.03226915722319782   -0.0023829832903093807
-0.2654662796722988   -0.03226915722319782   -0.0023829832903093807
-0.036577583718868545   0.014040778668871129   0.008972559293734044
-0.036577583718868545   0.014040778668871129   0.008972559293734044
-0.036577583718868545   0.014040778668871129   0.008972559293734044
-0.036577583718868545   0.014040778668871129   0.008972559293734044
-0.14613181272591952   -0.004580131380765563   -0.004157059361305307
-0.14613181272591952   -0.004580131380765563   -0.004157059361305307
-0.14613181272591952   -0.004580131380765563   -0.004157059361305307
-0.14613181272591952   -0.004580131380765563   -0.004157059361305307
-0.2203880174897556   0.041958457111793544   0.010995019880280399
-0.2203880174897556   0.041958457111793544   0.010995019880280399
-0.2203880174897556   0.041958457111793544   0.010995019880280399
-0.2203880174897556   0.041958457111793544   0.010995019880280399
-0.45010907502822967   -0.01781880505948301   -0.013945501721514007
-0.45010907502822967   -0.01781880505948301   -0.013945501721514007
-0.45010907502822967   -0.01781880505948301   -0.013945501721514007
-0.45010907502822967   -0.01781880505948301   -0.013945501721514007
-0.4557673336833522   -0.012300150752464836   0.0009574440072844838
-0.4557673336833522   -0.012300150752464836   0.0009574440072844838
-0.4557673336833522   -0.012300150752464836   0.0009574440072844838
-0.4557673336833522   -0.012300150752464836   0.0009574440072844838
-0.2360692504538004   0.021439014419205878   -0.0016738641669130153
-0.2360692504538004   0.021439014419205878   -0.0016738641669130153
-0.2360692504538004   0.021439014419205878   -0.0016738641669130153
-0.2360692504538004   0.021439014419205878   -0.0016738641669130153
-0.3383511987840277   0.008729048353935398   0.004131463866362095
-0.3383511987840277   0.008729048353935398   0.004131463866362095
-0.3383511987840277   0.008729048353935398   0.004131463866362095
-0.3383511987840277   0.008729048353935398   0.004131463866362095
-0.23039548199787144   0.035174607741301246   0.012959384790634219
-0.23039548199787144   0.035174607741301246   0.012959384790634219
-0.23039548199787144   0.035174607741301246   0.012959384790634219
-0.23039548199787144   0.035174607741301246   0.012959384790634219
-0.4613983429287613   -0.02599298486404078   -0.013504768108185364
-0.4613983429287613   -0.02599298486404078   -0.013504768108185364
-0.4613983429287613   -0.02599298486404078   -0.013504768108185364
-0.4613983429287613   -0.02599298486404078   -0.013504768108185364
-0.4677522116902201   -0.019372575006542034   0.0016387345347038083
-0.4677522116902201   -0.019372575006542034   0.0016387345347038083
-0.4677522116902201   -0.019372575006542034   0.0016387345347038083
-0.4677522116902201   -0.019372575006542034   0.0016387345347038083
-0.24650577367204893   0.014028201665616927   -0.00013562421616922227
-0.24650577367204893   0.014028201665616927   -0.00013562421616922227
-0.24650577367204893   0.014028201665616927   -0.00013562421616922227
-0.24650577367204893   0.014028201665616927   -0.00013562421616922227
-0.34707402079907457   0.002588494800622579   0.0012357553316250276
-0.34707402079907457   0.002588494800622579   0.0012357553316250276
-0.34707402079907457   0.002588494800622579   0.0012357553316250276
-0.34707402079907457   0.002588494800622579   0.0012357553316250276
-0.24058970337066696   0.02868897128474908   0.014783957671606365
-0.24058970337066696   0.02868897128474908   0.014783957671606365
-0.24058970337066696   0.02868897128474908   0.014783957671606365
-0.24058970337066696   0.02868897128474908   0.014783957671606365
-0.4733678134456724   -0.03373287607974498   -0.01207897316935528
-0.4733678134456724   -0.03373287607974498   -0.01207897316935528
-0.4733678134456724   -0.03373287607974498   -0.01207897316935528
-0.4733678134456724   -0.03373287607974498   -0.01207897316935528
-0.47860386365066254   -0.027011970615388403   0.003859264031124042
-0.47860386365066254   -0.027011970615388403   0.003859264031124042
-0.47860386365066254   -0.027011970615388403   0.003859264031124042
-0.47860386365066254   -0.027011970615388403   0.003859264031124042
-0.2572378084608877   0.005513269380155894   0.0009769461633942003
-0.2572378084608877   0.005513269380155894   0.0009769461633942003
-0.2572378084608877   0.005513269380155894   0.0009769461633942003
-0.2572378084608877   0.005513269380155894   0.0009769461633942003
-0.3605351179845906   -0.005190936413657518   -0.0024715069656616427
-0.3605351179845906   -0.005190936413657518   -0.0024715069656616427
-0.3605351179845906   -0.005190936413657518   -0.0024715069656616427
-0.3605351179845906   -0.005190936413657518   -0.0024715069656616427
-0.4331348125413377   0.03763585605606906   0.015471149597393985
-0.4331348125413377   0.03763585605606906   0.015471149597393985
-0.4331348125413377   0.03763585605606906   0.015471149597393985
-0.4331348125413377   0.03763585605606906   0.015471149597393985
-0.655796876543406   -0.03036014837798283   -0.015150474137425134
-0.655796876543406   -0.03036014837798283   -0.015150474137425134
-0.655796876543406   -0.03036014837798283   -0.015150474137425134
-0.655796876543406   -0.03036014837798283   -0.015150474137425134
-0.6628294111144236   -0.00712089333811311   0.014210819031147959
-0.6628294111144236   -0.00712089333811311   0.014210819031147959
-0.6628294111144236   -0.00712089333811311   0.014210819031147959
-0.6628294111144236   -0.00712089333811311   0.014210819031147959
-0.4530290019163225   0.01109556514766985   -0.008746613057701805
-0.4530290019163225   0.01109556514766985   -0.008746613057701805
-0.4530290019163225   0.01109556514766985   -0.008746613057701805
-0.4530290019163225   0.01109556514766985   -0.008746613057701805
-0.5267616161358819   0.008306144017998784   0.013014011253238061
-0.5267616161358819   0.008306144017998784   0.013014011253238061
-0.5267616161358819   0.008306144017998784   0.013014011253238061
-0.5267616161358819   0.008306144017998784   0.013014011253238061
-0.4423135145512953   0.037771166626085845   0.01815522228901434
-0.4423135145512953   0.037771166626085845   0.01815522228901434
-0.4423135145512953   0.037771166626085845   0.01815522228901434
-0.4423135145512953   0.037771166626085845   0.01815522228901434
-0.6733738366946598   -0.03362543303173744   -0.012006769176400856
-0.6733738366946598   -0.03362543303173744   -0.012006769176400856
-0.6733738366946598   -0.03362543303173744   -0.012006769176400856
-0.6733738366946598   -0.03362543303173744   -0.012006769176400856
-0.6785422804988065   -0.010860609859926651   0.01776313653632071
-0.6785422804988065   -0.010860609859926651   0.01776313653632071
-0.6785422804988065   -0.010860609859926651   0.01776313653632071
-0.6785422804988065   -0.010860609859926651   0.01776313653632071
-0.4642941653185587   0.00703477249983743   -0.007478381113369206
-0.4642941653185587   0.00703477249983743   -0.007478381113369206
-0.4642941653185587   0.00703477249983743   -0.007478381113369206
-0.4642941653185587   0.00703477249983743   -0.007478381113369206
-0.5489597382440072   0.004151654835275881   0.008051400207693633
-0.5489597382440072   0.004151654835275881   0.008051400207693633
-0.5489597382440072   0.004151654835275881   0.008051400207693633
-0.5489597382440072   0.004151654835275881   0.008051400207693633
-0.4529289234906958   0.03498829528298994   0.021394305242793052
-0.4529289234906958   0.03498829528298994   0.021394305242793052
-0.4529289234906958   0.03498829528298994   0.021394305242793052
-0.4529289234906958   0.03498829528298994   0.021394305242793052
-0.6896145497619237   -0.03852116007833474   -0.00993765956084965
-0.6896145497619237   -0.03852116007833474   -0.00993765956084965
-0.6896145497619237   -0.03852116007833474   -0.00993765956084965
-0.6896145497619237   -0.03852116007833474   -0.00993765956084965
-0.6992870798538275   -0.02433337265658657   0.01737733388984745
-0.6992870798538275   -0.02433337265658657   0.01737733388984745
-0.6992870798538275   -0.02433337265658657   0.01737733388984745
-0.6992870798538275   -0.02433337265658657   0.01737733388984745
-0.47621341957832575   -0.004415805868869499   -0.006784680353710833
-0.47621341957832575   -0.004415805868869499   -0.006784680353710833
-0.47621341957832575   -0.004415805868869499   -0.006784680353710833
-0.47621341957832575   -0.004415805868869499   -0.006784680353710833
-0.554356933686076   -0.001077500789482988   0.006453480610875084
-0.554356933686076   -0.001077500789482988   0.006453480610875084
-0.554356933686076   -0.001077500789482988   0.006453480610875084
-0.554356933686076   -0.001077500789482988   0.006453480610875084
0.3078654752244196   0.017631989738455665   -0.020229385217090615
0.3078654752244196   0.017631989738455665   -0.020229385217090615
0.3078654752244196   0.017631989738455665   -0.020229385217090615
0.3078654752244196   0.017631989738455665   -0.020229385217090615
0.131473803524342   0.007909282338792102   0.008581751298668078
0.131473803524342   0.007909282338792102   0.008581751298668078
0.131473803524342   0.007909282338792102   0.008581751298668078
0.131473803524342   0.007909282338792102   0.008581751298668078
0.11069955754933186   -0.029900196781754186   -0.018902363191479768
0.11069955754933186   -0.029900196781754186   -0.018902363191479768
0.11069955754933186   -0.029900196781754186   -0.018902363191479768
0.11069955754933186   -0.029900196781754186   -0.018902363191479768
0.30092057874790884   0.034634827118327674   0.010438670438187147
0.30092057874790884   0.034634827118327674   0.010438670438187147
0.30092057874790884   0.034634827118327674   0.010438670438187147
0.30092057874790884   0.034634827118327674   0.010438670438187147
0.20148481043960942   0.004440239768151784   -0.005495636197473846
0.20148481043960942   0.004440239768151784   -0.005495636197473846
0.20148481043960942   0.004440239768151784   -0.005495636197473846
0.20148481043960942   0.004440239768151784   -0.005495636197473846
0.28928593694301175   0.005814674534733284   -0.018914386002706965
0.28928593694301175   0.005814674534733284   -0.018914386002706965
0.28928593694301175   0.005814674534733284   -0.018914386002706965
0.28928593694301175   0.005814674534733284   -0.018914386002706965
0.12211478379519745   -0.0012994597571940117   0.009573031013290146
0.12211478379519745   -0.0012994597571940117   0.009573031013290146
0.12211478379519745   -0.0012994597571940117   0.009573031013290146
0.12211478379519745   -0.0012994597571940117   0.009573031013290146
0.10187839989271566   -0.0333191260326495   -0.01612405187700388
0.10187839989271566   -0.0333191260326495   -0.01612405187700388
0.10187839989271566   -0.0333191260326495   -0.01612405187700388
0.10187839989271566   -0.0333191260326495   -0.01612405187700388
0.2863895586680853   0.0297778409843871   0.013511727011093693
0.2863895586680853   0.0297778409843871   0.013511727011093693
0.2863895586680853   0.0297778409843871   0.013511727011093693
0.2863895586680853   0.0297778409843871   0.013511727011093693
0.19248988931129773   -0.0012306882606313435   -0.008823754035148311
0.19248988931129773   -0.0012306882606313435   -0.008823754035148311
0.19248988931129773   -0.0012306882606313435   -0.008823754035148311
0.19248988931129773   -0.0012306882606313435   -0.008823754035148311
0.2749314758388866   0.001430108584902015   -0.015430954735417293
0.2749314758388866   0.001430108584902015   -0.015430954735417293
0.2749314758388866   0.001430108584902015   -0.015430954735417293
0.2749314758388866   0.001430108584902015   -0.015430954735417293
0.11300656223525495   -0.005301314119824086   0.011498947922868149
0.11300656223525495   -0.005301314119824086   0.011498947922868149
0.11300656223525495   -0.005301314119824086   0.011498947922868149
0.11300656223525495   -0.005301314119824086   0.011498947922868149
0.09401093274975011   -0.03631120874757274   -0.013449394597004439
0.09401093274975011   -0.03631120874757274   -0.013449394597004439
0.09401093274975011   -0.03631120874757274   -0.013449394597004439
0.09401093274975011   -0.03631120874757274   -0.013449394597004439
0.2693951789302954   0.023470896134447007   0.01546825978290168
0.2693951789302954   0.023470896134447007   0.01546825978290168
0.2693951789302954   0.023470896134447007   0.01546825978290168
0.2693951789302954   0.023470896134447007   0.01546825978290168
0.17690669276098003   -0.0058391966494520595   -0.01345595189896357
0.17690669276098003   -0.0058391966494520595   -0.01345595189896357
0.17690669276098003   -0.0058391966494520595   -0.01345595189896357
0.17690669276098003   -0.0058391966494520595   -0.01345595189896357
0.13255605320644695   0.025377755626407473   -0.0034754735784244145
0.13255605320644695   0.025377755626407473   -0.0034754735784244145
0.13255605320644695   0.025377755626407473   -0.0034754735784244145
0.13255605320644695   0.025377755626407473   -0.0034754735784244145
-0.04008804912488817   0.0018832326567633038   0.0010598833098573097
-0.04008804912488817   0.0018832326567633038   0.0010598833098573097
-0.04008804912488817   0.0018832326567633038   0.0010598833098573097
-0.04008804912488817   0.0018832326567633038   0.0010598833098573097
-0.05429225965402306   -0.02087012808831947   -0.011700544048899112
-0.05429225965402306   -0.02087012808831947   -0.011700544048899112
-0.05429225965402306   -0.02087012808831947   -0.011700544048899112
-0.05429225965402306   -0.02087012808831947   -0.011700544048899112
0.1290712702702048   0.030447179542542245   0.012608824088590665
0.1290712702702048   0.030447179542542245   0.012608824088590665
0.1290712702702048   0.030447179542542245   0.012608824088590665
0.1290712702702048   0.030447179542542245   0.012608824088590665
0.04090028496403618   0.008756403257961932   0.0015840451003178641
0.04090028496403618   0.008756403257961932   0.0015840451003178641
0.04090028496403618   0.008756403257961932   0.0015840451003178641
0.04090028496403618   0.008756403257961932   0.0015840451003178641
0.12342577893865694   0.016649414862231537   -0.0018208678888394169
0.12342577893865694   0.016649414862231537   -0.0018208678888394169
0.12342577893865694   0.016649414862231537   -0.0018208678888394169
0.12342577893865694   0.016649414862231537   -0.0018208678888394169
-0.048735518361137854   -0.007161113446666397   0.0023741477738747695
-0.048735518361137854   -0.007161113446666397   0.0023741477738747695
-0.048735518361137854   -0.007161113446666397   0.0023741477738747695
-0.048735518361137854   -0.007161113446666397   0.0023741477738747695
-0.062490368793078954   -0.027730164696689694   -0.009496711101798519
-0.062490368793078954   -0.027730164696689694   -0.009496711101798519
-0.062490368793078954   -0.027730164696689694   -0.009496711101798519
-0.062490368793078954   -0.027730164696689694   -0.009496711101798519
0.1190074251687997   0.022492081026098697   0.01370986744466914
0.1190074251687997   0.022492081026098697   0.01370986744466914
0.1190074251687997   0.022492081026098697   0.01370986744466914
0.1190074251687997   0.022492081026098697   0.01370986744466914
0.03075260609934974   0.0009451441462763723   -0.002167492564552608
0.03075260609934974   0.0009451441462763723   -0.002167492564552608
0.03075260609934974   0.0009451441462763723   -0.002167492564552608
0.03075260609934974   0.0009451441462763723   -0.002167492564552608
0.11354057049539783   0.009290750335097225   -0.00042307523134071153
0.11354057049539783   0.009290750335097225   -0.00042307523134071153
0.11354057049539783   0.009290750335097225   -0.00042307523134071153
0.11354057049539783   0.009290750335097225   -0.00042307523134071153
-0.05724186693109931   -0.014747186817108064   0.003762820328519022
-0.05724186693109931   -0.014747186817108064   0.003762820328519022
-0.05724186693109931   -0.014747186817108064   0.003762820328519022
-0.05724186693109931   -0.014747186817108064   0.003762820328519022
-0.07057439389109457   -0.03413298933508681   -0.007461556341502751
-0.07057439389109457   -0.03413298933508681   -0.007461556341502751
-0.07057439389109457   -0.03413298933508681   -0.007461556341502751
-0.07057439389109457   -0.03413298933508681   -0.007461556341502751
0.10992614105290226   0.014893593050686018   0.01492184512049963
0.10992614105290226   0.014893593050686018   0.01492184512049963
0.10992614105290226   0.014893593050686018   0.01492184512049963
0.10992614105290226   0.014893593050686018   0.01492184512049963
0.022663207029752254   -0.005480834224613219   -0.005463603113211973
0.022663207029752254   -0.005480834224613219   -0.005463603113211973
0.022663207029752254   -0.005480834224613219   -0.005463603113211973
0.022663207029752254   -0.005480834224613219   -0.005463603113211973
-0.033724075013109506   0.03181322335713872   0.0029497631683752367
-0.033724075013109506   0.03181322335713872   0.0029497631683752367
-0.033724075013109506   0.03181322335713872   0.0029497631683752367
-0.033724075013109506   0.03181322335713872   0.0029497631683752367
-0.20904843644738932   -0.005594234019911631   -0.006390417257028507
-0.20904843644738932   -0.005594234019911631   -0.006390417257028507
-0.20904843644738932   -0.005594234019911631   -0.006390417257028507
-0.20904843644738932   -0.005594234019911631   -0.006390417257028507
-0.21715958852920897   -0.012719028322690298   -0.004723540330374162
-0.21715958852920897   -0.012719028322690298   -0.004723540330374162
-0.21715958852920897   -0.012719028322690298   -0.004723540330374162
-0.21715958852920897   -0.012719028322690298   -0.004723540330374162
-0.04215598758042272   0.02320086595282112   0.004909822277961962
-0.04215598758042272   0.02320086595282112   0.004909822277961962
-0.04215598758042272   0.02320086595282112   0.004909822277961962
-0.04215598758042272   0.02320086595282112   0.004909822277961962
-0.1252114996417136   0.009018263788171062   0.0025029166887252877
-0.1252114996417136   0.009018263788171062   0.0025029166887252877
-0.1252114996417136   0.009018263788171062   0.0025029166887252877
-0.1252114996417136   0.009018263788171062   0.0025029166887252877
-0.04191875218359413   0.0242776833795747   0.005019181835351324
-0.04191875218359413   0.0242776833795747   0.005019181835351324
-0.04191875218359413   0.0242776833795747   0.005019181835351324
-0.04191875218359413   0.0242776833795747   0.005019181835351324
-0.21742632493260167   -0.01382534675601308   -0.004950903914014773
-0.21742632493260167   -0.01382534675601308   -0.004950903914014773
-0.21742632493260167   -0.01382534675601308   -0.004950903914014773
-0.21742632493260167   -0.01382534675601308   -0.004950903914014773
-0.2254463820845477   -0.02019351859145839   -0.002768089950084044
-0.2254463820845477   -0.02019351859145839   -0.002768089950084044
-0.2254463820845477   -0.02019351859145839   -0.002768089950084044
-0.2254463820845477   -0.02019351859145839   -0.002768089950084044
-0.050761110494771895   0.015015136380471635   0.00640427931257547
-0.050761110494771895   0.015015136380471635   0.00640427931257547
-0.050761110494771895   0.015015136380471635   0.00640427931257547
-0.050761110494771895   0.015015136380471635   0.00640427931257547
-0.13372927720826272   0.00172253268269712   -0.0007128868574918096
-0.13372927720826272   0.00172253268269712   -0.0007128868574918096
-0.13372927720826272   0.00172253268269712   -0.0007128868574918096
-0.13372927720826272   0.00172253268269712   -0.0007128868574918096
-0.0503474106706457   0.016731230536728856   0.006756684276950156
-0.0503474106706457   0.016731230536728856   0.006756684276950156
-0.0503474106706457   0.016731230536728856   0.006756684276950156
-0.0503474106706457   0.016731230536728856   0.006756684276950156
-0.2260015335899804   -0.02205106442902194   -0.003686301639683914
-0.2260015335899804   -0.02205106442902194   -0.003686301639683914
-0.2260015335899804   -0.02205106442902194   -0.003686301639683914
-0.2260015335899804   -0.02205106442902194   -0.003686301639683914
-0.23358568539430163   -0.02732751056752731   -0.0008607852128250416
-0.23358568539430163   -0.02732751056752731   -0.0008607852128250416
-0.23358568539430163   -0.02732751056752731   -0.0008607852128250416
-0.23358568539430163   -0.02732751056752731   -0.0008607852128250416
-0.05930006311517475   0.007063741456569933   0.007713366746439626
-0.05930006311517475   0.007063741456569933   0.007713366746439626
-0.05930006311517475   0.007063741456569933   0.007713366746439626
-0.05930006311517475   0.007063741456569933   0.007713366746439626
-0.142604874007714   -0.0055784773958833835   -0.004202821259449521
-0.142604874007714   -0.0055784773958833835   -0.004202821259449521
-0.142604874007714   -0.0055784773958833835   -0.004202821259449521
-0.142604874007714   -0.0055784773958833835   -0.004202821259449521
-0.1973227031770927   0.037380310558296465   0.009263704516246446
-0.1973227031770927   0.037380310558296465   0.009263704516246446
-0.1973227031770927   0.037380310558296465   0.009263704516246446
-0.1973227031770927   0.037380310558296465   0.009263704516246446
-0.3753139404620141   -0.013069546935596865   -0.012911284722954615
-0.3753139404620141   -0.013069546935596865   -0.012911284722954615
-0.3753139404620141   -0.013069546935596865   -0.012911284722954615
-0.3753139404620141   -0.013069546935596865   -0.012911284722954615
-0.3783405173720393   -0.006131324965349086   0.0027457058285510483
-0.3783405173720393   -0.006131324965349086   0.0027457058285510483
-0.3783405173720393   -0.006131324965349086   0.0027457058285510483
-0.3783405173720393   -0.006131324965349086   0.0027457058285510483
-0.21117401304868327   0.015151662102387685   -0.0026663533528274337
-0.21117401304868327   0.015151662102387685   -0.0026663533528274337
-0.21117401304868327   0.015151662102387685   -0.0026663533528274337
-0.21117401304868327   0.015151662102387685   -0.0026663533528274337
-0.288787499989456   0.008405700125986085   0.003614319968149586
-0.288787499989456   0.008405700125986085   0.003614319968149586
-0.288787499989456   0.008405700125986085   0.003614319968149586
-0.288787499989456   0.008405700125986085   0.003614319968149586
-0.20537132546275433   0.030177601322202097   0.011321145357006731
-0.20537132546275433   0.030177601322202097   0.011321145357006731
-0.20537132546275433   0.030177601322202097   0.011321145357006731
-0.20537132546275433   0.030177601322202097   0.011321145357006731
-0.3844066880526348   -0.021420747279829747   -0.012295725259947692
-0.3844066880526348   -0.021420747279829747   -0.012295725259947692
-0.3844066880526348   -0.021420747279829747   -0.012295725259947692
-0.3844066880526348   -0.021420747279829747   -0.012295725259947692
-0.38812035626277697   -0.01353927580180303   0.003641571037459053
-0.38812035626277697   -0.01353927580180303   0.003641571037459053
-0.38812035626277697   -0.01353927580180303   0.003641571037459053
-0.38812035626277697   -0.01353927580180303   0.003641571037459053
-0.2195519308512469   0.007601336142915978   -0.0010906885179581948
-0.2195519308512469   0.007601336142915978   -0.0010906885179581948
-0.2195519308512469   0.007601336142915978   -0.0010906885179581948
-0.2195519308512469   0.007601336142915978   -0.0010906885179581948
-0.29591019816517616   0.0018175117457963214   0.00039787308656850234
-0.29591019816517616   0.0018175117457963214   0.00039787308656850234
-0.29591019816517616   0.0018175117457963214   0.00039787308656850234
-0.29591019816517616   0.0018175117457963214   0.00039787308656850234
-0.2135383073005984   0.023303810715651102   0.013274954662551103
-0.2135383073005984   0.023303810715651102   0.013274954662551103
-0.2135383073005984   0.023303810715651102   0.013274954662551103
-0.2135383073005984   0.023303810715651102   0.013274954662551103
-0.39416226529292436   -0.029270035854037306   -0.010837214061047198
-0.39416226529292436   -0.029270035854037306   -0.010837214061047198
-0.39416226529292436   -0.029270035854037306   -0.010837214061047198
-0.39416226529292436   -0.029270035854037306   -0.010837214061047198
-0.3968089175877554   -0.021458818160688606   0.0056876175860394035
-0.3968089175877554   -0.021458818160688606   0.0056876175860394035
-0.3968089175877554   -0.021458818160688606   0.0056876175860394035
-0.3968089175877554   -0.021458818160688606   0.0056876175860394035
-0.22808010930750727   -0.0008071762074995936   0.0001467608611150882
-0.22808010930750727   -0.0008071762074995936   0.0001467608611150882
-0.22808010930750727   -0.0008071762074995936   0.0001467608611150882
-0.22808010930750727   -0.0008071762074995936   0.0001467608611150882
-0.3067369444889239   -0.0058925640012599464   -0.0033604051906908922
-0.3067369444889239   -0.0058925640012599464   -0.0033604051906908922
-0.3067369444889239   -0.0058925640012599464   -0.0033604051906908922
-0.3067369444889239   -0.0058925640012599464   -0.0033604051906908922
-0.36027825012972403   0.03467766311067948   0.014519956892219618
-0.36027825012972403   0.03467766311067948   0.014519956892219618
-0.36027825012972403   0.03467766311067948   0.014519956892219618
-0.36027825012972403   0.03467766311067948   0.014519956892219618
-0.5324623342569568   -0.02464189649373448   -0.016552259811048645
-0.5324623342569568   -0.02464189649373448   -0.016552259811048645
-0.5324623342569568   -0.02464189649373448   -0.016552259811048645
-0.5324623342569568   -0.02464189649373448   -0.016552259811048645
-0.5374194331016923   -0.0011601975339208537   0.014365004719729835
-0.5374194331016923   -0.0011601975339208537   0.014365004719729835
-0.5374194331016923   -0.0011601975339208537   0.014365004719729835
-0.5374194331016923   -0.0011601975339208537   0.014365004719729835
-0.3785507195304378   0.005423417683936518   -0.009860047612732865
-0.3785507195304378   0.005423417683936518   -0.009860047612732865
-0.3785507195304378   0.005423417683936518   -0.009860047612732865
-0.3785507195304378   0.005423417683936518   -0.009860047612732865
-0.4322311825621643   0.00788896258837056   0.01104492128775103
-0.4322311825621643   0.00788896258837056   0.01104492128775103
-0.4322311825621643   0.00788896258837056   0.01104492128775103
-0.4322311825621643   0.00788896258837056   0.01104492128775103
-0.3675637190516311   0.03336468235432831   0.017133690110914496
-0.3675637190516311   0.03336468235432831   0.017133690110914496
-0.3675637190516311   0.03336468235432831   0.017133690110914496
-0.3675637190516311   0.03336468235432831   0.017133690110914496
-0.5486346191459671   -0.029329647769777298   -0.013541475265787955
-0.5486346191459671   -0.029329647769777298   -0.013541475265787955
-0.5486346191459671   -0.029329647769777298   -0.013541475265787955
-0.5486346191459671   -0.029329647769777298   -0.013541475265787955
-0.5512691667858592   -0.005246563842302696   0.018089938643246022
-0.5512691667858592   -0.005246563842302696   0.018089938643246022
-0.5512691667858592   -0.005246563842302696   0.018089938643246022
-0.5512691667858592   -0.005246563842302696   0.018089938643246022
-0.38756083105990885   0.0012852713795210163   -0.00838535012953227
-0.38756083105990885   0.0012852713795210163   -0.00838535012953227
-0.38756083105990885   0.0012852713795210163   -0.00838535012953227
-0.38756083105990885   0.0012852713795210163   -0.00838535012953227
-0.4510975250835949   0.003209986001408663   0.005925123448230402
-0.4510975250835949   0.003209986001408663   0.005925123448230402
-0.4510975250835949   0.003209986001408663   0.005925123448230402
-0.4510975250835949   0.003209986001408663   0.005925123448230402
-0.3760646707549115   0.03021041015853114   0.020170312616452125
-0.3760646707549115   0.03021041015853114   0.020170312616452125
-0.3760646707549115   0.03021041015853114   0.020170312616452125
-0.3760646707549115   0.03021041015853114   0.020170312616452125
-0.5629286739415784   -0.03433504947203081   -0.011119111505621875
-0.5629286739415784   -0.03433504947203081   -0.011119111505621875
-0.5629286739415784   -0.03433504947203081   -0.011119111505621875
-0.5629286739415784   -0.03433504947203081   -0.011119111505621875
-0.5697960769845403   -0.01815557070553278   0.01809915286918743
-0.5697960769845403   -0.01815557070553278   0.01809915286918743
-0.5697960769845403   -0.01815557070553278   0.01809915286918743
-0.5697960769845403   -0.01815557070553278   0.01809915286918743
-0.3970046217991828   -0.009331702866918742   -0.00741801876487528
-0.3970046217991828   -0.009331702866918742   -0.00741801876487528
-0.3970046217991828   -0.009331702866918742   -0.00741801876487528
-0.3970046217991828   -0.009331702866918742   -0.00741801876487528
-0.4561746122955828   -0.002176955251820503   0.0035382934238891266
-0.4561746122955828   -0.002176955251820503   0.0035382934238891266
-0.4561746122955828   -0.002176955251820503   0.0035382934238891266
-0.4561746122955828   -0.002176955251820503   0.0035382934238891266
0.17302358048713698   0.01050973806676139   -0.01996574702428048
0.17302358048713698   0.01050973806676139   -0.01996574702428048
0.17302358048713698   0.01050973806676139   -0.01996574702428048
0.17302358048713698   0.01050973806676139   -0.01996574702428048
0.05141266229841132   0.011823157835056669   0.00945986020810359
0.05141266229841132   0.011823157835056669   0.00945986020810359
0.05141266229841132   0.011823157835056669   0.00945986020810359
0.05141266229841132   0.011823157835056669   0.00945986020810359
0.032881667110594204   -0.02458791227827155   -0.01763611490749431
0.032881667110594204   -0.02458791227827155   -0.01763611490749431
0.032881667110594204   -0.02458791227827155   -0.01763611490749431
0.032881667110594204   -0.02458791227827155   -0.01763611490749431
0.16850648345295918   0.02883817530673407   0.011377814508150114
0.16850648345295918   0.02883817530673407   0.011377814508150114
0.16850648345295918   0.02883817530673407   0.011377814508150114
0.16850648345295918   0.02883817530673407   0.011377814508150114
0.1002853372423129   0.004832904018712909   -0.002285113416847082
0.1002853372423129   0.004832904018712909   -0.002285113416847082
0.1002853372423129   0.004832904018712909   -0.002285113416847082
0.1002853372423129   0.004832904018712909   -0.002285113416847082
0.15680399064489944   5.3733804171004346e-05   -0.018350208029586788
0.15680399064489944   5.3733804171004346e-05   -0.018350208029586788
0.15680399064489944   5.3733804171004346e-05   -0.018350208029586788
0.15680399064489944   5.3733804171004346e-05   -0.018350208029586788
0.04421958569778693   0.0038319550034243734   0.010633610746773882
0.04421958569778693   0.0038319550034243734   0.010633610746773882
0.04421958569778693   0.0038319550034243734   0.010633610746773882
0.04421958569778693   0.0038319550034243734   0.010633610746773882
0.025898851704109434   -0.028025727605546388   -0.015015408974597834
0.025898851704109434   -0.028025727605546388   -0.015015408974597834
0.025898851704109434   -0.028025727605546388   -0.015015408974597834
0.025898851704109434   -0.028025727605546388   -0.015015408974597834
0.1559515376588549   0.02409935705939452   0.014668198110933506
0.1559515376588549   0.02409935705939452   0.014668198110933506
0.1559515376588549   0.02409935705939452   0.014668198110933506
0.1559515376588549   0.02409935705939452   0.014668198110933506
0.09162821847515967   -0.0005583913731422654   -0.00575102984620951
0.09162821847515967   -0.0005583913731422654   -0.00575102984620951
0.09162821847515967   -0.0005583913731422654   -0.00575102984620951
0.09162821847515967   -0.0005583913731422654   -0.00575102984620951
0.14430131531046164   -0.004365720336403433   -0.015117836235235268
0.14430131531046164   -0.004365720336403433   -0.015117836235235268
0.14430131531046164   -0.004365720336403433   -0.015117836235235268
0.14430131531046164   -0.004365720336403433   -0.015117836235235268
0.0370565656114528   -5.315865079831908e-05   0.012800591607371396
0.0370565656114528   -5.315865079831908e-05   0.012800591607371396
0.0370565656114528   -5.315865079831908e-05   0.012800591607371396
0.0370565656114528   -5.315865079831908e-05   0.012800591607371396
0.019666009595127917   -0.03207330171396389   -0.012523560123985315
0.019666009595127917   -0.03207330171396389   -0.012523560123985315
0.019666009595127917   -0.03207330171396389   -0.012523560123985315
0.019666009595127917   -0.03207330171396389   -0.012523560123985315
0.1403760203631288   0.016585715171360753   0.016327781386601847
0.1403760203631288   0.016585715171360753   0.016327781386601847
0.1403760203631288   0.016585715171360753   0.016327781386601847
0.1403760203631288   0.016585715171360753   0.016327781386601847
0.07939977617542827   -0.005317283054870163   -0.010035011836390953
0.07939977617542827   -0.005317283054870163   -0.010035011836390953
0.07939977617542827   -0.005317283054870163   -0.010035011836390953
0.07939977617542827   -0.005317283054870163   -0.010035011836390953
0.049727287418035664   0.01850462669302738   -0.0056484830517461344
0.049727287418035664   0.01850462669302738   -0.0056484830517461344
0.049727287418035664   0.01850462669302738   -0.0056484830517461344
0.049727287418035664   0.01850462669302738   -0.0056484830517461344
-0.06741887043532614   0.0056757399670187315   0.002223128661534371
-0.06741887043532614   0.0056757399670187315   0.002223128661534371
-0.06741887043532614   0.0056757399670187315   0.002223128661534371
-0.06741887043532614   0.0056757399670187315   0.002223128661534371
-0.0793674378942616   -0.015830057399104272   -0.010338652455190889
-0.0793674378942616   -0.015830057399104272   -0.010338652455190889
-0.0793674378942616   -0.015830057399104272   -0.010338652455190889
-0.0793674378942616   -0.015830057399104272   -0.010338652455190889
0.04811602038537981   0.02292653244139696   0.011021206746765683
0.04811602038537981   0.02292653244139696   0.011021206746765683
0.04811602038537981   0.02292653244139696   0.011021206746765683
0.04811602038537981   0.02292653244139696   0.011021206746765683
-0.012657714621068204   0.0074834039629915845   0.0019696326182394464
-0.012657714621068204   0.0074834039629915845   0.0019696326182394464
-0.012657714621068204   0.0074834039629915845   0.0019696326182394464
-0.012657714621068204   0.0074834039629915845   0.0019696326182394464
0.04245194918540695   0.009772522621272688   -0.004145139432974612
0.04245194918540695   0.009772522621272688   -0.004145139432974612
0.04245194918540695   0.009772522621272688   -0.004145139432974612
0.04245194918540695   0.009772522621272688   -0.004145139432974612
-0.07401893732329085   -0.002991618207982164   0.0035654112085407195
-0.07401893732329085   -0.002991618207982164   0.0035654112085407195
-0.07401893732329085   -0.002991618207982164   0.0035654112085407195
-0.07401893732329085   -0.002991618207982164   0.0035654112085407195
-0.08561001248843808   -0.022799047569510438   -0.008128337876154084
-0.08561001248843808   -0.022799047569510438   -0.008128337876154084
-0.08561001248843808   -0.022799047569510438   -0.008128337876154084
-0.08561001248843808   -0.022799047569510438   -0.008128337876154084
0.0399267531229464   0.015074764402433195   0.012023606111607875
0.0399267531229464   0.015074764402433195   0.012023606111607875
0.0399267531229464   0.015074764402433195   0.012023606111607875
0.0399267531229464   0.015074764402433195   0.012023606111607875
-0.020392924365803953   -7.5375616227784e-05   -0.0016571923787554203
-0.020392924365803953   -7.5375616227784e-05   -0.0016571923787554203
-0.020392924365803953   -7.5375616227784e-05   -0.0016571923787554203
-0.020392924365803953   -7.5375616227784e-05   -0.0016571923787554203
0.034426343578816646   0.0022942964815388517   -0.002697973688147021
0.034426343578816646   0.0022942964815388517   -0.002697973688147021
0.034426343578816646   0.0022942964815388517   -0.002697973688147021
0.034426343578816646   0.0022942964815388517   -0.002697973688147021
-0.08051873691031561   -0.010427713614625855   0.004956706059574639
-0.08051873691031561   -0.010427713614625855   0.004956706059574639
-0.08051873691031561   -0.010427713614625855   0.004956706059574639
-0.08051873691031561   -0.010427713614625855   0.004956706059574639
-0.09180216758511765   -0.029662914779990102   -0.006132385394861053
-0.09180216758511765   -0.029662914779990102   -0.006132385394861053
-0.09180216758511765   -0.029662914779990102   -0.006132385394861053
-0.09180216758511765   -0.029662914779990102   -0.006132385394861053
0.0327555663597801   0.007416582081762772   0.013434339903549412
0.0327555663597801   0.007416582081762772   0.013434339903549412
0.0327555663597801   0.007416582081762772   0.013434339903549412
0.0327555663597801   0.007416582081762772   0.013434339903549412
-0.027045334879867818   -0.006785738000464841   -0.005066188097227035
-0.027045334879867818   -0.006785738000464841   -0.005066188097227035
-0.027045334879867818   -0.006785738000464841   -0.005066188097227035
-0.027045334879867818   -0.006785738000464841   -0.005066188097227035
-0.06383338703324802   0.024910097035092567   0.0009161886038511931
-0.06383338703324802   0.024910097035092567   0.0009161886038511931
-0.06383338703324802   0.024910097035092567   0.0009161886038511931
-0.06383338703324802   0.024910097035092567   0.0009161886038511931
-0.1845492566887568   -0.0024660023770302422   -0.005137716768046526
-0.1845492566887568   -0.0024660023770302422   -0.005137716768046526
-0.1845492566887568   -0.0024660023770302422   -0.005137716768046526
-0.1845492566887568   -0.0024660023770302422   -0.005137716768046526
-0.19018987114914954   -0.008008173640829418   -0.0031014921215639178
-0.19018987114914954   -0.008008173640829418   -0.0031014921215639178
-0.19018987114914954   -0.008008173640829418   -0.0031014921215639178
-0.19018987114914954   -0.008008173640829418   -0.0031014921215639178
-0.07040889743591942   0.015111680974501423   0.0035123114629122525
-0.07040889743591942   0.015111680974501423   0.0035123114629122525
-0.07040889743591942   0.015111680974501423   0.0035123114629122525
-0.07040889743591942   0.015111680974501423   0.0035123114629122525
-0.12693628150847588   0.007217447173997207   0.002022200816904242
-0.12693628150847588   0.007217447173997207   0.002022200816904242
-0.12693628150847588   0.007217447173997207   0.002022200816904242
-0.12693628150847588   0.007217447173997207   0.002022200816904242
-0.07009200292912815   0.01722782618480171   0.002980638786570332
-0.07009200292912815   0.01722782618480171   0.002980638786570332
-0.07009200292912815   0.01722782618480171   0.002980638786570332
-0.07009200292912815   0.01722782618480171   0.002980638786570332
-0.19078490971022946   -0.010402462905420885   -0.0036823956623739055
-0.19078490971022946   -0.010402462905420885   -0.0036823956623739055
-0.19078490971022946   -0.010402462905420885   -0.0036823956623739055
-0.19078490971022946   -0.010402462905420885   -0.0036823956623739055
-0.19640893306821833   -0.015616411702833188   -0.0011056385305022185
-0.19640893306821833   -0.015616411702833188   -0.0011056385305022185
-0.19640893306821833   -0.015616411702833188   -0.0011056385305022185
-0.19640893306821833   -0.015616411702833188   -0.0011056385305022185
-0.07699529724975825   0.007148106569075004   0.004998084178658673
-0.07699529724975825   0.007148106569075004   0.004998084178658673
-0.07699529724975825   0.007148106569075004   0.004998084178658673
-0.07699529724975825   0.007148106569075004   0.004998084178658673
-0.1334206114059118   -1.9029154582374946e-05   -0.0012226197260167314
-0.1334206114059118   -1.9029154582374946e-05   -0.0012226197260167314
-0.1334206114059118   -1.9029154582374946e-05   -0.0012226197260167314
-0.1334206114059118   -1.9029154582374946e-05   -0.0012226197260167314
-0.07656972441726388   0.009522807262916363   0.004751247647291088
-0.07656972441726388   0.009522807262916363   0.004751247647291088
-0.07656972441726388   0.009522807262916363   0.004751247647291088
-0.07656972441726388   0.009522807262916363   0.004751247647291088
-0.19722917438623327   -0.01838578088219512   -0.0024374759412169097
-0.19722917438623327   -0.01838578088219512   -0.0024374759412169097
-0.19722917438623327   -0.01838578088219512   -0.0024374759412169097
-0.19722917438623327   -0.01838578088219512   -0.0024374759412169097
-0.20250213155059868   -0.0229526950510484   0.0008332526437872375
-0.20250213155059868   -0.0229526950510484   0.0008332526437872375
-0.20250213155059868   -0.0229526950510484   0.0008332526437872375
-0.20250213155059868   -0.0229526950510484   0.0008332526437872375
-0.08347688461257838   -0.0005162537951691332   0.006347368483013335
-0.08347688461257838   -0.0005162537951691332   0.006347368483013335
-0.08347688461257838   -0.0005162537951691332   0.006347368483013335
-0.08347688461257838   -0.0005162537951691332   0.006347368483013335
-0.14024881117619498   -0.007269203361295124   -0.004748697795352985
-0.14024881117619498   -0.007269203361295124   -0.004748697795352985
-0.14024881117619498   -0.007269203361295124   -0.004748697795352985
-0.14024881117619498   -0.007269203361295124   -0.004748697795352985
-0.17527789902809365   0.031058776772854943   0.0076942923853839384
-0.17527789902809365   0.031058776772854943   0.0076942923853839384
-0.17527789902809365   0.031058776772854943   0.0076942923853839384
-0.17527789902809365   0.031058776772854943   0.0076942923853839384
-0.2993740791420986   -0.009227586384655692   -0.011620092573563123
-0.2993740791420986   -0.009227586384655692   -0.011620092573563123
-0.2993740791420986   -0.009227586384655692   -0.011620092573563123
-0.2993740791420986   -0.009227586384655692   -0.011620092573563123
-0.2999230747136571   -0.001154916663830649   0.004549814481070034
-0.2999230747136571   -0.001154916663830649   0.004549814481070034
-0.2999230747136571   -0.001154916663830649   0.004549814481070034
-0.2999230747136571   -0.001154916663830649   0.004549814481070034
-0.18712671514895404   0.00780510185271685   -0.003598987614136559
-0.18712671514895404   0.00780510185271685   -0.003598987614136559
-0.18712671514895404   0.00780510185271685   -0.003598987614136559
-0.18712671514895404   0.00780510185271685   -0.003598987614136559
-0.23916827991247058   0.0070940125992917935   0.0026264033996360667
-0.23916827991247058   0.0070940125992917935   0.0026264033996360667
-0.23916827991247058   0.0070940125992917935   0.0026264033996360667
-0.23916827991247058   0.0070940125992917935   0.0026264033996360667
-0.18129238505008016   0.02361400943271786   0.009763755300235714
-0.18129238505008016   0.02361400943271786   0.009763755300235714
-0.18129238505008016   0.02361400943271786   0.009763755300235714
-0.18129238505008016   0.02361400943271786   0.009763755300235714
-0.30628814428189566   -0.017494563713193835   -0.010935886310763672
-0.30628814428189566   -0.017494563713193835   -0.010935886310763672
-0.30628814428189566   -0.017494563713193835   -0.010935886310763672
-0.30628814428189566   -0.017494563713193835   -0.010935886310763672
-0.30758664536759917   -0.00866352344808096   0.005619728043409386
-0.30758664536759917   -0.00866352344808096   0.005619728043409386
-0.30758664536759917   -0.00866352344808096   0.005619728043409386
-0.30758664536759917   -0.00866352344808096   0.005619728043409386
-0.19337845255600628   0.0004591366484701376   -0.0020287843207511657
-0.19337845255600628   0.0004591366484701376   -0.0020287843207511657
-0.19337845255600628   0.0004591366484701376   -0.0020287843207511657
-0.19337845255600628   0.0004591366484701376   -0.0020287843207511657
-0.24464802473665653   0.0003673808424347613   -0.0007702029614305023
-0.24464802473665653   0.0003673808424347613   -0.0007702029614305023
-0.24464802473665653   0.0003673808424347613   -0.0007702029614305023
-0.24464802473665653   0.0003673808424347613   -0.0007702029614305023
-0.1873900039181476   0.016605315280442588   0.01176728023657555
-0.1873900039181476   0.016605315280442588   0.01176728023657555
-0.1873900039181476   0.016605315280442588   0.01176728023657555
-0.1873900039181476   0.016605315280442588   0.01176728023657555
-0.31390700684896494   -0.02514161492356084   -0.009503987887947379
-0.31390700684896494   -0.02514161492356084   -0.009503987887947379
-0.31390700684896494   -0.02514161492356084   -0.009503987887947379
-0.31390700684896494   -0.02514161492356084   -0.009503987887947379
-0.3141903737857273   -0.01651702811783705   0.007707765787632461
-0.3141903737857273   -0.01651702811783705   0.007707765787632461
-0.3141903737857273   -0.01651702811783705   0.007707765787632461
-0.3141903737857273   -0.01651702811783705   0.007707765787632461
-0.19971236644797374   -0.007428048930845116   -0.0007425679632950023
-0.19971236644797374   -0.007428048930845116   -0.0007425679632950023
-0.19971236644797374   -0.007428048930845116   -0.0007425679632950023
-0.19971236644797374   -0.007428048930845116   -0.0007425679632950023
-0.2528897063969269   -0.007014010974112486   -0.0044922607751075976
-0.2528897063969269   -0.007014010974112486   -0.0044922607751075976
-0.2528897063969269   -0.007014010974112486   -0.0044922607751075976
-0.2528897063969269   -0.007014010974112486   -0.0044922607751075976
-0.28635881620149595   0.030612488523775183   0.013616147221023424
-0.28635881620149595   0.030612488523775183   0.013616147221023424
-0.28635881620149595   0.030612488523775183   0.013616147221023424
-0.28635881620149595   0.030612488523775183   0.013616147221023424
-0.4044509620414169   -0.018769700231363873   -0.017416863404551723
-0.4044509620414169   -0.018769700231363873   -0.017416863404551723
-0.4044509620414169   -0.018769700231363873   -0.017416863404551723
-0.4044509620414169   -0.018769700231363873   -0.017416863404551723
-0.40732632502578336   0.004501010806462119   0.014303523495225363
-0.40732632502578336   0.004501010806462119   0.014303523495225363
-0.40732632502578336   0.004501010806462119   0.014303523495225363
-0.40732632502578336   0.004501010806462119   0.014303523495225363
-0.30284992241134495   -0.0006413306006053943   -0.010598010070602328
-0.30284992241134495   -0.0006413306006053943   -0.010598010070602328
-0.30284992241134495   -0.0006413306006053943   -0.010598010070602328
-0.30284992241134495   -0.0006413306006053943   -0.010598010070602328
-0.33513673480938616   0.007181543544313412   0.008236775835441627
-0.33513673480938616   0.007181543544313412   0.008236775835441627
-0.33513673480938616   0.007181543544313412   0.008236775835441627
-0.33513673480938616   0.007181543544313412   0.008236775835441627
-0.2917869122748049   0.02796944221659335   0.0161062677949031
-0.2917869122748049   0.02796944221659335   0.0161062677949031
-0.2917869122748049   0.02796944221659335   0.0161062677949031
-0.2917869122748049   0.02796944221659335   0.0161062677949031
-0.41895694494795827   -0.024677371796368877   -0.014671193512806428
-0.41895694494795827   -0.024677371796368877   -0.014671193512806428
-0.41895694494795827   -0.024677371796368877   -0.014671193512806428
-0.41895694494795827   -0.024677371796368877   -0.014671193512806428
-0.41929256602693676   0.00026517436918392645   0.01824589978581025
-0.41929256602693676   0.00026517436918392645   0.01824589978581025
-0.41929256602693676   0.00026517436918392645   0.01824589978581025
-0.41929256602693676   0.00026517436918392645   0.01824589978581025
-0.30974091864144376   -0.004739694444889836   -0.009075467329012581
-0.30974091864144376   -0.004739694444889836   -0.009075467329012581
-0.30974091864144376   -0.004739694444889836   -0.009075467329012581
-0.30974091864144376   -0.004739694444889836   -0.009075467329012581
-0.35055771385845436   0.002190545907008984   0.0031326828840304785
-0.35055771385845436   0.002190545907008984   0.0031326828840304785
-0.35055771385845436   0.002190545907008984   0.0031326828840304785
-0.35055771385845436   0.002190545907008984   0.0031326828840304785
-0.298218830933583   0.024658163986480658   0.019137112778924763
-0.298218830933583   0.024658163986480658   0.019137112778924763
-0.298218830933583   0.024658163986480658   0.019137112778924763
-0.298218830933583   0.024658163986480658   0.019137112778924763
-0.43134648061164954   -0.02966451093903401   -0.01209398782952768
-0.43134648061164954   -0.02966451093903401   -0.01209398782952768
-0.43134648061164954   -0.02966451093903401   -0.01209398782952768
-0.43134648061164954   -0.02966451093903401   -0.01209398782952768
-0.43581450132298893   -0.011849925454382862   0.018800747821625607
-0.43581450132298893   -0.011849925454382862   0.018800747821625607
-0.43581450132298893   -0.011849925454382862   0.018800747821625607
-0.43581450132298893   -0.011849925454382862   0.018800747821625607
-0.3168609156629852   -0.014246270875382258   -0.007915700841115713
-0.3168609156629852   -0.014246270875382258   -0.007915700841115713
-0.3168609156629852   -0.014246270875382258   -0.007915700841115713
-0.3168609156629852   -0.014246270875382258   -0.007915700841115713
-0.35539573156209453   -0.0031573814862397853   0.00013820548632218627
-0.35539573156209453   -0.0031573814862397853   0.00013820548632218627
-0.35539573156209453   -0.0031573814862397853   0.00013820548632218627
-0.35539573156209453   -0.0031573814862397853   0.00013820548632218627
0.036976168054609834   0.0030257398105264606   -0.020090735670761303
0.036976168054609834   0.0030257398105264606   -0.020090735670761303
0.036976168054609834   0.0030257398105264606   -0.020090735670761303
0.036976168054609834   0.0030257398105264606   -0.020090735670761303
-0.0292922004412577   0.014923773091298932   0.010189807746016057
-0.0292922004412577   0.014923773091298932   0.010189807746016057
-0.0292922004412577   0.014923773091298932   0.010189807746016057
-0.0292922004412577   0.014923773091298932   0.010189807746016057
-0.045674125433235756   -0.019518682451228384   -0.01622586539548255
-0.045674125433235756   -0.019518682451228384   -0.01622586539548255
-0.045674125433235756   -0.019518682451228384   -0.01622586539548255
-0.045674125433235756   -0.019518682451228384   -0.01622586539548255
0.03449512485771902   0.021798813224636254   0.012464161071980463
0.03449512485771902   0.021798813224636254   0.012464161071980463
0.03449512485771902   0.021798813224636254   0.012464161071980463
0.03449512485771902   0.021798813224636254   0.012464161071980463
-0.0018009643962433712   0.004792739128201379   0.001712025323380106
-0.0018009643962433712   0.004792739128201379   0.001712025323380106
-0.0018009643962433712   0.004792739128201379   0.001712025323380106
-0.0018009643962433712   0.004792739128201379   0.001712025323380106
0.022802626354272673   -0.006181718882294328   -0.018017799338320706
0.022802626354272673   -0.006181718882294328   -0.018017799338320706
0.022802626354272673   -0.006181718882294328   -0.018017799338320706
0.022802626354272673   -0.006181718882294328   -0.018017799338320706
-0.03466061979457853   0.007782856790913072   0.011540123555662122
-0.03466061979457853   0.007782856790913072   0.011540123555662122
-0.03466061979457853   0.007782856790913072   0.011540123555662122
-0.03466061979457853   0.007782856790913072   0.011540123555662122
-0.051100326595303336   -0.023004174954301633   -0.013797597703389038
-0.051100326595303336   -0.023004174954301633   -0.013797597703389038
-0.051100326595303336   -0.023004174954301633   -0.013797597703389038
-0.051100326595303336   -0.023004174954301633   -0.013797597703389038
0.023392466723678455   0.017084159201106716   0.017148588844759418
0.023392466723678455   0.017084159201106716   0.017148588844759418
0.023392466723678455   0.017084159201106716   0.017148588844759418
0.023392466723678455   0.017084159201106716   0.017148588844759418
-0.010465952404558594   -0.00043642938552827023   -0.0022889931376493017
-0.010465952404558594   -0.00043642938552827023   -0.0022889931376493017
-0.010465952404558594   -0.00043642938552827023   -0.0022889931376493017
-0.010465952404558594   -0.00043642938552827023   -0.0022889931376493017
0.011415142400878233   -0.010726946940012087   -0.01492692662812288
0.011415142400878233   -0.010726946940012087   -0.01492692662812288
0.011415142400878233   -0.010726946940012087   -0.01492692662812288
0.011415142400878233   -0.010726946940012087   -0.01492692662812288
-0.040070825014896706   0.0038591084444235396   0.014486626799918708
-0.040070825014896706   0.0038591084444235396   0.014486626799918708
-0.040070825014896706   0.0038591084444235396   0.014486626799918708
-0.040070825014896706   0.0038591084444235396   0.014486626799918708
-0.05606689138101414   -0.02826158027810479   -0.0114657841165829
-0.05606689138101414   -0.02826158027810479   -0.0114657841165829
-0.05606689138101414   -0.02826158027810479   -0.0114657841165829
-0.05606689138101414   -0.02826158027810479   -0.0114657841165829
0.00797022368454868   0.007268783744016621   0.01960101695511623
0.00797022368454868   0.007268783744016621   0.01960101695511623
0.00797022368454868   0.007268783744016621   0.01960101695511623
0.00797022368454868   0.007268783744016621   0.01960101695511623
-0.019988319603230477   -0.005658965416543824   -0.00694405471989534
-0.019988319603230477   -0.005658965416543824   -0.00694405471989534
-0.019988319603230477   -0.005658965416543824   -0.00694405471989534
-0.019988319603230477   -0.005658965416543824   -0.00694405471989534
-0.033814467203248724   0.010377036905499426   -0.007874789878139579
-0.033814467203248724   0.010377036905499426   -0.007874789878139579
-0.033814467203248724   0.010377036905499426   -0.007874789878139579
-0.033814467203248724   0.010377036905499426   -0.007874789878139579
-0.09540022470696477   0.004034309256070064   0.002612073844677181
-0.09540022470696477   0.004034309256070064   0.002612073844677181
-0.09540022470696477   0.004034309256070064   0.002612073844677181
-0.09540022470696477   0.004034309256070064   0.002612073844677181
-0.10390638253280292   -0.011379264418610053   -0.008485374635086643
-0.10390638253280292   -0.011379264418610053   -0.008485374635086643
-0.10390638253280292   -0.011379264418610053   -0.008485374635086643
-0.10390638253280292   -0.011379264418610053   -0.008485374635086643
-0.03485876928970558   0.010200411260727727   0.00813182161021224
-0.03485876928970558   0.010200411260727727   0.00813182161021224
-0.03485876928970558   0.010200411260727727   0.00813182161021224
-0.03485876928970558   0.010200411260727727   0.00813182161021224
-0.06687860218906336   0.003100155832275738   0.001688942202715698
-0.06687860218906336   0.003100155832275738   0.001688942202715698
-0.06687860218906336   0.003100155832275738   0.001688942202715698
-0.06687860218906336   0.003100155832275738   0.001688942202715698
-0.03943846495390952   0.001915120778474966   -0.006481366228554954
-0.03943846495390952   0.001915120778474966   -0.006481366228554954
-0.03943846495390952   0.001915120778474966   -0.006481366228554954
-0.03943846495390952   0.001915120778474966   -0.006481366228554954
-0.09989259582774879   -0.003659882895507456   0.0038641773670795273
-0.09989259582774879   -0.003659882895507456   0.0038641773670795273
-0.09989259582774879   -0.003659882895507456   0.0038641773670795273
-0.09989259582774879   -0.003659882895507456   0.0038641773670795273
-0.10814357645363294   -0.018204438885826638   -0.006302080753096595
-0.10814357645363294   -0.018204438885826638   -0.006302080753096595
-0.10814357645363294   -0.018204438885826638   -0.006302080753096595
-0.10814357645363294   -0.018204438885826638   -0.006302080753096595
-0.041375296741433205   0.0026522998362926743   0.009171076775367108
-0.041375296741433205   0.0026522998362926743   0.009171076775367108
-0.041375296741433205   0.0026522998362926743   0.009171076775367108
-0.041375296741433205   0.0026522998362926743   0.009171076775367108
-0.07222830514430564   -0.003781356241699497   -0.0017759369295982704
-0.07222830514430564   -0.003781356241699497   -0.0017759369295982704
-0.07222830514430564   -0.003781356241699497   -0.0017759369295982704
-0.07222830514430564   -0.003781356241699497   -0.0017759369295982704
-0.04579869041230489   -0.005444803229565265   -0.004848788513133145
-0.04579869041230489   -0.005444803229565265   -0.004848788513133145
-0.04579869041230489   -0.005444803229565265   -0.004848788513133145
-0.04579869041230489   -0.005444803229565265   -0.004848788513133145
-0.10432950469313275   -0.010716657730337585   0.005280496893915356
-0.10432950469313275   -0.010716657730337585   0.005280496893915356
-0.10432950469313275   -0.010716657730337585   0.005280496893915356
-0.10432950469313275   -0.010716657730337585   0.005280496893915356
-0.11240862804869586   -0.025177365280914115   -0.004371202501359066
-0.11240862804869586   -0.025177365280914115   -0.004371202501359066
-0.11240862804869586   -0.025177365280914115   -0.004371202501359066
-0.11240862804869586   -0.025177365280914115   -0.004371202501359066
-0.04683318837762449   -0.004934318180189927   0.011375468802450458
-0.04683318837762449   -0.004934318180189927   0.011375468802450458
-0.04683318837762449   -0.004934318180189927   0.011375468802450458
-0.04683318837762449   -0.004934318180189927   0.011375468802450458
-0.07753667550899326   -0.010525981043254733   -0.005283315401516931
-0.07753667550899326   -0.010525981043254733   -0.005283315401516931
-0.07753667550899326   -0.010525981043254733   -0.005283315401516931
-0.07753667550899326   -0.010525981043254733   -0.005283315401516931
-0.09357634951081405   0.01659106185705648   -0.0008253027755556613
-0.09357634951081405   0.01659106185705648   -0.0008253027755556613
-0.09357634951081405   0.01659106185705648   -0.0008253027755556613
-0.09357634951081405   0.01659106185705648   -0.0008253027755556613
-0.16069071393278148   -0.005628022672637834   -0.00461534797635431
-0.16069071393278148   -0.005628022672637834   -0.00461534797635431
-0.16069071393278148   -0.005628022672637834   -0.00461534797635431
-0.16069071393278148   -0.005628022672637834   -0.00461534797635431
-0.1624262041173308   -0.004206483135452438   -0.001061202405445676
-0.1624262041173308   -0.004206483135452438   -0.001061202405445676
-0.1624262041173308   -0.004206483135452438   -0.001061202405445676
-0.1624262041173308   -0.004206483135452438   -0.001061202405445676
-0.09941781261386984   0.0013137634407371923   0.001264447100229593
-0.09941781261386984   0.0013137634407371923   0.001264447100229593
-0.09941781261386984   0.0013137634407371923   0.001264447100229593
-0.09941781261386984   0.0013137634407371923   0.001264447100229593
-0.12874993515118302   0.001878964782076574   0.0006423138780928088
-0.12874993515118302   0.001878964782076574   0.0006423138780928088
-0.12874993515118302   0.001878964782076574   0.0006423138780928088
-0.12874993515118302   0.001878964782076574   0.0006423138780928088
-0.09785424955676514   0.009166127852539906   0.0012298979739503706
-0.09785424955676514   0.009166127852539906   0.0012298979739503706
-0.09785424955676514   0.009166127852539906   0.0012298979739503706
-0.09785424955676514   0.009166127852539906   0.0012298979739503706
-0.1645371370114257   -0.012606217384245322   -0.0032161326271271324
-0.1645371370114257   -0.012606217384245322   -0.0032161326271271324
-0.1645371370114257   -0.012606217384245322   -0.0032161326271271324
-0.1645371370114257   -0.012606217384245322   -0.0032161326271271324
-0.1664063418321167   -0.011540580296102925   0.0009656944351121377
-0.1664063418321167   -0.011540580296102925   0.0009656944351121377
-0.1664063418321167   -0.011540580296102925   0.0009656944351121377
-0.1664063418321167   -0.011540580296102925   0.0009656944351121377
-0.10390015072140069   -0.005903361621010489   0.002613970643248539
-0.10390015072140069   -0.005903361621010489   0.002613970643248539
-0.10390015072140069   -0.005903361621010489   0.002613970643248539
-0.10390015072140069   -0.005903361621010489   0.002613970643248539
-0.13305441512971602   -0.004791801461661322   -0.0025380010729436787
-0.13305441512971602   -0.004791801461661322   -0.0025380010729436787
-0.13305441512971602   -0.004791801461661322   -0.0025380010729436787
-0.13305441512971602   -0.004791801461661322   -0.0025380010729436787
-0.10229876243209318   0.0016927556588595023   0.003024794809916102
-0.10229876243209318   0.0016927556588595023   0.003024794809916102
-0.10229876243209318   0.0016927556588595023   0.003024794809916102
-0.10229876243209318   0.0016927556588595023   0.003024794809916102
-0.1686686679932088   -0.01979763544775877   -0.0020888812186924295
-0.1686686679932088   -0.01979763544775877   -0.0020888812186924295
-0.1686686679932088   -0.01979763544775877   -0.0020888812186924295
-0.1686686679932088   -0.01979763544775877   -0.0020888812186924295
-0.17027940162487035   -0.01856281660076168   0.002917071467342559
-0.17027940162487035   -0.01856281660076168   0.002917071467342559
-0.17027940162487035   -0.01856281660076168   0.002917071467342559
-0.17027940162487035   -0.01856281660076168   0.002917071467342559
-0.10821653019317566   -0.0126954182038729   0.004107339699199708
-0.10821653019317566   -0.0126954182038729   0.004107339699199708
-0.10821653019317566   -0.0126954182038729   0.004107339699199708
-0.10821653019317566   -0.0126954182038729   0.004107339699199708
-0.13768611929426647   -0.011497112986193093   -0.0059950923799716276
-0.13768611929426647   -0.011497112986193093   -0.0059950923799716276
-0.13768611929426647   -0.011497112986193093   -0.0059950923799716276
-0.13768611929426647   -0.011497112986193093   -0.0059950923799716276
-0.15259210450231833   0.023752301965565062   0.006497374537760319
-0.15259210450231833   0.023752301965565062   0.006497374537760319
-0.15259210450231833   0.023752301965565062   0.006497374537760319
-0.15259210450231833   0.023752301965565062   0.006497374537760319
-0.22362827979897143   -0.00947855352217463   -0.01030503056293071
-0.22362827979897143   -0.00947855352217463   -0.01030503056293071
-0.22362827979897143   -0.00947855352217463   -0.01030503056293071
-0.22362827979897143   -0.00947855352217463   -0.01030503056293071
-0.22073974952956574   0.0031174485672882737   0.006575780339332246
-0.22073974952956574   0.0031174485672882737   0.006575780339332246
-0.22073974952956574   0.0031174485672882737   0.006575780339332246
-0.22073974952956574   0.0031174485672882737   0.006575780339332246
-0.16287663900376112   -0.0029941095975224846   -0.00452575037552717
-0.16287663900376112   -0.0029941095975224846   -0.00452575037552717
-0.16287663900376112   -0.0029941095975224846   -0.00452575037552717
-0.16287663900376112   -0.0029941095975224846   -0.00452575037552717
-0.18926587255734273   0.003612080118980933   0.0009902570724560026
-0.18926587255734273   0.003612080118980933   0.0009902570724560026
-0.18926587255734273   0.003612080118980933   0.0009902570724560026
-0.18926587255734273   0.003612080118980933   0.0009902570724560026
-0.1563848185473649   0.01638427263137355   0.00855496967755779
-0.1563848185473649   0.01638427263137355   0.00855496967755779
-0.1563848185473649   0.01638427263137355   0.00855496967755779
-0.1563848185473649   0.01638427263137355   0.00855496967755779
-0.22803194159961648   -0.01706130527526232   -0.00970642616837095
-0.22803194159961648   -0.01706130527526232   -0.00970642616837095
-0.22803194159961648   -0.01706130527526232   -0.00970642616837095
-0.22803194159961648   -0.01706130527526232   -0.00970642616837095
-0.22606045524504823   -0.004114368934728212   0.007785690452299045
-0.22606045524504823   -0.004114368934728212   0.007785690452299045
-0.22606045524504823   -0.004114368934728212   0.007785690452299045
-0.22606045524504823   -0.004114368934728212   0.007785690452299045
-0.16682106172613892   -0.00958067603156756   -0.003067809299534226
-0.16682106172613892   -0.00958067603156756   -0.003067809299534226
-0.16682106172613892   -0.00958067603156756   -0.003067809299534226
-0.16682106172613892   -0.00958067603156756   -0.003067809299534226
-0.19287132053029318   -0.0028111337408528586   -0.0024561441986789088
-0.19287132053029318   -0.0028111337408528586   -0.0024561441986789088
-0.19287132053029318   -0.0028111337408528586   -0.0024561441986789088
-0.19287132053029318   -0.0028111337408528586   -0.0024561441986789088
-0.1602609331953835   0.009599024041069194   0.010553133281606003
-0.1602609331953835   0.009599024041069194   0.010553133281606003
-0.1602609331953835   0.009599024041069194   0.010553133281606003
-0.1602609331953835   0.009599024041069194   0.010553133281606003
-0.23325265096295755   -0.02392613619451695   -0.00836352087746255
-0.23325265096295755   -0.02392613619451695   -0.00836352087746255
-0.23325265096295755   -0.02392613619451695   -0.00836352087746255
-0.23325265096295755   -0.02392613619451695   -0.00836352087746255
-0.2303815864955713   -0.01142447449397914   0.009944524268647868
-0.2303815864955713   -0.01142447449397914   0.009944524268647868
-0.2303815864955713   -0.01142447449397914   0.009944524268647868
-0.2303815864955713   -0.01142447449397914   0.009944524268647868
-0.1707845886381705   -0.016349284951489153   -0.001822395248430849
-0.1707845886381705   -0.016349284951489153   -0.001822395248430849
-0.1707845886381705   -0.016349284951489153   -0.001822395248430849
-0.1707845886381705   -0.016349284951489153   -0.001822395248430849
-0.19833031406057927   -0.009403161322920503   -0.0060040693580297
-0.19833031406057927   -0.009403161322920503   -0.0060040693580297
-0.19833031406057927   -0.009403161322920503   -0.0060040693580297
-0.19833031406057927   -0.009403161322920503   -0.0060040693580297
-0.2119394851494955   0.025790038050321325   0.0128703511119529
-0.2119394851494955   0.025790038050321325   0.0128703511119529
-0.2119394851494955   0.025790038050321325   0.0128703511119529
-0.2119394851494955   0.025790038050321325   0.0128703511119529
-0.27478129011292673   -0.013901528017669605   -0.01703732271758869
-0.27478129011292673   -0.013901528017669605   -0.01703732271758869
-0.27478129011292673   -0.013901528017669605   -0.01703732271758869
-0.27478129011292673   -0.013901528017669605   -0.01703732271758869
-0.2750604788550949   0.009874161229752224   0.014190005524935718
-0.2750604788550949   0.009874161229752224   0.014190005524935718
-0.2750604788550949   0.009874161229752224   0.014190005524935718
-0.2750604788550949   0.009874161229752224   0.014190005524935718
-0.22624129144166505   -0.0074021320557010745   -0.010412348598174909
-0.22624129144166505   -0.0074021320557010745   -0.010412348598174909
-0.22624129144166505   -0.0074021320557010745   -0.010412348598174909
-0.22624129144166505   -0.0074021320557010745   -0.010412348598174909
-0.23694550963623345   0.005962192552845795   0.004735181684288714
-0.23694550963623345   0.005962192552845795   0.004735181684288714
-0.23694550963623345   0.005962192552845795   0.004735181684288714
-0.23694550963623345   0.005962192552845795   0.004735181684288714
-0.21523463057208833   0.022037578766805933   0.015181244927197753
-0.21523463057208833   0.022037578766805933   0.015181244927197753
-0.21523463057208833   0.022037578766805933   0.015181244927197753
-0.21523463057208833   0.022037578766805933   0.015181244927197753
-0.28690441131290123   -0.02040282118098507   -0.01475267435335872
-0.28690441131290123   -0.02040282118098507   -0.01475267435335872
-0.28690441131290123   -0.02040282118098507   -0.01475267435335872
-0.28690441131290123   -0.02040282118098507   -0.01475267435335872
-0.2847313701692453   0.005728320703952419   0.018255059943000227
-0.2847313701692453   0.005728320703952419   0.018255059943000227
-0.2847313701692453   0.005728320703952419   0.018255059943000227
-0.2847313701692453   0.005728320703952419   0.018255059943000227
-0.2308528050428814   -0.01119340805802272   -0.009097019413575956
-0.2308528050428814   -0.01119340805802272   -0.009097019413575956
-0.2308528050428814   -0.01119340805802272   -0.009097019413575956
-0.2308528050428814   -0.01119340805802272   -0.009097019413575956
-0.248523344355441   0.0009402479390762455   -9.186304112173208e-05
-0.248523344355441   0.0009402479390762455   -9.186304112173208e-05
-0.248523344355441   0.0009402479390762455   -9.186304112173208e-05
-0.248523344355441   0.0009402479390762455   -9.186304112173208e-05
-0.21940265527180203   0.018779263309667213   0.0181810580741309
-0.21940265527180203   0.018779263309667213   0.0181810580741309
-0.21940265527180203   0.018779263309667213   0.0181810580741309
-0.21940265527180203   0.018779263309667213   0.0181810580741309
-0.2970270681297271   -0.025089898853138684   -0.012405210302310024
-0.2970270681297271   -0.025089898853138684   -0.012405210302310024
-0.2970270681297271   -0.025089898853138684   -0.012405210302310024
-0.2970270681297271   -0.025089898853138684   -0.012405210302310024
-0.29894709430933064   -0.005225633450704807   0.019273664928601646
-0.29894709430933064   -0.005225633450704807   0.019273664928601646
-0.29894709430933064   -0.005225633450704807   0.019273664928601646
-0.29894709430933064   -0.005225633450704807   0.019273664928601646
-0.23548800358221228   -0.019155559580108117   -0.007856476078431734
-0.23548800358221228   -0.019155559580108117   -0.007856476078431734
-0.23548800358221228   -0.019155559580108117   -0.007856476078431734
-0.23548800358221228   -0.019155559580108117   -0.007856476078431734
-0.25286635973610977   -0.004067932903643115   -0.00348408902672067
-0.25286635973610977   -0.004067932903643115   -0.00348408902672067
-0.25286635973610977   -0.004067932903643115   -0.00348408902672067
-0.25286635973610977   -0.004067932903643115   -0.00348408902672067
-0.10658993232643356   -0.006871101496765536   -0.021486833309130413
-0.10658993232643356   -0.006871101496765536   -0.021486833309130413
-0.10658993232643356   -0.006871101496765536   -0.021486833309130413
-0.10658993232643356   -0.006871101496765536   -0.021486833309130413
-0.10914374777055881   0.016214419003076675   0.009606897349925102
-0.10914374777055881   0.016214419003076675   0.009606897349925102
-0.10914374777055881   0.016214419003076675   0.009606897349925102
-0.10914374777055881   0.016214419003076675   0.009606897349925102
-0.1234206320019326   -0.01520968437350615   -0.014662570059079937
-0.1234206320019326   -0.01520968437350615   -0.014662570059079937
-0.1234206320019326   -0.01520968437350615   -0.014662570059079937
-0.1234206320019326   -0.01520968437350615   -0.014662570059079937
-0.10905550663265343   0.009121455659636953   0.014274818848083768
-0.10905550663265343   0.009121455659636953   0.014274818848083768
-0.10905550663265343   0.009121455659636953   0.014274818848083768
-0.10905550663265343   0.009121455659636953   0.014274818848083768
-0.10640977427519675   0.002886043035979214   0.0098050216966972
-0.10640977427519675   0.002886043035979214   0.0098050216966972
-0.10640977427519675   0.002886043035979214   0.0098050216966972
-0.10640977427519675   0.002886043035979214   0.0098050216966972
-0.12041078512174806   -0.015292687144336143   -0.018087430793414433
-0.12041078512174806   -0.015292687144336143   -0.018087430793414433
-0.12041078512174806   -0.015292687144336143   -0.018087430793414433
-0.12041078512174806   -0.015292687144336143   -0.018087430793414433
-0.11343644101403041   0.007833370929274806   0.012215329577650012
-0.11343644101403041   0.007833370929274806   0.012215329577650012
-0.11343644101403041   0.007833370929274806   0.012215329577650012
-0.11343644101403041   0.007833370929274806   0.012215329577650012
-0.1278207606345403   -0.01908114503499113   -0.012464704977511065
-0.1278207606345403   -0.01908114503499113   -0.012464704977511065
-0.1278207606345403   -0.01908114503499113   -0.012464704977511065
-0.1278207606345403   -0.01908114503499113   -0.012464704977511065
-0.12012455484707943   0.0038912241203025513   0.026714623258091354
-0.12012455484707943   0.0038912241203025513   0.026714623258091354
-0.12012455484707943   0.0038912241203025513   0.026714623258091354
-0.12012455484707943   0.0038912241203025513   0.026714623258091354
-0.11650598040686849   -0.0037487861280204073   0.003990857135417296
-0.11650598040686849   -0.0037487861280204073   0.003990857135417296
-0.11650598040686849   -0.0037487861280204073   0.003990857135417296
-0.11650598040686849   -0.0037487861280204073   0.003990857135417296
-0.13318159270394758   -0.02049686569546629   -0.014182476210479574
-0.13318159270394758   -0.02049686569546629   -0.014182476210479574
-0.13318159270394758   -0.02049686569546629   -0.014182476210479574
-0.13318159270394758   -0.02049686569546629   -0.014182476210479574
-0.1180658487506715   0.002004818807778492   0.015223890599063122
-0.1180658487506715   0.002004818807778492   0.015223890599063122
-0.1180658487506715   0.002004818807778492   0.015223890599063122
-0.1180658487506715   0.002004818807778492   0.015223890599063122
-0.1314446404516654   -0.026506650072409786   -0.009861287990801701
-0.1314446404516654   -0.026506650072409786   -0.009861287990801701
-0.1314446404516654   -0.026506650072409786   -0.009861287990801701
-0.1314446404516654   -0.026506650072409786   -0.009861287990801701
-0.1372804362076221   -0.013395953188847507   0.024970849709873767
-0.1372804362076221   -0.013395953188847507   0.024970849709873767
-0.1372804362076221   -0.013395953188847507   0.024970849709873767
-0.1372804362076221   -0.013395953188847507   0.024970849709873767
-0.1254808612604284   -0.01157072354541169   -0.0053123332701715065
-0.1254808612604284   -0.01157072354541169   -0.0053123332701715065
-0.1254808612604284   -0.01157072354541169   -0.0053123332701715065
-0.1254808612604284   -0.01157072354541169   -0.0053123332701715065
-0.11710461431113901   -0.003021322253066897   -0.010961694096833372
-0.11710461431113901   -0.003021322253066897   -0.010961694096833372
-0.11710461431113901   -0.003021322253066897   -0.010961694096833372
-0.11710461431113901   -0.003021322253066897   -0.010961694096833372
-0.12141697190397246   -0.015028107839387274   -0.000655181590679229
-0.12141697190397246   -0.015028107839387274   -0.000655181590679229
-0.12141697190397246   -0.015028107839387274   -0.000655181590679229
-0.12141697190397246   -0.015028107839387274   -0.000655181590679229
-0.12249911635362119   -0.010080141397159376   -0.005630594615299992
-0.12249911635362119   -0.010080141397159376   -0.005630594615299992
-0.12249911635362119   -0.010080141397159376   -0.005630594615299992
-0.12249911635362119   -0.010080141397159376   -0.005630594615299992
-0.1214450887154224   -0.01991523613364351   -7.93018663916528e-05
-0.1214450887154224   -0.01991523613364351   -7.93018663916528e-05
-0.1214450887154224   -0.01991523613364351   -7.93018663916528e-05
-0.1214450887154224   -0.01991523613364351   -7.93018663916528e-05
-0.11960083309000087   -0.012538362264122525   -0.0002580367023713088
-0.11960083309000087   -0.012538362264122525   -0.0002580367023713088
-0.11960083309000087   -0.012538362264122525   -0.0002580367023713088
-0.11960083309000087   -0.012538362264122525   -0.0002580367023713088
-0.12147867986351098   -0.010652028270142909   -0.009510465470335561
-0.12147867986351098   -0.010652028270142909   -0.009510465470335561
-0.12147867986351098   -0.010652028270142909   -0.009510465470335561
-0.12147867986351098   -0.010652028270142909   -0.009510465470335561
-0.12324588053370457   -0.02012370458883072   0.0006791476759544679
-0.12324588053370457   -0.02012370458883072   0.0006791476759544679
-0.12324588053370457   -0.02012370458883072   0.0006791476759544679
-0.12324588053370457   -0.02012370458883072   0.0006791476759544679
-0.12472583693906199   -0.0165897108474196   -0.003688436445565492
-0.12472583693906199   -0.0165897108474196   -0.003688436445565492
-0.12472583693906199   -0.0165897108474196   -0.003688436445565492
-0.12472583693906199   -0.0165897108474196   -0.003688436445565492
-0.12611504998642487   -0.025941858641034377   0.0029245618691092867
-0.12611504998642487   -0.025941858641034377   0.0029245618691092867
-0.12611504998642487   -0.025941858641034377   0.0029245618691092867
-0.12611504998642487   -0.025941858641034377   0.0029245618691092867
-0.12256657197742564   -0.017827559328355412   -0.0033136634834133503
-0.12256657197742564   -0.017827559328355412   -0.0033136634834133503
-0.12256657197742564   -0.017827559328355412   -0.0033136634834133503
-0.12256657197742564   -0.017827559328355412   -0.0033136634834133503
-0.1264511801624   -0.017613901444445246   -0.00708404620735569
-0.1264511801624   -0.017613901444445246   -0.00708404620735569
-0.1264511801624   -0.017613901444445246   -0.00708404620735569
-0.1264511801624   -0.017613901444445246   -0.00708404620735569
-0.1253851265361481   -0.02591308781706909   0.0023384925386513355
-0.1253851265361481   -0.02591308781706909   0.0023384925386513355
-0.1253851265361481   -0.02591308781706909   0.0023384925386513355
-0.1253851265361481   -0.02591308781706909   0.0023384925386513355
-0.1267492445856172   -0.02354650738539725   -0.0017694210155934239
-0.1267492445856172   -0.02354650738539725   -0.0017694210155934239
-0.1267492445856172   -0.02354650738539725   -0.0017694210155934239
-0.1267492445856172   -0.02354650738539725   -0.0017694210155934239
-0.1297143294838384   -0.03350801159579227   0.005791628371715595
-0.1297143294838384   -0.03350801159579227   0.005791628371715595
-0.1297143294838384   -0.03350801159579227   0.005791628371715595
-0.1297143294838384   -0.03350801159579227   0.005791628371715595
-0.12655136004203074   -0.02413413167829037   -0.007163691157833172
-0.12655136004203074   -0.02413413167829037   -0.007163691157833172
-0.12655136004203074   -0.02413413167829037   -0.007163691157833172
-0.12655136004203074   -0.02413413167829037   -0.007163691157833172
-0.11800078039660908   0.0034271393760149753   -0.002029471269262649
-0.11800078039660908   0.0034271393760149753   -0.002029471269262649
-0.11800078039660908   0.0034271393760149753   -0.002029471269262649
-0.11800078039660908   0.0034271393760149753   -0.002029471269262649
-0.1358014168864047   -0.02581066527438742   -0.006569894012118267
-0.1358014168864047   -0.02581066527438742   -0.006569894012118267
-0.1358014168864047   -0.02581066527438742   -0.006569894012118267
-0.1358014168864047   -0.02581066527438742   -0.006569894012118267
-0.1304377575513867   -0.004823901458251713   0.0015960675428019202
-0.1304377575513867   -0.004823901458251713   0.0015960675428019202
-0.1304377575513867   -0.004823901458251713   0.0015960675428019202
-0.1304377575513867   -0.004823901458251713   0.0015960675428019202
-0.1256358001885692   -0.027417357922898615   -0.003976797264300827
-0.1256358001885692   -0.027417357922898615   -0.003976797264300827
-0.1256358001885692   -0.027417357922898615   -0.003976797264300827
-0.1256358001885692   -0.027417357922898615   -0.003976797264300827
-0.1273782915113709   -0.014095606912602015   -0.002782370575144512
-0.1273782915113709   -0.014095606912602015   -0.002782370575144512
-0.1273782915113709   -0.014095606912602015   -0.002782370575144512
-0.1273782915113709   -0.014095606912602015   -0.002782370575144512
-0.11997465748592258   -0.0030568194070937603   -3.162226687244366e-05
-0.11997465748592258   -0.0030568194070937603   -3.162226687244366e-05
-0.11997465748592258   -0.0030568194070937603   -3.162226687244366e-05
-0.11997465748592258   -0.0030568194070937603   -3.162226687244366e-05
-0.1368112148430889   -0.02989675456311213   -0.005198365810848716
-0.1368112148430889   -0.02989675456311213   -0.005198365810848716
-0.1368112148430889   -0.02989675456311213   -0.005198365810848716
-0.1368112148430889   -0.02989675456311213   -0.005198365810848716
-0.13208672260301382   -0.011358782687187943   0.003523437193966753
-0.13208672260301382   -0.011358782687187943   0.003523437193966753
-0.13208672260301382   -0.011358782687187943   0.003523437193966753
-0.13208672260301382   -0.011358782687187943   0.003523437193966753
-0.12772152653021673   -0.03255446220264901   -0.0027021330461116525
-0.12772152653021673   -0.03255446220264901   -0.0027021330461116525
-0.12772152653021673   -0.03255446220264901   -0.0027021330461116525
-0.12772152653021673   -0.03255446220264901   -0.0027021330461116525
-0.12911180386030247   -0.019058683719649347   -0.005403854666640291
-0.12911180386030247   -0.019058683719649347   -0.005403854666640291
-0.12911180386030247   -0.019058683719649347   -0.005403854666640291
-0.12911180386030247   -0.019058683719649347   -0.005403854666640291
-0.12223256281906399   -0.009712494589826575   0.0019007178968314048
-0.12223256281906399   -0.009712494589826575   0.0019007178968314048
-0.12223256281906399   -0.009712494589826575   0.0019007178968314048
-0.12223256281906399   -0.009712494589826575   0.0019007178968314048
-0.13837162075092257   -0.03499668473676896   -0.004263151495997878
-0.13837162075092257   -0.03499668473676896   -0.004263151495997878
-0.13837162075092257   -0.03499668473676896   -0.004263151495997878
-0.13837162075092257   -0.03499668473676896   -0.004263151495997878
-0.1334589507576075   -0.01748213790938   0.00541616173610368
-0.1334589507576075   -0.01748213790938   0.00541616173610368
-0.1334589507576075   -0.01748213790938   0.00541616173610368
-0.1334589507576075   -0.01748213790938   0.00541616173610368
-0.12932564469938387   -0.03744244619936919   -0.0007554827704558086
-0.12932564469938387   -0.03744244619936919   -0.0007554827704558086
-0.12932564469938387   -0.03744244619936919   -0.0007554827704558086
-0.12932564469938387   -0.03744244619936919   -0.0007554827704558086
-0.13115515185438925   -0.024241407525791212   -0.008281751012845392
-0.13115515185438925   -0.024241407525791212   -0.008281751012845392
-0.13115515185438925   -0.024241407525791212   -0.008281751012845392
-0.13115515185438925   -0.024241407525791212   -0.008281751012845392
-0.12537353117263303   0.013487646810124775   0.006271222472227901
-0.12537353117263303   0.013487646810124775   0.006271222472227901
-0.12537353117263303   0.013487646810124775   0.006271222472227901
-0.12537353117263303   0.013487646810124775   0.006271222472227901
-0.15018435279647582   -0.019527794219957022   -0.009244801040101742
-0.15018435279647582   -0.019527794219957022   -0.009244801040101742
-0.15018435279647582   -0.019527794219957022   -0.009244801040101742
-0.15018435279647582   -0.019527794219957022   -0.009244801040101742
-0.14236015994995996   0.0037324969902129967   0.008590803509349109
-0.14236015994995996   0.0037324969902129967   0.008590803509349109
-0.14236015994995996   0.0037324969902129967   0.008590803509349109
-0.14236015994995996   0.0037324969902129967   0.008590803509349109
-0.13515503062889223   -0.0212797629976992   -0.005534436305278223
-0.13515503062889223   -0.0212797629976992   -0.005534436305278223
-0.13515503062889223   -0.0212797629976992   -0.005534436305278223
-0.13515503062889223   -0.0212797629976992   -0.005534436305278223
-0.13822329994578603   -0.0057608701211634035   -0.0016591919099320455
-0.13822329994578603   -0.0057608701211634035   -0.0016591919099320455
-0.13822329994578603   -0.0057608701211634035   -0.0016591919099320455
-0.13822329994578603   -0.0057608701211634035   -0.0016591919099320455
-0.1267971823730124   0.0067682834991808355   0.008206758477240752
-0.1267971823730124   0.0067682834991808355   0.008206758477240752
-0.1267971823730124   0.0067682834991808355   0.008206758477240752
-0.1267971823730124   0.0067682834991808355   0.008206758477240752
-0.15166890638931585   -0.025266447690141847   -0.008953984007075502
-0.15166890638931585   -0.025266447690141847   -0.008953984007075502
-0.15166890638931585   -0.025266447690141847   -0.008953984007075502
-0.15166890638931585   -0.025266447690141847   -0.008953984007075502
-0.14510654116913865   -0.0026729448601096155   0.009756326000755215
-0.14510654116913865   -0.0026729448601096155   0.009756326000755215
-0.14510654116913865   -0.0026729448601096155   0.009756326000755215
-0.14510654116913865   -0.0026729448601096155   0.009756326000755215
-0.13661071579289427   -0.026063663628698233   -0.004391647813926982
-0.13661071579289427   -0.026063663628698233   -0.004391647813926982
-0.13661071579289427   -0.026063663628698233   -0.004391647813926982
-0.13661071579289427   -0.026063663628698233   -0.004391647813926982
-0.1396695033599347   -0.011155163585054324   -0.004738908015797617
-0.1396695033599347   -0.011155163585054324   -0.004738908015797617
-0.1396695033599347   -0.011155163585054324   -0.004738908015797617
-0.1396695033599347   -0.011155163585054324   -0.004738908015797617
-0.12835476010400243   0.0007425329609444843   0.010081934040889497
-0.12835476010400243   0.0007425329609444843   0.010081934040889497
-0.12835476010400243   0.0007425329609444843   0.010081934040889497
-0.12835476010400243   0.0007425329609444843   0.010081934040889497
-0.1541854471224185   -0.03030209171414034   -0.008009056911613301
-0.1541854471224185   -0.03030209171414034   -0.008009056911613301
-0.1541854471224185   -0.03030209171414034   -0.008009056911613301
-0.1541854471224185   -0.03030209171414034   -0.008009056911613301
-0.14696421918979682   -0.008838389030118372   0.0119117149100494
-0.14696421918979682   -0.008838389030118372   0.0119117149100494
-0.14696421918979682   -0.008838389030118372   0.0119117149100494
-0.14696421918979682   -0.008838389030118372   0.0119117149100494
-0.13788968527748469   -0.030876851098923106   -0.0033427976737411295
-0.13788968527748469   -0.030876851098923106   -0.0033427976737411295
-0.13788968527748469   -0.030876851098923106   -0.0033427976737411295
-0.13788968527748469   -0.030876851098923106   -0.0033427976737411295
-0.14212691338075864   -0.01627137099540641   -0.007734941977931212
-0.14212691338075864   -0.01627137099540641   -0.007734941977931212
-0.14212691338075864   -0.01627137099540641   -0.007734941977931212
-0.14212691338075864   -0.01627137099540641   -0.007734941977931212
-0.138039112313367   0.019370911264046983   0.012582695891434502
-0.138039112313367   0.019370911264046983   0.012582695891434502
-0.138039112313367   0.019370911264046983   0.012582695891434502
-0.138039112313367   0.019370911264046983   0.012582695891434502
-0.14994225474069914   -0.012019253006748373   -0.013319215453714433
-0.14994225474069914   -0.012019253006748373   -0.013319215453714433
-0.14994225474069914   -0.012019253006748373   -0.013319215453714433
-0.14994225474069914   -0.012019253006748373   -0.013319215453714433
-0.14686489039863876   0.013355073373228884   0.013997277503448603
-0.14686489039863876   0.013355073373228884   0.013997277503448603
-0.14686489039863876   0.013355073373228884   0.013997277503448603
-0.14686489039863876   0.013355073373228884   0.013997277503448603
-0.14941511439586078   -0.01480506434496533   -0.008146407384980452
-0.14941511439586078   -0.01480506434496533   -0.008146407384980452
-0.14941511439586078   -0.01480506434496533   -0.008146407384980452
-0.14941511439586078   -0.01480506434496533   -0.008146407384980452
-0.14101974521750313   0.0033217273837034614   0.0007376665512663482
-0.14101974521750313   0.0033217273837034614   0.0007376665512663482
-0.14101974521750313   0.0033217273837034614   0.0007376665512663482
-0.14101974521750313   0.0033217273837034614   0.0007376665512663482
-0.13890512806683744   0.015056051934944678   0.01454240798022626
-0.13890512806683744   0.015056051934944678   0.01454240798022626
-0.13890512806683744   0.015056051934944678   0.01454240798022626
-0.13890512806683744   0.015056051934944678   0.01454240798022626
-0.1581613131140734   -0.017292479293091776   -0.011837283407400055
-0.1581613131140734   -0.017292479293091776   -0.011837283407400055
-0.1581613131140734   -0.017292479293091776   -0.011837283407400055
-0.1581613131140734   -0.017292479293091776   -0.011837283407400055
-0.153325867804289   0.009729273947211514   0.017989453374002852
-0.153325867804289   0.009729273947211514   0.017989453374002852
-0.153325867804289   0.009729273947211514   0.017989453374002852
-0.153325867804289   0.009729273947211514   0.017989453374002852
-0.1515308588001342   -0.01763760171926778   -0.007400605295064406
-0.1515308588001342   -0.01763760171926778   -0.007400605295064406
-0.1515308588001342   -0.01763760171926778   -0.007400605295064406
-0.1515308588001342   -0.01763760171926778   -0.007400605295064406
-0.14800712664180546   -0.0010539849320575223   -0.002950537692285097
-0.14800712664180546   -0.0010539849320575223   -0.002950537692285097
-0.14800712664180546   -0.0010539849320575223   -0.002950537692285097
-0.14800712664180546   -0.0010539849320575223   -0.002950537692285097
-0.14061779894493523   0.012148679580511208   0.017378412681147544
-0.14061779894493523   0.012148679580511208   0.017378412681147544
-0.14061779894493523   0.012148679580511208   0.017378412681147544
-0.14061779894493523   0.012148679580511208   0.017378412681147544
-0.16524944579999853   -0.021067525493078686   -0.0108316371642546
-0.16524944579999853   -0.021067525493078686   -0.0108316371642546
-0.16524944579999853   -0.021067525493078686   -0.0108316371642546
-0.16524944579999853   -0.021067525493078686   -0.0108316371642546
-0.16452062490201785   0.0004500239524885541   0.01920406290435723
-0.16452062490201785   0.0004500239524885541   0.01920406290435723
-0.16452062490201785   0.0004500239524885541   0.01920406290435723
-0.16452062490201785   0.0004500239524885541   0.01920406290435723
-0.1534783819840794   -0.02307521879197019   -0.006422269299511499
-0.1534783819840794   -0.02307521879197019   -0.006422269299511499
-0.1534783819840794   -0.02307521879197019   -0.006422269299511499
-0.1534783819840794   -0.02307521879197019   -0.006422269299511499
-0.15130717486319822   -0.005112393549127167   -0.006241161712898225
-0.15130717486319822   -0.005112393549127167   -0.006241161712898225
-0.15130717486319822   -0.005112393549127167   -0.006241161712898225
-0.15130717486319822   -0.005112393549127167   -0.006241161712898225
-0.2831499964273368   -0.02602279609043591   -0.027572929460867514
-0.2831499964273368   -0.02602279609043591   -0.027572929460867514
-0.2831499964273368   -0.02602279609043591   -0.027572929460867514
-0.2831499964273368   -0.02602279609043591   -0.027572929460867514
-0.18147831182678134   0.014788765530057958   0.006441659637964149
-0.18147831182678134   0.014788765530057958   0.006441659637964149
-0.18147831182678134   0.014788765530057958   0.006441659637964149
-0.18147831182678134   0.014788765530057958   0.006441659637964149
-0.19077003618908409   -0.012571523800151026   -0.012475548894425485
-0.19077003618908409   -0.012571523800151026   -0.012475548894425485
-0.19077003618908409   -0.012571523800151026   -0.012475548894425485
-0.19077003618908409   -0.012571523800151026   -0.012475548894425485
-0.30199702984748805   -0.03502155139491912   0.030480182261783492
-0.30199702984748805   -0.03502155139491912   0.030480182261783492
-0.30199702984748805   -0.03502155139491912   0.030480182261783492
-0.30199702984748805   -0.03502155139491912   0.030480182261783492
-0.21980785736106612   -0.008704620368049316   0.029777020651101195
-0.21980785736106612   -0.008704620368049316   0.029777020651101195
-0.21980785736106612   -0.008704620368049316   0.029777020651101195
-0.21980785736106612   -0.008704620368049316   0.029777020651101195
-0.31286559485095733   -0.03856030381977915   -0.02032389033070052
-0.31286559485095733   -0.03856030381977915   -0.02032389033070052
-0.31286559485095733   -0.03856030381977915   -0.02032389033070052
-0.31286559485095733   -0.03856030381977915   -0.02032389033070052
-0.1875723242560892   -0.016703624445763718   0.007645111416161645
-0.1875723242560892   -0.016703624445763718   0.007645111416161645
-0.1875723242560892   -0.016703624445763718   0.007645111416161645
-0.1875723242560892   -0.016703624445763718   0.007645111416161645
-0.19403845821745266   -0.01805086543246691   -0.009081921135382719
-0.19403845821745266   -0.01805086543246691   -0.009081921135382719
-0.19403845821745266   -0.01805086543246691   -0.009081921135382719
-0.19403845821745266   -0.01805086543246691   -0.009081921135382719
-0.31209927299902995   -0.04880253453963236   0.0004867160605442518
-0.31209927299902995   -0.04880253453963236   0.0004867160605442518
-0.31209927299902995   -0.04880253453963236   0.0004867160605442518
-0.31209927299902995   -0.04880253453963236   0.0004867160605442518
-0.24405137816569994   -0.029437286756054858   0.006974247685719479
-0.24405137816569994   -0.029437286756054858   0.006974247685719479
-0.24405137816569994   -0.029437286756054858   0.006974247685719479
-0.24405137816569994   -0.029437286756054858   0.006974247685719479
-0.31446252755155096   -0.04362142776712345   -0.01651066347456715
-0.31446252755155096   -0.04362142776712345   -0.01651066347456715
-0.31446252755155096   -0.04362142776712345   -0.01651066347456715
-0.31446252755155096   -0.04362142776712345   -0.01651066347456715
-0.19396516955674767   -0.025521938096791714   -0.0012444051675348407
-0.19396516955674767   -0.025521938096791714   -0.0012444051675348407
-0.19396516955674767   -0.025521938096791714   -0.0012444051675348407
-0.19396516955674767   -0.025521938096791714   -0.0012444051675348407
-0.19448396739196244   -0.031169759110250488   -0.006694648712800783
-0.19448396739196244   -0.031169759110250488   -0.006694648712800783
-0.19448396739196244   -0.031169759110250488   -0.006694648712800783
-0.19448396739196244   -0.031169759110250488   -0.006694648712800783
-0.3201685425460574   -0.07430553176605255   0.004490210831935662
-0.3201685425460574   -0.07430553176605255   0.004490210831935662
-0.3201685425460574   -0.07430553176605255   0.004490210831935662
-0.3201685425460574   -0.07430553176605255   0.004490210831935662
-0.24417361235316756   -0.040384716172252214   0.0006383763597178479
-0.24417361235316756   -0.040384716172252214   0.0006383763597178479
-0.24417361235316756   -0.040384716172252214   0.0006383763597178479
-0.24417361235316756   -0.040384716172252214   0.0006383763597178479
-0.19592180596627215   -0.033329539532997846   -0.017657505996432413
-0.19592180596627215   -0.033329539532997846   -0.017657505996432413
-0.19592180596627215   -0.033329539532997846   -0.017657505996432413
-0.19592180596627215   -0.033329539532997846   -0.017657505996432413
-0.13610303311735641   -0.0896620426331387   -0.01672866088836213
-0.13610303311735641   -0.0896620426331387   -0.01672866088836213
-0.13610303311735641   -0.0896620426331387   -0.01672866088836213
-0.13610303311735641   -0.0896620426331387   -0.01672866088836213
-0.1194502386193107   -0.019741300431581513   -0.001204473452185702
-0.1194502386193107   -0.019741300431581513   -0.001204473452185702
-0.1194502386193107   -0.019741300431581513   -0.001204473452185702
-0.1194502386193107   -0.019741300431581513   -0.001204473452185702
-0.2088731557997055   -0.09463967373754284   -0.020922997010140842
-0.2088731557997055   -0.09463967373754284   -0.020922997010140842
-0.2088731557997055   -0.09463967373754284   -0.020922997010140842
-0.2088731557997055   -0.09463967373754284   -0.020922997010140842
-0.16320839676777701   -0.06288448984675347   -0.004802263584699852
-0.16320839676777701   -0.06288448984675347   -0.004802263584699852
-0.16320839676777701   -0.06288448984675347   -0.004802263584699852
-0.16320839676777701   -0.06288448984675347   -0.004802263584699852
-0.1959213613953769   -0.0374628083679713   -0.013340890358068442
-0.1959213613953769   -0.0374628083679713   -0.013340890358068442
-0.1959213613953769   -0.0374628083679713   -0.013340890358068442
-0.1959213613953769   -0.0374628083679713   -0.013340890358068442
-0.13318825953015828   -0.07770439230767187   -0.011931486130333218
-0.13318825953015828   -0.07770439230767187   -0.011931486130333218
-0.13318825953015828   -0.07770439230767187   -0.011931486130333218
-0.13318825953015828   -0.07770439230767187   -0.011931486130333218
-0.12110190582803212   -0.02551833903771529   2.901572731200578e-05
-0.12110190582803212   -0.02551833903771529   2.901572731200578e-05
-0.12110190582803212   -0.02551833903771529   2.901572731200578e-05
-0.12110190582803212   -0.02551833903771529   2.901572731200578e-05
-0.20989832797243463   -0.09412730908733878   -0.012304826255422454
-0.20989832797243463   -0.09412730908733878   -0.012304826255422454
-0.20989832797243463   -0.09412730908733878   -0.012304826255422454
-0.20989832797243463   -0.09412730908733878   -0.012304826255422454
-0.16159508410262807   -0.05893801255112463   -0.005105513304278097
-0.16159508410262807   -0.05893801255112463   -0.005105513304278097
-0.16159508410262807   -0.05893801255112463   -0.005105513304278097
-0.16159508410262807   -0.05893801255112463   -0.005105513304278097
-0.19925424112373902   -0.043164124551812774   -0.010047576547468556
-0.19925424112373902   -0.043164124551812774   -0.010047576547468556
-0.19925424112373902   -0.043164124551812774   -0.010047576547468556
-0.19925424112373902   -0.043164124551812774   -0.010047576547468556
-0.13340190698068308   -0.07813743787719649   -0.00885189119646246
-0.13340190698068308   -0.07813743787719649   -0.00885189119646246
-0.13340190698068308   -0.07813743787719649   -0.00885189119646246
-0.13340190698068308   -0.07813743787719649   -0.00885189119646246
-0.12139022558878798   -0.032643227534185276   0.0017914447847001544
-0.12139022558878798   -0.032643227534185276   0.0017914447847001544
-0.12139022558878798   -0.032643227534185276   0.0017914447847001544
-0.12139022558878798   -0.032643227534185276   0.0017914447847001544
-0.20968216655757643   -0.09547665558565119   -0.01837874806547249
-0.20968216655757643   -0.09547665558565119   -0.01837874806547249
-0.20968216655757643   -0.09547665558565119   -0.01837874806547249
-0.20968216655757643   -0.09547665558565119   -0.01837874806547249
-0.16435624921074832   -0.06332933754891736   -0.00951665707257995
-0.16435624921074832   -0.06332933754891736   -0.00951665707257995
-0.16435624921074832   -0.06332933754891736   -0.00951665707257995
-0.16435624921074832   -0.06332933754891736   -0.00951665707257995
-0.11944503844136527   -0.02153796400938743   -0.0015627661321577526
-0.11944503844136527   -0.02153796400938743   -0.0015627661321577526
-0.11944503844136527   -0.02153796400938743   -0.0015627661321577526
-0.11944503844136527   -0.02153796400938743   -0.0015627661321577526
-0.10169395717770248   -0.06891461893126159   -0.011892686288243089
-0.10169395717770248   -0.06891461893126159   -0.011892686288243089
-0.10169395717770248   -0.06891461893126159   -0.011892686288243089
-0.10169395717770248   -0.06891461893126159   -0.011892686288243089
-0.08770902303657581   -0.018119270288640396   0.004586863754996865
-0.08770902303657581   -0.018119270288640396   0.004586863754996865
-0.08770902303657581   -0.018119270288640396   0.004586863754996865
-0.08770902303657581   -0.018119270288640396   0.004586863754996865
-0.13277568442274412   -0.07453518356510194   -0.013037819335832394
-0.13277568442274412   -0.07453518356510194   -0.013037819335832394
-0.13277568442274412   -0.07453518356510194   -0.013037819335832394
-0.13277568442274412   -0.07453518356510194   -0.013037819335832394
-0.10993988347105844   -0.04636362831313991   -0.0054594090663680345
-0.10993988347105844   -0.04636362831313991   -0.0054594090663680345
-0.10993988347105844   -0.04636362831313991   -0.0054594090663680345
-0.10993988347105844   -0.04636362831313991   -0.0054594090663680345
-0.12032947475058114   -0.025524270242053938   0.00018231570193448716
-0.12032947475058114   -0.025524270242053938   0.00018231570193448716
-0.12032947475058114   -0.025524270242053938   0.00018231570193448716
-0.12032947475058114   -0.025524270242053938   0.00018231570193448716
-0.1008632992329608   -0.06783825013591041   -0.011465537379658065
-0.1008632992329608   -0.06783825013591041   -0.011465537379658065
-0.1008632992329608   -0.06783825013591041   -0.011465537379658065
-0.1008632992329608   -0.06783825013591041   -0.011465537379658065
-0.08800947790234909   -0.02287849934361334   0.005965632621199055
-0.08800947790234909   -0.02287849934361334   0.005965632621199055
-0.08800947790234909   -0.02287849934361334   0.005965632621199055
-0.08800947790234909   -0.02287849934361334   0.005965632621199055
-0.13346404780733623   -0.07571188990224179   -0.011588143304682825
-0.13346404780733623   -0.07571188990224179   -0.011588143304682825
-0.13346404780733623   -0.07571188990224179   -0.011588143304682825
-0.13346404780733623   -0.07571188990224179   -0.011588143304682825
-0.109973757643856   -0.04811696161916892   -0.007091370305732996
-0.109973757643856   -0.04811696161916892   -0.007091370305732996
-0.109973757643856   -0.04811696161916892   -0.007091370305732996
-0.109973757643856   -0.04811696161916892   -0.007091370305732996
-0.12163548876163757   -0.03035689636283221   0.0021996583844008477
-0.12163548876163757   -0.03035689636283221   0.0021996583844008477
-0.12163548876163757   -0.03035689636283221   0.0021996583844008477
-0.12163548876163757   -0.03035689636283221   0.0021996583844008477
-0.10023153289179818   -0.06862698882677497   -0.009396152842882928
-0.10023153289179818   -0.06862698882677497   -0.009396152842882928
-0.10023153289179818   -0.06862698882677497   -0.009396152842882928
-0.10023153289179818   -0.06862698882677497   -0.009396152842882928
-0.08727820788099423   -0.027386342371387276   0.007477599551064126
-0.08727820788099423   -0.027386342371387276   0.007477599551064126
-0.08727820788099423   -0.027386342371387276   0.007477599551064126
-0.08727820788099423   -0.027386342371387276   0.007477599551064126
-0.13219870820201607   -0.07659202662527982   -0.00830216919034575
-0.13219870820201607   -0.07659202662527982   -0.00830216919034575
-0.13219870820201607   -0.07659202662527982   -0.00830216919034575
-0.13219870820201607   -0.07659202662527982   -0.00830216919034575
-0.10994545780180262   -0.05047258948394539   -0.00826512860902655
-0.10994545780180262   -0.05047258948394539   -0.00826512860902655
-0.10994545780180262   -0.05047258948394539   -0.00826512860902655
-0.10994545780180262   -0.05047258948394539   -0.00826512860902655
-0.08444984043550252   -0.002874396534537107   0.00828767502603223
-0.08444984043550252   -0.002874396534537107   0.00828767502603223
-0.08444984043550252   -0.002874396534537107   0.00828767502603223
-0.08444984043550252   -0.002874396534537107   0.00828767502603223
-0.081363612432613   -0.03678728610878291   -0.007258278419544494
-0.081363612432613   -0.03678728610878291   -0.007258278419544494
-0.081363612432613   -0.03678728610878291   -0.007258278419544494
-0.081363612432613   -0.03678728610878291   -0.007258278419544494
-0.07041871262955943   -0.0053154530930441864   0.009550795218664053
-0.07041871262955943   -0.0053154530930441864   0.009550795218664053
-0.07041871262955943   -0.0053154530930441864   0.009550795218664053
-0.07041871262955943   -0.0053154530930441864   0.009550795218664053
-0.09444341898773943   -0.0421206095212195   -0.005083776768242155
-0.09444341898773943   -0.0421206095212195   -0.005083776768242155
-0.09444341898773943   -0.0421206095212195   -0.005083776768242155
-0.09444341898773943   -0.0421206095212195   -0.005083776768242155
-0.08293264908027821   -0.02154836450057836   -0.002977811513663815
-0.08293264908027821   -0.02154836450057836   -0.002977811513663815
-0.08293264908027821   -0.02154836450057836   -0.002977811513663815
-0.08293264908027821   -0.02154836450057836   -0.002977811513663815
-0.08472466901662834   -0.008174108917476683   0.009563472483570486
-0.08472466901662834   -0.008174108917476683   0.009563472483570486
-0.08472466901662834   -0.008174108917476683   0.009563472483570486
-0.08472466901662834   -0.008174108917476683   0.009563472483570486
-0.0809069051422111   -0.0400313962383276   -0.008174224199310944
-0.0809069051422111   -0.0400313962383276   -0.008174224199310944
-0.0809069051422111   -0.0400313962383276   -0.008174224199310944
-0.0809069051422111   -0.0400313962383276   -0.008174224199310944
-0.07077705008325917   -0.009961526630784362   0.010285371466007281
-0.07077705008325917   -0.009961526630784362   0.010285371466007281
-0.07077705008325917   -0.009961526630784362   0.010285371466007281
-0.07077705008325917   -0.009961526630784362   0.010285371466007281
-0.09468910614080689   -0.0447066326505484   -0.005604375264154916
-0.09468910614080689   -0.0447066326505484   -0.005604375264154916
-0.09468910614080689   -0.0447066326505484   -0.005604375264154916
-0.09468910614080689   -0.0447066326505484   -0.005604375264154916
-0.08280746345894988   -0.025255046639247696   -0.005079107391905106
-0.08280746345894988   -0.025255046639247696   -0.005079107391905106
-0.08280746345894988   -0.025255046639247696   -0.005079107391905106
-0.08280746345894988   -0.025255046639247696   -0.005079107391905106
-0.0849889720936829   -0.01268587738490604   0.010875539705822638
-0.0849889720936829   -0.01268587738490604   0.010875539705822638
-0.0849889720936829   -0.01268587738490604   0.010875539705822638
-0.0849889720936829   -0.01268587738490604   0.010875539705822638
-0.08094437855238121   -0.04244947631842478   -0.008063321191962479
-0.08094437855238121   -0.04244947631842478   -0.008063321191962479
-0.08094437855238121   -0.04244947631842478   -0.008063321191962479
-0.08094437855238121   -0.04244947631842478   -0.008063321191962479
-0.07045089699903431   -0.01433424960136092   0.01193142153561942
-0.07045089699903431   -0.01433424960136092   0.01193142153561942
-0.07045089699903431   -0.01433424960136092   0.01193142153561942
-0.07045089699903431   -0.01433424960136092   0.01193142153561942
-0.09350660883371384   -0.04727081443167505   -0.0037799331522461593
-0.09350660883371384   -0.04727081443167505   -0.0037799331522461593
-0.09350660883371384   -0.04727081443167505   -0.0037799331522461593
-0.09350660883371384   -0.04727081443167505   -0.0037799331522461593
-0.08285324138982297   -0.028490909874999925   -0.006576385584826725
-0.08285324138982297   -0.028490909874999925   -0.006576385584826725
-0.08285324138982297   -0.028490909874999925   -0.006576385584826725
-0.08285324138982297   -0.028490909874999925   -0.006576385584826725
-0.06802425797568637   0.00963202582354851   0.013019181932757203
-0.06802425797568637   0.00963202582354851   0.013019181932757203
-0.06802425797568637   0.00963202582354851   0.013019181932757203
-0.06802425797568637   0.00963202582354851   0.013019181932757203
-0.047261899364582596   -0.01232621445322192   -0.004565675134817559
-0.047261899364582596   -0.01232621445322192   -0.004565675134817559
-0.047261899364582596   -0.01232621445322192   -0.004565675134817559
-0.047261899364582596   -0.01232621445322192   -0.004565675134817559
-0.04182524767089792   0.010920622697231697   0.012892161101041823
-0.04182524767089792   0.010920622697231697   0.012892161101041823
-0.04182524767089792   0.010920622697231697   0.012892161101041823
-0.04182524767089792   0.010920622697231697   0.012892161101041823
-0.07541587197597541   -0.018365984583332988   -0.002384470023127042
-0.07541587197597541   -0.018365984583332988   -0.002384470023127042
-0.07541587197597541   -0.018365984583332988   -0.002384470023127042
-0.07541587197597541   -0.018365984583332988   -0.002384470023127042
-0.057249112983141136   -0.0012468094405261136   -0.0022333283051355606
-0.057249112983141136   -0.0012468094405261136   -0.0022333283051355606
-0.057249112983141136   -0.0012468094405261136   -0.0022333283051355606
-0.057249112983141136   -0.0012468094405261136   -0.0022333283051355606
-0.06720077705519853   0.0061100738330400715   0.014214946164384297
-0.06720077705519853   0.0061100738330400715   0.014214946164384297
-0.06720077705519853   0.0061100738330400715   0.014214946164384297
-0.06720077705519853   0.0061100738330400715   0.014214946164384297
-0.050138535393971825   -0.01365362852143711   -0.0041000262956550635
-0.050138535393971825   -0.01365362852143711   -0.0041000262956550635
-0.050138535393971825   -0.01365362852143711   -0.0041000262956550635
-0.050138535393971825   -0.01365362852143711   -0.0041000262956550635
-0.04387970900414804   0.008612766618315632   0.016200086596866496
-0.04387970900414804   0.008612766618315632   0.016200086596866496
-0.04387970900414804   0.008612766618315632   0.016200086596866496
-0.04387970900414804   0.008612766618315632   0.016200086596866496
-0.07535554713503152   -0.019592472561191072   -0.0029761678624477712
-0.07535554713503152   -0.019592472561191072   -0.0029761678624477712
-0.07535554713503152   -0.019592472561191072   -0.0029761678624477712
-0.07535554713503152   -0.019592472561191072   -0.0029761678624477712
-0.05924520594421649   -0.00375940021371181   -0.0033118120961212302
-0.05924520594421649   -0.00375940021371181   -0.0033118120961212302
-0.05924520594421649   -0.00375940021371181   -0.0033118120961212302
-0.05924520594421649   -0.00375940021371181   -0.0033118120961212302
-0.06675837062381795   0.004067054501245129   0.0163501876311839
-0.06675837062381795   0.004067054501245129   0.0163501876311839
-0.06675837062381795   0.004067054501245129   0.0163501876311839
-0.06675837062381795   0.004067054501245129   0.0163501876311839
-0.05306579804261851   -0.015635672971376826   -0.005481919005789555
-0.05306579804261851   -0.015635672971376826   -0.005481919005789555
-0.05306579804261851   -0.015635672971376826   -0.005481919005789555
-0.05306579804261851   -0.015635672971376826   -0.005481919005789555
-0.05010396094892694   0.002256575266539257   0.016862279957883308
-0.05010396094892694   0.002256575266539257   0.016862279957883308
-0.05010396094892694   0.002256575266539257   0.016862279957883308
-0.05010396094892694   0.002256575266539257   0.016862279957883308
-0.07462020912615587   -0.02078399721526393   -0.0024653914860853117
-0.07462020912615587   -0.02078399721526393   -0.0024653914860853117
-0.07462020912615587   -0.02078399721526393   -0.0024653914860853117
-0.07462020912615587   -0.02078399721526393   -0.0024653914860853117
-0.060314952087178325   -0.005629903355328978   -0.004959904502097955
-0.060314952087178325   -0.005629903355328978   -0.004959904502097955
-0.060314952087178325   -0.005629903355328978   -0.004959904502097955
-0.060314952087178325   -0.005629903355328978   -0.004959904502097955
-0.6791836071308281   -0.09753248962658781   -0.057459320841217916
-0.6791836071308281   -0.09753248962658781   -0.057459320841217916
-0.6791836071308281   -0.09753248962658781   -0.057459320841217916
-0.6791836071308281   -0.09753248962658781   -0.057459320841217916
-0.23747617036926755   -0.3874999774316744   -0.0447046937573386
-0.23747617036926755   -0.3874999774316744   -0.0447046937573386
-0.23747617036926755   -0.3874999774316744   -0.0447046937573386
-0.23747617036926755   -0.3874999774316744   -0.0447046937573386
-0.1815916245357294   -0.017025268736345307   5.619024289391268e-05
-0.1815916245357294   -0.017025268736345307   5.619024289391268e-05
-0.1815916245357294   -0.017025268736345307   5.619024289391268e-05
-0.1815916245357294   -0.017025268736345307   5.619024289391268e-05
-0.7289376289679952   -0.4525291430876035   -0.23629335441111973
-0.7289376289679952   -0.4525291430876035   -0.23629335441111973
-0.7289376289679952   -0.4525291430876035   -0.23629335441111973
-0.7289376289679952   -0.4525291430876035   -0.23629335441111973
-0.4453083174636054   -0.2247084187279107   -0.032796729019089844
-0.4453083174636054   -0.2247084187279107   -0.032796729019089844
-0.4453083174636054   -0.2247084187279107   -0.032796729019089844
-0.4453083174636054   -0.2247084187279107   -0.032796729019089844
-0.631317672828472   -0.12260521650307932   -0.07811750029803338
-0.631317672828472   -0.12260521650307932   -0.07811750029803338
-0.631317672828472   -0.12260521650307932   -0.07811750029803338
-0.631317672828472   -0.12260521650307932   -0.07811750029803338
-0.2570190827838592   -0.32475669742947677   -0.069349672304622
-0.2570190827838592   -0.32475669742947677   -0.069349672304622
-0.2570190827838592   -0.32475669742947677   -0.069349672304622
-0.2570190827838592   -0.32475669742947677   -0.069349672304622
-0.18575834236361313   -0.02225204696655904   0.0068982232904978204
-0.18575834236361313   -0.02225204696655904   0.0068982232904978204
-0.18575834236361313   -0.02225204696655904   0.0068982232904978204
-0.18575834236361313   -0.02225204696655904   0.0068982232904978204
-0.6824552189244266   -0.4052804474275002   -0.21754713327038536
-0.6824552189244266   -0.4052804474275002   -0.21754713327038536
-0.6824552189244266   -0.4052804474275002   -0.21754713327038536
-0.6824552189244266   -0.4052804474275002   -0.21754713327038536
-0.41970455615084495   -0.20315099319286706   0.016582004554977554
-0.41970455615084495   -0.20315099319286706   0.016582004554977554
-0.41970455615084495   -0.20315099319286706   0.016582004554977554
-0.41970455615084495   -0.20315099319286706   0.016582004554977554
-0.5929593912769368   -0.11678465824950962   -0.0585637842109315
-0.5929593912769368   -0.11678465824950962   -0.0585637842109315
-0.5929593912769368   -0.11678465824950962   -0.0585637842109315
-0.5929593912769368   -0.11678465824950962   -0.0585637842109315
-0.25054161623506527   -0.28603528236851244   -0.05323491066480801
-0.25054161623506527   -0.28603528236851244   -0.05323491066480801
-0.25054161623506527   -0.28603528236851244   -0.05323491066480801
-0.25054161623506527   -0.28603528236851244   -0.05323491066480801
-0.21464727998723931   -0.056411051403678115   -0.011558649915010396
-0.21464727998723931   -0.056411051403678115   -0.011558649915010396
-0.21464727998723931   -0.056411051403678115   -0.011558649915010396
-0.21464727998723931   -0.056411051403678115   -0.011558649915010396
-0.6222111346306879   -0.34271272289397514   -0.1929847715049326
-0.6222111346306879   -0.34271272289397514   -0.1929847715049326
-0.6222111346306879   -0.34271272289397514   -0.1929847715049326
-0.6222111346306879   -0.34271272289397514   -0.1929847715049326
-0.3890883583134024   -0.176519959215444   0.07251404771481715
-0.3890883583134024   -0.176519959215444   0.07251404771481715
-0.3890883583134024   -0.176519959215444   0.07251404771481715
-0.3890883583134024   -0.176519959215444   0.07251404771481715
-0.17318252207237356   -0.09656624515614884   -0.01417018454839562
-0.17318252207237356   -0.09656624515614884   -0.01417018454839562
-0.17318252207237356   -0.09656624515614884   -0.01417018454839562
-0.17318252207237356   -0.09656624515614884   -0.01417018454839562
-0.08166249951619808   -0.12696968111400983   -0.020252830998436062
-0.08166249951619808   -0.12696968111400983   -0.020252830998436062
-0.08166249951619808   -0.12696968111400983   -0.020252830998436062
-0.08166249951619808   -0.12696968111400983   -0.020252830998436062
-0.07104261106022162   -0.06254770726841682   0.0017062905960091527
-0.07104261106022162   -0.06254770726841682   0.0017062905960091527
-0.07104261106022162   -0.06254770726841682   0.0017062905960091527
-0.07104261106022162   -0.06254770726841682   0.0017062905960091527
-0.21448955760901084   -0.1823761401174206   0.0009173962575634922
-0.21448955760901084   -0.1823761401174206   0.0009173962575634922
-0.21448955760901084   -0.1823761401174206   0.0009173962575634922
-0.21448955760901084   -0.1823761401174206   0.0009173962575634922
-0.11448861496351265   -0.08802365750550714   0.037245937580324025
-0.11448861496351265   -0.08802365750550714   0.037245937580324025
-0.11448861496351265   -0.08802365750550714   0.037245937580324025
-0.11448861496351265   -0.08802365750550714   0.037245937580324025
-0.19804760482422165   -0.09011646677300113   -0.009132513162912305
-0.19804760482422165   -0.09011646677300113   -0.009132513162912305
-0.19804760482422165   -0.09011646677300113   -0.009132513162912305
-0.19804760482422165   -0.09011646677300113   -0.009132513162912305
-0.09371401344077851   -0.16103683020860435   -0.013161598366587719
-0.09371401344077851   -0.16103683020860435   -0.013161598366587719
-0.09371401344077851   -0.16103683020860435   -0.013161598366587719
-0.09371401344077851   -0.16103683020860435   -0.013161598366587719
-0.0771984817893359   -0.06475510939975068   0.001856325999415485
-0.0771984817893359   -0.06475510939975068   0.001856325999415485
-0.0771984817893359   -0.06475510939975068   0.001856325999415485
-0.0771984817893359   -0.06475510939975068   0.001856325999415485
-0.2256645509169929   -0.18063119999800448   -0.03425366644495422
-0.2256645509169929   -0.18063119999800448   -0.03425366644495422
-0.2256645509169929   -0.18063119999800448   -0.03425366644495422
-0.2256645509169929   -0.18063119999800448   -0.03425366644495422
-0.13741839701850284   -0.11237743402762694   0.016576216592519365
-0.13741839701850284   -0.11237743402762694   0.016576216592519365
-0.13741839701850284   -0.11237743402762694   0.016576216592519365
-0.13741839701850284   -0.11237743402762694   0.016576216592519365
-0.20493999233116583   -0.0941059095089706   -0.017156164004854202
-0.20493999233116583   -0.0941059095089706   -0.017156164004854202
-0.20493999233116583   -0.0941059095089706   -0.017156164004854202
-0.20493999233116583   -0.0941059095089706   -0.017156164004854202
-0.09736603830382778   -0.15072339781744962   -0.013013168155344996
-0.09736603830382778   -0.15072339781744962   -0.013013168155344996
-0.09736603830382778   -0.15072339781744962   -0.013013168155344996
-0.09736603830382778   -0.15072339781744962   -0.013013168155344996
-0.0868396362611898   -0.06668207271740106   0.0027516359793953345
-0.0868396362611898   -0.06668207271740106   0.0027516359793953345
-0.0868396362611898   -0.06668207271740106   0.0027516359793953345
-0.0868396362611898   -0.06668207271740106   0.0027516359793953345
-0.24214893281438973   -0.17594053995622438   -0.029537425498215197
-0.24214893281438973   -0.17594053995622438   -0.029537425498215197
-0.24214893281438973   -0.17594053995622438   -0.029537425498215197
-0.24214893281438973   -0.17594053995622438   -0.029537425498215197
-0.14441315635294408   -0.1060174056002671   0.01745187413950589
-0.14441315635294408   -0.1060174056002671   0.01745187413950589
-0.14441315635294408   -0.1060174056002671   0.01745187413950589
-0.14441315635294408   -0.1060174056002671   0.01745187413950589
-0.06295692343088068   -0.057939667717849676   0.004245036031990822
-0.06295692343088068   -0.057939667717849676   0.004245036031990822
-0.06295692343088068   -0.057939667717849676   0.004245036031990822
-0.06295692343088068   -0.057939667717849676   0.004245036031990822
-0.0397731979042602   -0.041972325472486194   -0.010006738192378298
-0.0397731979042602   -0.041972325472486194   -0.010006738192378298
-0.0397731979042602   -0.041972325472486194   -0.010006738192378298
-0.0397731979042602   -0.041972325472486194   -0.010006738192378298
-0.038116612516416036   -0.05216110836522558   0.004173484757221358
-0.038116612516416036   -0.05216110836522558   0.004173484757221358
-0.038116612516416036   -0.05216110836522558   0.004173484757221358
-0.038116612516416036   -0.05216110836522558   0.004173484757221358
-0.07088800015673385   -0.056136972709356345   -0.003931389445612481
-0.07088800015673385   -0.056136972709356345   -0.003931389445612481
-0.07088800015673385   -0.056136972709356345   -0.003931389445612481
-0.07088800015673385   -0.056136972709356345   -0.003931389445612481
-0.04454659897540209   -0.043779729806885714   0.018781877186072743
-0.04454659897540209   -0.043779729806885714   0.018781877186072743
-0.04454659897540209   -0.043779729806885714   0.018781877186072743
-0.04454659897540209   -0.043779729806885714   0.018781877186072743
-0.06961743041086463   -0.058365892983903746   0.004650379558279133
-0.06961743041086463   -0.058365892983903746   0.004650379558279133
-0.06961743041086463   -0.058365892983903746   0.004650379558279133
-0.06961743041086463   -0.058365892983903746   0.004650379558279133
-0.04009580909664878   -0.05064081492504203   -0.007242791584125965
-0.04009580909664878   -0.05064081492504203   -0.007242791584125965
-0.04009580909664878   -0.05064081492504203   -0.007242791584125965
-0.04009580909664878   -0.05064081492504203   -0.007242791584125965
-0.03885147022394713   -0.05371963545287794   0.0037605513587511755
-0.03885147022394713   -0.05371963545287794   0.0037605513587511755
-0.03885147022394713   -0.05371963545287794   0.0037605513587511755
-0.03885147022394713   -0.05371963545287794   0.0037605513587511755
-0.07574316399578333   -0.0652184433305872   0.009596248898014805
-0.07574316399578333   -0.0652184433305872   0.009596248898014805
-0.07574316399578333   -0.0652184433305872   0.009596248898014805
-0.07574316399578333   -0.0652184433305872   0.009596248898014805
-0.0489519787014292   -0.04888513377124919   0.015604192146139555
-0.0489519787014292   -0.04888513377124919   0.015604192146139555
-0.0489519787014292   -0.04888513377124919   0.015604192146139555
-0.0489519787014292   -0.04888513377124919   0.015604192146139555
-0.07547788176161088   -0.06054682057041945   0.006251037308707387
-0.07547788176161088   -0.06054682057041945   0.006251037308707387
-0.07547788176161088   -0.06054682057041945   0.006251037308707387
-0.07547788176161088   -0.06054682057041945   0.006251037308707387
-0.04249910642520624   -0.061773612180132664   -0.006423652920289662
-0.04249910642520624   -0.061773612180132664   -0.006423652920289662
-0.04249910642520624   -0.061773612180132664   -0.006423652920289662
-0.04249910642520624   -0.061773612180132664   -0.006423652920289662
-0.039839454901310745   -0.055393968773912186   0.005328866765787104
-0.039839454901310745   -0.055393968773912186   0.005328866765787104
-0.039839454901310745   -0.055393968773912186   0.005328866765787104
-0.039839454901310745   -0.055393968773912186   0.005328866765787104
-0.0893982219112855   -0.07954036639594807   0.0028170014074638296
-0.0893982219112855   -0.07954036639594807   0.0028170014074638296
-0.0893982219112855   -0.07954036639594807   0.0028170014074638296
-0.0893982219112855   -0.07954036639594807   0.0028170014074638296
-0.055204714669186215   -0.05548372663789885   0.006945689238501529
-0.055204714669186215   -0.05548372663789885   0.006945689238501529
-0.055204714669186215   -0.05548372663789885   0.006945689238501529
-0.055204714669186215   -0.05548372663789885   0.006945689238501529
-0.03176206102498615   -0.02316666333087227   0.011243284062377994
-0.03176206102498615   -0.02316666333087227   0.011243284062377994
-0.03176206102498615   -0.02316666333087227   0.011243284062377994
-0.03176206102498615   -0.02316666333087227   0.011243284062377994
-0.023265126067908596   -0.002161325230963186   -0.002310354618162399
-0.023265126067908596   -0.002161325230963186   -0.002310354618162399
-0.023265126067908596   -0.002161325230963186   -0.002310354618162399
-0.023265126067908596   -0.002161325230963186   -0.002310354618162399
-0.022007971201286697   -0.02523198250060944   0.006923910548355435
-0.022007971201286697   -0.02523198250060944   0.006923910548355435
-0.022007971201286697   -0.02523198250060944   0.006923910548355435
-0.022007971201286697   -0.02523198250060944   0.006923910548355435
-0.030072689302934264   -0.006746530135816263   -0.0010214774047791135
-0.030072689302934264   -0.006746530135816263   -0.0010214774047791135
-0.030072689302934264   -0.006746530135816263   -0.0010214774047791135
-0.030072689302934264   -0.006746530135816263   -0.0010214774047791135
-0.02470739900605944   -0.013554826541031907   0.005571652711199279
-0.02470739900605944   -0.013554826541031907   0.005571652711199279
-0.02470739900605944   -0.013554826541031907   0.005571652711199279
-0.02470739900605944   -0.013554826541031907   0.005571652711199279
-0.031671319181991044   -0.026418054661331045   0.01065689772545176
-0.031671319181991044   -0.026418054661331045   0.01065689772545176
-0.031671319181991044   -0.026418054661331045   0.01065689772545176
-0.031671319181991044   -0.026418054661331045   0.01065689772545176
-0.019902807753504385   -0.005053924406369131   -0.0027283303069733293
-0.019902807753504385   -0.005053924406369131   -0.0027283303069733293
-0.019902807753504385   -0.005053924406369131   -0.0027283303069733293
-0.019902807753504385   -0.005053924406369131   -0.0027283303069733293
-0.020446709598535524   -0.027450478601922096   0.006433998436705249
-0.020446709598535524   -0.027450478601922096   0.006433998436705249
-0.020446709598535524   -0.027450478601922096   0.006433998436705249
-0.020446709598535524   -0.027450478601922096   0.006433998436705249
-0.030651653752499904   -0.011445170172169047   0.0024851684352784186
-0.030651653752499904   -0.011445170172169047   0.0024851684352784186
-0.030651653752499904   -0.011445170172169047   0.0024851684352784186
-0.030651653752499904   -0.011445170172169047   0.0024851684352784186
-0.02301614689646348   -0.015613050595301079   0.006410018745970623
-0.02301614689646348   -0.015613050595301079   0.006410018745970623
-0.02301614689646348   -0.015613050595301079   0.006410018745970623
-0.02301614689646348   -0.015613050595301079   0.006410018745970623
-0.03214194402478097   -0.02863217982847619   0.012220726730180237
-0.03214194402478097   -0.02863217982847619   0.012220726730180237
-0.03214194402478097   -0.02863217982847619   0.012220726730180237
-0.03214194402478097   -0.02863217982847619   0.012220726730180237
-0.01920383890588451   -0.010510888525245007   -0.004291238176716768
-0.01920383890588451   -0.010510888525245007   -0.004291238176716768
-0.01920383890588451   -0.010510888525245007   -0.004291238176716768
-0.01920383890588451   -0.010510888525245007   -0.004291238176716768
-0.01759162697579929   -0.02990875682524494   0.007115373021989823
-0.01759162697579929   -0.02990875682524494   0.007115373021989823
-0.01759162697579929   -0.02990875682524494   0.007115373021989823
-0.01759162697579929   -0.02990875682524494   0.007115373021989823
-0.03367936056811695   -0.022466374191092358   0.003201743848936272
-0.03367936056811695   -0.022466374191092358   0.003201743848936272
-0.03367936056811695   -0.022466374191092358   0.003201743848936272
-0.03367936056811695   -0.022466374191092358   0.003201743848936272
-0.022577260035489783   -0.019563855457882938   0.005262279902314919
-0.022577260035489783   -0.019563855457882938   0.005262279902314919
-0.022577260035489783   -0.019563855457882938   0.005262279902314919
-0.022577260035489783   -0.019563855457882938   0.005262279902314919
-0.02085332184915053   -0.003844913061866511   0.011432254306531255
-0.02085332184915053   -0.003844913061866511   0.011432254306531255
-0.02085332184915053   -0.003844913061866511   0.011432254306531255
-0.02085332184915053   -0.003844913061866511   0.011432254306531255
-0.0043855641686800055   0.002043831975958928   -0.0002315109556995052
-0.0043855641686800055   0.002043831975958928   -0.0002315109556995052
-0.0043855641686800055   0.002043831975958928   -0.0002315109556995052
-0.0043855641686800055   0.002043831975958928   -0.0002315109556995052
0.00035417989389160856   -0.00130262862836442   0.007162257881848783
0.00035417989389160856   -0.00130262862836442   0.007162257881848783
0.00035417989389160856   -0.00130262862836442   0.007162257881848783
0.00035417989389160856   -0.00130262862836442   0.007162257881848783
-0.018213971987983912   0.0012748190585372687   -0.0006128949442773717
-0.018213971987983912   0.0012748190585372687   -0.0006128949442773717
-0.018213971987983912   0.0012748190585372687   -0.0006128949442773717
-0.018213971987983912   0.0012748190585372687   -0.0006128949442773717
-0.010914283926020157   -0.0009013913374588439   -0.0008065172395232534
-0.010914283926020157   -0.0009013913374588439   -0.0008065172395232534
-0.010914283926020157   -0.0009013913374588439   -0.0008065172395232534
-0.010914283926020157   -0.0009013913374588439   -0.0008065172395232534
-0.01671608537501561   -0.003765718185580089   0.011917075364677659
-0.01671608537501561   -0.003765718185580089   0.011917075364677659
-0.01671608537501561   -0.003765718185580089   0.011917075364677659
-0.01671608537501561   -0.003765718185580089   0.011917075364677659
-0.0005386670589125498   0.004342948275917081   -0.002947553786449675
-0.0005386670589125498   0.004342948275917081   -0.002947553786449675
-0.0005386670589125498   0.004342948275917081   -0.002947553786449675
-0.0005386670589125498   0.004342948275917081   -0.002947553786449675
0.002570799981493248   -0.001643183613178644   0.008843929761089598
0.002570799981493248   -0.001643183613178644   0.008843929761089598
0.002570799981493248   -0.001643183613178644   0.008843929761089598
0.002570799981493248   -0.001643183613178644   0.008843929761089598
-0.016292906074496655   0.0006234187873962183   -0.0008708813324187134
-0.016292906074496655   0.0006234187873962183   -0.0008708813324187134
-0.016292906074496655   0.0006234187873962183   -0.0008708813324187134
-0.016292906074496655   0.0006234187873962183   -0.0008708813324187134
-0.007591446728978047   -0.00038717470345335254   0.0010499649149816874
-0.007591446728978047   -0.00038717470345335254   0.0010499649149816874
-0.007591446728978047   -0.00038717470345335254   0.0010499649149816874
-0.007591446728978047   -0.00038717470345335254   0.0010499649149816874
-0.014523426122629204   -0.004259022786131754   0.012858960000446501
-0.014523426122629204   -0.004259022786131754   0.012858960000446501
-0.014523426122629204   -0.004259022786131754   0.012858960000446501
-0.014523426122629204   -0.004259022786131754   0.012858960000446501
0.0013136390360332243   0.0037515769667567523   -0.00283663554614592
0.0013136390360332243   0.0037515769667567523   -0.00283663554614592
0.0013136390360332243   0.0037515769667567523   -0.00283663554614592
0.0013136390360332243   0.0037515769667567523   -0.00283663554614592
0.004672556071105468   -0.002701863121196345   0.008652513786991289
0.004672556071105468   -0.002701863121196345   0.008652513786991289
0.004672556071105468   -0.002701863121196345   0.008652513786991289
0.004672556071105468   -0.002701863121196345   0.008652513786991289
-0.013193848775021107   0.00015214137177573233   -0.0009566341711399399
-0.013193848775021107   0.00015214137177573233   -0.0009566341711399399
-0.013193848775021107   0.00015214137177573233   -0.0009566341711399399
-0.013193848775021107   0.00015214137177573233   -0.0009566341711399399
-0.004688046527418168   -0.00017882723329976351   0.0025944886608577343
-0.004688046527418168   -0.00017882723329976351   0.0025944886608577343
-0.004688046527418168   -0.00017882723329976351   0.0025944886608577343
-0.004688046527418168   -0.00017882723329976351   0.0025944886608577343
              </DataArray>   
             <DataArray type="Float64" NumberOfComponents="3" Name="Displacements" format="ascii">   
0.0   0.0   0.0
-0.0019022974232711166   -0.0012563070229923469   -0.0006377611466564443
0.0   0.0   0.0
0.0   0.0   0.0
-0.0019022974232711166   -0.0012563070229923469   -0.0006377611466564443
-0.0012096945796596522   -0.0011304872240838835   -0.000468662249932649
0.0   0.0   0.0
-0.0011852386401799825   -0.0011867366777907808   -0.0003928105159479386
0.0   0.0   0.0
0.0   0.0   0.0
-0.0011852386401799825   -0.0011867366777907808   -0.0003928105159479386
0.0   0.0   0.0
0.0   0.0   0.0
-0.0011852386401799825   -0.0011867366777907808   -0.0003928105159479386
-0.0019901862908301604   -0.0013380241105899464   -0.0005122917070120549
-0.0019022974232711166   -0.0012563070229923469   -0.0006377611466564443
0.0   0.0   0.0
-0.0011852386401799825   -0.0011867366777907808   -0.0003928105159479386
-0.0019022974232711166   -0.0012563070229923469   -0.0006377611466564443
0.0   0.0   0.0
0.0   0.0   0.0
-0.0019901862908301604   -0.0013380241105899464   -0.0005122917070120549
0.0   0.0   0.0
0.0   0.0   0.0
-0.0019901862908301604   -0.0013380241105899464   -0.0005122917070120549
-0.0011852386401799825   -0.0011867366777907808   -0.0003928105159479386
0.0   0.0   0.0
-0.0011880058530794174   -0.0012156289544589442   -0.00031713364311300175
0.0   0.0   0.0
0.0   0.0   0.0
-0.0011880058530794174   -0.0012156289544589442   -0.00031713364311300175
0.0   0.0   0.0
0.0   0.0   0.0
-0.0011880058530794174   -0.0012156289544589442   -0.00031713364311300175
-0.0020516456405147224   -0.0013777916008923046   -0.0003921969802885427
-0.0019901862908301604   -0.0013380241105899464   -0.0005122917070120549
0.0   0.0   0.0
-0.0011880058530794174   -0.0012156289544589442   -0.00031713364311300175
-0.0019901862908301604   -0.0013380241105899464   -0.0005122917070120549
0.0   0.0   0.0
0.0   0.0   0.0
-0.0020516456405147224   -0.0013777916008923046   -0.0003921969802885427
0.0   0.0   0.0
0.0   0.0   0.0
-0.0020516456405147224   -0.0013777916008923046   -0.0003921969802885427
-0.0011880058530794174   -0.0012156289544589442   -0.00031713364311300175
0.0   0.0   0.0
-0.0011867328085002741   -0.0012231438470450037   -0.00023896455260209203
0.0   0.0   0.0
0.0   0.0   0.0
-0.0011867328085002741   -0.0012231438470450037   -0.00023896455260209203
0.0   0.0   0.0
0.0   0.0   0.0
-0.0011867328085002741   -0.0012231438470450037   -0.00023896455260209203
-0.0021846170030031934   -0.00140813316317034   -0.00025295101868012473
-0.0020516456405147224   -0.0013777916008923046   -0.0003921969802885427
0.0   0.0   0.0
-0.0011867328085002741   -0.0012231438470450037   -0.00023896455260209203
-0.0020516456405147224   -0.0013777916008923046   -0.0003921969802885427
0.0   0.0   0.0
0.0   0.0   0.0
-0.0012096945796596522   -0.0011304872240838835   -0.000468662249932649
0.0   0.0   0.0
0.0   0.0   0.0
-0.0012096945796596522   -0.0011304872240838835   -0.000468662249932649
-0.0005515668263308137   -0.0010844616817685517   -0.00035672095788138867
0.0   0.0   0.0
-0.000529928392943205   -0.001121005314743821   -0.0003208428072940282
0.0   0.0   0.0
0.0   0.0   0.0
-0.000529928392943205   -0.001121005314743821   -0.0003208428072940282
0.0   0.0   0.0
0.0   0.0   0.0
-0.000529928392943205   -0.001121005314743821   -0.0003208428072940282
-0.0011852386401799825   -0.0011867366777907808   -0.0003928105159479386
-0.0012096945796596522   -0.0011304872240838835   -0.000468662249932649
0.0   0.0   0.0
-0.000529928392943205   -0.001121005314743821   -0.0003208428072940282
-0.0012096945796596522   -0.0011304872240838835   -0.000468662249932649
0.0   0.0   0.0
0.0   0.0   0.0
-0.0011852386401799825   -0.0011867366777907808   -0.0003928105159479386
0.0   0.0   0.0
0.0   0.0   0.0
-0.0011852386401799825   -0.0011867366777907808   -0.0003928105159479386
-0.000529928392943205   -0.001121005314743821   -0.0003208428072940282
0.0   0.0   0.0
-0.0005175403858094577   -0.0011349579683847817   -0.00028596621593870704
0.0   0.0   0.0
0.0   0.0   0.0
-0.0005175403858094577   -0.0011349579683847817   -0.00028596621593870704
0.0   0.0   0.0
0.0   0.0   0.0
-0.0005175403858094577   -0.0011349579683847817   -0.00028596621593870704
-0.0011880058530794174   -0.0012156289544589442   -0.00031713364311300175
-0.0011852386401799825   -0.0011867366777907808   -0.0003928105159479386
0.0   0.0   0.0
-0.0005175403858094577   -0.0011349579683847817   -0.00028596621593870704
-0.0011852386401799825   -0.0011867366777907808   -0.0003928105159479386
0.0   0.0   0.0
0.0   0.0   0.0
-0.0011880058530794174   -0.0012156289544589442   -0.00031713364311300175
0.0   0.0   0.0
0.0   0.0   0.0
-0.0011880058530794174   -0.0012156289544589442   -0.00031713364311300175
-0.0005175403858094577   -0.0011349579683847817   -0.00028596621593870704
0.0   0.0   0.0
-0.0005061650871285374   -0.001129191853392167   -0.0002499775478898589
0.0   0.0   0.0
0.0   0.0   0.0
-0.0005061650871285374   -0.001129191853392167   -0.0002499775478898589
0.0   0.0   0.0
0.0   0.0   0.0
-0.0005061650871285374   -0.001129191853392167   -0.0002499775478898589
-0.0011867328085002741   -0.0012231438470450037   -0.00023896455260209203
-0.0011880058530794174   -0.0012156289544589442   -0.00031713364311300175
0.0   0.0   0.0
-0.0005061650871285374   -0.001129191853392167   -0.0002499775478898589
-0.0011880058530794174   -0.0012156289544589442   -0.00031713364311300175
0.0   0.0   0.0
0.0   0.0   0.0
-0.0005515668263308137   -0.0010844616817685517   -0.00035672095788138867
0.0   0.0   0.0
0.0   0.0   0.0
-0.0005515668263308137   -0.0010844616817685517   -0.00035672095788138867
6.974853738959209e-05   -0.0010904487079499549   -0.0002855587980128749
0.0   0.0   0.0
8.382702981741015e-05   -0.0011093123666596645   -0.0002903572548274613
0.0   0.0   0.0
0.0   0.0   0.0
8.382702981741015e-05   -0.0011093123666596645   -0.0002903572548274613
0.0   0.0   0.0
0.0   0.0   0.0
8.382702981741015e-05   -0.0011093123666596645   -0.0002903572548274613
-0.000529928392943205   -0.001121005314743821   -0.0003208428072940282
-0.0005515668263308137   -0.0010844616817685517   -0.00035672095788138867
0.0   0.0   0.0
8.382702981741015e-05   -0.0011093123666596645   -0.0002903572548274613
-0.0005515668263308137   -0.0010844616817685517   -0.00035672095788138867
0.0   0.0   0.0
0.0   0.0   0.0
-0.000529928392943205   -0.001121005314743821   -0.0003208428072940282
0.0   0.0   0.0
0.0   0.0   0.0
-0.000529928392943205   -0.001121005314743821   -0.0003208428072940282
8.382702981741015e-05   -0.0011093123666596645   -0.0002903572548274613
0.0   0.0   0.0
9.5014717581875e-05   -0.0011076811434490611   -0.0002947473903048866
0.0   0.0   0.0
0.0   0.0   0.0
9.5014717581875e-05   -0.0011076811434490611   -0.0002947473903048866
0.0   0.0   0.0
0.0   0.0   0.0
9.5014717581875e-05   -0.0011076811434490611   -0.0002947473903048866
-0.0005175403858094577   -0.0011349579683847817   -0.00028596621593870704
-0.000529928392943205   -0.001121005314743821   -0.0003208428072940282
0.0   0.0   0.0
9.5014717581875e-05   -0.0011076811434490611   -0.0002947473903048866
-0.000529928392943205   -0.001121005314743821   -0.0003208428072940282
0.0   0.0   0.0
0.0   0.0   0.0
-0.0005175403858094577   -0.0011349579683847817   -0.00028596621593870704
0.0   0.0   0.0
0.0   0.0   0.0
-0.0005175403858094577   -0.0011349579683847817   -0.00028596621593870704
9.5014717581875e-05   -0.0011076811434490611   -0.0002947473903048866
0.0   0.0   0.0
0.00010987680740284279   -0.001083885453002446   -0.0002993268336104757
0.0   0.0   0.0
0.0   0.0   0.0
0.00010987680740284279   -0.001083885453002446   -0.0002993268336104757
0.0   0.0   0.0
0.0   0.0   0.0
0.00010987680740284279   -0.001083885453002446   -0.0002993268336104757
-0.0005061650871285374   -0.001129191853392167   -0.0002499775478898589
-0.0005175403858094577   -0.0011349579683847817   -0.00028596621593870704
0.0   0.0   0.0
0.00010987680740284279   -0.001083885453002446   -0.0002993268336104757
-0.0005175403858094577   -0.0011349579683847817   -0.00028596621593870704
0.0   0.0   0.0
0.0   0.0   0.0
6.974853738959209e-05   -0.0010904487079499549   -0.0002855587980128749
0.0   0.0   0.0
0.0   0.0   0.0
6.974853738959209e-05   -0.0010904487079499549   -0.0002855587980128749
0.0007446664740960767   -0.0011428555897183823   -0.000250589816195964
0.0   0.0   0.0
0.0007467020103061673   -0.0011487229123624374   -0.0002981944102151308
0.0   0.0   0.0
0.0   0.0   0.0
0.0007467020103061673   -0.0011487229123624374   -0.0002981944102151308
0.0   0.0   0.0
0.0   0.0   0.0
0.0007467020103061673   -0.0011487229123624374   -0.0002981944102151308
8.382702981741015e-05   -0.0011093123666596645   -0.0002903572548274613
6.974853738959209e-05   -0.0010904487079499549   -0.0002855587980128749
0.0   0.0   0.0
0.0007467020103061673   -0.0011487229123624374   -0.0002981944102151308
6.974853738959209e-05   -0.0010904487079499549   -0.0002855587980128749
0.0   0.0   0.0
0.0   0.0   0.0
8.382702981741015e-05   -0.0011093123666596645   -0.0002903572548274613
0.0   0.0   0.0
0.0   0.0   0.0
8.382702981741015e-05   -0.0011093123666596645   -0.0002903572548274613
0.0007467020103061673   -0.0011487229123624374   -0.0002981944102151308
0.0   0.0   0.0
0.0007441170596650865   -0.001132324679417473   -0.0003439440503770183
0.0   0.0   0.0
0.0   0.0   0.0
0.0007441170596650865   -0.001132324679417473   -0.0003439440503770183
0.0   0.0   0.0
0.0   0.0   0.0
0.0007441170596650865   -0.001132324679417473   -0.0003439440503770183
9.5014717581875e-05   -0.0011076811434490611   -0.0002947473903048866
8.382702981741015e-05   -0.0011093123666596645   -0.0002903572548274613
0.0   0.0   0.0
0.0007441170596650865   -0.001132324679417473   -0.0003439440503770183
8.382702981741015e-05   -0.0011093123666596645   -0.0002903572548274613
0.0   0.0   0.0
0.0   0.0   0.0
9.5014717581875e-05   -0.0011076811434490611   -0.0002947473903048866
0.0   0.0   0.0
0.0   0.0   0.0
9.5014717581875e-05   -0.0011076811434490611   -0.0002947473903048866
0.0007441170596650865   -0.001132324679417473   -0.0003439440503770183
0.0   0.0   0.0
0.0007591174428375068   -0.001088707840639773   -0.00038888717720433544
0.0   0.0   0.0
0.0   0.0   0.0
0.0007591174428375068   -0.001088707840639773   -0.00038888717720433544
0.0   0.0   0.0
0.0   0.0   0.0
0.0007591174428375068   -0.001088707840639773   -0.00038888717720433544
0.00010987680740284279   -0.001083885453002446   -0.0002993268336104757
9.5014717581875e-05   -0.0011076811434490611   -0.0002947473903048866
0.0   0.0   0.0
0.0007591174428375068   -0.001088707840639773   -0.00038888717720433544
9.5014717581875e-05   -0.0011076811434490611   -0.0002947473903048866
0.0   0.0   0.0
0.0   0.0   0.0
0.0007446664740960767   -0.0011428555897183823   -0.000250589816195964
0.0   0.0   0.0
0.0   0.0   0.0
0.0007446664740960767   -0.0011428555897183823   -0.000250589816195964
0.0016849523177903873   -0.0012759939422863004   -0.00023701167533658816
0.0   0.0   0.0
0.0015833661906232768   -0.0012617770206526787   -0.00034517073855399276
0.0   0.0   0.0
0.0   0.0   0.0
0.0015833661906232768   -0.0012617770206526787   -0.00034517073855399276
0.0   0.0   0.0
0.0   0.0   0.0
0.0015833661906232768   -0.0012617770206526787   -0.00034517073855399276
0.0007467020103061673   -0.0011487229123624374   -0.0002981944102151308
0.0007446664740960767   -0.0011428555897183823   -0.000250589816195964
0.0   0.0   0.0
0.0015833661906232768   -0.0012617770206526787   -0.00034517073855399276
0.0007446664740960767   -0.0011428555897183823   -0.000250589816195964
0.0   0.0   0.0
0.0   0.0   0.0
0.0007467020103061673   -0.0011487229123624374   -0.0002981944102151308
0.0   0.0   0.0
0.0   0.0   0.0
0.0007467020103061673   -0.0011487229123624374   -0.0002981944102151308
0.0015833661906232768   -0.0012617770206526787   -0.00034517073855399276
0.0   0.0   0.0
0.0015367976811274844   -0.0012355507063029042   -0.00043669773148272405
0.0   0.0   0.0
0.0   0.0   0.0
0.0015367976811274844   -0.0012355507063029042   -0.00043669773148272405
0.0   0.0   0.0
0.0   0.0   0.0
0.0015367976811274844   -0.0012355507063029042   -0.00043669773148272405
0.0007441170596650865   -0.001132324679417473   -0.0003439440503770183
0.0007467020103061673   -0.0011487229123624374   -0.0002981944102151308
0.0   0.0   0.0
0.0015367976811274844   -0.0012355507063029042   -0.00043669773148272405
0.0007467020103061673   -0.0011487229123624374   -0.0002981944102151308
0.0   0.0   0.0
0.0   0.0   0.0
0.0007441170596650865   -0.001132324679417473   -0.0003439440503770183
0.0   0.0   0.0
0.0   0.0   0.0
0.0007441170596650865   -0.001132324679417473   -0.0003439440503770183
0.0015367976811274844   -0.0012355507063029042   -0.00043669773148272405
0.0   0.0   0.0
0.0014670417709340634   -0.0011686726098593331   -0.0005336960225101711
0.0   0.0   0.0
0.0   0.0   0.0
0.0014670417709340634   -0.0011686726098593331   -0.0005336960225101711
0.0   0.0   0.0
0.0   0.0   0.0
0.0014670417709340634   -0.0011686726098593331   -0.0005336960225101711
0.0007591174428375068   -0.001088707840639773   -0.00038888717720433544
0.0007441170596650865   -0.001132324679417473   -0.0003439440503770183
0.0   0.0   0.0
0.0014670417709340634   -0.0011686726098593331   -0.0005336960225101711
0.0007441170596650865   -0.001132324679417473   -0.0003439440503770183
0.0   0.0   0.0
-0.0019022974232711166   -0.0012563070229923469   -0.0006377611466564443
-0.003547017269359126   -0.0034949983156657735   -0.0008595277100722891
-0.0012096945796596522   -0.0011304872240838835   -0.000468662249932649
-0.0019901862908301604   -0.0013380241105899464   -0.0005122917070120549
-0.003547017269359126   -0.0034949983156657735   -0.0008595277100722891
-0.0022636451661449102   -0.0033820611882668912   -0.0007081153572855786
-0.0012096945796596522   -0.0011304872240838835   -0.000468662249932649
-0.002265400018230226   -0.0034394925879962443   -0.0006381212682903213
-0.0019901862908301604   -0.0013380241105899464   -0.0005122917070120549
-0.0011852386401799825   -0.0011867366777907808   -0.0003928105159479386
-0.002265400018230226   -0.0034394925879962443   -0.0006381212682903213
-0.0012096945796596522   -0.0011304872240838835   -0.000468662249932649
-0.0019901862908301604   -0.0013380241105899464   -0.0005122917070120549
-0.002265400018230226   -0.0034394925879962443   -0.0006381212682903213
-0.0036520673472445033   -0.0035752343185308745   -0.0007460068835436379
-0.003547017269359126   -0.0034949983156657735   -0.0008595277100722891
-0.0019901862908301604   -0.0013380241105899464   -0.0005122917070120549
-0.002265400018230226   -0.0034394925879962443   -0.0006381212682903213
-0.003547017269359126   -0.0034949983156657735   -0.0008595277100722891
-0.0012096945796596522   -0.0011304872240838835   -0.000468662249932649
-0.0019901862908301604   -0.0013380241105899464   -0.0005122917070120549
-0.0036520673472445033   -0.0035752343185308745   -0.0007460068835436379
-0.0011852386401799825   -0.0011867366777907808   -0.0003928105159479386
-0.0020516456405147224   -0.0013777916008923046   -0.0003921969802885427
-0.0036520673472445033   -0.0035752343185308745   -0.0007460068835436379
-0.002265400018230226   -0.0034394925879962443   -0.0006381212682903213
-0.0011852386401799825   -0.0011867366777907808   -0.0003928105159479386
-0.0022733339291004556   -0.0034745877414851353   -0.0005709197395833852
-0.0020516456405147224   -0.0013777916008923046   -0.0003921969802885427
-0.0011880058530794174   -0.0012156289544589442   -0.00031713364311300175
-0.0022733339291004556   -0.0034745877414851353   -0.0005709197395833852
-0.0011852386401799825   -0.0011867366777907808   -0.0003928105159479386
-0.0020516456405147224   -0.0013777916008923046   -0.0003921969802885427
-0.0022733339291004556   -0.0034745877414851353   -0.0005709197395833852
-0.0037246673383934743   -0.0036206292234489874   -0.0006349333719101494
-0.0036520673472445033   -0.0035752343185308745   -0.0007460068835436379
-0.0020516456405147224   -0.0013777916008923046   -0.0003921969802885427
-0.0022733339291004556   -0.0034745877414851353   -0.0005709197395833852
-0.0036520673472445033   -0.0035752343185308745   -0.0007460068835436379
-0.0011852386401799825   -0.0011867366777907808   -0.0003928105159479386
-0.0020516456405147224   -0.0013777916008923046   -0.0003921969802885427
-0.0037246673383934743   -0.0036206292234489874   -0.0006349333719101494
-0.0011880058530794174   -0.0012156289544589442   -0.00031713364311300175
-0.0021846170030031934   -0.00140813316317034   -0.00025295101868012473
-0.0037246673383934743   -0.0036206292234489874   -0.0006349333719101494
-0.0022733339291004556   -0.0034745877414851353   -0.0005709197395833852
-0.0011880058530794174   -0.0012156289544589442   -0.00031713364311300175
-0.0022655360042629817   -0.003492940202355958   -0.0005080766639196261
-0.0021846170030031934   -0.00140813316317034   -0.00025295101868012473
-0.0011867328085002741   -0.0012231438470450037   -0.00023896455260209203
-0.0022655360042629817   -0.003492940202355958   -0.0005080766639196261
-0.0011880058530794174   -0.0012156289544589442   -0.00031713364311300175
-0.0021846170030031934   -0.00140813316317034   -0.00025295101868012473
-0.0022655360042629817   -0.003492940202355958   -0.0005080766639196261
-0.0038104355074656707   -0.003647274520442976   -0.0005340100416478409
-0.0037246673383934743   -0.0036206292234489874   -0.0006349333719101494
-0.0021846170030031934   -0.00140813316317034   -0.00025295101868012473
-0.0022655360042629817   -0.003492940202355958   -0.0005080766639196261
-0.0037246673383934743   -0.0036206292234489874   -0.0006349333719101494
-0.0011880058530794174   -0.0012156289544589442   -0.00031713364311300175
-0.0012096945796596522   -0.0011304872240838835   -0.000468662249932649
-0.0022636451661449102   -0.0033820611882668912   -0.0007081153572855786
-0.0005515668263308137   -0.0010844616817685517   -0.00035672095788138867
-0.0011852386401799825   -0.0011867366777907808   -0.0003928105159479386
-0.0022636451661449102   -0.0033820611882668912   -0.0007081153572855786
-0.0010519180390803052   -0.003329503198740038   -0.0006048439628682174
-0.0005515668263308137   -0.0010844616817685517   -0.00035672095788138867
-0.001041906875762758   -0.0033659687898688014   -0.0005688892446648893
-0.0011852386401799825   -0.0011867366777907808   -0.0003928105159479386
-0.000529928392943205   -0.001121005314743821   -0.0003208428072940282
-0.001041906875762758   -0.0033659687898688014   -0.0005688892446648893
-0.0005515668263308137   -0.0010844616817685517   -0.00035672095788138867
-0.0011852386401799825   -0.0011867366777907808   -0.0003928105159479386
-0.001041906875762758   -0.0033659687898688014   -0.0005688892446648893
-0.002265400018230226   -0.0034394925879962443   -0.0006381212682903213
-0.0022636451661449102   -0.0033820611882668912   -0.0007081153572855786
-0.0011852386401799825   -0.0011867366777907808   -0.0003928105159479386
-0.001041906875762758   -0.0033659687898688014   -0.0005688892446648893
-0.0022636451661449102   -0.0033820611882668912   -0.0007081153572855786
-0.0005515668263308137   -0.0010844616817685517   -0.00035672095788138867
-0.0011852386401799825   -0.0011867366777907808   -0.0003928105159479386
-0.002265400018230226   -0.0034394925879962443   -0.0006381212682903213
-0.000529928392943205   -0.001121005314743821   -0.0003208428072940282
-0.0011880058530794174   -0.0012156289544589442   -0.00031713364311300175
-0.002265400018230226   -0.0034394925879962443   -0.0006381212682903213
-0.001041906875762758   -0.0033659687898688014   -0.0005688892446648893
-0.000529928392943205   -0.001121005314743821   -0.0003208428072940282
-0.001032929947766415   -0.0033836865518072374   -0.0005363357140877506
-0.0011880058530794174   -0.0012156289544589442   -0.00031713364311300175
-0.0005175403858094577   -0.0011349579683847817   -0.00028596621593870704
-0.001032929947766415   -0.0033836865518072374   -0.0005363357140877506
-0.000529928392943205   -0.001121005314743821   -0.0003208428072940282
-0.0011880058530794174   -0.0012156289544589442   -0.00031713364311300175
-0.001032929947766415   -0.0033836865518072374   -0.0005363357140877506
-0.0022733339291004556   -0.0034745877414851353   -0.0005709197395833852
-0.002265400018230226   -0.0034394925879962443   -0.0006381212682903213
-0.0011880058530794174   -0.0012156289544589442   -0.00031713364311300175
-0.001032929947766415   -0.0033836865518072374   -0.0005363357140877506
-0.002265400018230226   -0.0034394925879962443   -0.0006381212682903213
-0.000529928392943205   -0.001121005314743821   -0.0003208428072940282
-0.0011880058530794174   -0.0012156289544589442   -0.00031713364311300175
-0.0022733339291004556   -0.0034745877414851353   -0.0005709197395833852
-0.0005175403858094577   -0.0011349579683847817   -0.00028596621593870704
-0.0011867328085002741   -0.0012231438470450037   -0.00023896455260209203
-0.0022733339291004556   -0.0034745877414851353   -0.0005709197395833852
-0.001032929947766415   -0.0033836865518072374   -0.0005363357140877506
-0.0005175403858094577   -0.0011349579683847817   -0.00028596621593870704
-0.001019970306233988   -0.0033833219712067807   -0.0005080415876749375
-0.0011867328085002741   -0.0012231438470450037   -0.00023896455260209203
-0.0005061650871285374   -0.001129191853392167   -0.0002499775478898589
-0.001019970306233988   -0.0033833219712067807   -0.0005080415876749375
-0.0005175403858094577   -0.0011349579683847817   -0.00028596621593870704
-0.0011867328085002741   -0.0012231438470450037   -0.00023896455260209203
-0.001019970306233988   -0.0033833219712067807   -0.0005080415876749375
-0.0022655360042629817   -0.003492940202355958   -0.0005080766639196261
-0.0022733339291004556   -0.0034745877414851353   -0.0005709197395833852
-0.0011867328085002741   -0.0012231438470450037   -0.00023896455260209203
-0.001019970306233988   -0.0033833219712067807   -0.0005080415876749375
-0.0022733339291004556   -0.0034745877414851353   -0.0005709197395833852
-0.0005175403858094577   -0.0011349579683847817   -0.00028596621593870704
-0.0005515668263308137   -0.0010844616817685517   -0.00035672095788138867
-0.0010519180390803052   -0.003329503198740038   -0.0006048439628682174
6.974853738959209e-05   -0.0010904487079499549   -0.0002855587980128749
-0.000529928392943205   -0.001121005314743821   -0.0003208428072940282
-0.0010519180390803052   -0.003329503198740038   -0.0006048439628682174
0.00011595739628409216   -0.0033311241961177327   -0.0005397664552401407
6.974853738959209e-05   -0.0010904487079499549   -0.0002855587980128749
0.00012809975523969818   -0.0033482621307378965   -0.0005372125998742116
-0.000529928392943205   -0.001121005314743821   -0.0003208428072940282
8.382702981741015e-05   -0.0011093123666596645   -0.0002903572548274613
0.00012809975523969818   -0.0033482621307378965   -0.0005372125998742116
6.974853738959209e-05   -0.0010904487079499549   -0.0002855587980128749
-0.000529928392943205   -0.001121005314743821   -0.0003208428072940282
0.00012809975523969818   -0.0033482621307378965   -0.0005372125998742116
-0.001041906875762758   -0.0033659687898688014   -0.0005688892446648893
-0.0010519180390803052   -0.003329503198740038   -0.0006048439628682174
-0.000529928392943205   -0.001121005314743821   -0.0003208428072940282
0.00012809975523969818   -0.0033482621307378965   -0.0005372125998742116
-0.0010519180390803052   -0.003329503198740038   -0.0006048439628682174
6.974853738959209e-05   -0.0010904487079499549   -0.0002855587980128749
-0.000529928392943205   -0.001121005314743821   -0.0003208428072940282
-0.001041906875762758   -0.0033659687898688014   -0.0005688892446648893
8.382702981741015e-05   -0.0011093123666596645   -0.0002903572548274613
-0.0005175403858094577   -0.0011349579683847817   -0.00028596621593870704
-0.001041906875762758   -0.0033659687898688014   -0.0005688892446648893
0.00012809975523969818   -0.0033482621307378965   -0.0005372125998742116
8.382702981741015e-05   -0.0011093123666596645   -0.0002903572548274613
0.00013656695094153704   -0.0033470884655002883   -0.0005385154738847819
-0.0005175403858094577   -0.0011349579683847817   -0.00028596621593870704
9.5014717581875e-05   -0.0011076811434490611   -0.0002947473903048866
0.00013656695094153704   -0.0033470884655002883   -0.0005385154738847819
8.382702981741015e-05   -0.0011093123666596645   -0.0002903572548274613
-0.0005175403858094577   -0.0011349579683847817   -0.00028596621593870704
0.00013656695094153704   -0.0033470884655002883   -0.0005385154738847819
-0.001032929947766415   -0.0033836865518072374   -0.0005363357140877506
-0.001041906875762758   -0.0033659687898688014   -0.0005688892446648893
-0.0005175403858094577   -0.0011349579683847817   -0.00028596621593870704
0.00013656695094153704   -0.0033470884655002883   -0.0005385154738847819
-0.001041906875762758   -0.0033659687898688014   -0.0005688892446648893
8.382702981741015e-05   -0.0011093123666596645   -0.0002903572548274613
-0.0005175403858094577   -0.0011349579683847817   -0.00028596621593870704
-0.001032929947766415   -0.0033836865518072374   -0.0005363357140877506
9.5014717581875e-05   -0.0011076811434490611   -0.0002947473903048866
-0.0005061650871285374   -0.001129191853392167   -0.0002499775478898589
-0.001032929947766415   -0.0033836865518072374   -0.0005363357140877506
0.00013656695094153704   -0.0033470884655002883   -0.0005385154738847819
9.5014717581875e-05   -0.0011076811434490611   -0.0002947473903048866
0.00014558124670113482   -0.0033270489831617716   -0.0005437348811601392
-0.0005061650871285374   -0.001129191853392167   -0.0002499775478898589
0.00010987680740284279   -0.001083885453002446   -0.0002993268336104757
0.00014558124670113482   -0.0033270489831617716   -0.0005437348811601392
9.5014717581875e-05   -0.0011076811434490611   -0.0002947473903048866
-0.0005061650871285374   -0.001129191853392167   -0.0002499775478898589
0.00014558124670113482   -0.0033270489831617716   -0.0005437348811601392
-0.001019970306233988   -0.0033833219712067807   -0.0005080415876749375
-0.001032929947766415   -0.0033836865518072374   -0.0005363357140877506
-0.0005061650871285374   -0.001129191853392167   -0.0002499775478898589
0.00014558124670113482   -0.0033270489831617716   -0.0005437348811601392
-0.001032929947766415   -0.0033836865518072374   -0.0005363357140877506
9.5014717581875e-05   -0.0011076811434490611   -0.0002947473903048866
6.974853738959209e-05   -0.0010904487079499549   -0.0002855587980128749
0.00011595739628409216   -0.0033311241961177327   -0.0005397664552401407
0.0007446664740960767   -0.0011428555897183823   -0.000250589816195964
8.382702981741015e-05   -0.0011093123666596645   -0.0002903572548274613
0.00011595739628409216   -0.0033311241961177327   -0.0005397664552401407
0.0013540982101964984   -0.0033849868255686616   -0.000509749398257565
0.0007446664740960767   -0.0011428555897183823   -0.000250589816195964
0.0013615070290641474   -0.0033845247921405856   -0.0005416730265173575
8.382702981741015e-05   -0.0011093123666596645   -0.0002903572548274613
0.0007467020103061673   -0.0011487229123624374   -0.0002981944102151308
0.0013615070290641474   -0.0033845247921405856   -0.0005416730265173575
0.0007446664740960767   -0.0011428555897183823   -0.000250589816195964
8.382702981741015e-05   -0.0011093123666596645   -0.0002903572548274613
0.0013615070290641474   -0.0033845247921405856   -0.0005416730265173575
0.00012809975523969818   -0.0033482621307378965   -0.0005372125998742116
0.00011595739628409216   -0.0033311241961177327   -0.0005397664552401407
8.382702981741015e-05   -0.0011093123666596645   -0.0002903572548274613
0.0013615070290641474   -0.0033845247921405856   -0.0005416730265173575
0.00011595739628409216   -0.0033311241961177327   -0.0005397664552401407
0.0007446664740960767   -0.0011428555897183823   -0.000250589816195964
8.382702981741015e-05   -0.0011093123666596645   -0.0002903572548274613
0.00012809975523969818   -0.0033482621307378965   -0.0005372125998742116
0.0007467020103061673   -0.0011487229123624374   -0.0002981944102151308
9.5014717581875e-05   -0.0011076811434490611   -0.0002947473903048866
0.00012809975523969818   -0.0033482621307378965   -0.0005372125998742116
0.0013615070290641474   -0.0033845247921405856   -0.0005416730265173575
0.0007467020103061673   -0.0011487229123624374   -0.0002981944102151308
0.0013562795448303908   -0.003366135396790851   -0.0005779593264358322
9.5014717581875e-05   -0.0011076811434490611   -0.0002947473903048866
0.0007441170596650865   -0.001132324679417473   -0.0003439440503770183
0.0013562795448303908   -0.003366135396790851   -0.0005779593264358322
0.0007467020103061673   -0.0011487229123624374   -0.0002981944102151308
9.5014717581875e-05   -0.0011076811434490611   -0.0002947473903048866
0.0013562795448303908   -0.003366135396790851   -0.0005779593264358322
0.00013656695094153704   -0.0033470884655002883   -0.0005385154738847819
0.00012809975523969818   -0.0033482621307378965   -0.0005372125998742116
9.5014717581875e-05   -0.0011076811434490611   -0.0002947473903048866
0.0013562795448303908   -0.003366135396790851   -0.0005779593264358322
0.00012809975523969818   -0.0033482621307378965   -0.0005372125998742116
0.0007467020103061673   -0.0011487229123624374   -0.0002981944102151308
9.5014717581875e-05   -0.0011076811434490611   -0.0002947473903048866
0.00013656695094153704   -0.0033470884655002883   -0.0005385154738847819
0.0007441170596650865   -0.001132324679417473   -0.0003439440503770183
0.00010987680740284279   -0.001083885453002446   -0.0002993268336104757
0.00013656695094153704   -0.0033470884655002883   -0.0005385154738847819
0.0013562795448303908   -0.003366135396790851   -0.0005779593264358322
0.0007441170596650865   -0.001132324679417473   -0.0003439440503770183
0.0013536698079905315   -0.003324832528760739   -0.0006172621234717928
0.00010987680740284279   -0.001083885453002446   -0.0002993268336104757
0.0007591174428375068   -0.001088707840639773   -0.00038888717720433544
0.0013536698079905315   -0.003324832528760739   -0.0006172621234717928
0.0007441170596650865   -0.001132324679417473   -0.0003439440503770183
0.00010987680740284279   -0.001083885453002446   -0.0002993268336104757
0.0013536698079905315   -0.003324832528760739   -0.0006172621234717928
0.00014558124670113482   -0.0033270489831617716   -0.0005437348811601392
0.00013656695094153704   -0.0033470884655002883   -0.0005385154738847819
0.00010987680740284279   -0.001083885453002446   -0.0002993268336104757
0.0013536698079905315   -0.003324832528760739   -0.0006172621234717928
0.00013656695094153704   -0.0033470884655002883   -0.0005385154738847819
0.0007441170596650865   -0.001132324679417473   -0.0003439440503770183
0.0007446664740960767   -0.0011428555897183823   -0.000250589816195964
0.0013540982101964984   -0.0033849868255686616   -0.000509749398257565
0.0016849523177903873   -0.0012759939422863004   -0.00023701167533658816
0.0007467020103061673   -0.0011487229123624374   -0.0002981944102151308
0.0013540982101964984   -0.0033849868255686616   -0.000509749398257565
0.002849561842650285   -0.0034849157983679567   -0.0005023608792254043
0.0016849523177903873   -0.0012759939422863004   -0.00023701167533658816
0.0027931643881366547   -0.0034749979439112648   -0.0005743244906924457
0.0007467020103061673   -0.0011487229123624374   -0.0002981944102151308
0.0015833661906232768   -0.0012617770206526787   -0.00034517073855399276
0.0027931643881366547   -0.0034749979439112648   -0.0005743244906924457
0.0016849523177903873   -0.0012759939422863004   -0.00023701167533658816
0.0007467020103061673   -0.0011487229123624374   -0.0002981944102151308
0.0027931643881366547   -0.0034749979439112648   -0.0005743244906924457
0.0013615070290641474   -0.0033845247921405856   -0.0005416730265173575
0.0013540982101964984   -0.0033849868255686616   -0.000509749398257565
0.0007467020103061673   -0.0011487229123624374   -0.0002981944102151308
0.0027931643881366547   -0.0034749979439112648   -0.0005743244906924457
0.0013540982101964984   -0.0033849868255686616   -0.000509749398257565
0.0016849523177903873   -0.0012759939422863004   -0.00023701167533658816
0.0007467020103061673   -0.0011487229123624374   -0.0002981944102151308
0.0013615070290641474   -0.0033845247921405856   -0.0005416730265173575
0.0015833661906232768   -0.0012617770206526787   -0.00034517073855399276
0.0007441170596650865   -0.001132324679417473   -0.0003439440503770183
0.0013615070290641474   -0.0033845247921405856   -0.0005416730265173575
0.0027931643881366547   -0.0034749979439112648   -0.0005743244906924457
0.0015833661906232768   -0.0012617770206526787   -0.00034517073855399276
0.0027426284918667158   -0.0034467063339690034   -0.0006554547873102812
0.0007441170596650865   -0.001132324679417473   -0.0003439440503770183
0.0015367976811274844   -0.0012355507063029042   -0.00043669773148272405
0.0027426284918667158   -0.0034467063339690034   -0.0006554547873102812
0.0015833661906232768   -0.0012617770206526787   -0.00034517073855399276
0.0007441170596650865   -0.001132324679417473   -0.0003439440503770183
0.0027426284918667158   -0.0034467063339690034   -0.0006554547873102812
0.0013562795448303908   -0.003366135396790851   -0.0005779593264358322
0.0013615070290641474   -0.0033845247921405856   -0.0005416730265173575
0.0007441170596650865   -0.001132324679417473   -0.0003439440503770183
0.0027426284918667158   -0.0034467063339690034   -0.0006554547873102812
0.0013615070290641474   -0.0033845247921405856   -0.0005416730265173575
0.0015833661906232768   -0.0012617770206526787   -0.00034517073855399276
0.0007441170596650865   -0.001132324679417473   -0.0003439440503770183
0.0013562795448303908   -0.003366135396790851   -0.0005779593264358322
0.0015367976811274844   -0.0012355507063029042   -0.00043669773148272405
0.0007591174428375068   -0.001088707840639773   -0.00038888717720433544
0.0013562795448303908   -0.003366135396790851   -0.0005779593264358322
0.0027426284918667158   -0.0034467063339690034   -0.0006554547873102812
0.0015367976811274844   -0.0012355507063029042   -0.00043669773148272405
0.0026662318575202287   -0.003384110871095489   -0.000740013564726665
0.0007591174428375068   -0.001088707840639773   -0.00038888717720433544
0.0014670417709340634   -0.0011686726098593331   -0.0005336960225101711
0.0026662318575202287   -0.003384110871095489   -0.000740013564726665
0.0015367976811274844   -0.0012355507063029042   -0.00043669773148272405
0.0007591174428375068   -0.001088707840639773   -0.00038888717720433544
0.0026662318575202287   -0.003384110871095489   -0.000740013564726665
0.0013536698079905315   -0.003324832528760739   -0.0006172621234717928
0.0013562795448303908   -0.003366135396790851   -0.0005779593264358322
0.0007591174428375068   -0.001088707840639773   -0.00038888717720433544
0.0026662318575202287   -0.003384110871095489   -0.000740013564726665
0.0013562795448303908   -0.003366135396790851   -0.0005779593264358322
0.0015367976811274844   -0.0012355507063029042   -0.00043669773148272405
-0.003547017269359126   -0.0034949983156657735   -0.0008595277100722891
-0.004852419979828791   -0.006538555260790629   -0.0009798935083488818
-0.0022636451661449102   -0.0033820611882668912   -0.0007081153572855786
-0.0036520673472445033   -0.0035752343185308745   -0.0007460068835436379
-0.004852419979828791   -0.006538555260790629   -0.0009798935083488818
-0.0031206068341660333   -0.006452508046149179   -0.0008575579044452862
-0.0022636451661449102   -0.0033820611882668912   -0.0007081153572855786
-0.00312632369025614   -0.006501913046982718   -0.0008034094096464006
-0.0036520673472445033   -0.0035752343185308745   -0.0007460068835436379
-0.002265400018230226   -0.0034394925879962443   -0.0006381212682903213
-0.00312632369025614   -0.006501913046982718   -0.0008034094096464006
-0.0022636451661449102   -0.0033820611882668912   -0.0007081153572855786
-0.0036520673472445033   -0.0035752343185308745   -0.0007460068835436379
-0.00312632369025614   -0.006501913046982718   -0.0008034094096464006
-0.004937160355235225   -0.006606139909923758   -0.0008955869684414775
-0.004852419979828791   -0.006538555260790629   -0.0009798935083488818
-0.0036520673472445033   -0.0035752343185308745   -0.0007460068835436379
-0.00312632369025614   -0.006501913046982718   -0.0008034094096464006
-0.004852419979828791   -0.006538555260790629   -0.0009798935083488818
-0.0022636451661449102   -0.0033820611882668912   -0.0007081153572855786
-0.0036520673472445033   -0.0035752343185308745   -0.0007460068835436379
-0.004937160355235225   -0.006606139909923758   -0.0008955869684414775
-0.002265400018230226   -0.0034394925879962443   -0.0006381212682903213
-0.0037246673383934743   -0.0036206292234489874   -0.0006349333719101494
-0.004937160355235225   -0.006606139909923758   -0.0008955869684414775
-0.00312632369025614   -0.006501913046982718   -0.0008034094096464006
-0.002265400018230226   -0.0034394925879962443   -0.0006381212682903213
-0.00313319297886789   -0.00653638759131571   -0.0007532205824541502
-0.0037246673383934743   -0.0036206292234489874   -0.0006349333719101494
-0.0022733339291004556   -0.0034745877414851353   -0.0005709197395833852
-0.00313319297886789   -0.00653638759131571   -0.0007532205824541502
-0.002265400018230226   -0.0034394925879962443   -0.0006381212682903213
-0.0037246673383934743   -0.0036206292234489874   -0.0006349333719101494
-0.00313319297886789   -0.00653638759131571   -0.0007532205824541502
-0.004990065417828227   -0.006648625281028114   -0.0008170807576929589
-0.004937160355235225   -0.006606139909923758   -0.0008955869684414775
-0.0037246673383934743   -0.0036206292234489874   -0.0006349333719101494
-0.00313319297886789   -0.00653638759131571   -0.0007532205824541502
-0.004937160355235225   -0.006606139909923758   -0.0008955869684414775
-0.002265400018230226   -0.0034394925879962443   -0.0006381212682903213
-0.0037246673383934743   -0.0036206292234489874   -0.0006349333719101494
-0.004990065417828227   -0.006648625281028114   -0.0008170807576929589
-0.0022733339291004556   -0.0034745877414851353   -0.0005709197395833852
-0.0038104355074656707   -0.003647274520442976   -0.0005340100416478409
-0.004990065417828227   -0.006648625281028114   -0.0008170807576929589
-0.00313319297886789   -0.00653638759131571   -0.0007532205824541502
-0.0022733339291004556   -0.0034745877414851353   -0.0005709197395833852
-0.00312612936895043   -0.006559211215597095   -0.0007061450546147445
-0.0038104355074656707   -0.003647274520442976   -0.0005340100416478409
-0.0022655360042629817   -0.003492940202355958   -0.0005080766639196261
-0.00312612936895043   -0.006559211215597095   -0.0007061450546147445
-0.0022733339291004556   -0.0034745877414851353   -0.0005709197395833852
-0.0038104355074656707   -0.003647274520442976   -0.0005340100416478409
-0.00312612936895043   -0.006559211215597095   -0.0007061450546147445
-0.005050259760908243   -0.006679411081708251   -0.0007449183221921505
-0.004990065417828227   -0.006648625281028114   -0.0008170807576929589
-0.0038104355074656707   -0.003647274520442976   -0.0005340100416478409
-0.00312612936895043   -0.006559211215597095   -0.0007061450546147445
-0.004990065417828227   -0.006648625281028114   -0.0008170807576929589
-0.0022733339291004556   -0.0034745877414851353   -0.0005709197395833852
-0.0022636451661449102   -0.0033820611882668912   -0.0007081153572855786
-0.0031206068341660333   -0.006452508046149179   -0.0008575579044452862
-0.0010519180390803052   -0.003329503198740038   -0.0006048439628682174
-0.002265400018230226   -0.0034394925879962443   -0.0006381212682903213
-0.0031206068341660333   -0.006452508046149179   -0.0008575579044452862
-0.0014893316964712127   -0.006409508420496407   -0.0007726147056173601
-0.0010519180390803052   -0.003329503198740038   -0.0006048439628682174
-0.0014844850430314205   -0.006441013888091955   -0.0007419027507738619
-0.002265400018230226   -0.0034394925879962443   -0.0006381212682903213
-0.001041906875762758   -0.0033659687898688014   -0.0005688892446648893
-0.0014844850430314205   -0.006441013888091955   -0.0007419027507738619
-0.0010519180390803052   -0.003329503198740038   -0.0006048439628682174
-0.002265400018230226   -0.0034394925879962443   -0.0006381212682903213
-0.0014844850430314205   -0.006441013888091955   -0.0007419027507738619
-0.00312632369025614   -0.006501913046982718   -0.0008034094096464006
-0.0031206068341660333   -0.006452508046149179   -0.0008575579044452862
-0.002265400018230226   -0.0034394925879962443   -0.0006381212682903213
-0.0014844850430314205   -0.006441013888091955   -0.0007419027507738619
-0.0031206068341660333   -0.006452508046149179   -0.0008575579044452862
-0.0010519180390803052   -0.003329503198740038   -0.0006048439628682174
-0.002265400018230226   -0.0034394925879962443   -0.0006381212682903213
-0.00312632369025614   -0.006501913046982718   -0.0008034094096464006
-0.001041906875762758   -0.0033659687898688014   -0.0005688892446648893
-0.0022733339291004556   -0.0034745877414851353   -0.0005709197395833852
-0.00312632369025614   -0.006501913046982718   -0.0008034094096464006
-0.0014844850430314205   -0.006441013888091955   -0.0007419027507738619
-0.001041906875762758   -0.0033659687898688014   -0.0005688892446648893
-0.0014788060845681136   -0.006459556450212934   -0.0007149543267892372
-0.0022733339291004556   -0.0034745877414851353   -0.0005709197395833852
-0.001032929947766415   -0.0033836865518072374   -0.0005363357140877506
-0.0014788060845681136   -0.006459556450212934   -0.0007149543267892372
-0.001041906875762758   -0.0033659687898688014   -0.0005688892446648893
-0.0022733339291004556   -0.0034745877414851353   -0.0005709197395833852
-0.0014788060845681136   -0.006459556450212934   -0.0007149543267892372
-0.00313319297886789   -0.00653638759131571   -0.0007532205824541502
-0.00312632369025614   -0.006501913046982718   -0.0008034094096464006
-0.0022733339291004556   -0.0034745877414851353   -0.0005709197395833852
-0.0014788060845681136   -0.006459556450212934   -0.0007149543267892372
-0.00312632369025614   -0.006501913046982718   -0.0008034094096464006
-0.001041906875762758   -0.0033659687898688014   -0.0005688892446648893
-0.0022733339291004556   -0.0034745877414851353   -0.0005709197395833852
-0.00313319297886789   -0.00653638759131571   -0.0007532205824541502
-0.001032929947766415   -0.0033836865518072374   -0.0005363357140877506
-0.0022655360042629817   -0.003492940202355958   -0.0005080766639196261
-0.00313319297886789   -0.00653638759131571   -0.0007532205824541502
-0.0014788060845681136   -0.006459556450212934   -0.0007149543267892372
-0.001032929947766415   -0.0033836865518072374   -0.0005363357140877506
-0.001470168959603587   -0.0064654009501275336   -0.0006917614768340119
-0.0022655360042629817   -0.003492940202355958   -0.0005080766639196261
-0.001019970306233988   -0.0033833219712067807   -0.0005080415876749375
-0.001470168959603587   -0.0064654009501275336   -0.0006917614768340119
-0.001032929947766415   -0.0033836865518072374   -0.0005363357140877506
-0.0022655360042629817   -0.003492940202355958   -0.0005080766639196261
-0.001470168959603587   -0.0064654009501275336   -0.0006917614768340119
-0.00312612936895043   -0.006559211215597095   -0.0007061450546147445
-0.00313319297886789   -0.00653638759131571   -0.0007532205824541502
-0.0022655360042629817   -0.003492940202355958   -0.0005080766639196261
-0.001470168959603587   -0.0064654009501275336   -0.0006917614768340119
-0.00313319297886789   -0.00653638759131571   -0.0007532205824541502
-0.001032929947766415   -0.0033836865518072374   -0.0005363357140877506
-0.0010519180390803052   -0.003329503198740038   -0.0006048439628682174
-0.0014893316964712127   -0.006409508420496407   -0.0007726147056173601
0.00011595739628409216   -0.0033311241961177327   -0.0005397664552401407
-0.001041906875762758   -0.0033659687898688014   -0.0005688892446648893
-0.0014893316964712127   -0.006409508420496407   -0.0007726147056173601
9.355720315878545e-05   -0.006407200710335058   -0.0007201771884875737
0.00011595739628409216   -0.0033311241961177327   -0.0005397664552401407
0.00010157445990440328   -0.006421059417251682   -0.0007127834302092571
-0.001041906875762758   -0.0033659687898688014   -0.0005688892446648893
0.00012809975523969818   -0.0033482621307378965   -0.0005372125998742116
0.00010157445990440328   -0.006421059417251682   -0.0007127834302092571
0.00011595739628409216   -0.0033311241961177327   -0.0005397664552401407
-0.001041906875762758   -0.0033659687898688014   -0.0005688892446648893
0.00010157445990440328   -0.006421059417251682   -0.0007127834302092571
-0.0014844850430314205   -0.006441013888091955   -0.0007419027507738619
-0.0014893316964712127   -0.006409508420496407   -0.0007726147056173601
-0.001041906875762758   -0.0033659687898688014   -0.0005688892446648893
0.00010157445990440328   -0.006421059417251682   -0.0007127834302092571
-0.0014893316964712127   -0.006409508420496407   -0.0007726147056173601
0.00011595739628409216   -0.0033311241961177327   -0.0005397664552401407
-0.001041906875762758   -0.0033659687898688014   -0.0005688892446648893
-0.0014844850430314205   -0.006441013888091955   -0.0007419027507738619
0.00012809975523969818   -0.0033482621307378965   -0.0005372125998742116
-0.001032929947766415   -0.0033836865518072374   -0.0005363357140877506
-0.0014844850430314205   -0.006441013888091955   -0.0007419027507738619
0.00010157445990440328   -0.006421059417251682   -0.0007127834302092571
0.00012809975523969818   -0.0033482621307378965   -0.0005372125998742116
0.0001071124881983873   -0.006422005013695792   -0.0007090586976876288
-0.001032929947766415   -0.0033836865518072374   -0.0005363357140877506
0.00013656695094153704   -0.0033470884655002883   -0.0005385154738847819
0.0001071124881983873   -0.006422005013695792   -0.0007090586976876288
0.00012809975523969818   -0.0033482621307378965   -0.0005372125998742116
-0.001032929947766415   -0.0033836865518072374   -0.0005363357140877506
0.0001071124881983873   -0.006422005013695792   -0.0007090586976876288
-0.0014788060845681136   -0.006459556450212934   -0.0007149543267892372
-0.0014844850430314205   -0.006441013888091955   -0.0007419027507738619
-0.001032929947766415   -0.0033836865518072374   -0.0005363357140877506
0.0001071124881983873   -0.006422005013695792   -0.0007090586976876288
-0.0014844850430314205   -0.006441013888091955   -0.0007419027507738619
0.00012809975523969818   -0.0033482621307378965   -0.0005372125998742116
-0.001032929947766415   -0.0033836865518072374   -0.0005363357140877506
-0.0014788060845681136   -0.006459556450212934   -0.0007149543267892372
0.00013656695094153704   -0.0033470884655002883   -0.0005385154738847819
-0.001019970306233988   -0.0033833219712067807   -0.0005080415876749375
-0.0014788060845681136   -0.006459556450212934   -0.0007149543267892372
0.0001071124881983873   -0.006422005013695792   -0.0007090586976876288
0.00013656695094153704   -0.0033470884655002883   -0.0005385154738847819
0.00011144000801764874   -0.006409846496068241   -0.0007092217012279607
-0.001019970306233988   -0.0033833219712067807   -0.0005080415876749375
0.00014558124670113482   -0.0033270489831617716   -0.0005437348811601392
0.00011144000801764874   -0.006409846496068241   -0.0007092217012279607
0.00013656695094153704   -0.0033470884655002883   -0.0005385154738847819
-0.001019970306233988   -0.0033833219712067807   -0.0005080415876749375
0.00011144000801764874   -0.006409846496068241   -0.0007092217012279607
-0.001470168959603587   -0.0064654009501275336   -0.0006917614768340119
-0.0014788060845681136   -0.006459556450212934   -0.0007149543267892372
-0.001019970306233988   -0.0033833219712067807   -0.0005080415876749375
0.00011144000801764874   -0.006409846496068241   -0.0007092217012279607
-0.0014788060845681136   -0.006459556450212934   -0.0007149543267892372
0.00013656695094153704   -0.0033470884655002883   -0.0005385154738847819
0.00011595739628409216   -0.0033311241961177327   -0.0005397664552401407
9.355720315878545e-05   -0.006407200710335058   -0.0007201771884875737
0.0013540982101964984   -0.0033849868255686616   -0.000509749398257565
0.00012809975523969818   -0.0033482621307378965   -0.0005372125998742116
9.355720315878545e-05   -0.006407200710335058   -0.0007201771884875737
0.001744321262611728   -0.006443156026562366   -0.0006993822402812616
0.0013540982101964984   -0.0033849868255686616   -0.000509749398257565
0.0017515780489368521   -0.00644080041844218   -0.0007157818451756324
0.00012809975523969818   -0.0033482621307378965   -0.0005372125998742116
0.0013615070290641474   -0.0033845247921405856   -0.0005416730265173575
0.0017515780489368521   -0.00644080041844218   -0.0007157818451756324
0.0013540982101964984   -0.0033849868255686616   -0.000509749398257565
0.00012809975523969818   -0.0033482621307378965   -0.0005372125998742116
0.0017515780489368521   -0.00644080041844218   -0.0007157818451756324
0.00010157445990440328   -0.006421059417251682   -0.0007127834302092571
9.355720315878545e-05   -0.006407200710335058   -0.0007201771884875737
0.00012809975523969818   -0.0033482621307378965   -0.0005372125998742116
0.0017515780489368521   -0.00644080041844218   -0.0007157818451756324
9.355720315878545e-05   -0.006407200710335058   -0.0007201771884875737
0.0013540982101964984   -0.0033849868255686616   -0.000509749398257565
0.00012809975523969818   -0.0033482621307378965   -0.0005372125998742116
0.00010157445990440328   -0.006421059417251682   -0.0007127834302092571
0.0013615070290641474   -0.0033845247921405856   -0.0005416730265173575
0.00013656695094153704   -0.0033470884655002883   -0.0005385154738847819
0.00010157445990440328   -0.006421059417251682   -0.0007127834302092571
0.0017515780489368521   -0.00644080041844218   -0.0007157818451756324
0.0013615070290641474   -0.0033845247921405856   -0.0005416730265173575
0.0017484157734017083   -0.006425846571834107   -0.0007355808941779031
0.00013656695094153704   -0.0033470884655002883   -0.0005385154738847819
0.0013562795448303908   -0.003366135396790851   -0.0005779593264358322
0.0017484157734017083   -0.006425846571834107   -0.0007355808941779031
0.0013615070290641474   -0.0033845247921405856   -0.0005416730265173575
0.00013656695094153704   -0.0033470884655002883   -0.0005385154738847819
0.0017484157734017083   -0.006425846571834107   -0.0007355808941779031
0.0001071124881983873   -0.006422005013695792   -0.0007090586976876288
0.00010157445990440328   -0.006421059417251682   -0.0007127834302092571
0.00013656695094153704   -0.0033470884655002883   -0.0005385154738847819
0.0017484157734017083   -0.006425846571834107   -0.0007355808941779031
0.00010157445990440328   -0.006421059417251682   -0.0007127834302092571
0.0013615070290641474   -0.0033845247921405856   -0.0005416730265173575
0.00013656695094153704   -0.0033470884655002883   -0.0005385154738847819
0.0001071124881983873   -0.006422005013695792   -0.0007090586976876288
0.0013562795448303908   -0.003366135396790851   -0.0005779593264358322
0.00014558124670113482   -0.0033270489831617716   -0.0005437348811601392
0.0001071124881983873   -0.006422005013695792   -0.0007090586976876288
0.0017484157734017083   -0.006425846571834107   -0.0007355808941779031
0.0013562795448303908   -0.003366135396790851   -0.0005779593264358322
0.0017429641294939443   -0.006395132787823055   -0.0007591855719748959
0.00014558124670113482   -0.0033270489831617716   -0.0005437348811601392
0.0013536698079905315   -0.003324832528760739   -0.0006172621234717928
0.0017429641294939443   -0.006395132787823055   -0.0007591855719748959
0.0013562795448303908   -0.003366135396790851   -0.0005779593264358322
0.00014558124670113482   -0.0033270489831617716   -0.0005437348811601392
0.0017429641294939443   -0.006395132787823055   -0.0007591855719748959
0.00011144000801764874   -0.006409846496068241   -0.0007092217012279607
0.0001071124881983873   -0.006422005013695792   -0.0007090586976876288
0.00014558124670113482   -0.0033270489831617716   -0.0005437348811601392
0.0017429641294939443   -0.006395132787823055   -0.0007591855719748959
0.0001071124881983873   -0.006422005013695792   -0.0007090586976876288
0.0013562795448303908   -0.003366135396790851   -0.0005779593264358322
0.0013540982101964984   -0.0033849868255686616   -0.000509749398257565
0.001744321262611728   -0.006443156026562366   -0.0006993822402812616
0.002849561842650285   -0.0034849157983679567   -0.0005023608792254043
0.0013615070290641474   -0.0033845247921405856   -0.0005416730265173575
0.001744321262611728   -0.006443156026562366   -0.0006993822402812616
0.003624955315205299   -0.006508119132769087   -0.0007007138963407646
0.002849561842650285   -0.0034849157983679567   -0.0005023608792254043
0.0035952907727886296   -0.006496358641486445   -0.0007438455232981879
0.0013615070290641474   -0.0033845247921405856   -0.0005416730265173575
0.0027931643881366547   -0.0034749979439112648   -0.0005743244906924457
0.0035952907727886296   -0.006496358641486445   -0.0007438455232981879
0.002849561842650285   -0.0034849157983679567   -0.0005023608792254043
0.0013615070290641474   -0.0033845247921405856   -0.0005416730265173575
0.0035952907727886296   -0.006496358641486445   -0.0007438455232981879
0.0017515780489368521   -0.00644080041844218   -0.0007157818451756324
0.001744321262611728   -0.006443156026562366   -0.0006993822402812616
0.0013615070290641474   -0.0033845247921405856   -0.0005416730265173575
0.0035952907727886296   -0.006496358641486445   -0.0007438455232981879
0.001744321262611728   -0.006443156026562366   -0.0006993822402812616
0.002849561842650285   -0.0034849157983679567   -0.0005023608792254043
0.0013615070290641474   -0.0033845247921405856   -0.0005416730265173575
0.0017515780489368521   -0.00644080041844218   -0.0007157818451756324
0.0027931643881366547   -0.0034749979439112648   -0.0005743244906924457
0.0013562795448303908   -0.003366135396790851   -0.0005779593264358322
0.0017515780489368521   -0.00644080041844218   -0.0007157818451756324
0.0035952907727886296   -0.006496358641486445   -0.0007438455232981879
0.0027931643881366547   -0.0034749979439112648   -0.0005743244906924457
0.003565416479517436   -0.006473409226008696   -0.0007931081783701865
0.0013562795448303908   -0.003366135396790851   -0.0005779593264358322
0.0027426284918667158   -0.0034467063339690034   -0.0006554547873102812
0.003565416479517436   -0.006473409226008696   -0.0007931081783701865
0.0027931643881366547   -0.0034749979439112648   -0.0005743244906924457
0.0013562795448303908   -0.003366135396790851   -0.0005779593264358322
0.003565416479517436   -0.006473409226008696   -0.0007931081783701865
0.0017484157734017083   -0.006425846571834107   -0.0007355808941779031
0.0017515780489368521   -0.00644080041844218   -0.0007157818451756324
0.0013562795448303908   -0.003366135396790851   -0.0005779593264358322
0.003565416479517436   -0.006473409226008696   -0.0007931081783701865
0.0017515780489368521   -0.00644080041844218   -0.0007157818451756324
0.0027931643881366547   -0.0034749979439112648   -0.0005743244906924457
0.0013562795448303908   -0.003366135396790851   -0.0005779593264358322
0.0017484157734017083   -0.006425846571834107   -0.0007355808941779031
0.0027426284918667158   -0.0034467063339690034   -0.0006554547873102812
0.0013536698079905315   -0.003324832528760739   -0.0006172621234717928
0.0017484157734017083   -0.006425846571834107   -0.0007355808941779031
0.003565416479517436   -0.006473409226008696   -0.0007931081783701865
0.0027426284918667158   -0.0034467063339690034   -0.0006554547873102812
0.0035111350062738606   -0.006425672621764963   -0.0008485088362788846
0.0013536698079905315   -0.003324832528760739   -0.0006172621234717928
0.0026662318575202287   -0.003384110871095489   -0.000740013564726665
0.0035111350062738606   -0.006425672621764963   -0.0008485088362788846
0.0027426284918667158   -0.0034467063339690034   -0.0006554547873102812
0.0013536698079905315   -0.003324832528760739   -0.0006172621234717928
0.0035111350062738606   -0.006425672621764963   -0.0008485088362788846
0.0017429641294939443   -0.006395132787823055   -0.0007591855719748959
0.0017484157734017083   -0.006425846571834107   -0.0007355808941779031
0.0013536698079905315   -0.003324832528760739   -0.0006172621234717928
0.0035111350062738606   -0.006425672621764963   -0.0008485088362788846
0.0017484157734017083   -0.006425846571834107   -0.0007355808941779031
0.0027426284918667158   -0.0034467063339690034   -0.0006554547873102812
-0.004852419979828791   -0.006538555260790629   -0.0009798935083488818
-0.005786416945033116   -0.01013814393075489   -0.0010462643969584135
-0.0031206068341660333   -0.006452508046149179   -0.0008575579044452862
-0.004937160355235225   -0.006606139909923758   -0.0008955869684414775
-0.005786416945033116   -0.01013814393075489   -0.0010462643969584135
-0.0037581561927003556   -0.010083640551733565   -0.0009469407446273357
-0.0031206068341660333   -0.006452508046149179   -0.0008575579044452862
-0.0037615209620515976   -0.010125972254762331   -0.0009083056514081127
-0.004937160355235225   -0.006606139909923758   -0.0008955869684414775
-0.00312632369025614   -0.006501913046982718   -0.0008034094096464006
-0.0037615209620515976   -0.010125972254762331   -0.0009083056514081127
-0.0031206068341660333   -0.006452508046149179   -0.0008575579044452862
-0.004937160355235225   -0.006606139909923758   -0.0008955869684414775
-0.0037615209620515976   -0.010125972254762331   -0.0009083056514081127
-0.005842841243625236   -0.010195470387865783   -0.0009905791738069427
-0.005786416945033116   -0.01013814393075489   -0.0010462643969584135
-0.004937160355235225   -0.006606139909923758   -0.0008955869684414775
-0.0037615209620515976   -0.010125972254762331   -0.0009083056514081127
-0.005786416945033116   -0.01013814393075489   -0.0010462643969584135
-0.0031206068341660333   -0.006452508046149179   -0.0008575579044452862
-0.004937160355235225   -0.006606139909923758   -0.0008955869684414775
-0.005842841243625236   -0.010195470387865783   -0.0009905791738069427
-0.00312632369025614   -0.006501913046982718   -0.0008034094096464006
-0.004990065417828227   -0.006648625281028114   -0.0008170807576929589
-0.005842841243625236   -0.010195470387865783   -0.0009905791738069427
-0.0037615209620515976   -0.010125972254762331   -0.0009083056514081127
-0.00312632369025614   -0.006501913046982718   -0.0008034094096464006
-0.003763551870057127   -0.010159631386559021   -0.0008735408754801104
-0.004990065417828227   -0.006648625281028114   -0.0008170807576929589
-0.00313319297886789   -0.00653638759131571   -0.0007532205824541502
-0.003763551870057127   -0.010159631386559021   -0.0008735408754801104
-0.00312632369025614   -0.006501913046982718   -0.0008034094096464006
-0.004990065417828227   -0.006648625281028114   -0.0008170807576929589
-0.003763551870057127   -0.010159631386559021   -0.0008735408754801104
-0.005874646434653438   -0.010236149150690554   -0.0009402867484984773
-0.005842841243625236   -0.010195470387865783   -0.0009905791738069427
-0.004990065417828227   -0.006648625281028114   -0.0008170807576929589
-0.003763551870057127   -0.010159631386559021   -0.0008735408754801104
-0.005842841243625236   -0.010195470387865783   -0.0009905791738069427
-0.00312632369025614   -0.006501913046982718   -0.0008034094096464006
-0.004990065417828227   -0.006648625281028114   -0.0008170807576929589
-0.005874646434653438   -0.010236149150690554   -0.0009402867484984773
-0.00313319297886789   -0.00653638759131571   -0.0007532205824541502
-0.005050259760908243   -0.006679411081708251   -0.0007449183221921505
-0.005874646434653438   -0.010236149150690554   -0.0009402867484984773
-0.003763551870057127   -0.010159631386559021   -0.0008735408754801104
-0.00313319297886789   -0.00653638759131571   -0.0007532205824541502
-0.003754595297165891   -0.010187420107308385   -0.0008421246313305619
-0.005050259760908243   -0.006679411081708251   -0.0007449183221921505
-0.00312612936895043   -0.006559211215597095   -0.0007061450546147445
-0.003754595297165891   -0.010187420107308385   -0.0008421246313305619
-0.00313319297886789   -0.00653638759131571   -0.0007532205824541502
-0.005050259760908243   -0.006679411081708251   -0.0007449183221921505
-0.003754595297165891   -0.010187420107308385   -0.0008421246313305619
-0.005907311409189459   -0.010272815939599772   -0.0008960348508693971
-0.005874646434653438   -0.010236149150690554   -0.0009402867484984773
-0.005050259760908243   -0.006679411081708251   -0.0007449183221921505
-0.003754595297165891   -0.010187420107308385   -0.0008421246313305619
-0.005874646434653438   -0.010236149150690554   -0.0009402867484984773
-0.00313319297886789   -0.00653638759131571   -0.0007532205824541502
-0.0031206068341660333   -0.006452508046149179   -0.0008575579044452862
-0.0037581561927003556   -0.010083640551733565   -0.0009469407446273357
-0.0014893316964712127   -0.006409508420496407   -0.0007726147056173601
-0.00312632369025614   -0.006501913046982718   -0.0008034094096464006
-0.0037581561927003556   -0.010083640551733565   -0.0009469407446273357
-0.00185768289418496   -0.01005530499408587   -0.0008782013477396822
-0.0014893316964712127   -0.006409508420496407   -0.0007726147056173601
-0.0018530305555643162   -0.010081783517876024   -0.0008525606229820344
-0.00312632369025614   -0.006501913046982718   -0.0008034094096464006
-0.0014844850430314205   -0.006441013888091955   -0.0007419027507738619
-0.0018530305555643162   -0.010081783517876024   -0.0008525606229820344
-0.0014893316964712127   -0.006409508420496407   -0.0007726147056173601
-0.00312632369025614   -0.006501913046982718   -0.0008034094096464006
-0.0018530305555643162   -0.010081783517876024   -0.0008525606229820344
-0.0037615209620515976   -0.010125972254762331   -0.0009083056514081127
-0.0037581561927003556   -0.010083640551733565   -0.0009469407446273357
-0.00312632369025614   -0.006501913046982718   -0.0008034094096464006
-0.0018530305555643162   -0.010081783517876024   -0.0008525606229820344
-0.0037581561927003556   -0.010083640551733565   -0.0009469407446273357
-0.0014893316964712127   -0.006409508420496407   -0.0007726147056173601
-0.00312632369025614   -0.006501913046982718   -0.0008034094096464006
-0.0037615209620515976   -0.010125972254762331   -0.0009083056514081127
-0.0014844850430314205   -0.006441013888091955   -0.0007419027507738619
-0.00313319297886789   -0.00653638759131571   -0.0007532205824541502
-0.0037615209620515976   -0.010125972254762331   -0.0009083056514081127
-0.0018530305555643162   -0.010081783517876024   -0.0008525606229820344
-0.0014844850430314205   -0.006441013888091955   -0.0007419027507738619
-0.001847101564402456   -0.010100984154354647   -0.0008307262031547403
-0.00313319297886789   -0.00653638759131571   -0.0007532205824541502
-0.0014788060845681136   -0.006459556450212934   -0.0007149543267892372
-0.001847101564402456   -0.010100984154354647   -0.0008307262031547403
-0.0014844850430314205   -0.006441013888091955   -0.0007419027507738619
-0.00313319297886789   -0.00653638759131571   -0.0007532205824541502
-0.001847101564402456   -0.010100984154354647   -0.0008307262031547403
-0.003763551870057127   -0.010159631386559021   -0.0008735408754801104
-0.0037615209620515976   -0.010125972254762331   -0.0009083056514081127
-0.00313319297886789   -0.00653638759131571   -0.0007532205824541502
-0.001847101564402456   -0.010100984154354647   -0.0008307262031547403
-0.0037615209620515976   -0.010125972254762331   -0.0009083056514081127
-0.0014844850430314205   -0.006441013888091955   -0.0007419027507738619
-0.00313319297886789   -0.00653638759131571   -0.0007532205824541502
-0.003763551870057127   -0.010159631386559021   -0.0008735408754801104
-0.0014788060845681136   -0.006459556450212934   -0.0007149543267892372
-0.00312612936895043   -0.006559211215597095   -0.0007061450546147445
-0.003763551870057127   -0.010159631386559021   -0.0008735408754801104
-0.001847101564402456   -0.010100984154354647   -0.0008307262031547403
-0.0014788060845681136   -0.006459556450212934   -0.0007149543267892372
-0.0018387923350654263   -0.010113033990688438   -0.0008127653986956183
-0.00312612936895043   -0.006559211215597095   -0.0007061450546147445
-0.001470168959603587   -0.0064654009501275336   -0.0006917614768340119
-0.0018387923350654263   -0.010113033990688438   -0.0008127653986956183
-0.0014788060845681136   -0.006459556450212934   -0.0007149543267892372
-0.00312612936895043   -0.006559211215597095   -0.0007061450546147445
-0.0018387923350654263   -0.010113033990688438   -0.0008127653986956183
-0.003754595297165891   -0.010187420107308385   -0.0008421246313305619
-0.003763551870057127   -0.010159631386559021   -0.0008735408754801104
-0.00312612936895043   -0.006559211215597095   -0.0007061450546147445
-0.0018387923350654263   -0.010113033990688438   -0.0008127653986956183
-0.003763551870057127   -0.010159631386559021   -0.0008735408754801104
-0.0014788060845681136   -0.006459556450212934   -0.0007149543267892372
-0.0014893316964712127   -0.006409508420496407   -0.0007726147056173601
-0.00185768289418496   -0.01005530499408587   -0.0008782013477396822
9.355720315878545e-05   -0.006407200710335058   -0.0007201771884875737
-0.0014844850430314205   -0.006441013888091955   -0.0007419027507738619
-0.00185768289418496   -0.01005530499408587   -0.0008782013477396822
-9.095454877944629e-06   -0.010050328676857513   -0.0008384099303044816
9.355720315878545e-05   -0.006407200710335058   -0.0007201771884875737
-1.2990575321876607e-06   -0.010060833324922032   -0.0008258783841542759
-0.0014844850430314205   -0.006441013888091955   -0.0007419027507738619
0.00010157445990440328   -0.006421059417251682   -0.0007127834302092571
-1.2990575321876607e-06   -0.010060833324922032   -0.0008258783841542759
9.355720315878545e-05   -0.006407200710335058   -0.0007201771884875737
-0.0014844850430314205   -0.006441013888091955   -0.0007419027507738619
-1.2990575321876607e-06   -0.010060833324922032   -0.0008258783841542759
-0.0018530305555643162   -0.010081783517876024   -0.0008525606229820344
-0.00185768289418496   -0.01005530499408587   -0.0008782013477396822
-0.0014844850430314205   -0.006441013888091955   -0.0007419027507738619
-1.2990575321876607e-06   -0.010060833324922032   -0.0008258783841542759
-0.00185768289418496   -0.01005530499408587   -0.0008782013477396822
9.355720315878545e-05   -0.006407200710335058   -0.0007201771884875737
-0.0014844850430314205   -0.006441013888091955   -0.0007419027507738619
-0.0018530305555643162   -0.010081783517876024   -0.0008525606229820344
0.00010157445990440328   -0.006421059417251682   -0.0007127834302092571
-0.0014788060845681136   -0.006459556450212934   -0.0007149543267892372
-0.0018530305555643162   -0.010081783517876024   -0.0008525606229820344
-1.2990575321876607e-06   -0.010060833324922032   -0.0008258783841542759
0.00010157445990440328   -0.006421059417251682   -0.0007127834302092571
4.572354848544443e-06   -0.010064008473451201   -0.0008171089645283372
-0.0014788060845681136   -0.006459556450212934   -0.0007149543267892372
0.0001071124881983873   -0.006422005013695792   -0.0007090586976876288
4.572354848544443e-06   -0.010064008473451201   -0.0008171089645283372
0.00010157445990440328   -0.006421059417251682   -0.0007127834302092571
-0.0014788060845681136   -0.006459556450212934   -0.0007149543267892372
4.572354848544443e-06   -0.010064008473451201   -0.0008171089645283372
-0.001847101564402456   -0.010100984154354647   -0.0008307262031547403
-0.0018530305555643162   -0.010081783517876024   -0.0008525606229820344
-0.0014788060845681136   -0.006459556450212934   -0.0007149543267892372
4.572354848544443e-06   -0.010064008473451201   -0.0008171089645283372
-0.0018530305555643162   -0.010081783517876024   -0.0008525606229820344
0.00010157445990440328   -0.006421059417251682   -0.0007127834302092571
-0.0014788060845681136   -0.006459556450212934   -0.0007149543267892372
-0.001847101564402456   -0.010100984154354647   -0.0008307262031547403
0.0001071124881983873   -0.006422005013695792   -0.0007090586976876288
-0.001470168959603587   -0.0064654009501275336   -0.0006917614768340119
-0.001847101564402456   -0.010100984154354647   -0.0008307262031547403
4.572354848544443e-06   -0.010064008473451201   -0.0008171089645283372
0.0001071124881983873   -0.006422005013695792   -0.0007090586976876288
8.730051932783995e-06   -0.010059752651837627   -0.0008122647217690604
-0.001470168959603587   -0.0064654009501275336   -0.0006917614768340119
0.00011144000801764874   -0.006409846496068241   -0.0007092217012279607
8.730051932783995e-06   -0.010059752651837627   -0.0008122647217690604
0.0001071124881983873   -0.006422005013695792   -0.0007090586976876288
-0.001470168959603587   -0.0064654009501275336   -0.0006917614768340119
8.730051932783995e-06   -0.010059752651837627   -0.0008122647217690604
-0.0018387923350654263   -0.010113033990688438   -0.0008127653986956183
-0.001847101564402456   -0.010100984154354647   -0.0008307262031547403
-0.001470168959603587   -0.0064654009501275336   -0.0006917614768340119
8.730051932783995e-06   -0.010059752651837627   -0.0008122647217690604
-0.001847101564402456   -0.010100984154354647   -0.0008307262031547403
0.0001071124881983873   -0.006422005013695792   -0.0007090586976876288
9.355720315878545e-05   -0.006407200710335058   -0.0007201771884875737
-9.095454877944629e-06   -0.010050328676857513   -0.0008384099303044816
0.001744321262611728   -0.006443156026562366   -0.0006993822402812616
0.00010157445990440328   -0.006421059417251682   -0.0007127834302092571
-9.095454877944629e-06   -0.010050328676857513   -0.0008384099303044816
0.0019031270569099107   -0.010066687960046639   -0.0008274483358847783
0.001744321262611728   -0.006443156026562366   -0.0006993822402812616
0.0019125052334567284   -0.01006211178509086   -0.0008282932814800337
0.00010157445990440328   -0.006421059417251682   -0.0007127834302092571
0.0017515780489368521   -0.00644080041844218   -0.0007157818451756324
0.0019125052334567284   -0.01006211178509086   -0.0008282932814800337
0.001744321262611728   -0.006443156026562366   -0.0006993822402812616
0.00010157445990440328   -0.006421059417251682   -0.0007127834302092571
0.0019125052334567284   -0.01006211178509086   -0.0008282932814800337
-1.2990575321876607e-06   -0.010060833324922032   -0.0008258783841542759
-9.095454877944629e-06   -0.010050328676857513   -0.0008384099303044816
0.00010157445990440328   -0.006421059417251682   -0.0007127834302092571
0.0019125052334567284   -0.01006211178509086   -0.0008282932814800337
-9.095454877944629e-06   -0.010050328676857513   -0.0008384099303044816
0.001744321262611728   -0.006443156026562366   -0.0006993822402812616
0.00010157445990440328   -0.006421059417251682   -0.0007127834302092571
-1.2990575321876607e-06   -0.010060833324922032   -0.0008258783841542759
0.0017515780489368521   -0.00644080041844218   -0.0007157818451756324
0.0001071124881983873   -0.006422005013695792   -0.0007090586976876288
-1.2990575321876607e-06   -0.010060833324922032   -0.0008258783841542759
0.0019125052334567284   -0.01006211178509086   -0.0008282932814800337
0.0017515780489368521   -0.00644080041844218   -0.0007157818451756324
0.0019144367392763238   -0.010050811066663001   -0.0008326947934027018
0.0001071124881983873   -0.006422005013695792   -0.0007090586976876288
0.0017484157734017083   -0.006425846571834107   -0.0007355808941779031
0.0019144367392763238   -0.010050811066663001   -0.0008326947934027018
0.0017515780489368521   -0.00644080041844218   -0.0007157818451756324
0.0001071124881983873   -0.006422005013695792   -0.0007090586976876288
0.0019144367392763238   -0.010050811066663001   -0.0008326947934027018
4.572354848544443e-06   -0.010064008473451201   -0.0008171089645283372
-1.2990575321876607e-06   -0.010060833324922032   -0.0008258783841542759
0.0001071124881983873   -0.006422005013695792   -0.0007090586976876288
0.0019144367392763238   -0.010050811066663001   -0.0008326947934027018
-1.2990575321876607e-06   -0.010060833324922032   -0.0008258783841542759
0.0017515780489368521   -0.00644080041844218   -0.0007157818451756324
0.0001071124881983873   -0.006422005013695792   -0.0007090586976876288
4.572354848544443e-06   -0.010064008473451201   -0.0008171089645283372
0.0017484157734017083   -0.006425846571834107   -0.0007355808941779031
0.00011144000801764874   -0.006409846496068241   -0.0007092217012279607
4.572354848544443e-06   -0.010064008473451201   -0.0008171089645283372
0.0019144367392763238   -0.010050811066663001   -0.0008326947934027018
0.0017484157734017083   -0.006425846571834107   -0.0007355808941779031
0.0019115020006722685   -0.010030000142496193   -0.0008407923314277661
0.00011144000801764874   -0.006409846496068241   -0.0007092217012279607
0.0017429641294939443   -0.006395132787823055   -0.0007591855719748959
0.0019115020006722685   -0.010030000142496193   -0.0008407923314277661
0.0017484157734017083   -0.006425846571834107   -0.0007355808941779031
0.00011144000801764874   -0.006409846496068241   -0.0007092217012279607
0.0019115020006722685   -0.010030000142496193   -0.0008407923314277661
8.730051932783995e-06   -0.010059752651837627   -0.0008122647217690604
4.572354848544443e-06   -0.010064008473451201   -0.0008171089645283372
0.00011144000801764874   -0.006409846496068241   -0.0007092217012279607
0.0019115020006722685   -0.010030000142496193   -0.0008407923314277661
4.572354848544443e-06   -0.010064008473451201   -0.0008171089645283372
0.0017484157734017083   -0.006425846571834107   -0.0007355808941779031
0.001744321262611728   -0.006443156026562366   -0.0006993822402812616
0.0019031270569099107   -0.010066687960046639   -0.0008274483358847783
0.003624955315205299   -0.006508119132769087   -0.0007007138963407646
0.0017515780489368521   -0.00644080041844218   -0.0007157818451756324
0.0019031270569099107   -0.010066687960046639   -0.0008274483358847783
0.004014571740911558   -0.010096548839073818   -0.0008392275962940391
0.003624955315205299   -0.006508119132769087   -0.0007007138963407646
0.004012821274035639   -0.01008171279471032   -0.000854373106074664
0.0017515780489368521   -0.00644080041844218   -0.0007157818451756324
0.0035952907727886296   -0.006496358641486445   -0.0007438455232981879
0.004012821274035639   -0.01008171279471032   -0.000854373106074664
0.003624955315205299   -0.006508119132769087   -0.0007007138963407646
0.0017515780489368521   -0.00644080041844218   -0.0007157818451756324
0.004012821274035639   -0.01008171279471032   -0.000854373106074664
0.0019125052334567284   -0.01006211178509086   -0.0008282932814800337
0.0019031270569099107   -0.010066687960046639   -0.0008274483358847783
0.0017515780489368521   -0.00644080041844218   -0.0007157818451756324
0.004012821274035639   -0.01008171279471032   -0.000854373106074664
0.0019031270569099107   -0.010066687960046639   -0.0008274483358847783
0.003624955315205299   -0.006508119132769087   -0.0007007138963407646
0.0017515780489368521   -0.00644080041844218   -0.0007157818451756324
0.0019125052334567284   -0.01006211178509086   -0.0008282932814800337
0.0035952907727886296   -0.006496358641486445   -0.0007438455232981879
0.0017484157734017083   -0.006425846571834107   -0.0007355808941779031
0.0019125052334567284   -0.01006211178509086   -0.0008282932814800337
0.004012821274035639   -0.01008171279471032   -0.000854373106074664
0.0035952907727886296   -0.006496358641486445   -0.0007438455232981879
0.0040044939522581625   -0.010063369363200163   -0.0008752971297922048
0.0017484157734017083   -0.006425846571834107   -0.0007355808941779031
0.003565416479517436   -0.006473409226008696   -0.0007931081783701865
0.0040044939522581625   -0.010063369363200163   -0.0008752971297922048
0.0035952907727886296   -0.006496358641486445   -0.0007438455232981879
0.0017484157734017083   -0.006425846571834107   -0.0007355808941779031
0.0040044939522581625   -0.010063369363200163   -0.0008752971297922048
0.0019144367392763238   -0.010050811066663001   -0.0008326947934027018
0.0019125052334567284   -0.01006211178509086   -0.0008282932814800337
0.0017484157734017083   -0.006425846571834107   -0.0007355808941779031
0.0040044939522581625   -0.010063369363200163   -0.0008752971297922048
0.0019125052334567284   -0.01006211178509086   -0.0008282932814800337
0.0035952907727886296   -0.006496358641486445   -0.0007438455232981879
0.0017484157734017083   -0.006425846571834107   -0.0007355808941779031
0.0019144367392763238   -0.010050811066663001   -0.0008326947934027018
0.003565416479517436   -0.006473409226008696   -0.0007931081783701865
0.0017429641294939443   -0.006395132787823055   -0.0007591855719748959
0.0019144367392763238   -0.010050811066663001   -0.0008326947934027018
0.0040044939522581625   -0.010063369363200163   -0.0008752971297922048
0.003565416479517436   -0.006473409226008696   -0.0007931081783701865
0.003978933769633285   -0.010028790020008579   -0.0009019575916140089
0.0017429641294939443   -0.006395132787823055   -0.0007591855719748959
0.0035111350062738606   -0.006425672621764963   -0.0008485088362788846
0.003978933769633285   -0.010028790020008579   -0.0009019575916140089
0.003565416479517436   -0.006473409226008696   -0.0007931081783701865
0.0017429641294939443   -0.006395132787823055   -0.0007591855719748959
0.003978933769633285   -0.010028790020008579   -0.0009019575916140089
0.0019115020006722685   -0.010030000142496193   -0.0008407923314277661
0.0019144367392763238   -0.010050811066663001   -0.0008326947934027018
0.0017429641294939443   -0.006395132787823055   -0.0007591855719748959
0.003978933769633285   -0.010028790020008579   -0.0009019575916140089
0.0019144367392763238   -0.010050811066663001   -0.0008326947934027018
0.003565416479517436   -0.006473409226008696   -0.0007931081783701865
-0.005786416945033116   -0.01013814393075489   -0.0010462643969584135
-0.006348155646207418   -0.014047446871323152   -0.001066781322296272
-0.0037581561927003556   -0.010083640551733565   -0.0009469407446273357
-0.005842841243625236   -0.010195470387865783   -0.0009905791738069427
-0.006348155646207418   -0.014047446871323152   -0.001066781322296272
-0.004175086793119092   -0.014025456388525715   -0.0009880379584010477
-0.0037581561927003556   -0.010083640551733565   -0.0009469407446273357
-0.004172438919705685   -0.014061410768025898   -0.0009644270102010817
-0.005842841243625236   -0.010195470387865783   -0.0009905791738069427
-0.0037615209620515976   -0.010125972254762331   -0.0009083056514081127
-0.004172438919705685   -0.014061410768025898   -0.0009644270102010817
-0.0037581561927003556   -0.010083640551733565   -0.0009469407446273357
-0.005842841243625236   -0.010195470387865783   -0.0009905791738069427
-0.004172438919705685   -0.014061410768025898   -0.0009644270102010817
-0.006373790876701263   -0.014095832192205846   -0.001038335373658546
-0.006348155646207418   -0.014047446871323152   -0.001066781322296272
-0.005842841243625236   -0.010195470387865783   -0.0009905791738069427
-0.004172438919705685   -0.014061410768025898   -0.0009644270102010817
-0.006348155646207418   -0.014047446871323152   -0.001066781322296272
-0.0037581561927003556   -0.010083640551733565   -0.0009469407446273357
-0.005842841243625236   -0.010195470387865783   -0.0009905791738069427
-0.006373790876701263   -0.014095832192205846   -0.001038335373658546
-0.0037615209620515976   -0.010125972254762331   -0.0009083056514081127
-0.005874646434653438   -0.010236149150690554   -0.0009402867484984773
-0.006373790876701263   -0.014095832192205846   -0.001038335373658546
-0.004172438919705685   -0.014061410768025898   -0.0009644270102010817
-0.0037615209620515976   -0.010125972254762331   -0.0009083056514081127
-0.004165851644141959   -0.014094694842308464   -0.0009447402249899688
-0.005874646434653438   -0.010236149150690554   -0.0009402867484984773
-0.003763551870057127   -0.010159631386559021   -0.0008735408754801104
-0.004165851644141959   -0.014094694842308464   -0.0009447402249899688
-0.0037615209620515976   -0.010125972254762331   -0.0009083056514081127
-0.005874646434653438   -0.010236149150690554   -0.0009402867484984773
-0.004165851644141959   -0.014094694842308464   -0.0009447402249899688
-0.006381143947904151   -0.014135437459041895   -0.0010155340697944745
-0.006373790876701263   -0.014095832192205846   -0.001038335373658546
-0.005874646434653438   -0.010236149150690554   -0.0009402867484984773
-0.004165851644141959   -0.014094694842308464   -0.0009447402249899688
-0.006373790876701263   -0.014095832192205846   -0.001038335373658546
-0.0037615209620515976   -0.010125972254762331   -0.0009083056514081127
-0.005874646434653438   -0.010236149150690554   -0.0009402867484984773
-0.006381143947904151   -0.014135437459041895   -0.0010155340697944745
-0.003763551870057127   -0.010159631386559021   -0.0008735408754801104
-0.005907311409189459   -0.010272815939599772   -0.0008960348508693971
-0.006381143947904151   -0.014135437459041895   -0.0010155340697944745
-0.004165851644141959   -0.014094694842308464   -0.0009447402249899688
-0.003763551870057127   -0.010159631386559021   -0.0008735408754801104
-0.004151119951247722   -0.014127856640530111   -0.0009286927022867374
-0.005907311409189459   -0.010272815939599772   -0.0008960348508693971
-0.003754595297165891   -0.010187420107308385   -0.0008421246313305619
-0.004151119951247722   -0.014127856640530111   -0.0009286927022867374
-0.003763551870057127   -0.010159631386559021   -0.0008735408754801104
-0.005907311409189459   -0.010272815939599772   -0.0008960348508693971
-0.004151119951247722   -0.014127856640530111   -0.0009286927022867374
-0.0063826988211091625   -0.014178632210648644   -0.000998873368938661
-0.006381143947904151   -0.014135437459041895   -0.0010155340697944745
-0.005907311409189459   -0.010272815939599772   -0.0008960348508693971
-0.004151119951247722   -0.014127856640530111   -0.0009286927022867374
-0.006381143947904151   -0.014135437459041895   -0.0010155340697944745
-0.003763551870057127   -0.010159631386559021   -0.0008735408754801104
-0.0037581561927003556   -0.010083640551733565   -0.0009469407446273357
-0.004175086793119092   -0.014025456388525715   -0.0009880379584010477
-0.00185768289418496   -0.01005530499408587   -0.0008782013477396822
-0.0037615209620515976   -0.010125972254762331   -0.0009083056514081127
-0.004175086793119092   -0.014025456388525715   -0.0009880379584010477
-0.0021566904844127805   -0.014012612997043743   -0.0009344644783535141
-0.00185768289418496   -0.01005530499408587   -0.0008782013477396822
-0.0021481837208275918   -0.014034291264904011   -0.0009137188450099843
-0.0037615209620515976   -0.010125972254762331   -0.0009083056514081127
-0.0018530305555643162   -0.010081783517876024   -0.0008525606229820344
-0.0021481837208275918   -0.014034291264904011   -0.0009137188450099843
-0.00185768289418496   -0.01005530499408587   -0.0008782013477396822
-0.0037615209620515976   -0.010125972254762331   -0.0009083056514081127
-0.0021481837208275918   -0.014034291264904011   -0.0009137188450099843
-0.004172438919705685   -0.014061410768025898   -0.0009644270102010817
-0.004175086793119092   -0.014025456388525715   -0.0009880379584010477
-0.0037615209620515976   -0.010125972254762331   -0.0009083056514081127
-0.0021481837208275918   -0.014034291264904011   -0.0009137188450099843
-0.004175086793119092   -0.014025456388525715   -0.0009880379584010477
-0.00185768289418496   -0.01005530499408587   -0.0008782013477396822
-0.0037615209620515976   -0.010125972254762331   -0.0009083056514081127
-0.004172438919705685   -0.014061410768025898   -0.0009644270102010817
-0.0018530305555643162   -0.010081783517876024   -0.0008525606229820344
-0.003763551870057127   -0.010159631386559021   -0.0008735408754801104
-0.004172438919705685   -0.014061410768025898   -0.0009644270102010817
-0.0021481837208275918   -0.014034291264904011   -0.0009137188450099843
-0.0018530305555643162   -0.010081783517876024   -0.0008525606229820344
-0.0021379865991805916   -0.014054266821304923   -0.000896895320384123
-0.003763551870057127   -0.010159631386559021   -0.0008735408754801104
-0.001847101564402456   -0.010100984154354647   -0.0008307262031547403
-0.0021379865991805916   -0.014054266821304923   -0.000896895320384123
-0.0018530305555643162   -0.010081783517876024   -0.0008525606229820344
-0.003763551870057127   -0.010159631386559021   -0.0008735408754801104
-0.0021379865991805916   -0.014054266821304923   -0.000896895320384123
-0.004165851644141959   -0.014094694842308464   -0.0009447402249899688
-0.004172438919705685   -0.014061410768025898   -0.0009644270102010817
-0.003763551870057127   -0.010159631386559021   -0.0008735408754801104
-0.0021379865991805916   -0.014054266821304923   -0.000896895320384123
-0.004172438919705685   -0.014061410768025898   -0.0009644270102010817
-0.0018530305555643162   -0.010081783517876024   -0.0008525606229820344
-0.003763551870057127   -0.010159631386559021   -0.0008735408754801104
-0.004165851644141959   -0.014094694842308464   -0.0009447402249899688
-0.001847101564402456   -0.010100984154354647   -0.0008307262031547403
-0.003754595297165891   -0.010187420107308385   -0.0008421246313305619
-0.004165851644141959   -0.014094694842308464   -0.0009447402249899688
-0.0021379865991805916   -0.014054266821304923   -0.000896895320384123
-0.001847101564402456   -0.010100984154354647   -0.0008307262031547403
-0.0021259137676221543   -0.014072607311152152   -0.0008840932488385857
-0.003754595297165891   -0.010187420107308385   -0.0008421246313305619
-0.0018387923350654263   -0.010113033990688438   -0.0008127653986956183
-0.0021259137676221543   -0.014072607311152152   -0.0008840932488385857
-0.001847101564402456   -0.010100984154354647   -0.0008307262031547403
-0.003754595297165891   -0.010187420107308385   -0.0008421246313305619
-0.0021259137676221543   -0.014072607311152152   -0.0008840932488385857
-0.004151119951247722   -0.014127856640530111   -0.0009286927022867374
-0.004165851644141959   -0.014094694842308464   -0.0009447402249899688
-0.003754595297165891   -0.010187420107308385   -0.0008421246313305619
-0.0021259137676221543   -0.014072607311152152   -0.0008840932488385857
-0.004165851644141959   -0.014094694842308464   -0.0009447402249899688
-0.001847101564402456   -0.010100984154354647   -0.0008307262031547403
-0.00185768289418496   -0.01005530499408587   -0.0008782013477396822
-0.0021566904844127805   -0.014012612997043743   -0.0009344644783535141
-9.095454877944629e-06   -0.010050328676857513   -0.0008384099303044816
-0.0018530305555643162   -0.010081783517876024   -0.0008525606229820344
-0.0021566904844127805   -0.014012612997043743   -0.0009344644783535141
-0.00019296764500661398   -0.014005107459362334   -0.0009070197674947778
-9.095454877944629e-06   -0.010050328676857513   -0.0008384099303044816
-0.00018143456308936055   -0.014012207110417963   -0.0008893586627994681
-0.0018530305555643162   -0.010081783517876024   -0.0008525606229820344
-1.2990575321876607e-06   -0.010060833324922032   -0.0008258783841542759
-0.00018143456308936055   -0.014012207110417963   -0.0008893586627994681
-9.095454877944629e-06   -0.010050328676857513   -0.0008384099303044816
-0.0018530305555643162   -0.010081783517876024   -0.0008525606229820344
-0.00018143456308936055   -0.014012207110417963   -0.0008893586627994681
-0.0021481837208275918   -0.014034291264904011   -0.0009137188450099843
-0.0021566904844127805   -0.014012612997043743   -0.0009344644783535141
-0.0018530305555643162   -0.010081783517876024   -0.0008525606229820344
-0.00018143456308936055   -0.014012207110417963   -0.0008893586627994681
-0.0021566904844127805   -0.014012612997043743   -0.0009344644783535141
-9.095454877944629e-06   -0.010050328676857513   -0.0008384099303044816
-0.0018530305555643162   -0.010081783517876024   -0.0008525606229820344
-0.0021481837208275918   -0.014034291264904011   -0.0009137188450099843
-1.2990575321876607e-06   -0.010060833324922032   -0.0008258783841542759
-0.001847101564402456   -0.010100984154354647   -0.0008307262031547403
-0.0021481837208275918   -0.014034291264904011   -0.0009137188450099843
-0.00018143456308936055   -0.014012207110417963   -0.0008893586627994681
-1.2990575321876607e-06   -0.010060833324922032   -0.0008258783841542759
-0.00017132320514623065   -0.014017478080059704   -0.0008755901700237714
-0.001847101564402456   -0.010100984154354647   -0.0008307262031547403
4.572354848544443e-06   -0.010064008473451201   -0.0008171089645283372
-0.00017132320514623065   -0.014017478080059704   -0.0008755901700237714
-1.2990575321876607e-06   -0.010060833324922032   -0.0008258783841542759
-0.001847101564402456   -0.010100984154354647   -0.0008307262031547403
-0.00017132320514623065   -0.014017478080059704   -0.0008755901700237714
-0.0021379865991805916   -0.014054266821304923   -0.000896895320384123
-0.0021481837208275918   -0.014034291264904011   -0.0009137188450099843
-0.001847101564402456   -0.010100984154354647   -0.0008307262031547403
-0.00017132320514623065   -0.014017478080059704   -0.0008755901700237714
-0.0021481837208275918   -0.014034291264904011   -0.0009137188450099843
-1.2990575321876607e-06   -0.010060833324922032   -0.0008258783841542759
-0.001847101564402456   -0.010100984154354647   -0.0008307262031547403
-0.0021379865991805916   -0.014054266821304923   -0.000896895320384123
4.572354848544443e-06   -0.010064008473451201   -0.0008171089645283372
-0.0018387923350654263   -0.010113033990688438   -0.0008127653986956183
-0.0021379865991805916   -0.014054266821304923   -0.000896895320384123
-0.00017132320514623065   -0.014017478080059704   -0.0008755901700237714
4.572354848544443e-06   -0.010064008473451201   -0.0008171089645283372
-0.00016336658641885086   -0.014020890043106018   -0.0008658534549872409
-0.0018387923350654263   -0.010113033990688438   -0.0008127653986956183
8.730051932783995e-06   -0.010059752651837627   -0.0008122647217690604
-0.00016336658641885086   -0.014020890043106018   -0.0008658534549872409
4.572354848544443e-06   -0.010064008473451201   -0.0008171089645283372
-0.0018387923350654263   -0.010113033990688438   -0.0008127653986956183
-0.00016336658641885086   -0.014020890043106018   -0.0008658534549872409
-0.0021259137676221543   -0.014072607311152152   -0.0008840932488385857
-0.0021379865991805916   -0.014054266821304923   -0.000896895320384123
-0.0018387923350654263   -0.010113033990688438   -0.0008127653986956183
-0.00016336658641885086   -0.014020890043106018   -0.0008658534549872409
-0.0021379865991805916   -0.014054266821304923   -0.000896895320384123
4.572354848544443e-06   -0.010064008473451201   -0.0008171089645283372
-9.095454877944629e-06   -0.010050328676857513   -0.0008384099303044816
-0.00019296764500661398   -0.014005107459362334   -0.0009070197674947778
0.0019031270569099107   -0.010066687960046639   -0.0008274483358847783
-1.2990575321876607e-06   -0.010060833324922032   -0.0008258783841542759
-0.00019296764500661398   -0.014005107459362334   -0.0009070197674947778
0.0018304742848822475   -0.014001638974173418   -0.0009059885599399366
0.0019031270569099107   -0.010066687960046639   -0.0008274483358847783
0.0018455216885030921   -0.013994587364046216   -0.0008915616197205753
-1.2990575321876607e-06   -0.010060833324922032   -0.0008258783841542759
0.0019125052334567284   -0.01006211178509086   -0.0008282932814800337
0.0018455216885030921   -0.013994587364046216   -0.0008915616197205753
0.0019031270569099107   -0.010066687960046639   -0.0008274483358847783
-1.2990575321876607e-06   -0.010060833324922032   -0.0008258783841542759
0.0018455216885030921   -0.013994587364046216   -0.0008915616197205753
-0.00018143456308936055   -0.014012207110417963   -0.0008893586627994681
-0.00019296764500661398   -0.014005107459362334   -0.0009070197674947778
-1.2990575321876607e-06   -0.010060833324922032   -0.0008258783841542759
0.0018455216885030921   -0.013994587364046216   -0.0008915616197205753
-0.00019296764500661398   -0.014005107459362334   -0.0009070197674947778
0.0019031270569099107   -0.010066687960046639   -0.0008274483358847783
-1.2990575321876607e-06   -0.010060833324922032   -0.0008258783841542759
-0.00018143456308936055   -0.014012207110417963   -0.0008893586627994681
0.0019125052334567284   -0.01006211178509086   -0.0008282932814800337
4.572354848544443e-06   -0.010064008473451201   -0.0008171089645283372
-0.00018143456308936055   -0.014012207110417963   -0.0008893586627994681
0.0018455216885030921   -0.013994587364046216   -0.0008915616197205753
0.0019125052334567284   -0.01006211178509086   -0.0008282932814800337
0.001856010198162952   -0.013986552100738861   -0.00088091231880936
4.572354848544443e-06   -0.010064008473451201   -0.0008171089645283372
0.0019144367392763238   -0.010050811066663001   -0.0008326947934027018
0.001856010198162952   -0.013986552100738861   -0.00088091231880936
0.0019125052334567284   -0.01006211178509086   -0.0008282932814800337
4.572354848544443e-06   -0.010064008473451201   -0.0008171089645283372
0.001856010198162952   -0.013986552100738861   -0.00088091231880936
-0.00017132320514623065   -0.014017478080059704   -0.0008755901700237714
-0.00018143456308936055   -0.014012207110417963   -0.0008893586627994681
4.572354848544443e-06   -0.010064008473451201   -0.0008171089645283372
0.001856010198162952   -0.013986552100738861   -0.00088091231880936
-0.00018143456308936055   -0.014012207110417963   -0.0008893586627994681
0.0019125052334567284   -0.01006211178509086   -0.0008282932814800337
4.572354848544443e-06   -0.010064008473451201   -0.0008171089645283372
-0.00017132320514623065   -0.014017478080059704   -0.0008755901700237714
0.0019144367392763238   -0.010050811066663001   -0.0008326947934027018
8.730051932783995e-06   -0.010059752651837627   -0.0008122647217690604
-0.00017132320514623065   -0.014017478080059704   -0.0008755901700237714
0.001856010198162952   -0.013986552100738861   -0.00088091231880936
0.0019144367392763238   -0.010050811066663001   -0.0008326947934027018
0.00185902621386646   -0.013974955465060196   -0.0008739657151747996
8.730051932783995e-06   -0.010059752651837627   -0.0008122647217690604
0.0019115020006722685   -0.010030000142496193   -0.0008407923314277661
0.00185902621386646   -0.013974955465060196   -0.0008739657151747996
0.0019144367392763238   -0.010050811066663001   -0.0008326947934027018
8.730051932783995e-06   -0.010059752651837627   -0.0008122647217690604
0.00185902621386646   -0.013974955465060196   -0.0008739657151747996
-0.00016336658641885086   -0.014020890043106018   -0.0008658534549872409
-0.00017132320514623065   -0.014017478080059704   -0.0008755901700237714
8.730051932783995e-06   -0.010059752651837627   -0.0008122647217690604
0.00185902621386646   -0.013974955465060196   -0.0008739657151747996
-0.00017132320514623065   -0.014017478080059704   -0.0008755901700237714
0.0019144367392763238   -0.010050811066663001   -0.0008326947934027018
0.0019031270569099107   -0.010066687960046639   -0.0008274483358847783
0.0018304742848822475   -0.014001638974173418   -0.0009059885599399366
0.004014571740911558   -0.010096548839073818   -0.0008392275962940391
0.0019125052334567284   -0.01006211178509086   -0.0008282932814800337
0.0018304742848822475   -0.014001638974173418   -0.0009059885599399366
0.0040223951168330266   -0.013996538453954696   -0.0009288938775530877
0.004014571740911558   -0.010096548839073818   -0.0008392275962940391
0.004051465161823707   -0.01397826511050862   -0.0009166809807487699
0.0019125052334567284   -0.01006211178509086   -0.0008282932814800337
0.004012821274035639   -0.01008171279471032   -0.000854373106074664
0.004051465161823707   -0.01397826511050862   -0.0009166809807487699
0.004014571740911558   -0.010096548839073818   -0.0008392275962940391
0.0019125052334567284   -0.01006211178509086   -0.0008282932814800337
0.004051465161823707   -0.01397826511050862   -0.0009166809807487699
0.0018455216885030921   -0.013994587364046216   -0.0008915616197205753
0.0018304742848822475   -0.014001638974173418   -0.0009059885599399366
0.0019125052334567284   -0.01006211178509086   -0.0008282932814800337
0.004051465161823707   -0.01397826511050862   -0.0009166809807487699
0.0018304742848822475   -0.014001638974173418   -0.0009059885599399366
0.004014571740911558   -0.010096548839073818   -0.0008392275962940391
0.0019125052334567284   -0.01006211178509086   -0.0008282932814800337
0.0018455216885030921   -0.013994587364046216   -0.0008915616197205753
0.004012821274035639   -0.01008171279471032   -0.000854373106074664
0.0019144367392763238   -0.010050811066663001   -0.0008326947934027018
0.0018455216885030921   -0.013994587364046216   -0.0008915616197205753
0.004051465161823707   -0.01397826511050862   -0.0009166809807487699
0.004012821274035639   -0.01008171279471032   -0.000854373106074664
0.004067494591713768   -0.013963937740152208   -0.000910219942597406
0.0019144367392763238   -0.010050811066663001   -0.0008326947934027018
0.0040044939522581625   -0.010063369363200163   -0.0008752971297922048
0.004067494591713768   -0.013963937740152208   -0.000910219942597406
0.004012821274035639   -0.01008171279471032   -0.000854373106074664
0.0019144367392763238   -0.010050811066663001   -0.0008326947934027018
0.004067494591713768   -0.013963937740152208   -0.000910219942597406
0.001856010198162952   -0.013986552100738861   -0.00088091231880936
0.0018455216885030921   -0.013994587364046216   -0.0008915616197205753
0.0019144367392763238   -0.010050811066663001   -0.0008326947934027018
0.004067494591713768   -0.013963937740152208   -0.000910219942597406
0.0018455216885030921   -0.013994587364046216   -0.0008915616197205753
0.004012821274035639   -0.01008171279471032   -0.000854373106074664
0.0019144367392763238   -0.010050811066663001   -0.0008326947934027018
0.001856010198162952   -0.013986552100738861   -0.00088091231880936
0.0040044939522581625   -0.010063369363200163   -0.0008752971297922048
0.0019115020006722685   -0.010030000142496193   -0.0008407923314277661
0.001856010198162952   -0.013986552100738861   -0.00088091231880936
0.004067494591713768   -0.013963937740152208   -0.000910219942597406
0.0040044939522581625   -0.010063369363200163   -0.0008752971297922048
0.004072795811945757   -0.013941271433492799   -0.0009096093016883787
0.0019115020006722685   -0.010030000142496193   -0.0008407923314277661
0.003978933769633285   -0.010028790020008579   -0.0009019575916140089
0.004072795811945757   -0.013941271433492799   -0.0009096093016883787
0.0040044939522581625   -0.010063369363200163   -0.0008752971297922048
0.0019115020006722685   -0.010030000142496193   -0.0008407923314277661
0.004072795811945757   -0.013941271433492799   -0.0009096093016883787
0.00185902621386646   -0.013974955465060196   -0.0008739657151747996
0.001856010198162952   -0.013986552100738861   -0.00088091231880936
0.0019115020006722685   -0.010030000142496193   -0.0008407923314277661
0.004072795811945757   -0.013941271433492799   -0.0009096093016883787
0.001856010198162952   -0.013986552100738861   -0.00088091231880936
0.0040044939522581625   -0.010063369363200163   -0.0008752971297922048
-0.006348155646207418   -0.014047446871323152   -0.001066781322296272
-0.0065399566313407475   -0.018018766683859412   -0.0010500574931249424
-0.004175086793119092   -0.014025456388525715   -0.0009880379584010477
-0.006373790876701263   -0.014095832192205846   -0.001038335373658546
-0.0065399566313407475   -0.018018766683859412   -0.0010500574931249424
-0.004373220212300565   -0.01802933714844935   -0.000992152257789197
-0.004175086793119092   -0.014025456388525715   -0.0009880379584010477
-0.00436086670598948   -0.01805883976455684   -0.0009832537505769401
-0.006373790876701263   -0.014095832192205846   -0.001038335373658546
-0.004172438919705685   -0.014061410768025898   -0.0009644270102010817
-0.00436086670598948   -0.01805883976455684   -0.0009832537505769401
-0.004175086793119092   -0.014025456388525715   -0.0009880379584010477
-0.006373790876701263   -0.014095832192205846   -0.001038335373658546
-0.00436086670598948   -0.01805883976455684   -0.0009832537505769401
-0.006531423986266078   -0.01805828115315632   -0.001048575099043284
-0.0065399566313407475   -0.018018766683859412   -0.0010500574931249424
-0.006373790876701263   -0.014095832192205846   -0.001038335373658546
-0.00436086670598948   -0.01805883976455684   -0.0009832537505769401
-0.0065399566313407475   -0.018018766683859412   -0.0010500574931249424
-0.004175086793119092   -0.014025456388525715   -0.0009880379584010477
-0.006373790876701263   -0.014095832192205846   -0.001038335373658546
-0.006531423986266078   -0.01805828115315632   -0.001048575099043284
-0.004172438919705685   -0.014061410768025898   -0.0009644270102010817
-0.006381143947904151   -0.014135437459041895   -0.0010155340697944745
-0.006531423986266078   -0.01805828115315632   -0.001048575099043284
-0.00436086670598948   -0.01805883976455684   -0.0009832537505769401
-0.004172438919705685   -0.014061410768025898   -0.0009644270102010817
-0.0043419909761088634   -0.01809167312125277   -0.0009783699133007373
-0.006381143947904151   -0.014135437459041895   -0.0010155340697944745
-0.004165851644141959   -0.014094694842308464   -0.0009447402249899688
-0.0043419909761088634   -0.01809167312125277   -0.0009783699133007373
-0.004172438919705685   -0.014061410768025898   -0.0009644270102010817
-0.006381143947904151   -0.014135437459041895   -0.0010155340697944745
-0.0043419909761088634   -0.01809167312125277   -0.0009783699133007373
-0.006510649103420698   -0.018096824714575417   -0.0010530886173394974
-0.006531423986266078   -0.01805828115315632   -0.001048575099043284
-0.006381143947904151   -0.014135437459041895   -0.0010155340697944745
-0.0043419909761088634   -0.01809167312125277   -0.0009783699133007373
-0.006531423986266078   -0.01805828115315632   -0.001048575099043284
-0.004172438919705685   -0.014061410768025898   -0.0009644270102010817
-0.006381143947904151   -0.014135437459041895   -0.0010155340697944745
-0.006510649103420698   -0.018096824714575417   -0.0010530886173394974
-0.004165851644141959   -0.014094694842308464   -0.0009447402249899688
-0.0063826988211091625   -0.014178632210648644   -0.000998873368938661
-0.006510649103420698   -0.018096824714575417   -0.0010530886173394974
-0.0043419909761088634   -0.01809167312125277   -0.0009783699133007373
-0.004165851644141959   -0.014094694842308464   -0.0009447402249899688
-0.004317780043193463   -0.018130108220619487   -0.0009774250653276767
-0.0063826988211091625   -0.014178632210648644   -0.000998873368938661
-0.004151119951247722   -0.014127856640530111   -0.0009286927022867374
-0.004317780043193463   -0.018130108220619487   -0.0009774250653276767
-0.004165851644141959   -0.014094694842308464   -0.0009447402249899688
-0.0063826988211091625   -0.014178632210648644   -0.000998873368938661
-0.004317780043193463   -0.018130108220619487   -0.0009774250653276767
-0.006477474816271557   -0.018146632270810457   -0.001063914546565571
-0.006510649103420698   -0.018096824714575417   -0.0010530886173394974
-0.0063826988211091625   -0.014178632210648644   -0.000998873368938661
-0.004317780043193463   -0.018130108220619487   -0.0009774250653276767
-0.006510649103420698   -0.018096824714575417   -0.0010530886173394974
-0.004165851644141959   -0.014094694842308464   -0.0009447402249899688
-0.004175086793119092   -0.014025456388525715   -0.0009880379584010477
-0.004373220212300565   -0.01802933714844935   -0.000992152257789197
-0.0021566904844127805   -0.014012612997043743   -0.0009344644783535141
-0.004172438919705685   -0.014061410768025898   -0.0009644270102010817
-0.004373220212300565   -0.01802933714844935   -0.000992152257789197
-0.0023878884945622053   -0.018031474687838056   -0.0009537047841093101
-0.0021566904844127805   -0.014012612997043743   -0.0009344644783535141
-0.0023716237396394215   -0.01804831452730038   -0.0009376872679458935
-0.004172438919705685   -0.014061410768025898   -0.0009644270102010817
-0.0021481837208275918   -0.014034291264904011   -0.0009137188450099843
-0.0023716237396394215   -0.01804831452730038   -0.0009376872679458935
-0.0021566904844127805   -0.014012612997043743   -0.0009344644783535141
-0.004172438919705685   -0.014061410768025898   -0.0009644270102010817
-0.0023716237396394215   -0.01804831452730038   -0.0009376872679458935
-0.00436086670598948   -0.01805883976455684   -0.0009832537505769401
-0.004373220212300565   -0.01802933714844935   -0.000992152257789197
-0.004172438919705685   -0.014061410768025898   -0.0009644270102010817
-0.0023716237396394215   -0.01804831452730038   -0.0009376872679458935
-0.004373220212300565   -0.01802933714844935   -0.000992152257789197
-0.0021566904844127805   -0.014012612997043743   -0.0009344644783535141
-0.004172438919705685   -0.014061410768025898   -0.0009644270102010817
-0.00436086670598948   -0.01805883976455684   -0.0009832537505769401
-0.0021481837208275918   -0.014034291264904011   -0.0009137188450099843
-0.004165851644141959   -0.014094694842308464   -0.0009447402249899688
-0.00436086670598948   -0.01805883976455684   -0.0009832537505769401
-0.0023716237396394215   -0.01804831452730038   -0.0009376872679458935
-0.0021481837208275918   -0.014034291264904011   -0.0009137188450099843
-0.0023533505466379963   -0.018068925703337832   -0.0009256955725832013
-0.004165851644141959   -0.014094694842308464   -0.0009447402249899688
-0.0021379865991805916   -0.014054266821304923   -0.000896895320384123
-0.0023533505466379963   -0.018068925703337832   -0.0009256955725832013
-0.0021481837208275918   -0.014034291264904011   -0.0009137188450099843
-0.004165851644141959   -0.014094694842308464   -0.0009447402249899688
-0.0023533505466379963   -0.018068925703337832   -0.0009256955725832013
-0.0043419909761088634   -0.01809167312125277   -0.0009783699133007373
-0.00436086670598948   -0.01805883976455684   -0.0009832537505769401
-0.004165851644141959   -0.014094694842308464   -0.0009447402249899688
-0.0023533505466379963   -0.018068925703337832   -0.0009256955725832013
-0.00436086670598948   -0.01805883976455684   -0.0009832537505769401
-0.0021481837208275918   -0.014034291264904011   -0.0009137188450099843
-0.004165851644141959   -0.014094694842308464   -0.0009447402249899688
-0.0043419909761088634   -0.01809167312125277   -0.0009783699133007373
-0.0021379865991805916   -0.014054266821304923   -0.000896895320384123
-0.004151119951247722   -0.014127856640530111   -0.0009286927022867374
-0.0043419909761088634   -0.01809167312125277   -0.0009783699133007373
-0.0023533505466379963   -0.018068925703337832   -0.0009256955725832013
-0.0021379865991805916   -0.014054266821304923   -0.000896895320384123
-0.002333700857065002   -0.018093372784015026   -0.0009178658119520338
-0.004151119951247722   -0.014127856640530111   -0.0009286927022867374
-0.0021259137676221543   -0.014072607311152152   -0.0008840932488385857
-0.002333700857065002   -0.018093372784015026   -0.0009178658119520338
-0.0021379865991805916   -0.014054266821304923   -0.000896895320384123
-0.004151119951247722   -0.014127856640530111   -0.0009286927022867374
-0.002333700857065002   -0.018093372784015026   -0.0009178658119520338
-0.004317780043193463   -0.018130108220619487   -0.0009774250653276767
-0.0043419909761088634   -0.01809167312125277   -0.0009783699133007373
-0.004151119951247722   -0.014127856640530111   -0.0009286927022867374
-0.002333700857065002   -0.018093372784015026   -0.0009178658119520338
-0.0043419909761088634   -0.01809167312125277   -0.0009783699133007373
-0.0021379865991805916   -0.014054266821304923   -0.000896895320384123
-0.0021566904844127805   -0.014012612997043743   -0.0009344644783535141
-0.0023878884945622053   -0.018031474687838056   -0.0009537047841093101
-0.00019296764500661398   -0.014005107459362334   -0.0009070197674947778
-0.0021481837208275918   -0.014034291264904011   -0.0009137188450099843
-0.0023878884945622053   -0.018031474687838056   -0.0009537047841093101
-0.00045858657812719225   -0.018020762147390092   -0.0009382970622713295
-0.00019296764500661398   -0.014005107459362334   -0.0009070197674947778
-0.00043944907733181783   -0.018024474274211028   -0.0009155168310106823
-0.0021481837208275918   -0.014034291264904011   -0.0009137188450099843
-0.00018143456308936055   -0.014012207110417963   -0.0008893586627994681
-0.00043944907733181783   -0.018024474274211028   -0.0009155168310106823
-0.00019296764500661398   -0.014005107459362334   -0.0009070197674947778
-0.0021481837208275918   -0.014034291264904011   -0.0009137188450099843
-0.00043944907733181783   -0.018024474274211028   -0.0009155168310106823
-0.0023716237396394215   -0.01804831452730038   -0.0009376872679458935
-0.0023878884945622053   -0.018031474687838056   -0.0009537047841093101
-0.0021481837208275918   -0.014034291264904011   -0.0009137188450099843
-0.00043944907733181783   -0.018024474274211028   -0.0009155168310106823
-0.0023878884945622053   -0.018031474687838056   -0.0009537047841093101
-0.00019296764500661398   -0.014005107459362334   -0.0009070197674947778
-0.0021481837208275918   -0.014034291264904011   -0.0009137188450099843
-0.0023716237396394215   -0.01804831452730038   -0.0009376872679458935
-0.00018143456308936055   -0.014012207110417963   -0.0008893586627994681
-0.0021379865991805916   -0.014054266821304923   -0.000896895320384123
-0.0023716237396394215   -0.01804831452730038   -0.0009376872679458935
-0.00043944907733181783   -0.018024474274211028   -0.0009155168310106823
-0.00018143456308936055   -0.014012207110417963   -0.0008893586627994681
-0.00042130961048972363   -0.01803167544135623   -0.0008967385427433999
-0.0021379865991805916   -0.014054266821304923   -0.000896895320384123
-0.00017132320514623065   -0.014017478080059704   -0.0008755901700237714
-0.00042130961048972363   -0.01803167544135623   -0.0008967385427433999
-0.00018143456308936055   -0.014012207110417963   -0.0008893586627994681
-0.0021379865991805916   -0.014054266821304923   -0.000896895320384123
-0.00042130961048972363   -0.01803167544135623   -0.0008967385427433999
-0.0023533505466379963   -0.018068925703337832   -0.0009256955725832013
-0.0023716237396394215   -0.01804831452730038   -0.0009376872679458935
-0.0021379865991805916   -0.014054266821304923   -0.000896895320384123
-0.00042130961048972363   -0.01803167544135623   -0.0008967385427433999
-0.0023716237396394215   -0.01804831452730038   -0.0009376872679458935
-0.00018143456308936055   -0.014012207110417963   -0.0008893586627994681
-0.0021379865991805916   -0.014054266821304923   -0.000896895320384123
-0.0023533505466379963   -0.018068925703337832   -0.0009256955725832013
-0.00017132320514623065   -0.014017478080059704   -0.0008755901700237714
-0.0021259137676221543   -0.014072607311152152   -0.0008840932488385857
-0.0023533505466379963   -0.018068925703337832   -0.0009256955725832013
-0.00042130961048972363   -0.01803167544135623   -0.0008967385427433999
-0.00017132320514623065   -0.014017478080059704   -0.0008755901700237714
-0.0004057892203940013   -0.01804252387277298   -0.0008820994703917891
-0.0021259137676221543   -0.014072607311152152   -0.0008840932488385857
-0.00016336658641885086   -0.014020890043106018   -0.0008658534549872409
-0.0004057892203940013   -0.01804252387277298   -0.0008820994703917891
-0.00017132320514623065   -0.014017478080059704   -0.0008755901700237714
-0.0021259137676221543   -0.014072607311152152   -0.0008840932488385857
-0.0004057892203940013   -0.01804252387277298   -0.0008820994703917891
-0.002333700857065002   -0.018093372784015026   -0.0009178658119520338
-0.0023533505466379963   -0.018068925703337832   -0.0009256955725832013
-0.0021259137676221543   -0.014072607311152152   -0.0008840932488385857
-0.0004057892203940013   -0.01804252387277298   -0.0008820994703917891
-0.0023533505466379963   -0.018068925703337832   -0.0009256955725832013
-0.00017132320514623065   -0.014017478080059704   -0.0008755901700237714
-0.00019296764500661398   -0.014005107459362334   -0.0009070197674947778
-0.00045858657812719225   -0.018020762147390092   -0.0009382970622713295
0.0018304742848822475   -0.014001638974173418   -0.0009059885599399366
-0.00018143456308936055   -0.014012207110417963   -0.0008893586627994681
-0.00045858657812719225   -0.018020762147390092   -0.0009382970622713295
0.0015282290159839274   -0.017997037058863297   -0.0009467133433639191
0.0018304742848822475   -0.014001638974173418   -0.0009059885599399366
0.0015525363516894447   -0.01798755616550929   -0.0009172720460938313
-0.00018143456308936055   -0.014012207110417963   -0.0008893586627994681
0.0018455216885030921   -0.013994587364046216   -0.0008915616197205753
0.0015525363516894447   -0.01798755616550929   -0.0009172720460938313
0.0018304742848822475   -0.014001638974173418   -0.0009059885599399366
-0.00018143456308936055   -0.014012207110417963   -0.0008893586627994681
0.0015525363516894447   -0.01798755616550929   -0.0009172720460938313
-0.00043944907733181783   -0.018024474274211028   -0.0009155168310106823
-0.00045858657812719225   -0.018020762147390092   -0.0009382970622713295
-0.00018143456308936055   -0.014012207110417963   -0.0008893586627994681
0.0015525363516894447   -0.01798755616550929   -0.0009172720460938313
-0.00045858657812719225   -0.018020762147390092   -0.0009382970622713295
0.0018304742848822475   -0.014001638974173418   -0.0009059885599399366
-0.00018143456308936055   -0.014012207110417963   -0.0008893586627994681
-0.00043944907733181783   -0.018024474274211028   -0.0009155168310106823
0.0018455216885030921   -0.013994587364046216   -0.0008915616197205753
-0.00017132320514623065   -0.014017478080059704   -0.0008755901700237714
-0.00043944907733181783   -0.018024474274211028   -0.0009155168310106823
0.0015525363516894447   -0.01798755616550929   -0.0009172720460938313
0.0018455216885030921   -0.013994587364046216   -0.0008915616197205753
0.0015751264806794676   -0.0179826119842056   -0.000891817788601119
-0.00017132320514623065   -0.014017478080059704   -0.0008755901700237714
0.001856010198162952   -0.013986552100738861   -0.00088091231880936
0.0015751264806794676   -0.0179826119842056   -0.000891817788601119
0.0018455216885030921   -0.013994587364046216   -0.0008915616197205753
-0.00017132320514623065   -0.014017478080059704   -0.0008755901700237714
0.0015751264806794676   -0.0179826119842056   -0.000891817788601119
-0.00042130961048972363   -0.01803167544135623   -0.0008967385427433999
-0.00043944907733181783   -0.018024474274211028   -0.0009155168310106823
-0.00017132320514623065   -0.014017478080059704   -0.0008755901700237714
0.0015751264806794676   -0.0179826119842056   -0.000891817788601119
-0.00043944907733181783   -0.018024474274211028   -0.0009155168310106823
0.0018455216885030921   -0.013994587364046216   -0.0008915616197205753
-0.00017132320514623065   -0.014017478080059704   -0.0008755901700237714
-0.00042130961048972363   -0.01803167544135623   -0.0008967385427433999
0.001856010198162952   -0.013986552100738861   -0.00088091231880936
-0.00016336658641885086   -0.014020890043106018   -0.0008658534549872409
-0.00042130961048972363   -0.01803167544135623   -0.0008967385427433999
0.0015751264806794676   -0.0179826119842056   -0.000891817788601119
0.001856010198162952   -0.013986552100738861   -0.00088091231880936
0.0015876152475093148   -0.017979889184830174   -0.0008700902169726746
-0.00016336658641885086   -0.014020890043106018   -0.0008658534549872409
0.00185902621386646   -0.013974955465060196   -0.0008739657151747996
0.0015876152475093148   -0.017979889184830174   -0.0008700902169726746
0.001856010198162952   -0.013986552100738861   -0.00088091231880936
-0.00016336658641885086   -0.014020890043106018   -0.0008658534549872409
0.0015876152475093148   -0.017979889184830174   -0.0008700902169726746
-0.0004057892203940013   -0.01804252387277298   -0.0008820994703917891
-0.00042130961048972363   -0.01803167544135623   -0.0008967385427433999
-0.00016336658641885086   -0.014020890043106018   -0.0008658534549872409
0.0015876152475093148   -0.017979889184830174   -0.0008700902169726746
-0.00042130961048972363   -0.01803167544135623   -0.0008967385427433999
0.001856010198162952   -0.013986552100738861   -0.00088091231880936
0.0018304742848822475   -0.014001638974173418   -0.0009059885599399366
0.0015282290159839274   -0.017997037058863297   -0.0009467133433639191
0.0040223951168330266   -0.013996538453954696   -0.0009288938775530877
0.0018455216885030921   -0.013994587364046216   -0.0008915616197205753
0.0015282290159839274   -0.017997037058863297   -0.0009467133433639191
0.0036538279857351997   -0.017957011879247163   -0.000980322586695565
0.0040223951168330266   -0.013996538453954696   -0.0009288938775530877
0.0037166539671410837   -0.017935535073052386   -0.0009414977674235782
0.0018455216885030921   -0.013994587364046216   -0.0008915616197205753
0.004051465161823707   -0.01397826511050862   -0.0009166809807487699
0.0037166539671410837   -0.017935535073052386   -0.0009414977674235782
0.0040223951168330266   -0.013996538453954696   -0.0009288938775530877
0.0018455216885030921   -0.013994587364046216   -0.0008915616197205753
0.0037166539671410837   -0.017935535073052386   -0.0009414977674235782
0.0015525363516894447   -0.01798755616550929   -0.0009172720460938313
0.0015282290159839274   -0.017997037058863297   -0.0009467133433639191
0.0018455216885030921   -0.013994587364046216   -0.0008915616197205753
0.0037166539671410837   -0.017935535073052386   -0.0009414977674235782
0.0015282290159839274   -0.017997037058863297   -0.0009467133433639191
0.0040223951168330266   -0.013996538453954696   -0.0009288938775530877
0.0018455216885030921   -0.013994587364046216   -0.0008915616197205753
0.0015525363516894447   -0.01798755616550929   -0.0009172720460938313
0.004051465161823707   -0.01397826511050862   -0.0009166809807487699
0.001856010198162952   -0.013986552100738861   -0.00088091231880936
0.0015525363516894447   -0.01798755616550929   -0.0009172720460938313
0.0037166539671410837   -0.017935535073052386   -0.0009414977674235782
0.004051465161823707   -0.01397826511050862   -0.0009166809807487699
0.0037601390345122585   -0.01792510151993174   -0.0009083640939185645
0.001856010198162952   -0.013986552100738861   -0.00088091231880936
0.004067494591713768   -0.013963937740152208   -0.000910219942597406
0.0037601390345122585   -0.01792510151993174   -0.0009083640939185645
0.004051465161823707   -0.01397826511050862   -0.0009166809807487699
0.001856010198162952   -0.013986552100738861   -0.00088091231880936
0.0037601390345122585   -0.01792510151993174   -0.0009083640939185645
0.0015751264806794676   -0.0179826119842056   -0.000891817788601119
0.0015525363516894447   -0.01798755616550929   -0.0009172720460938313
0.001856010198162952   -0.013986552100738861   -0.00088091231880936
0.0037601390345122585   -0.01792510151993174   -0.0009083640939185645
0.0015525363516894447   -0.01798755616550929   -0.0009172720460938313
0.004051465161823707   -0.01397826511050862   -0.0009166809807487699
0.001856010198162952   -0.013986552100738861   -0.00088091231880936
0.0015751264806794676   -0.0179826119842056   -0.000891817788601119
0.004067494591713768   -0.013963937740152208   -0.000910219942597406
0.00185902621386646   -0.013974955465060196   -0.0008739657151747996
0.0015751264806794676   -0.0179826119842056   -0.000891817788601119
0.0037601390345122585   -0.01792510151993174   -0.0009083640939185645
0.004067494591713768   -0.013963937740152208   -0.000910219942597406
0.0037991662579706263   -0.01791397047186874   -0.0008811610562326093
0.00185902621386646   -0.013974955465060196   -0.0008739657151747996
0.004072795811945757   -0.013941271433492799   -0.0009096093016883787
0.0037991662579706263   -0.01791397047186874   -0.0008811610562326093
0.004067494591713768   -0.013963937740152208   -0.000910219942597406
0.00185902621386646   -0.013974955465060196   -0.0008739657151747996
0.0037991662579706263   -0.01791397047186874   -0.0008811610562326093
0.0015876152475093148   -0.017979889184830174   -0.0008700902169726746
0.0015751264806794676   -0.0179826119842056   -0.000891817788601119
0.00185902621386646   -0.013974955465060196   -0.0008739657151747996
0.0037991662579706263   -0.01791397047186874   -0.0008811610562326093
0.0015751264806794676   -0.0179826119842056   -0.000891817788601119
0.004067494591713768   -0.013963937740152208   -0.000910219942597406
-0.0065399566313407475   -0.018018766683859412   -0.0010500574931249424
-0.00636108206923341   -0.021803477508016637   -0.0010050317939952513
-0.004373220212300565   -0.01802933714844935   -0.000992152257789197
-0.006531423986266078   -0.01805828115315632   -0.001048575099043284
-0.00636108206923341   -0.021803477508016637   -0.0010050317939952513
-0.004354174795987549   -0.021846981206310123   -0.0009703985341187426
-0.004373220212300565   -0.01802933714844935   -0.000992152257789197
-0.004328567183366342   -0.021868920923342833   -0.0009757463925548233
-0.006531423986266078   -0.01805828115315632   -0.001048575099043284
-0.00436086670598948   -0.01805883976455684   -0.0009832537505769401
-0.004328567183366342   -0.021868920923342833   -0.0009757463925548233
-0.004373220212300565   -0.01802933714844935   -0.000992152257789197
-0.006531423986266078   -0.01805828115315632   -0.001048575099043284
-0.004328567183366342   -0.021868920923342833   -0.0009757463925548233
-0.0063148080704049986   -0.021833114731796523   -0.0010304065702966044
-0.00636108206923341   -0.021803477508016637   -0.0010050317939952513
-0.006531423986266078   -0.01805828115315632   -0.001048575099043284
-0.004328567183366342   -0.021868920923342833   -0.0009757463925548233
-0.00636108206923341   -0.021803477508016637   -0.0010050317939952513
-0.004373220212300565   -0.01802933714844935   -0.000992152257789197
-0.006531423986266078   -0.01805828115315632   -0.001048575099043284
-0.0063148080704049986   -0.021833114731796523   -0.0010304065702966044
-0.00436086670598948   -0.01805883976455684   -0.0009832537505769401
-0.006510649103420698   -0.018096824714575417   -0.0010530886173394974
-0.0063148080704049986   -0.021833114731796523   -0.0010304065702966044
-0.004328567183366342   -0.021868920923342833   -0.0009757463925548233
-0.00436086670598948   -0.01805883976455684   -0.0009832537505769401
-0.0042940268700101605   -0.02190033830919995   -0.0009851829084614263
-0.006510649103420698   -0.018096824714575417   -0.0010530886173394974
-0.0043419909761088634   -0.01809167312125277   -0.0009783699133007373
-0.0042940268700101605   -0.02190033830919995   -0.0009851829084614263
-0.00436086670598948   -0.01805883976455684   -0.0009832537505769401
-0.006510649103420698   -0.018096824714575417   -0.0010530886173394974
-0.0042940268700101605   -0.02190033830919995   -0.0009851829084614263
-0.006262265976543881   -0.021869717982075463   -0.0010622068205594836
-0.0063148080704049986   -0.021833114731796523   -0.0010304065702966044
-0.006510649103420698   -0.018096824714575417   -0.0010530886173394974
-0.0042940268700101605   -0.02190033830919995   -0.0009851829084614263
-0.0063148080704049986   -0.021833114731796523   -0.0010304065702966044
-0.00436086670598948   -0.01805883976455684   -0.0009832537505769401
-0.006510649103420698   -0.018096824714575417   -0.0010530886173394974
-0.006262265976543881   -0.021869717982075463   -0.0010622068205594836
-0.0043419909761088634   -0.01809167312125277   -0.0009783699133007373
-0.006477474816271557   -0.018146632270810457   -0.001063914546565571
-0.006262265976543881   -0.021869717982075463   -0.0010622068205594836
-0.0042940268700101605   -0.02190033830919995   -0.0009851829084614263
-0.0043419909761088634   -0.01809167312125277   -0.0009783699133007373
-0.004257024223577896   -0.021943158710290254   -0.0009988195458272267
-0.006477474816271557   -0.018146632270810457   -0.001063914546565571
-0.004317780043193463   -0.018130108220619487   -0.0009774250653276767
-0.004257024223577896   -0.021943158710290254   -0.0009988195458272267
-0.0043419909761088634   -0.01809167312125277   -0.0009783699133007373
-0.006477474816271557   -0.018146632270810457   -0.001063914546565571
-0.004257024223577896   -0.021943158710290254   -0.0009988195458272267
-0.006190919695920749   -0.02192555268776249   -0.0011005651739304462
-0.006262265976543881   -0.021869717982075463   -0.0010622068205594836
-0.006477474816271557   -0.018146632270810457   -0.001063914546565571
-0.004257024223577896   -0.021943158710290254   -0.0009988195458272267
-0.006262265976543881   -0.021869717982075463   -0.0010622068205594836
-0.0043419909761088634   -0.01809167312125277   -0.0009783699133007373
-0.004373220212300565   -0.01802933714844935   -0.000992152257789197
-0.004354174795987549   -0.021846981206310123   -0.0009703985341187426
-0.0023878884945622053   -0.018031474687838056   -0.0009537047841093101
-0.00436086670598948   -0.01805883976455684   -0.0009832537505769401
-0.004354174795987549   -0.021846981206310123   -0.0009703985341187426
-0.0025536944295838217   -0.021863966727142428   -0.000948288119896859
-0.0023878884945622053   -0.018031474687838056   -0.0009537047841093101
-0.002525881183358772   -0.02187529397165951   -0.0009366143082423186
-0.00436086670598948   -0.01805883976455684   -0.0009832537505769401
-0.0023716237396394215   -0.01804831452730038   -0.0009376872679458935
-0.002525881183358772   -0.02187529397165951   -0.0009366143082423186
-0.0023878884945622053   -0.018031474687838056   -0.0009537047841093101
-0.00436086670598948   -0.01805883976455684   -0.0009832537505769401
-0.002525881183358772   -0.02187529397165951   -0.0009366143082423186
-0.004328567183366342   -0.021868920923342833   -0.0009757463925548233
-0.004354174795987549   -0.021846981206310123   -0.0009703985341187426
-0.00436086670598948   -0.01805883976455684   -0.0009832537505769401
-0.002525881183358772   -0.02187529397165951   -0.0009366143082423186
-0.004354174795987549   -0.021846981206310123   -0.0009703985341187426
-0.0023878884945622053   -0.018031474687838056   -0.0009537047841093101
-0.00436086670598948   -0.01805883976455684   -0.0009832537505769401
-0.004328567183366342   -0.021868920923342833   -0.0009757463925548233
-0.0023716237396394215   -0.01804831452730038   -0.0009376872679458935
-0.0043419909761088634   -0.01809167312125277   -0.0009783699133007373
-0.004328567183366342   -0.021868920923342833   -0.0009757463925548233
-0.002525881183358772   -0.02187529397165951   -0.0009366143082423186
-0.0023716237396394215   -0.01804831452730038   -0.0009376872679458935
-0.002495990366674519   -0.021895718822778968   -0.0009289776169525943
-0.0043419909761088634   -0.01809167312125277   -0.0009783699133007373
-0.0023533505466379963   -0.018068925703337832   -0.0009256955725832013
-0.002495990366674519   -0.021895718822778968   -0.0009289776169525943
-0.0023716237396394215   -0.01804831452730038   -0.0009376872679458935
-0.0043419909761088634   -0.01809167312125277   -0.0009783699133007373
-0.002495990366674519   -0.021895718822778968   -0.0009289776169525943
-0.0042940268700101605   -0.02190033830919995   -0.0009851829084614263
-0.004328567183366342   -0.021868920923342833   -0.0009757463925548233
-0.0043419909761088634   -0.01809167312125277   -0.0009783699133007373
-0.002495990366674519   -0.021895718822778968   -0.0009289776169525943
-0.004328567183366342   -0.021868920923342833   -0.0009757463925548233
-0.0023716237396394215   -0.01804831452730038   -0.0009376872679458935
-0.0043419909761088634   -0.01809167312125277   -0.0009783699133007373
-0.0042940268700101605   -0.02190033830919995   -0.0009851829084614263
-0.0023533505466379963   -0.018068925703337832   -0.0009256955725832013
-0.004317780043193463   -0.018130108220619487   -0.0009774250653276767
-0.0042940268700101605   -0.02190033830919995   -0.0009851829084614263
-0.002495990366674519   -0.021895718822778968   -0.0009289776169525943
-0.0023533505466379963   -0.018068925703337832   -0.0009256955725832013
-0.0024652676444540454   -0.021925492052651197   -0.000925581294703283
-0.004317780043193463   -0.018130108220619487   -0.0009774250653276767
-0.002333700857065002   -0.018093372784015026   -0.0009178658119520338
-0.0024652676444540454   -0.021925492052651197   -0.000925581294703283
-0.0023533505466379963   -0.018068925703337832   -0.0009256955725832013
-0.004317780043193463   -0.018130108220619487   -0.0009774250653276767
-0.0024652676444540454   -0.021925492052651197   -0.000925581294703283
-0.004257024223577896   -0.021943158710290254   -0.0009988195458272267
-0.0042940268700101605   -0.02190033830919995   -0.0009851829084614263
-0.004317780043193463   -0.018130108220619487   -0.0009774250653276767
-0.0024652676444540454   -0.021925492052651197   -0.000925581294703283
-0.0042940268700101605   -0.02190033830919995   -0.0009851829084614263
-0.0023533505466379963   -0.018068925703337832   -0.0009256955725832013
-0.0023878884945622053   -0.018031474687838056   -0.0009537047841093101
-0.0025536944295838217   -0.021863966727142428   -0.000948288119896859
-0.00045858657812719225   -0.018020762147390092   -0.0009382970622713295
-0.0023716237396394215   -0.01804831452730038   -0.0009376872679458935
-0.0025536944295838217   -0.021863966727142428   -0.000948288119896859
-0.0008074955203262498   -0.021850476405459677   -0.0009450239852075781
-0.00045858657812719225   -0.018020762147390092   -0.0009382970622713295
-0.0007767449287326211   -0.02185053742738005   -0.0009169123357812116
-0.0023716237396394215   -0.01804831452730038   -0.0009376872679458935
-0.00043944907733181783   -0.018024474274211028   -0.0009155168310106823
-0.0007767449287326211   -0.02185053742738005   -0.0009169123357812116
-0.00045858657812719225   -0.018020762147390092   -0.0009382970622713295
-0.0023716237396394215   -0.01804831452730038   -0.0009376872679458935
-0.0007767449287326211   -0.02185053742738005   -0.0009169123357812116
-0.002525881183358772   -0.02187529397165951   -0.0009366143082423186
-0.0025536944295838217   -0.021863966727142428   -0.000948288119896859
-0.0023716237396394215   -0.01804831452730038   -0.0009376872679458935
-0.0007767449287326211   -0.02185053742738005   -0.0009169123357812116
-0.0025536944295838217   -0.021863966727142428   -0.000948288119896859
-0.00045858657812719225   -0.018020762147390092   -0.0009382970622713295
-0.0023716237396394215   -0.01804831452730038   -0.0009376872679458935
-0.002525881183358772   -0.02187529397165951   -0.0009366143082423186
-0.00043944907733181783   -0.018024474274211028   -0.0009155168310106823
-0.0023533505466379963   -0.018068925703337832   -0.0009256955725832013
-0.002525881183358772   -0.02187529397165951   -0.0009366143082423186
-0.0007767449287326211   -0.02185053742738005   -0.0009169123357812116
-0.00043944907733181783   -0.018024474274211028   -0.0009155168310106823
-0.0007467809535047749   -0.021859051778256325   -0.000892851718655652
-0.0023533505466379963   -0.018068925703337832   -0.0009256955725832013
-0.00042130961048972363   -0.01803167544135623   -0.0008967385427433999
-0.0007467809535047749   -0.021859051778256325   -0.000892851718655652
-0.00043944907733181783   -0.018024474274211028   -0.0009155168310106823
-0.0023533505466379963   -0.018068925703337832   -0.0009256955725832013
-0.0007467809535047749   -0.021859051778256325   -0.000892851718655652
-0.002495990366674519   -0.021895718822778968   -0.0009289776169525943
-0.002525881183358772   -0.02187529397165951   -0.0009366143082423186
-0.0023533505466379963   -0.018068925703337832   -0.0009256955725832013
-0.0007467809535047749   -0.021859051778256325   -0.000892851718655652
-0.002525881183358772   -0.02187529397165951   -0.0009366143082423186
-0.00043944907733181783   -0.018024474274211028   -0.0009155168310106823
-0.0023533505466379963   -0.018068925703337832   -0.0009256955725832013
-0.002495990366674519   -0.021895718822778968   -0.0009289776169525943
-0.00042130961048972363   -0.01803167544135623   -0.0008967385427433999
-0.002333700857065002   -0.018093372784015026   -0.0009178658119520338
-0.002495990366674519   -0.021895718822778968   -0.0009289776169525943
-0.0007467809535047749   -0.021859051778256325   -0.000892851718655652
-0.00042130961048972363   -0.01803167544135623   -0.0008967385427433999
-0.0007199899212980132   -0.02187670669803536   -0.0008729811852233448
-0.002333700857065002   -0.018093372784015026   -0.0009178658119520338
-0.0004057892203940013   -0.01804252387277298   -0.0008820994703917891
-0.0007199899212980132   -0.02187670669803536   -0.0008729811852233448
-0.00042130961048972363   -0.01803167544135623   -0.0008967385427433999
-0.002333700857065002   -0.018093372784015026   -0.0009178658119520338
-0.0007199899212980132   -0.02187670669803536   -0.0008729811852233448
-0.0024652676444540454   -0.021925492052651197   -0.000925581294703283
-0.002495990366674519   -0.021895718822778968   -0.0009289776169525943
-0.002333700857065002   -0.018093372784015026   -0.0009178658119520338
-0.0007199899212980132   -0.02187670669803536   -0.0008729811852233448
-0.002495990366674519   -0.021895718822778968   -0.0009289776169525943
-0.00042130961048972363   -0.01803167544135623   -0.0008967385427433999
-0.00045858657812719225   -0.018020762147390092   -0.0009382970622713295
-0.0008074955203262498   -0.021850476405459677   -0.0009450239852075781
0.0015282290159839274   -0.017997037058863297   -0.0009467133433639191
-0.00043944907733181783   -0.018024474274211028   -0.0009155168310106823
-0.0008074955203262498   -0.021850476405459677   -0.0009450239852075781
0.000997841104323666   -0.02180731004228146   -0.0009620780810821903
0.0015282290159839274   -0.017997037058863297   -0.0009467133433639191
0.0010354611937523203   -0.02179534243032567   -0.0009176631337932422
-0.00043944907733181783   -0.018024474274211028   -0.0009155168310106823
0.0015525363516894447   -0.01798755616550929   -0.0009172720460938313
0.0010354611937523203   -0.02179534243032567   -0.0009176631337932422
0.0015282290159839274   -0.017997037058863297   -0.0009467133433639191
-0.00043944907733181783   -0.018024474274211028   -0.0009155168310106823
0.0010354611937523203   -0.02179534243032567   -0.0009176631337932422
-0.0007767449287326211   -0.02185053742738005   -0.0009169123357812116
-0.0008074955203262498   -0.021850476405459677   -0.0009450239852075781
-0.00043944907733181783   -0.018024474274211028   -0.0009155168310106823
0.0010354611937523203   -0.02179534243032567   -0.0009176631337932422
-0.0008074955203262498   -0.021850476405459677   -0.0009450239852075781
0.0015282290159839274   -0.017997037058863297   -0.0009467133433639191
-0.00043944907733181783   -0.018024474274211028   -0.0009155168310106823
-0.0007767449287326211   -0.02185053742738005   -0.0009169123357812116
0.0015525363516894447   -0.01798755616550929   -0.0009172720460938313
-0.00042130961048972363   -0.01803167544135623   -0.0008967385427433999
-0.0007767449287326211   -0.02185053742738005   -0.0009169123357812116
0.0010354611937523203   -0.02179534243032567   -0.0009176631337932422
0.0015525363516894447   -0.01798755616550929   -0.0009172720460938313
0.001074113047040902   -0.021793042373576908   -0.0008775532959825571
-0.00042130961048972363   -0.01803167544135623   -0.0008967385427433999
0.0015751264806794676   -0.0179826119842056   -0.000891817788601119
0.001074113047040902   -0.021793042373576908   -0.0008775532959825571
0.0015525363516894447   -0.01798755616550929   -0.0009172720460938313
-0.00042130961048972363   -0.01803167544135623   -0.0008967385427433999
0.001074113047040902   -0.021793042373576908   -0.0008775532959825571
-0.0007467809535047749   -0.021859051778256325   -0.000892851718655652
-0.0007767449287326211   -0.02185053742738005   -0.0009169123357812116
-0.00042130961048972363   -0.01803167544135623   -0.0008967385427433999
0.001074113047040902   -0.021793042373576908   -0.0008775532959825571
-0.0007767449287326211   -0.02185053742738005   -0.0009169123357812116
0.0015525363516894447   -0.01798755616550929   -0.0009172720460938313
-0.00042130961048972363   -0.01803167544135623   -0.0008967385427433999
-0.0007467809535047749   -0.021859051778256325   -0.000892851718655652
0.0015751264806794676   -0.0179826119842056   -0.000891817788601119
-0.0004057892203940013   -0.01804252387277298   -0.0008820994703917891
-0.0007467809535047749   -0.021859051778256325   -0.000892851718655652
0.001074113047040902   -0.021793042373576908   -0.0008775532959825571
0.0015751264806794676   -0.0179826119842056   -0.000891817788601119
0.0010999517929158901   -0.02179864219174389   -0.0008411791529053037
-0.0004057892203940013   -0.01804252387277298   -0.0008820994703917891
0.0015876152475093148   -0.017979889184830174   -0.0008700902169726746
0.0010999517929158901   -0.02179864219174389   -0.0008411791529053037
0.0015751264806794676   -0.0179826119842056   -0.000891817788601119
-0.0004057892203940013   -0.01804252387277298   -0.0008820994703917891
0.0010999517929158901   -0.02179864219174389   -0.0008411791529053037
-0.0007199899212980132   -0.02187670669803536   -0.0008729811852233448
-0.0007467809535047749   -0.021859051778256325   -0.000892851718655652
-0.0004057892203940013   -0.01804252387277298   -0.0008820994703917891
0.0010999517929158901   -0.02179864219174389   -0.0008411791529053037
-0.0007467809535047749   -0.021859051778256325   -0.000892851718655652
0.0015751264806794676   -0.0179826119842056   -0.000891817788601119
0.0015282290159839274   -0.017997037058863297   -0.0009467133433639191
0.000997841104323666   -0.02180731004228146   -0.0009620780810821903
0.0036538279857351997   -0.017957011879247163   -0.000980322586695565
0.0015525363516894447   -0.01798755616550929   -0.0009172720460938313
0.000997841104323666   -0.02180731004228146   -0.0009620780810821903
0.0029160036394434157   -0.0217330329945623   -0.0010053798507343639
0.0036538279857351997   -0.017957011879247163   -0.000980322586695565
0.0030161786643940793   -0.0217085407635492   -0.0009406361054286149
0.0015525363516894447   -0.01798755616550929   -0.0009172720460938313
0.0037166539671410837   -0.017935535073052386   -0.0009414977674235782
0.0030161786643940793   -0.0217085407635492   -0.0009406361054286149
0.0036538279857351997   -0.017957011879247163   -0.000980322586695565
0.0015525363516894447   -0.01798755616550929   -0.0009172720460938313
0.0030161786643940793   -0.0217085407635492   -0.0009406361054286149
0.0010354611937523203   -0.02179534243032567   -0.0009176631337932422
0.000997841104323666   -0.02180731004228146   -0.0009620780810821903
0.0015525363516894447   -0.01798755616550929   -0.0009172720460938313
0.0030161786643940793   -0.0217085407635492   -0.0009406361054286149
0.000997841104323666   -0.02180731004228146   -0.0009620780810821903
0.0036538279857351997   -0.017957011879247163   -0.000980322586695565
0.0015525363516894447   -0.01798755616550929   -0.0009172720460938313
0.0010354611937523203   -0.02179534243032567   -0.0009176631337932422
0.0037166539671410837   -0.017935535073052386   -0.0009414977674235782
0.0015751264806794676   -0.0179826119842056   -0.000891817788601119
0.0010354611937523203   -0.02179534243032567   -0.0009176631337932422
0.0030161786643940793   -0.0217085407635492   -0.0009406361054286149
0.0037166539671410837   -0.017935535073052386   -0.0009414977674235782
0.0030905279846251505   -0.02170174104680628   -0.0008816291130434158
0.0015751264806794676   -0.0179826119842056   -0.000891817788601119
0.0037601390345122585   -0.01792510151993174   -0.0009083640939185645
0.0030905279846251505   -0.02170174104680628   -0.0008816291130434158
0.0037166539671410837   -0.017935535073052386   -0.0009414977674235782
0.0015751264806794676   -0.0179826119842056   -0.000891817788601119
0.0030905279846251505   -0.02170174104680628   -0.0008816291130434158
0.001074113047040902   -0.021793042373576908   -0.0008775532959825571
0.0010354611937523203   -0.02179534243032567   -0.0009176631337932422
0.0015751264806794676   -0.0179826119842056   -0.000891817788601119
0.0030905279846251505   -0.02170174104680628   -0.0008816291130434158
0.0010354611937523203   -0.02179534243032567   -0.0009176631337932422
0.0037166539671410837   -0.017935535073052386   -0.0009414977674235782
0.0015751264806794676   -0.0179826119842056   -0.000891817788601119
0.001074113047040902   -0.021793042373576908   -0.0008775532959825571
0.0037601390345122585   -0.01792510151993174   -0.0009083640939185645
0.0015876152475093148   -0.017979889184830174   -0.0008700902169726746
0.001074113047040902   -0.021793042373576908   -0.0008775532959825571
0.0030905279846251505   -0.02170174104680628   -0.0008816291130434158
0.0037601390345122585   -0.01792510151993174   -0.0009083640939185645
0.003166213987626349   -0.021701740096888043   -0.0008286287574859338
0.0015876152475093148   -0.017979889184830174   -0.0008700902169726746
0.0037991662579706263   -0.01791397047186874   -0.0008811610562326093
0.003166213987626349   -0.021701740096888043   -0.0008286287574859338
0.0037601390345122585   -0.01792510151993174   -0.0009083640939185645
0.0015876152475093148   -0.017979889184830174   -0.0008700902169726746
0.003166213987626349   -0.021701740096888043   -0.0008286287574859338
0.0010999517929158901   -0.02179864219174389   -0.0008411791529053037
0.001074113047040902   -0.021793042373576908   -0.0008775532959825571
0.0015876152475093148   -0.017979889184830174   -0.0008700902169726746
0.003166213987626349   -0.021701740096888043   -0.0008286287574859338
0.001074113047040902   -0.021793042373576908   -0.0008775532959825571
0.0037601390345122585   -0.01792510151993174   -0.0009083640939185645
-0.00636108206923341   -0.021803477508016637   -0.0010050317939952513
-0.005806445419693744   -0.025146521524693783   -0.000938044760307432
-0.004354174795987549   -0.021846981206310123   -0.0009703985341187426
-0.0063148080704049986   -0.021833114731796523   -0.0010304065702966044
-0.005806445419693744   -0.025146521524693783   -0.000938044760307432
-0.004118842803502209   -0.025224519521322594   -0.0009326321345765618
-0.004354174795987549   -0.021846981206310123   -0.0009703985341187426
-0.004077107657605266   -0.02523576889021597   -0.0009511454652404577
-0.0063148080704049986   -0.021833114731796523   -0.0010304065702966044
-0.004328567183366342   -0.021868920923342833   -0.0009757463925548233
-0.004077107657605266   -0.02523576889021597   -0.0009511454652404577
-0.004354174795987549   -0.021846981206310123   -0.0009703985341187426
-0.0063148080704049986   -0.021833114731796523   -0.0010304065702966044
-0.004077107657605266   -0.02523576889021597   -0.0009511454652404577
-0.005719154537691033   -0.025163175633745073   -0.000990040612717223
-0.005806445419693744   -0.025146521524693783   -0.000938044760307432
-0.0063148080704049986   -0.021833114731796523   -0.0010304065702966044
-0.004077107657605266   -0.02523576889021597   -0.0009511454652404577
-0.005806445419693744   -0.025146521524693783   -0.000938044760307432
-0.004354174795987549   -0.021846981206310123   -0.0009703985341187426
-0.0063148080704049986   -0.021833114731796523   -0.0010304065702966044
-0.005719154537691033   -0.025163175633745073   -0.000990040612717223
-0.004328567183366342   -0.021868920923342833   -0.0009757463925548233
-0.006262265976543881   -0.021869717982075463   -0.0010622068205594836
-0.005719154537691033   -0.025163175633745073   -0.000990040612717223
-0.004077107657605266   -0.02523576889021597   -0.0009511454652404577
-0.004328567183366342   -0.021868920923342833   -0.0009757463925548233
-0.004024671946778097   -0.02526288177825575   -0.0009737818660378376
-0.006262265976543881   -0.021869717982075463   -0.0010622068205594836
-0.0042940268700101605   -0.02190033830919995   -0.0009851829084614263
-0.004024671946778097   -0.02526288177825575   -0.0009737818660378376
-0.004328567183366342   -0.021868920923342833   -0.0009757463925548233
-0.006262265976543881   -0.021869717982075463   -0.0010622068205594836
-0.004024671946778097   -0.02526288177825575   -0.0009737818660378376
-0.005632275442657385   -0.02519500163668196   -0.0010487476530374891
-0.005719154537691033   -0.025163175633745073   -0.000990040612717223
-0.006262265976543881   -0.021869717982075463   -0.0010622068205594836
-0.004024671946778097   -0.02526288177825575   -0.0009737818660378376
-0.005719154537691033   -0.025163175633745073   -0.000990040612717223
-0.004328567183366342   -0.021868920923342833   -0.0009757463925548233
-0.006262265976543881   -0.021869717982075463   -0.0010622068205594836
-0.005632275442657385   -0.02519500163668196   -0.0010487476530374891
-0.0042940268700101605   -0.02190033830919995   -0.0009851829084614263
-0.006190919695920749   -0.02192555268776249   -0.0011005651739304462
-0.005632275442657385   -0.02519500163668196   -0.0010487476530374891
-0.004024671946778097   -0.02526288177825575   -0.0009737818660378376
-0.0042940268700101605   -0.02190033830919995   -0.0009851829084614263
-0.003972970808377697   -0.025307401443881425   -0.0010005020538571066
-0.006190919695920749   -0.02192555268776249   -0.0011005651739304462
-0.004257024223577896   -0.021943158710290254   -0.0009988195458272267
-0.003972970808377697   -0.025307401443881425   -0.0010005020538571066
-0.0042940268700101605   -0.02190033830919995   -0.0009851829084614263
-0.006190919695920749   -0.02192555268776249   -0.0011005651739304462
-0.003972970808377697   -0.025307401443881425   -0.0010005020538571066
-0.005521043078105611   -0.025254349435570044   -0.001114057248146744
-0.005632275442657385   -0.02519500163668196   -0.0010487476530374891
-0.006190919695920749   -0.02192555268776249   -0.0011005651739304462
-0.003972970808377697   -0.025307401443881425   -0.0010005020538571066
-0.005632275442657385   -0.02519500163668196   -0.0010487476530374891
-0.0042940268700101605   -0.02190033830919995   -0.0009851829084614263
-0.004354174795987549   -0.021846981206310123   -0.0009703985341187426
-0.004118842803502209   -0.025224519521322594   -0.0009326321345765618
-0.0025536944295838217   -0.021863966727142428   -0.000948288119896859
-0.004328567183366342   -0.021868920923342833   -0.0009757463925548233
-0.004118842803502209   -0.025224519521322594   -0.0009326321345765618
-0.0026552459795339146   -0.025260692045288104   -0.0009305953635962888
-0.0025536944295838217   -0.021863966727142428   -0.000948288119896859
-0.002612494292658152   -0.025264324767014696   -0.0009222215223701885
-0.004328567183366342   -0.021868920923342833   -0.0009757463925548233
-0.002525881183358772   -0.02187529397165951   -0.0009366143082423186
-0.002612494292658152   -0.025264324767014696   -0.0009222215223701885
-0.0025536944295838217   -0.021863966727142428   -0.000948288119896859
-0.004328567183366342   -0.021868920923342833   -0.0009757463925548233
-0.002612494292658152   -0.025264324767014696   -0.0009222215223701885
-0.004077107657605266   -0.02523576889021597   -0.0009511454652404577
-0.004118842803502209   -0.025224519521322594   -0.0009326321345765618
-0.004328567183366342   -0.021868920923342833   -0.0009757463925548233
-0.002612494292658152   -0.025264324767014696   -0.0009222215223701885
-0.004118842803502209   -0.025224519521322594   -0.0009326321345765618
-0.0025536944295838217   -0.021863966727142428   -0.000948288119896859
-0.004328567183366342   -0.021868920923342833   -0.0009757463925548233
-0.004077107657605266   -0.02523576889021597   -0.0009511454652404577
-0.002525881183358772   -0.02187529397165951   -0.0009366143082423186
-0.0042940268700101605   -0.02190033830919995   -0.0009851829084614263
-0.004077107657605266   -0.02523576889021597   -0.0009511454652404577
-0.002612494292658152   -0.025264324767014696   -0.0009222215223701885
-0.002525881183358772   -0.02187529397165951   -0.0009366143082423186
-0.002568342776034089   -0.025282137570884232   -0.000917848296522229
-0.0042940268700101605   -0.02190033830919995   -0.0009851829084614263
-0.002495990366674519   -0.021895718822778968   -0.0009289776169525943
-0.002568342776034089   -0.025282137570884232   -0.000917848296522229
-0.002525881183358772   -0.02187529397165951   -0.0009366143082423186
-0.0042940268700101605   -0.02190033830919995   -0.0009851829084614263
-0.002568342776034089   -0.025282137570884232   -0.000917848296522229
-0.004024671946778097   -0.02526288177825575   -0.0009737818660378376
-0.004077107657605266   -0.02523576889021597   -0.0009511454652404577
-0.0042940268700101605   -0.02190033830919995   -0.0009851829084614263
-0.002568342776034089   -0.025282137570884232   -0.000917848296522229
-0.004077107657605266   -0.02523576889021597   -0.0009511454652404577
-0.002525881183358772   -0.02187529397165951   -0.0009366143082423186
-0.0042940268700101605   -0.02190033830919995   -0.0009851829084614263
-0.004024671946778097   -0.02526288177825575   -0.0009737818660378376
-0.002495990366674519   -0.021895718822778968   -0.0009289776169525943
-0.004257024223577896   -0.021943158710290254   -0.0009988195458272267
-0.004024671946778097   -0.02526288177825575   -0.0009737818660378376
-0.002568342776034089   -0.025282137570884232   -0.000917848296522229
-0.002495990366674519   -0.021895718822778968   -0.0009289776169525943
-0.0025242492283065014   -0.025314932026153474   -0.0009174353488816574
-0.004257024223577896   -0.021943158710290254   -0.0009988195458272267
-0.0024652676444540454   -0.021925492052651197   -0.000925581294703283
-0.0025242492283065014   -0.025314932026153474   -0.0009174353488816574
-0.002495990366674519   -0.021895718822778968   -0.0009289776169525943
-0.004257024223577896   -0.021943158710290254   -0.0009988195458272267
-0.0025242492283065014   -0.025314932026153474   -0.0009174353488816574
-0.003972970808377697   -0.025307401443881425   -0.0010005020538571066
-0.004024671946778097   -0.02526288177825575   -0.0009737818660378376
-0.004257024223577896   -0.021943158710290254   -0.0009988195458272267
-0.0025242492283065014   -0.025314932026153474   -0.0009174353488816574
-0.004024671946778097   -0.02526288177825575   -0.0009737818660378376
-0.002495990366674519   -0.021895718822778968   -0.0009289776169525943
-0.0025536944295838217   -0.021863966727142428   -0.000948288119896859
-0.0026552459795339146   -0.025260692045288104   -0.0009305953635962888
-0.0008074955203262498   -0.021850476405459677   -0.0009450239852075781
-0.002525881183358772   -0.02187529397165951   -0.0009366143082423186
-0.0026552459795339146   -0.025260692045288104   -0.0009305953635962888
-0.0012399922606334023   -0.02525340791165294   -0.0009413809884896745
-0.0008074955203262498   -0.021850476405459677   -0.0009450239852075781
-0.0011931714133770679   -0.025248459307978463   -0.0009070559811258523
-0.002525881183358772   -0.02187529397165951   -0.0009366143082423186
-0.0007767449287326211   -0.02185053742738005   -0.0009169123357812116
-0.0011931714133770679   -0.025248459307978463   -0.0009070559811258523
-0.0008074955203262498   -0.021850476405459677   -0.0009450239852075781
-0.002525881183358772   -0.02187529397165951   -0.0009366143082423186
-0.0011931714133770679   -0.025248459307978463   -0.0009070559811258523
-0.002612494292658152   -0.025264324767014696   -0.0009222215223701885
-0.0026552459795339146   -0.025260692045288104   -0.0009305953635962888
-0.002525881183358772   -0.02187529397165951   -0.0009366143082423186
-0.0011931714133770679   -0.025248459307978463   -0.0009070559811258523
-0.0026552459795339146   -0.025260692045288104   -0.0009305953635962888
-0.0008074955203262498   -0.021850476405459677   -0.0009450239852075781
-0.002525881183358772   -0.02187529397165951   -0.0009366143082423186
-0.002612494292658152   -0.025264324767014696   -0.0009222215223701885
-0.0007767449287326211   -0.02185053742738005   -0.0009169123357812116
-0.002495990366674519   -0.021895718822778968   -0.0009289776169525943
-0.002612494292658152   -0.025264324767014696   -0.0009222215223701885
-0.0011931714133770679   -0.025248459307978463   -0.0009070559811258523
-0.0007767449287326211   -0.02185053742738005   -0.0009169123357812116
-0.0011476918857134379   -0.0252563737521383   -0.0008769970058800665
-0.002495990366674519   -0.021895718822778968   -0.0009289776169525943
-0.0007467809535047749   -0.021859051778256325   -0.000892851718655652
-0.0011476918857134379   -0.0252563737521383   -0.0008769970058800665
-0.0007767449287326211   -0.02185053742738005   -0.0009169123357812116
-0.002495990366674519   -0.021895718822778968   -0.0009289776169525943
-0.0011476918857134379   -0.0252563737521383   -0.0008769970058800665
-0.002568342776034089   -0.025282137570884232   -0.000917848296522229
-0.002612494292658152   -0.025264324767014696   -0.0009222215223701885
-0.002495990366674519   -0.021895718822778968   -0.0009289776169525943
-0.0011476918857134379   -0.0252563737521383   -0.0008769970058800665
-0.002612494292658152   -0.025264324767014696   -0.0009222215223701885
-0.0007767449287326211   -0.02185053742738005   -0.0009169123357812116
-0.002495990366674519   -0.021895718822778968   -0.0009289776169525943
-0.002568342776034089   -0.025282137570884232   -0.000917848296522229
-0.0007467809535047749   -0.021859051778256325   -0.000892851718655652
-0.0024652676444540454   -0.021925492052651197   -0.000925581294703283
-0.002568342776034089   -0.025282137570884232   -0.000917848296522229
-0.0011476918857134379   -0.0252563737521383   -0.0008769970058800665
-0.0007467809535047749   -0.021859051778256325   -0.000892851718655652
-0.0011065663059820448   -0.025278945963100242   -0.000850840396701982
-0.0024652676444540454   -0.021925492052651197   -0.000925581294703283
-0.0007199899212980132   -0.02187670669803536   -0.0008729811852233448
-0.0011065663059820448   -0.025278945963100242   -0.000850840396701982
-0.0007467809535047749   -0.021859051778256325   -0.000892851718655652
-0.0024652676444540454   -0.021925492052651197   -0.000925581294703283
-0.0011065663059820448   -0.025278945963100242   -0.000850840396701982
-0.0025242492283065014   -0.025314932026153474   -0.0009174353488816574
-0.002568342776034089   -0.025282137570884232   -0.000917848296522229
-0.0024652676444540454   -0.021925492052651197   -0.000925581294703283
-0.0011065663059820448   -0.025278945963100242   -0.000850840396701982
-0.002568342776034089   -0.025282137570884232   -0.000917848296522229
-0.0007467809535047749   -0.021859051778256325   -0.000892851718655652
-0.0008074955203262498   -0.021850476405459677   -0.0009450239852075781
-0.0012399922606334023   -0.02525340791165294   -0.0009413809884896745
0.000997841104323666   -0.02180731004228146   -0.0009620780810821903
-0.0007767449287326211   -0.02185053742738005   -0.0009169123357812116
-0.0012399922606334023   -0.02525340791165294   -0.0009413809884896745
0.00023985575955351023   -0.02520109814279219   -0.000967244857502775
0.000997841104323666   -0.02180731004228146   -0.0009620780810821903
0.00029688812218368177   -0.025185301062941194   -0.0009070364465584356
-0.0007767449287326211   -0.02185053742738005   -0.0009169123357812116
0.0010354611937523203   -0.02179534243032567   -0.0009176631337932422
0.00029688812218368177   -0.025185301062941194   -0.0009070364465584356
0.000997841104323666   -0.02180731004228146   -0.0009620780810821903
-0.0007767449287326211   -0.02185053742738005   -0.0009169123357812116
0.00029688812218368177   -0.025185301062941194   -0.0009070364465584356
-0.0011931714133770679   -0.025248459307978463   -0.0009070559811258523
-0.0012399922606334023   -0.02525340791165294   -0.0009413809884896745
-0.0007767449287326211   -0.02185053742738005   -0.0009169123357812116
0.00029688812218368177   -0.025185301062941194   -0.0009070364465584356
-0.0012399922606334023   -0.02525340791165294   -0.0009413809884896745
0.000997841104323666   -0.02180731004228146   -0.0009620780810821903
-0.0007767449287326211   -0.02185053742738005   -0.0009169123357812116
-0.0011931714133770679   -0.025248459307978463   -0.0009070559811258523
0.0010354611937523203   -0.02179534243032567   -0.0009176631337932422
-0.0007467809535047749   -0.021859051778256325   -0.000892851718655652
-0.0011931714133770679   -0.025248459307978463   -0.0009070559811258523
0.00029688812218368177   -0.025185301062941194   -0.0009070364465584356
0.0010354611937523203   -0.02179534243032567   -0.0009176631337932422
0.00035711449810676293   -0.025183880225763237   -0.0008522256556210576
-0.0007467809535047749   -0.021859051778256325   -0.000892851718655652
0.001074113047040902   -0.021793042373576908   -0.0008775532959825571
0.00035711449810676293   -0.025183880225763237   -0.0008522256556210576
0.0010354611937523203   -0.02179534243032567   -0.0009176631337932422
-0.0007467809535047749   -0.021859051778256325   -0.000892851718655652
0.00035711449810676293   -0.025183880225763237   -0.0008522256556210576
-0.0011476918857134379   -0.0252563737521383   -0.0008769970058800665
-0.0011931714133770679   -0.025248459307978463   -0.0009070559811258523
-0.0007467809535047749   -0.021859051778256325   -0.000892851718655652
0.00035711449810676293   -0.025183880225763237   -0.0008522256556210576
-0.0011931714133770679   -0.025248459307978463   -0.0009070559811258523
0.0010354611937523203   -0.02179534243032567   -0.0009176631337932422
-0.0007467809535047749   -0.021859051778256325   -0.000892851718655652
-0.0011476918857134379   -0.0252563737521383   -0.0008769970058800665
0.001074113047040902   -0.021793042373576908   -0.0008775532959825571
-0.0007199899212980132   -0.02187670669803536   -0.0008729811852233448
-0.0011476918857134379   -0.0252563737521383   -0.0008769970058800665
0.00035711449810676293   -0.025183880225763237   -0.0008522256556210576
0.001074113047040902   -0.021793042373576908   -0.0008775532959825571
0.0004011589799765117   -0.025196163607017038   -0.0008011266813582865
-0.0007199899212980132   -0.02187670669803536   -0.0008729811852233448
0.0010999517929158901   -0.02179864219174389   -0.0008411791529053037
0.0004011589799765117   -0.025196163607017038   -0.0008011266813582865
0.001074113047040902   -0.021793042373576908   -0.0008775532959825571
-0.0007199899212980132   -0.02187670669803536   -0.0008729811852233448
0.0004011589799765117   -0.025196163607017038   -0.0008011266813582865
-0.0011065663059820448   -0.025278945963100242   -0.000850840396701982
-0.0011476918857134379   -0.0252563737521383   -0.0008769970058800665
-0.0007199899212980132   -0.02187670669803536   -0.0008729811852233448
0.0004011589799765117   -0.025196163607017038   -0.0008011266813582865
-0.0011476918857134379   -0.0252563737521383   -0.0008769970058800665
0.001074113047040902   -0.021793042373576908   -0.0008775532959825571
0.000997841104323666   -0.02180731004228146   -0.0009620780810821903
0.00023985575955351023   -0.02520109814279219   -0.000967244857502775
0.0029160036394434157   -0.0217330329945623   -0.0010053798507343639
0.0010354611937523203   -0.02179534243032567   -0.0009176631337932422
0.00023985575955351023   -0.02520109814279219   -0.000967244857502775
0.0018142530947624059   -0.02509885528333547   -0.0010219509851139435
0.0029160036394434157   -0.0217330329945623   -0.0010053798507343639
0.0019596722477547373   -0.02506863678988153   -0.0009297481953698487
0.0010354611937523203   -0.02179534243032567   -0.0009176631337932422
0.0030161786643940793   -0.0217085407635492   -0.0009406361054286149
0.0019596722477547373   -0.02506863678988153   -0.0009297481953698487
0.0029160036394434157   -0.0217330329945623   -0.0010053798507343639
0.0010354611937523203   -0.02179534243032567   -0.0009176631337932422
0.0019596722477547373   -0.02506863678988153   -0.0009297481953698487
0.00029688812218368177   -0.025185301062941194   -0.0009070364465584356
0.00023985575955351023   -0.02520109814279219   -0.000967244857502775
0.0010354611937523203   -0.02179534243032567   -0.0009176631337932422
0.0019596722477547373   -0.02506863678988153   -0.0009297481953698487
0.00023985575955351023   -0.02520109814279219   -0.000967244857502775
0.0029160036394434157   -0.0217330329945623   -0.0010053798507343639
0.0010354611937523203   -0.02179534243032567   -0.0009176631337932422
0.00029688812218368177   -0.025185301062941194   -0.0009070364465584356
0.0030161786643940793   -0.0217085407635492   -0.0009406361054286149
0.001074113047040902   -0.021793042373576908   -0.0008775532959825571
0.00029688812218368177   -0.025185301062941194   -0.0009070364465584356
0.0019596722477547373   -0.02506863678988153   -0.0009297481953698487
0.0030161786643940793   -0.0217085407635492   -0.0009406361054286149
0.0020712393853838137   -0.025063400487679948   -0.0008442429727693698
0.001074113047040902   -0.021793042373576908   -0.0008775532959825571
0.0030905279846251505   -0.02170174104680628   -0.0008816291130434158
0.0020712393853838137   -0.025063400487679948   -0.0008442429727693698
0.0030161786643940793   -0.0217085407635492   -0.0009406361054286149
0.001074113047040902   -0.021793042373576908   -0.0008775532959825571
0.0020712393853838137   -0.025063400487679948   -0.0008442429727693698
0.00035711449810676293   -0.025183880225763237   -0.0008522256556210576
0.00029688812218368177   -0.025185301062941194   -0.0009070364465584356
0.001074113047040902   -0.021793042373576908   -0.0008775532959825571
0.0020712393853838137   -0.025063400487679948   -0.0008442429727693698
0.00029688812218368177   -0.025185301062941194   -0.0009070364465584356
0.0030161786643940793   -0.0217085407635492   -0.0009406361054286149
0.001074113047040902   -0.021793042373576908   -0.0008775532959825571
0.00035711449810676293   -0.025183880225763237   -0.0008522256556210576
0.0030905279846251505   -0.02170174104680628   -0.0008816291130434158
0.0010999517929158901   -0.02179864219174389   -0.0008411791529053037
0.00035711449810676293   -0.025183880225763237   -0.0008522256556210576
0.0020712393853838137   -0.025063400487679948   -0.0008442429727693698
0.0030905279846251505   -0.02170174104680628   -0.0008816291130434158
0.0021872432972584255   -0.025072516100940377   -0.0007661264466281091
0.0010999517929158901   -0.02179864219174389   -0.0008411791529053037
0.003166213987626349   -0.021701740096888043   -0.0008286287574859338
0.0021872432972584255   -0.025072516100940377   -0.0007661264466281091
0.0030905279846251505   -0.02170174104680628   -0.0008816291130434158
0.0010999517929158901   -0.02179864219174389   -0.0008411791529053037
0.0021872432972584255   -0.025072516100940377   -0.0007661264466281091
0.0004011589799765117   -0.025196163607017038   -0.0008011266813582865
0.00035711449810676293   -0.025183880225763237   -0.0008522256556210576
0.0010999517929158901   -0.02179864219174389   -0.0008411791529053037
0.0021872432972584255   -0.025072516100940377   -0.0007661264466281091
0.00035711449810676293   -0.025183880225763237   -0.0008522256556210576
0.0030905279846251505   -0.02170174104680628   -0.0008816291130434158
-0.005806445419693744   -0.025146521524693783   -0.000938044760307432
-0.00487171092715159   -0.027767968106384096   -0.0008517665889598076
-0.004118842803502209   -0.025224519521322594   -0.0009326321345765618
-0.005719154537691033   -0.025163175633745073   -0.000990040612717223
-0.00487171092715159   -0.027767968106384096   -0.0008517665889598076
-0.003669702646142073   -0.027882924144080962   -0.0008861326245021514
-0.004118842803502209   -0.025224519521322594   -0.0009326321345765618
-0.0036101306567015642   -0.02787718800732074   -0.0009145944322219268
-0.005719154537691033   -0.025163175633745073   -0.000990040612717223
-0.004077107657605266   -0.02523576889021597   -0.0009511454652404577
-0.0036101306567015642   -0.02787718800732074   -0.0009145944322219268
-0.004118842803502209   -0.025224519521322594   -0.0009326321345765618
-0.005719154537691033   -0.025163175633745073   -0.000990040612717223
-0.0036101306567015642   -0.02787718800732074   -0.0009145944322219268
-0.0047424872485397   -0.027764853433075352   -0.0009284716069157846
-0.00487171092715159   -0.027767968106384096   -0.0008517665889598076
-0.005719154537691033   -0.025163175633745073   -0.000990040612717223
-0.0036101306567015642   -0.02787718800732074   -0.0009145944322219268
-0.00487171092715159   -0.027767968106384096   -0.0008517665889598076
-0.004118842803502209   -0.025224519521322594   -0.0009326321345765618
-0.005719154537691033   -0.025163175633745073   -0.000990040612717223
-0.0047424872485397   -0.027764853433075352   -0.0009284716069157846
-0.004077107657605266   -0.02523576889021597   -0.0009511454652404577
-0.005632275442657385   -0.02519500163668196   -0.0010487476530374891
-0.0047424872485397   -0.027764853433075352   -0.0009284716069157846
-0.0036101306567015642   -0.02787718800732074   -0.0009145944322219268
-0.004077107657605266   -0.02523576889021597   -0.0009511454652404577
-0.003539936923415523   -0.027894059208903723   -0.0009472447764961854
-0.005632275442657385   -0.02519500163668196   -0.0010487476530374891
-0.004024671946778097   -0.02526288177825575   -0.0009737818660378376
-0.003539936923415523   -0.027894059208903723   -0.0009472447764961854
-0.004077107657605266   -0.02523576889021597   -0.0009511454652404577
-0.005632275442657385   -0.02519500163668196   -0.0010487476530374891
-0.003539936923415523   -0.027894059208903723   -0.0009472447764961854
-0.004623501704599138   -0.02778564583976891   -0.0010110850512883816
-0.0047424872485397   -0.027764853433075352   -0.0009284716069157846
-0.005632275442657385   -0.02519500163668196   -0.0010487476530374891
-0.003539936923415523   -0.027894059208903723   -0.0009472447764961854
-0.0047424872485397   -0.027764853433075352   -0.0009284716069157846
-0.004077107657605266   -0.02523576889021597   -0.0009511454652404577
-0.005632275442657385   -0.02519500163668196   -0.0010487476530374891
-0.004623501704599138   -0.02778564583976891   -0.0010110850512883816
-0.004024671946778097   -0.02526288177825575   -0.0009737818660378376
-0.005521043078105611   -0.025254349435570044   -0.001114057248146744
-0.004623501704599138   -0.02778564583976891   -0.0010110850512883816
-0.003539936923415523   -0.027894059208903723   -0.0009472447764961854
-0.004024671946778097   -0.02526288177825575   -0.0009737818660378376
-0.0034762644890531497   -0.027933941531813968   -0.0009838184142547095
-0.005521043078105611   -0.025254349435570044   -0.001114057248146744
-0.003972970808377697   -0.025307401443881425   -0.0010005020538571066
-0.0034762644890531497   -0.027933941531813968   -0.0009838184142547095
-0.004024671946778097   -0.02526288177825575   -0.0009737818660378376
-0.005521043078105611   -0.025254349435570044   -0.001114057248146744
-0.0034762644890531497   -0.027933941531813968   -0.0009838184142547095
-0.004478289228718638   -0.027840745549009234   -0.0010992735376748714
-0.004623501704599138   -0.02778564583976891   -0.0010110850512883816
-0.005521043078105611   -0.025254349435570044   -0.001114057248146744
-0.0034762644890531497   -0.027933941531813968   -0.0009838184142547095
-0.004623501704599138   -0.02778564583976891   -0.0010110850512883816
-0.004024671946778097   -0.02526288177825575   -0.0009737818660378376
-0.004118842803502209   -0.025224519521322594   -0.0009326321345765618
-0.003669702646142073   -0.027882924144080962   -0.0008861326245021514
-0.0026552459795339146   -0.025260692045288104   -0.0009305953635962888
-0.004077107657605266   -0.02523576889021597   -0.0009511454652404577
-0.003669702646142073   -0.027882924144080962   -0.0008861326245021514
-0.0026847982220434613   -0.027956566645563875   -0.0009130573056681482
-0.0026552459795339146   -0.025260692045288104   -0.0009305953635962888
-0.002623788804149597   -0.02794718604419385   -0.0009043726329182066
-0.004077107657605266   -0.02523576889021597   -0.0009511454652404577
-0.002612494292658152   -0.025264324767014696   -0.0009222215223701885
-0.002623788804149597   -0.02794718604419385   -0.0009043726329182066
-0.0026552459795339146   -0.025260692045288104   -0.0009305953635962888
-0.004077107657605266   -0.02523576889021597   -0.0009511454652404577
-0.002623788804149597   -0.02794718604419385   -0.0009043726329182066
-0.0036101306567015642   -0.02787718800732074   -0.0009145944322219268
-0.003669702646142073   -0.027882924144080962   -0.0008861326245021514
-0.004077107657605266   -0.02523576889021597   -0.0009511454652404577
-0.002623788804149597   -0.02794718604419385   -0.0009043726329182066
-0.003669702646142073   -0.027882924144080962   -0.0008861326245021514
-0.0026552459795339146   -0.025260692045288104   -0.0009305953635962888
-0.004077107657605266   -0.02523576889021597   -0.0009511454652404577
-0.0036101306567015642   -0.02787718800732074   -0.0009145944322219268
-0.002612494292658152   -0.025264324767014696   -0.0009222215223701885
-0.004024671946778097   -0.02526288177825575   -0.0009737818660378376
-0.0036101306567015642   -0.02787718800732074   -0.0009145944322219268
-0.002623788804149597   -0.02794718604419385   -0.0009043726329182066
-0.002612494292658152   -0.025264324767014696   -0.0009222215223701885
-0.002563564039325731   -0.027957359308123236   -0.0008997649048130487
-0.004024671946778097   -0.02526288177825575   -0.0009737818660378376
-0.002568342776034089   -0.025282137570884232   -0.000917848296522229
-0.002563564039325731   -0.027957359308123236   -0.0008997649048130487
-0.002612494292658152   -0.025264324767014696   -0.0009222215223701885
-0.004024671946778097   -0.02526288177825575   -0.0009737818660378376
-0.002563564039325731   -0.027957359308123236   -0.0008997649048130487
-0.003539936923415523   -0.027894059208903723   -0.0009472447764961854
-0.0036101306567015642   -0.02787718800732074   -0.0009145944322219268
-0.004024671946778097   -0.02526288177825575   -0.0009737818660378376
-0.002563564039325731   -0.027957359308123236   -0.0008997649048130487
-0.0036101306567015642   -0.02787718800732074   -0.0009145944322219268
-0.002612494292658152   -0.025264324767014696   -0.0009222215223701885
-0.004024671946778097   -0.02526288177825575   -0.0009737818660378376
-0.003539936923415523   -0.027894059208903723   -0.0009472447764961854
-0.002568342776034089   -0.025282137570884232   -0.000917848296522229
-0.003972970808377697   -0.025307401443881425   -0.0010005020538571066
-0.003539936923415523   -0.027894059208903723   -0.0009472447764961854
-0.002563564039325731   -0.027957359308123236   -0.0008997649048130487
-0.002568342776034089   -0.025282137570884232   -0.000917848296522229
-0.0025080715238019182   -0.027987705201028903   -0.0009000752006331841
-0.003972970808377697   -0.025307401443881425   -0.0010005020538571066
-0.0025242492283065014   -0.025314932026153474   -0.0009174353488816574
-0.0025080715238019182   -0.027987705201028903   -0.0009000752006331841
-0.002568342776034089   -0.025282137570884232   -0.000917848296522229
-0.003972970808377697   -0.025307401443881425   -0.0010005020538571066
-0.0025080715238019182   -0.027987705201028903   -0.0009000752006331841
-0.0034762644890531497   -0.027933941531813968   -0.0009838184142547095
-0.003539936923415523   -0.027894059208903723   -0.0009472447764961854
-0.003972970808377697   -0.025307401443881425   -0.0010005020538571066
-0.0025080715238019182   -0.027987705201028903   -0.0009000752006331841
-0.003539936923415523   -0.027894059208903723   -0.0009472447764961854
-0.002568342776034089   -0.025282137570884232   -0.000917848296522229
-0.0026552459795339146   -0.025260692045288104   -0.0009305953635962888
-0.0026847982220434613   -0.027956566645563875   -0.0009130573056681482
-0.0012399922606334023   -0.02525340791165294   -0.0009413809884896745
-0.002612494292658152   -0.025264324767014696   -0.0009222215223701885
-0.0026847982220434613   -0.027956566645563875   -0.0009130573056681482
-0.0017411724071173921   -0.027993911818084333   -0.0009451692446584539
-0.0012399922606334023   -0.02525340791165294   -0.0009413809884896745
-0.0016724265069064776   -0.027980199884466584   -0.0009014008457786429
-0.002612494292658152   -0.025264324767014696   -0.0009222215223701885
-0.0011931714133770679   -0.025248459307978463   -0.0009070559811258523
-0.0016724265069064776   -0.027980199884466584   -0.0009014008457786429
-0.0012399922606334023   -0.02525340791165294   -0.0009413809884896745
-0.002612494292658152   -0.025264324767014696   -0.0009222215223701885
-0.0016724265069064776   -0.027980199884466584   -0.0009014008457786429
-0.002623788804149597   -0.02794718604419385   -0.0009043726329182066
-0.0026847982220434613   -0.027956566645563875   -0.0009130573056681482
-0.002612494292658152   -0.025264324767014696   -0.0009222215223701885
-0.0016724265069064776   -0.027980199884466584   -0.0009014008457786429
-0.0026847982220434613   -0.027956566645563875   -0.0009130573056681482
-0.0012399922606334023   -0.02525340791165294   -0.0009413809884896745
-0.002612494292658152   -0.025264324767014696   -0.0009222215223701885
-0.002623788804149597   -0.02794718604419385   -0.0009043726329182066
-0.0011931714133770679   -0.025248459307978463   -0.0009070559811258523
-0.002568342776034089   -0.025282137570884232   -0.000917848296522229
-0.002623788804149597   -0.02794718604419385   -0.0009043726329182066
-0.0016724265069064776   -0.027980199884466584   -0.0009014008457786429
-0.0011931714133770679   -0.025248459307978463   -0.0009070559811258523
-0.0016068341905124367   -0.02798375592463955   -0.0008612678064651909
-0.002568342776034089   -0.025282137570884232   -0.000917848296522229
-0.0011476918857134379   -0.0252563737521383   -0.0008769970058800665
-0.0016068341905124367   -0.02798375592463955   -0.0008612678064651909
-0.0011931714133770679   -0.025248459307978463   -0.0009070559811258523
-0.002568342776034089   -0.025282137570884232   -0.000917848296522229
-0.0016068341905124367   -0.02798375592463955   -0.0008612678064651909
-0.002563564039325731   -0.027957359308123236   -0.0008997649048130487
-0.002623788804149597   -0.02794718604419385   -0.0009043726329182066
-0.002568342776034089   -0.025282137570884232   -0.000917848296522229
-0.0016068341905124367   -0.02798375592463955   -0.0008612678064651909
-0.002623788804149597   -0.02794718604419385   -0.0009043726329182066
-0.0011931714133770679   -0.025248459307978463   -0.0009070559811258523
-0.002568342776034089   -0.025282137570884232   -0.000917848296522229
-0.002563564039325731   -0.027957359308123236   -0.0008997649048130487
-0.0011476918857134379   -0.0252563737521383   -0.0008769970058800665
-0.0025242492283065014   -0.025314932026153474   -0.0009174353488816574
-0.002563564039325731   -0.027957359308123236   -0.0008997649048130487
-0.0016068341905124367   -0.02798375592463955   -0.0008612678064651909
-0.0011476918857134379   -0.0252563737521383   -0.0008769970058800665
-0.001552165190318544   -0.028007809025889195   -0.0008269687392814375
-0.0025242492283065014   -0.025314932026153474   -0.0009174353488816574
-0.0011065663059820448   -0.025278945963100242   -0.000850840396701982
-0.001552165190318544   -0.028007809025889195   -0.0008269687392814375
-0.0011476918857134379   -0.0252563737521383   -0.0008769970058800665
-0.0025242492283065014   -0.025314932026153474   -0.0009174353488816574
-0.001552165190318544   -0.028007809025889195   -0.0008269687392814375
-0.0025080715238019182   -0.027987705201028903   -0.0009000752006331841
-0.002563564039325731   -0.027957359308123236   -0.0008997649048130487
-0.0025242492283065014   -0.025314932026153474   -0.0009174353488816574
-0.001552165190318544   -0.028007809025889195   -0.0008269687392814375
-0.002563564039325731   -0.027957359308123236   -0.0008997649048130487
-0.0011476918857134379   -0.0252563737521383   -0.0008769970058800665
-0.0012399922606334023   -0.02525340791165294   -0.0009413809884896745
-0.0017411724071173921   -0.027993911818084333   -0.0009451692446584539
0.00023985575955351023   -0.02520109814279219   -0.000967244857502775
-0.0011931714133770679   -0.025248459307978463   -0.0009070559811258523
-0.0017411724071173921   -0.027993911818084333   -0.0009451692446584539
-0.000739820260084593   -0.02798159238012527   -0.0009832461123785695
0.00023985575955351023   -0.02520109814279219   -0.000967244857502775
-0.0006515516729575473   -0.027960047510903998   -0.0009058403801768176
-0.0011931714133770679   -0.025248459307978463   -0.0009070559811258523
0.00029688812218368177   -0.025185301062941194   -0.0009070364465584356
-0.0006515516729575473   -0.027960047510903998   -0.0009058403801768176
0.00023985575955351023   -0.02520109814279219   -0.000967244857502775
-0.0011931714133770679   -0.025248459307978463   -0.0009070559811258523
-0.0006515516729575473   -0.027960047510903998   -0.0009058403801768176
-0.0016724265069064776   -0.027980199884466584   -0.0009014008457786429
-0.0017411724071173921   -0.027993911818084333   -0.0009451692446584539
-0.0011931714133770679   -0.025248459307978463   -0.0009070559811258523
-0.0006515516729575473   -0.027960047510903998   -0.0009058403801768176
-0.0017411724071173921   -0.027993911818084333   -0.0009451692446584539
0.00023985575955351023   -0.02520109814279219   -0.000967244857502775
-0.0011931714133770679   -0.025248459307978463   -0.0009070559811258523
-0.0016724265069064776   -0.027980199884466584   -0.0009014008457786429
0.00029688812218368177   -0.025185301062941194   -0.0009070364465584356
-0.0011476918857134379   -0.0252563737521383   -0.0008769970058800665
-0.0016724265069064776   -0.027980199884466584   -0.0009014008457786429
-0.0006515516729575473   -0.027960047510903998   -0.0009058403801768176
0.00029688812218368177   -0.025185301062941194   -0.0009070364465584356
-0.0005610306429091995   -0.02795641122129951   -0.000832304779271219
-0.0011476918857134379   -0.0252563737521383   -0.0008769970058800665
0.00035711449810676293   -0.025183880225763237   -0.0008522256556210576
-0.0005610306429091995   -0.02795641122129951   -0.000832304779271219
0.00029688812218368177   -0.025185301062941194   -0.0009070364465584356
-0.0011476918857134379   -0.0252563737521383   -0.0008769970058800665
-0.0005610306429091995   -0.02795641122129951   -0.000832304779271219
-0.0016068341905124367   -0.02798375592463955   -0.0008612678064651909
-0.0016724265069064776   -0.027980199884466584   -0.0009014008457786429
-0.0011476918857134379   -0.0252563737521383   -0.0008769970058800665
-0.0005610306429091995   -0.02795641122129951   -0.000832304779271219
-0.0016724265069064776   -0.027980199884466584   -0.0009014008457786429
0.00029688812218368177   -0.025185301062941194   -0.0009070364465584356
-0.0011476918857134379   -0.0252563737521383   -0.0008769970058800665
-0.0016068341905124367   -0.02798375592463955   -0.0008612678064651909
0.00035711449810676293   -0.025183880225763237   -0.0008522256556210576
-0.0011065663059820448   -0.025278945963100242   -0.000850840396701982
-0.0016068341905124367   -0.02798375592463955   -0.0008612678064651909
-0.0005610306429091995   -0.02795641122129951   -0.000832304779271219
0.00035711449810676293   -0.025183880225763237   -0.0008522256556210576
-0.000494149142049925   -0.02797441975475881   -0.000765377589029329
-0.0011065663059820448   -0.025278945963100242   -0.000850840396701982
0.0004011589799765117   -0.025196163607017038   -0.0008011266813582865
-0.000494149142049925   -0.02797441975475881   -0.000765377589029329
0.00035711449810676293   -0.025183880225763237   -0.0008522256556210576
-0.0011065663059820448   -0.025278945963100242   -0.000850840396701982
-0.000494149142049925   -0.02797441975475881   -0.000765377589029329
-0.001552165190318544   -0.028007809025889195   -0.0008269687392814375
-0.0016068341905124367   -0.02798375592463955   -0.0008612678064651909
-0.0011065663059820448   -0.025278945963100242   -0.000850840396701982
-0.000494149142049925   -0.02797441975475881   -0.000765377589029329
-0.0016068341905124367   -0.02798375592463955   -0.0008612678064651909
0.00035711449810676293   -0.025183880225763237   -0.0008522256556210576
0.00023985575955351023   -0.02520109814279219   -0.000967244857502775
-0.000739820260084593   -0.02798159238012527   -0.0009832461123785695
0.0018142530947624059   -0.02509885528333547   -0.0010219509851139435
0.00029688812218368177   -0.025185301062941194   -0.0009070364465584356
-0.000739820260084593   -0.02798159238012527   -0.0009832461123785695
0.0003337992141409409   -0.02788451584173781   -0.0010604074135607251
0.0018142530947624059   -0.02509885528333547   -0.0010219509851139435
0.000541628912238046   -0.027837909972223344   -0.000933935358087123
0.00029688812218368177   -0.025185301062941194   -0.0009070364465584356
0.0019596722477547373   -0.02506863678988153   -0.0009297481953698487
0.000541628912238046   -0.027837909972223344   -0.000933935358087123
0.0018142530947624059   -0.02509885528333547   -0.0010219509851139435
0.00029688812218368177   -0.025185301062941194   -0.0009070364465584356
0.000541628912238046   -0.027837909972223344   -0.000933935358087123
-0.0006515516729575473   -0.027960047510903998   -0.0009058403801768176
-0.000739820260084593   -0.02798159238012527   -0.0009832461123785695
0.00029688812218368177   -0.025185301062941194   -0.0009070364465584356
0.000541628912238046   -0.027837909972223344   -0.000933935358087123
-0.000739820260084593   -0.02798159238012527   -0.0009832461123785695
0.0018142530947624059   -0.02509885528333547   -0.0010219509851139435
0.00029688812218368177   -0.025185301062941194   -0.0009070364465584356
-0.0006515516729575473   -0.027960047510903998   -0.0009058403801768176
0.0019596722477547373   -0.02506863678988153   -0.0009297481953698487
0.00035711449810676293   -0.025183880225763237   -0.0008522256556210576
-0.0006515516729575473   -0.027960047510903998   -0.0009058403801768176
0.000541628912238046   -0.027837909972223344   -0.000933935358087123
0.0019596722477547373   -0.02506863678988153   -0.0009297481953698487
0.0007048396630294328   -0.027828607285237502   -0.0008150090488495125
0.00035711449810676293   -0.025183880225763237   -0.0008522256556210576
0.0020712393853838137   -0.025063400487679948   -0.0008442429727693698
0.0007048396630294328   -0.027828607285237502   -0.0008150090488495125
0.0019596722477547373   -0.02506863678988153   -0.0009297481953698487
0.00035711449810676293   -0.025183880225763237   -0.0008522256556210576
0.0007048396630294328   -0.027828607285237502   -0.0008150090488495125
-0.0005610306429091995   -0.02795641122129951   -0.000832304779271219
-0.0006515516729575473   -0.027960047510903998   -0.0009058403801768176
0.00035711449810676293   -0.025183880225763237   -0.0008522256556210576
0.0007048396630294328   -0.027828607285237502   -0.0008150090488495125
-0.0006515516729575473   -0.027960047510903998   -0.0009058403801768176
0.0019596722477547373   -0.02506863678988153   -0.0009297481953698487
0.00035711449810676293   -0.025183880225763237   -0.0008522256556210576
-0.0005610306429091995   -0.02795641122129951   -0.000832304779271219
0.0020712393853838137   -0.025063400487679948   -0.0008442429727693698
0.0004011589799765117   -0.025196163607017038   -0.0008011266813582865
-0.0005610306429091995   -0.02795641122129951   -0.000832304779271219
0.0007048396630294328   -0.027828607285237502   -0.0008150090488495125
0.0020712393853838137   -0.025063400487679948   -0.0008442429727693698
0.0008749819976285391   -0.027837110164277062   -0.000706183141311384
0.0004011589799765117   -0.025196163607017038   -0.0008011266813582865
0.0021872432972584255   -0.025072516100940377   -0.0007661264466281091
0.0008749819976285391   -0.027837110164277062   -0.000706183141311384
0.0020712393853838137   -0.025063400487679948   -0.0008442429727693698
0.0004011589799765117   -0.025196163607017038   -0.0008011266813582865
0.0008749819976285391   -0.027837110164277062   -0.000706183141311384
-0.000494149142049925   -0.02797441975475881   -0.000765377589029329
-0.0005610306429091995   -0.02795641122129951   -0.000832304779271219
0.0004011589799765117   -0.025196163607017038   -0.0008011266813582865
0.0008749819976285391   -0.027837110164277062   -0.000706183141311384
-0.0005610306429091995   -0.02795641122129951   -0.000832304779271219
0.0020712393853838137   -0.025063400487679948   -0.0008442429727693698
-0.00487171092715159   -0.027767968106384096   -0.0008517665889598076
-0.0035917444739473644   -0.02932999008762586   -0.000750181010590532
-0.003669702646142073   -0.027882924144080962   -0.0008861326245021514
-0.0047424872485397   -0.027764853433075352   -0.0009284716069157846
-0.0035917444739473644   -0.02932999008762586   -0.000750181010590532
-0.003027730954533423   -0.02947495178834756   -0.0008366972741879359
-0.003669702646142073   -0.027882924144080962   -0.0008861326245021514
-0.0029529445156358672   -0.029446739907583352   -0.0008671345112190523
-0.0047424872485397   -0.027764853433075352   -0.0009284716069157846
-0.0036101306567015642   -0.02787718800732074   -0.0009145944322219268
-0.0029529445156358672   -0.029446739907583352   -0.0008671345112190523
-0.003669702646142073   -0.027882924144080962   -0.0008861326245021514
-0.0047424872485397   -0.027764853433075352   -0.0009284716069157846
-0.0029529445156358672   -0.029446739907583352   -0.0008671345112190523
-0.0034312360249104746   -0.029298148947252918   -0.000842099935377023
-0.0035917444739473644   -0.02932999008762586   -0.000750181010590532
-0.0047424872485397   -0.027764853433075352   -0.0009284716069157846
-0.0029529445156358672   -0.029446739907583352   -0.0008671345112190523
-0.0035917444739473644   -0.02932999008762586   -0.000750181010590532
-0.003669702646142073   -0.027882924144080962   -0.0008861326245021514
-0.0047424872485397   -0.027764853433075352   -0.0009284716069157846
-0.0034312360249104746   -0.029298148947252918   -0.000842099935377023
-0.0036101306567015642   -0.02787718800732074   -0.0009145944322219268
-0.004623501704599138   -0.02778564583976891   -0.0010110850512883816
-0.0034312360249104746   -0.029298148947252918   -0.000842099935377023
-0.0029529445156358672   -0.029446739907583352   -0.0008671345112190523
-0.0036101306567015642   -0.02787718800732074   -0.0009145944322219268
-0.0028699018740102277   -0.02944870878657036   -0.0008978902130412758
-0.004623501704599138   -0.02778564583976891   -0.0010110850512883816
-0.003539936923415523   -0.027894059208903723   -0.0009472447764961854
-0.0028699018740102277   -0.02944870878657036   -0.0008978902130412758
-0.0036101306567015642   -0.02787718800732074   -0.0009145944322219268
-0.004623501704599138   -0.02778564583976891   -0.0010110850512883816
-0.0028699018740102277   -0.02944870878657036   -0.0008978902130412758
-0.0032928014204464534   -0.029301519097448266   -0.0009337155129396613
-0.0034312360249104746   -0.029298148947252918   -0.000842099935377023
-0.004623501704599138   -0.02778564583976891   -0.0010110850512883816
-0.0028699018740102277   -0.02944870878657036   -0.0008978902130412758
-0.0034312360249104746   -0.029298148947252918   -0.000842099935377023
-0.0036101306567015642   -0.02787718800732074   -0.0009145944322219268
-0.004623501704599138   -0.02778564583976891   -0.0010110850512883816
-0.0032928014204464534   -0.029301519097448266   -0.0009337155129396613
-0.003539936923415523   -0.027894059208903723   -0.0009472447764961854
-0.004478289228718638   -0.027840745549009234   -0.0010992735376748714
-0.0032928014204464534   -0.029301519097448266   -0.0009337155129396613
-0.0028699018740102277   -0.02944870878657036   -0.0008978902130412758
-0.003539936923415523   -0.027894059208903723   -0.0009472447764961854
-0.002792874492280568   -0.029481025478438526   -0.000929091800603121
-0.004478289228718638   -0.027840745549009234   -0.0010992735376748714
-0.0034762644890531497   -0.027933941531813968   -0.0009838184142547095
-0.002792874492280568   -0.029481025478438526   -0.000929091800603121
-0.003539936923415523   -0.027894059208903723   -0.0009472447764961854
-0.004478289228718638   -0.027840745549009234   -0.0010992735376748714
-0.002792874492280568   -0.029481025478438526   -0.000929091800603121
-0.003128432669342544   -0.029342184280488244   -0.0010272883569829654
-0.0032928014204464534   -0.029301519097448266   -0.0009337155129396613
-0.004478289228718638   -0.027840745549009234   -0.0010992735376748714
-0.002792874492280568   -0.029481025478438526   -0.000929091800603121
-0.0032928014204464534   -0.029301519097448266   -0.0009337155129396613
-0.003539936923415523   -0.027894059208903723   -0.0009472447764961854
-0.003669702646142073   -0.027882924144080962   -0.0008861326245021514
-0.003027730954533423   -0.02947495178834756   -0.0008366972741879359
-0.0026847982220434613   -0.027956566645563875   -0.0009130573056681482
-0.0036101306567015642   -0.02787718800732074   -0.0009145944322219268
-0.003027730954533423   -0.02947495178834756   -0.0008366972741879359
-0.0026124180688890304   -0.029618336648175564   -0.0009130140434257206
-0.0026847982220434613   -0.027956566645563875   -0.0009130573056681482
-0.002533721205297011   -0.02958927876820907   -0.0008922957439244036
-0.0036101306567015642   -0.02787718800732074   -0.0009145944322219268
-0.002623788804149597   -0.02794718604419385   -0.0009043726329182066
-0.002533721205297011   -0.02958927876820907   -0.0008922957439244036
-0.0026847982220434613   -0.027956566645563875   -0.0009130573056681482
-0.0036101306567015642   -0.02787718800732074   -0.0009145944322219268
-0.002533721205297011   -0.02958927876820907   -0.0008922957439244036
-0.0029529445156358672   -0.029446739907583352   -0.0008671345112190523
-0.003027730954533423   -0.02947495178834756   -0.0008366972741879359
-0.0036101306567015642   -0.02787718800732074   -0.0009145944322219268
-0.002533721205297011   -0.02958927876820907   -0.0008922957439244036
-0.003027730954533423   -0.02947495178834756   -0.0008366972741879359
-0.0026847982220434613   -0.027956566645563875   -0.0009130573056681482
-0.0036101306567015642   -0.02787718800732074   -0.0009145944322219268
-0.0029529445156358672   -0.029446739907583352   -0.0008671345112190523
-0.002623788804149597   -0.02794718604419385   -0.0009043726329182066
-0.003539936923415523   -0.027894059208903723   -0.0009472447764961854
-0.0029529445156358672   -0.029446739907583352   -0.0008671345112190523
-0.002533721205297011   -0.02958927876820907   -0.0008922957439244036
-0.002623788804149597   -0.02794718604419385   -0.0009043726329182066
-0.002457536255448783   -0.029589185546917866   -0.0008713344747830943
-0.003539936923415523   -0.027894059208903723   -0.0009472447764961854
-0.002563564039325731   -0.027957359308123236   -0.0008997649048130487
-0.002457536255448783   -0.029589185546917866   -0.0008713344747830943
-0.002623788804149597   -0.02794718604419385   -0.0009043726329182066
-0.003539936923415523   -0.027894059208903723   -0.0009472447764961854
-0.002457536255448783   -0.029589185546917866   -0.0008713344747830943
-0.0028699018740102277   -0.02944870878657036   -0.0008978902130412758
-0.0029529445156358672   -0.029446739907583352   -0.0008671345112190523
-0.003539936923415523   -0.027894059208903723   -0.0009472447764961854
-0.002457536255448783   -0.029589185546917866   -0.0008713344747830943
-0.0029529445156358672   -0.029446739907583352   -0.0008671345112190523
-0.002623788804149597   -0.02794718604419385   -0.0009043726329182066
-0.003539936923415523   -0.027894059208903723   -0.0009472447764961854
-0.0028699018740102277   -0.02944870878657036   -0.0008978902130412758
-0.002563564039325731   -0.027957359308123236   -0.0008997649048130487
-0.0034762644890531497   -0.027933941531813968   -0.0009838184142547095
-0.0028699018740102277   -0.02944870878657036   -0.0008978902130412758
-0.002457536255448783   -0.029589185546917866   -0.0008713344747830943
-0.002563564039325731   -0.027957359308123236   -0.0008997649048130487
-0.0023781856086008955   -0.029617478928284396   -0.0008512369316008236
-0.0034762644890531497   -0.027933941531813968   -0.0009838184142547095
-0.0025080715238019182   -0.027987705201028903   -0.0009000752006331841
-0.0023781856086008955   -0.029617478928284396   -0.0008512369316008236
-0.002563564039325731   -0.027957359308123236   -0.0008997649048130487
-0.0034762644890531497   -0.027933941531813968   -0.0009838184142547095
-0.0023781856086008955   -0.029617478928284396   -0.0008512369316008236
-0.002792874492280568   -0.029481025478438526   -0.000929091800603121
-0.0028699018740102277   -0.02944870878657036   -0.0008978902130412758
-0.0034762644890531497   -0.027933941531813968   -0.0009838184142547095
-0.0023781856086008955   -0.029617478928284396   -0.0008512369316008236
-0.0028699018740102277   -0.02944870878657036   -0.0008978902130412758
-0.002563564039325731   -0.027957359308123236   -0.0008997649048130487
-0.0026847982220434613   -0.027956566645563875   -0.0009130573056681482
-0.0026124180688890304   -0.029618336648175564   -0.0009130140434257206
-0.0017411724071173921   -0.027993911818084333   -0.0009451692446584539
-0.002623788804149597   -0.02794718604419385   -0.0009043726329182066
-0.0026124180688890304   -0.029618336648175564   -0.0009130140434257206
-0.0022323362544517723   -0.029789143734377698   -0.0009973578692267164
-0.0017411724071173921   -0.027993911818084333   -0.0009451692446584539
-0.0021359975226852316   -0.029763694691488245   -0.0009226595338514111
-0.002623788804149597   -0.02794718604419385   -0.0009043726329182066
-0.0016724265069064776   -0.027980199884466584   -0.0009014008457786429
-0.0021359975226852316   -0.029763694691488245   -0.0009226595338514111
-0.0017411724071173921   -0.027993911818084333   -0.0009451692446584539
-0.002623788804149597   -0.02794718604419385   -0.0009043726329182066
-0.0021359975226852316   -0.029763694691488245   -0.0009226595338514111
-0.002533721205297011   -0.02958927876820907   -0.0008922957439244036
-0.0026124180688890304   -0.029618336648175564   -0.0009130140434257206
-0.002623788804149597   -0.02794718604419385   -0.0009043726329182066
-0.0021359975226852316   -0.029763694691488245   -0.0009226595338514111
-0.0026124180688890304   -0.029618336648175564   -0.0009130140434257206
-0.0017411724071173921   -0.027993911818084333   -0.0009451692446584539
-0.002623788804149597   -0.02794718604419385   -0.0009043726329182066
-0.002533721205297011   -0.02958927876820907   -0.0008922957439244036
-0.0016724265069064776   -0.027980199884466584   -0.0009014008457786429
-0.002563564039325731   -0.027957359308123236   -0.0008997649048130487
-0.002533721205297011   -0.02958927876820907   -0.0008922957439244036
-0.0021359975226852316   -0.029763694691488245   -0.0009226595338514111
-0.0016724265069064776   -0.027980199884466584   -0.0009014008457786429
-0.002046580529290718   -0.029762582102576707   -0.0008481236022303061
-0.002563564039325731   -0.027957359308123236   -0.0008997649048130487
-0.0016068341905124367   -0.02798375592463955   -0.0008612678064651909
-0.002046580529290718   -0.029762582102576707   -0.0008481236022303061
-0.0016724265069064776   -0.027980199884466584   -0.0009014008457786429
-0.002563564039325731   -0.027957359308123236   -0.0008997649048130487
-0.002046580529290718   -0.029762582102576707   -0.0008481236022303061
-0.002457536255448783   -0.029589185546917866   -0.0008713344747830943
-0.002533721205297011   -0.02958927876820907   -0.0008922957439244036
-0.002563564039325731   -0.027957359308123236   -0.0008997649048130487
-0.002046580529290718   -0.029762582102576707   -0.0008481236022303061
-0.002533721205297011   -0.02958927876820907   -0.0008922957439244036
-0.0016724265069064776   -0.027980199884466584   -0.0009014008457786429
-0.002563564039325731   -0.027957359308123236   -0.0008997649048130487
-0.002457536255448783   -0.029589185546917866   -0.0008713344747830943
-0.0016068341905124367   -0.02798375592463955   -0.0008612678064651909
-0.0025080715238019182   -0.027987705201028903   -0.0009000752006331841
-0.002457536255448783   -0.029589185546917866   -0.0008713344747830943
-0.002046580529290718   -0.029762582102576707   -0.0008481236022303061
-0.0016068341905124367   -0.02798375592463955   -0.0008612678064651909
-0.0019507755907559679   -0.029784557018242192   -0.0007735744593930235
-0.0025080715238019182   -0.027987705201028903   -0.0009000752006331841
-0.001552165190318544   -0.028007809025889195   -0.0008269687392814375
-0.0019507755907559679   -0.029784557018242192   -0.0007735744593930235
-0.0016068341905124367   -0.02798375592463955   -0.0008612678064651909
-0.0025080715238019182   -0.027987705201028903   -0.0009000752006331841
-0.0019507755907559679   -0.029784557018242192   -0.0007735744593930235
-0.0023781856086008955   -0.029617478928284396   -0.0008512369316008236
-0.002457536255448783   -0.029589185546917866   -0.0008713344747830943
-0.0025080715238019182   -0.027987705201028903   -0.0009000752006331841
-0.0019507755907559679   -0.029784557018242192   -0.0007735744593930235
-0.002457536255448783   -0.029589185546917866   -0.0008713344747830943
-0.0016068341905124367   -0.02798375592463955   -0.0008612678064651909
-0.0017411724071173921   -0.027993911818084333   -0.0009451692446584539
-0.0022323362544517723   -0.029789143734377698   -0.0009973578692267164
-0.000739820260084593   -0.02798159238012527   -0.0009832461123785695
-0.0016724265069064776   -0.027980199884466584   -0.0009014008457786429
-0.0022323362544517723   -0.029789143734377698   -0.0009973578692267164
-0.0018582636036533944   -0.03   -0.001063320740878637
-0.000739820260084593   -0.02798159238012527   -0.0009832461123785695
-0.0017367639213305669   -0.03   -0.0009489471790360407
-0.0016724265069064776   -0.027980199884466584   -0.0009014008457786429
-0.0006515516729575473   -0.027960047510903998   -0.0009058403801768176
-0.0017367639213305669   -0.03   -0.0009489471790360407
-0.000739820260084593   -0.02798159238012527   -0.0009832461123785695
-0.0016724265069064776   -0.027980199884466584   -0.0009014008457786429
-0.0017367639213305669   -0.03   -0.0009489471790360407
-0.0021359975226852316   -0.029763694691488245   -0.0009226595338514111
-0.0022323362544517723   -0.029789143734377698   -0.0009973578692267164
-0.0016724265069064776   -0.027980199884466584   -0.0009014008457786429
-0.0017367639213305669   -0.03   -0.0009489471790360407
-0.0022323362544517723   -0.029789143734377698   -0.0009973578692267164
-0.000739820260084593   -0.02798159238012527   -0.0009832461123785695
-0.0016724265069064776   -0.027980199884466584   -0.0009014008457786429
-0.0021359975226852316   -0.029763694691488245   -0.0009226595338514111
-0.0006515516729575473   -0.027960047510903998   -0.0009058403801768176
-0.0016068341905124367   -0.02798375592463955   -0.0008612678064651909
-0.0021359975226852316   -0.029763694691488245   -0.0009226595338514111
-0.0017367639213305669   -0.03   -0.0009489471790360407
-0.0006515516729575473   -0.027960047510903998   -0.0009058403801768176
-0.0016144188701633128   -0.03   -0.0008332263441512557
-0.0016068341905124367   -0.02798375592463955   -0.0008612678064651909
-0.0005610306429091995   -0.02795641122129951   -0.000832304779271219
-0.0016144188701633128   -0.03   -0.0008332263441512557
-0.0006515516729575473   -0.027960047510903998   -0.0009058403801768176
-0.0016068341905124367   -0.02798375592463955   -0.0008612678064651909
-0.0016144188701633128   -0.03   -0.0008332263441512557
-0.002046580529290718   -0.029762582102576707   -0.0008481236022303061
-0.0021359975226852316   -0.029763694691488245   -0.0009226595338514111
-0.0016068341905124367   -0.02798375592463955   -0.0008612678064651909
-0.0016144188701633128   -0.03   -0.0008332263441512557
-0.0021359975226852316   -0.029763694691488245   -0.0009226595338514111
-0.0006515516729575473   -0.027960047510903998   -0.0009058403801768176
-0.0016068341905124367   -0.02798375592463955   -0.0008612678064651909
-0.002046580529290718   -0.029762582102576707   -0.0008481236022303061
-0.0005610306429091995   -0.02795641122129951   -0.000832304779271219
-0.001552165190318544   -0.028007809025889195   -0.0008269687392814375
-0.002046580529290718   -0.029762582102576707   -0.0008481236022303061
-0.0016144188701633128   -0.03   -0.0008332263441512557
-0.0005610306429091995   -0.02795641122129951   -0.000832304779271219
-0.0014951596573020962   -0.03   -0.0007190584349294111
-0.001552165190318544   -0.028007809025889195   -0.0008269687392814375
-0.000494149142049925   -0.02797441975475881   -0.000765377589029329
-0.0014951596573020962   -0.03   -0.0007190584349294111
-0.0005610306429091995   -0.02795641122129951   -0.000832304779271219
-0.001552165190318544   -0.028007809025889195   -0.0008269687392814375
-0.0014951596573020962   -0.03   -0.0007190584349294111
-0.0019507755907559679   -0.029784557018242192   -0.0007735744593930235
-0.002046580529290718   -0.029762582102576707   -0.0008481236022303061
-0.001552165190318544   -0.028007809025889195   -0.0008269687392814375
-0.0014951596573020962   -0.03   -0.0007190584349294111
-0.002046580529290718   -0.029762582102576707   -0.0008481236022303061
-0.0005610306429091995   -0.02795641122129951   -0.000832304779271219
-0.000739820260084593   -0.02798159238012527   -0.0009832461123785695
-0.0018582636036533944   -0.03   -0.001063320740878637
0.0003337992141409409   -0.02788451584173781   -0.0010604074135607251
-0.0006515516729575473   -0.027960047510903998   -0.0009058403801768176
-0.0018582636036533944   -0.03   -0.001063320740878637
-0.0015839908634322033   -0.03   -0.001143199863722178
0.0003337992141409409   -0.02788451584173781   -0.0010604074135607251
-0.0013277938107395617   -0.03   -0.0009772517584309003
-0.0006515516729575473   -0.027960047510903998   -0.0009058403801768176
0.000541628912238046   -0.027837909972223344   -0.000933935358087123
-0.0013277938107395617   -0.03   -0.0009772517584309003
0.0003337992141409409   -0.02788451584173781   -0.0010604074135607251
-0.0006515516729575473   -0.027960047510903998   -0.0009058403801768176
-0.0013277938107395617   -0.03   -0.0009772517584309003
-0.0017367639213305669   -0.03   -0.0009489471790360407
-0.0018582636036533944   -0.03   -0.001063320740878637
-0.0006515516729575473   -0.027960047510903998   -0.0009058403801768176
-0.0013277938107395617   -0.03   -0.0009772517584309003
-0.0018582636036533944   -0.03   -0.001063320740878637
0.0003337992141409409   -0.02788451584173781   -0.0010604074135607251
-0.0006515516729575473   -0.027960047510903998   -0.0009058403801768176
-0.0017367639213305669   -0.03   -0.0009489471790360407
0.000541628912238046   -0.027837909972223344   -0.000933935358087123
-0.0005610306429091995   -0.02795641122129951   -0.000832304779271219
-0.0017367639213305669   -0.03   -0.0009489471790360407
-0.0013277938107395617   -0.03   -0.0009772517584309003
0.000541628912238046   -0.027837909972223344   -0.000933935358087123
-0.0011235023061789062   -0.03   -0.0008185290345398929
-0.0005610306429091995   -0.02795641122129951   -0.000832304779271219
0.0007048396630294328   -0.027828607285237502   -0.0008150090488495125
-0.0011235023061789062   -0.03   -0.0008185290345398929
0.000541628912238046   -0.027837909972223344   -0.000933935358087123
-0.0005610306429091995   -0.02795641122129951   -0.000832304779271219
-0.0011235023061789062   -0.03   -0.0008185290345398929
-0.0016144188701633128   -0.03   -0.0008332263441512557
-0.0017367639213305669   -0.03   -0.0009489471790360407
-0.0005610306429091995   -0.02795641122129951   -0.000832304779271219
-0.0011235023061789062   -0.03   -0.0008185290345398929
-0.0017367639213305669   -0.03   -0.0009489471790360407
0.000541628912238046   -0.027837909972223344   -0.000933935358087123
-0.0005610306429091995   -0.02795641122129951   -0.000832304779271219
-0.0016144188701633128   -0.03   -0.0008332263441512557
0.0007048396630294328   -0.027828607285237502   -0.0008150090488495125
-0.000494149142049925   -0.02797441975475881   -0.000765377589029329
-0.0016144188701633128   -0.03   -0.0008332263441512557
-0.0011235023061789062   -0.03   -0.0008185290345398929
0.0007048396630294328   -0.027828607285237502   -0.0008150090488495125
-0.0008712276998314116   -0.03   -0.0006537332768066587
-0.000494149142049925   -0.02797441975475881   -0.000765377589029329
0.0008749819976285391   -0.027837110164277062   -0.000706183141311384
-0.0008712276998314116   -0.03   -0.0006537332768066587
0.0007048396630294328   -0.027828607285237502   -0.0008150090488495125
-0.000494149142049925   -0.02797441975475881   -0.000765377589029329
-0.0008712276998314116   -0.03   -0.0006537332768066587
-0.0014951596573020962   -0.03   -0.0007190584349294111
-0.0016144188701633128   -0.03   -0.0008332263441512557
-0.000494149142049925   -0.02797441975475881   -0.000765377589029329
-0.0008712276998314116   -0.03   -0.0006537332768066587
-0.0016144188701633128   -0.03   -0.0008332263441512557
0.0007048396630294328   -0.027828607285237502   -0.0008150090488495125
-0.0035917444739473644   -0.02932999008762586   -0.000750181010590532
-0.0021757865678374835   -0.029427618571628716   -0.0006424970604950063
-0.003027730954533423   -0.02947495178834756   -0.0008366972741879359
-0.0034312360249104746   -0.029298148947252918   -0.000842099935377023
-0.0021757865678374835   -0.029427618571628716   -0.0006424970604950063
-0.002294904672546216   -0.029540167261098888   -0.0007539522975606415
-0.003027730954533423   -0.02947495178834756   -0.0008366972741879359
-0.0022381828627411906   -0.029501543671329206   -0.0007951899582643409
-0.0034312360249104746   -0.029298148947252918   -0.000842099935377023
-0.0029529445156358672   -0.029446739907583352   -0.0008671345112190523
-0.0022381828627411906   -0.029501543671329206   -0.0007951899582643409
-0.003027730954533423   -0.02947495178834756   -0.0008366972741879359
-0.0034312360249104746   -0.029298148947252918   -0.000842099935377023
-0.0022381828627411906   -0.029501543671329206   -0.0007951899582643409
-0.0020299075393680546   -0.029377958373153438   -0.0007391342836933077
-0.0021757865678374835   -0.029427618571628716   -0.0006424970604950063
-0.0034312360249104746   -0.029298148947252918   -0.000842099935377023
-0.0022381828627411906   -0.029501543671329206   -0.0007951899582643409
-0.0021757865678374835   -0.029427618571628716   -0.0006424970604950063
-0.003027730954533423   -0.02947495178834756   -0.0008366972741879359
-0.0034312360249104746   -0.029298148947252918   -0.000842099935377023
-0.0020299075393680546   -0.029377958373153438   -0.0007391342836933077
-0.0029529445156358672   -0.029446739907583352   -0.0008671345112190523
-0.0032928014204464534   -0.029301519097448266   -0.0009337155129396613
-0.0020299075393680546   -0.029377958373153438   -0.0007391342836933077
-0.0022381828627411906   -0.029501543671329206   -0.0007951899582643409
-0.0029529445156358672   -0.029446739907583352   -0.0008671345112190523
-0.0021715167651468327   -0.029487867243493497   -0.0008333285568355793
-0.0032928014204464534   -0.029301519097448266   -0.0009337155129396613
-0.0028699018740102277   -0.02944870878657036   -0.0008978902130412758
-0.0021715167651468327   -0.029487867243493497   -0.0008333285568355793
-0.0029529445156358672   -0.029446739907583352   -0.0008671345112190523
-0.0032928014204464534   -0.029301519097448266   -0.0009337155129396613
-0.0021715167651468327   -0.029487867243493497   -0.0008333285568355793
-0.0019085262082616443   -0.02936333049987212   -0.000831930958754319
-0.0020299075393680546   -0.029377958373153438   -0.0007391342836933077
-0.0032928014204464534   -0.029301519097448266   -0.0009337155129396613
-0.0021715167651468327   -0.029487867243493497   -0.0008333285568355793
-0.0020299075393680546   -0.029377958373153438   -0.0007391342836933077
-0.0029529445156358672   -0.029446739907583352   -0.0008671345112190523
-0.0032928014204464534   -0.029301519097448266   -0.0009337155129396613
-0.0019085262082616443   -0.02936333049987212   -0.000831930958754319
-0.0028699018740102277   -0.02944870878657036   -0.0008978902130412758
-0.003128432669342544   -0.029342184280488244   -0.0010272883569829654
-0.0019085262082616443   -0.02936333049987212   -0.000831930958754319
-0.0021715167651468327   -0.029487867243493497   -0.0008333285568355793
-0.0028699018740102277   -0.02944870878657036   -0.0008978902130412758
-0.002114488029364974   -0.029499362086533615   -0.0008681783865208951
-0.003128432669342544   -0.029342184280488244   -0.0010272883569829654
-0.002792874492280568   -0.029481025478438526   -0.000929091800603121
-0.002114488029364974   -0.029499362086533615   -0.0008681783865208951
-0.0028699018740102277   -0.02944870878657036   -0.0008978902130412758
-0.003128432669342544   -0.029342184280488244   -0.0010272883569829654
-0.002114488029364974   -0.029499362086533615   -0.0008681783865208951
-0.0017708892289928645   -0.02937764192966971   -0.0009204948620816058
-0.0019085262082616443   -0.02936333049987212   -0.000831930958754319
-0.003128432669342544   -0.029342184280488244   -0.0010272883569829654
-0.002114488029364974   -0.029499362086533615   -0.0008681783865208951
-0.0019085262082616443   -0.02936333049987212   -0.000831930958754319
-0.0028699018740102277   -0.02944870878657036   -0.0008978902130412758
-0.003027730954533423   -0.02947495178834756   -0.0008366972741879359
-0.002294904672546216   -0.029540167261098888   -0.0007539522975606415
-0.0026124180688890304   -0.029618336648175564   -0.0009130140434257206
-0.0029529445156358672   -0.029446739907583352   -0.0008671345112190523
-0.002294904672546216   -0.029540167261098888   -0.0007539522975606415
-0.0024614737159110193   -0.02960879046334103   -0.0008429218956547875
-0.0026124180688890304   -0.029618336648175564   -0.0009130140434257206
-0.0024113583100438415   -0.029574260689629057   -0.0008438661810126893
-0.0029529445156358672   -0.029446739907583352   -0.0008671345112190523
-0.002533721205297011   -0.02958927876820907   -0.0008922957439244036
-0.0024113583100438415   -0.029574260689629057   -0.0008438661810126893
-0.0026124180688890304   -0.029618336648175564   -0.0009130140434257206
-0.0029529445156358672   -0.029446739907583352   -0.0008671345112190523
-0.0024113583100438415   -0.029574260689629057   -0.0008438661810126893
-0.0022381828627411906   -0.029501543671329206   -0.0007951899582643409
-0.002294904672546216   -0.029540167261098888   -0.0007539522975606415
-0.0029529445156358672   -0.029446739907583352   -0.0008671345112190523
-0.0024113583100438415   -0.029574260689629057   -0.0008438661810126893
-0.002294904672546216   -0.029540167261098888   -0.0007539522975606415
-0.0026124180688890304   -0.029618336648175564   -0.0009130140434257206
-0.0029529445156358672   -0.029446739907583352   -0.0008671345112190523
-0.0022381828627411906   -0.029501543671329206   -0.0007951899582643409
-0.002533721205297011   -0.02958927876820907   -0.0008922957439244036
-0.0028699018740102277   -0.02944870878657036   -0.0008978902130412758
-0.0022381828627411906   -0.029501543671329206   -0.0007951899582643409
-0.0024113583100438415   -0.029574260689629057   -0.0008438661810126893
-0.002533721205297011   -0.02958927876820907   -0.0008922957439244036
-0.002355611891328428   -0.029562319002311283   -0.000840793861248913
-0.0028699018740102277   -0.02944870878657036   -0.0008978902130412758
-0.002457536255448783   -0.029589185546917866   -0.0008713344747830943
-0.002355611891328428   -0.029562319002311283   -0.000840793861248913
-0.002533721205297011   -0.02958927876820907   -0.0008922957439244036
-0.0028699018740102277   -0.02944870878657036   -0.0008978902130412758
-0.002355611891328428   -0.029562319002311283   -0.000840793861248913
-0.0021715167651468327   -0.029487867243493497   -0.0008333285568355793
-0.0022381828627411906   -0.029501543671329206   -0.0007951899582643409
-0.0028699018740102277   -0.02944870878657036   -0.0008978902130412758
-0.002355611891328428   -0.029562319002311283   -0.000840793861248913
-0.0022381828627411906   -0.029501543671329206   -0.0007951899582643409
-0.002533721205297011   -0.02958927876820907   -0.0008922957439244036
-0.0028699018740102277   -0.02944870878657036   -0.0008978902130412758
-0.0021715167651468327   -0.029487867243493497   -0.0008333285568355793
-0.002457536255448783   -0.029589185546917866   -0.0008713344747830943
-0.002792874492280568   -0.029481025478438526   -0.000929091800603121
-0.0021715167651468327   -0.029487867243493497   -0.0008333285568355793
-0.002355611891328428   -0.029562319002311283   -0.000840793861248913
-0.002457536255448783   -0.029589185546917866   -0.0008713344747830943
-0.0022989737454987254   -0.02957198259092223   -0.0008345675599779311
-0.002792874492280568   -0.029481025478438526   -0.000929091800603121
-0.0023781856086008955   -0.029617478928284396   -0.0008512369316008236
-0.0022989737454987254   -0.02957198259092223   -0.0008345675599779311
-0.002457536255448783   -0.029589185546917866   -0.0008713344747830943
-0.002792874492280568   -0.029481025478438526   -0.000929091800603121
-0.0022989737454987254   -0.02957198259092223   -0.0008345675599779311
-0.002114488029364974   -0.029499362086533615   -0.0008681783865208951
-0.0021715167651468327   -0.029487867243493497   -0.0008333285568355793
-0.002792874492280568   -0.029481025478438526   -0.000929091800603121
-0.0022989737454987254   -0.02957198259092223   -0.0008345675599779311
-0.0021715167651468327   -0.029487867243493497   -0.0008333285568355793
-0.002457536255448783   -0.029589185546917866   -0.0008713344747830943
-0.0026124180688890304   -0.029618336648175564   -0.0009130140434257206
-0.0024614737159110193   -0.02960879046334103   -0.0008429218956547875
-0.0022323362544517723   -0.029789143734377698   -0.0009973578692267164
-0.002533721205297011   -0.02958927876820907   -0.0008922957439244036
-0.0024614737159110193   -0.02960879046334103   -0.0008429218956547875
-0.0026407318032679547   -0.029636152137857856   -0.0009306426438841175
-0.0022323362544517723   -0.029789143734377698   -0.0009973578692267164
-0.0025888122155796186   -0.029603105642083006   -0.0008928292242873027
-0.002533721205297011   -0.02958927876820907   -0.0008922957439244036
-0.0021359975226852316   -0.029763694691488245   -0.0009226595338514111
-0.0025888122155796186   -0.029603105642083006   -0.0008928292242873027
-0.0022323362544517723   -0.029789143734377698   -0.0009973578692267164
-0.002533721205297011   -0.02958927876820907   -0.0008922957439244036
-0.0025888122155796186   -0.029603105642083006   -0.0008928292242873027
-0.0024113583100438415   -0.029574260689629057   -0.0008438661810126893
-0.0024614737159110193   -0.02960879046334103   -0.0008429218956547875
-0.002533721205297011   -0.02958927876820907   -0.0008922957439244036
-0.0025888122155796186   -0.029603105642083006   -0.0008928292242873027
-0.0024614737159110193   -0.02960879046334103   -0.0008429218956547875
-0.0022323362544517723   -0.029789143734377698   -0.0009973578692267164
-0.002533721205297011   -0.02958927876820907   -0.0008922957439244036
-0.0024113583100438415   -0.029574260689629057   -0.0008438661810126893
-0.0021359975226852316   -0.029763694691488245   -0.0009226595338514111
-0.002457536255448783   -0.029589185546917866   -0.0008713344747830943
-0.0024113583100438415   -0.029574260689629057   -0.0008438661810126893
-0.0025888122155796186   -0.029603105642083006   -0.0008928292242873027
-0.0021359975226852316   -0.029763694691488245   -0.0009226595338514111
-0.00252663875343242   -0.029593003813143268   -0.0008501205121949138
-0.002457536255448783   -0.029589185546917866   -0.0008713344747830943
-0.002046580529290718   -0.029762582102576707   -0.0008481236022303061
-0.00252663875343242   -0.029593003813143268   -0.0008501205121949138
-0.0021359975226852316   -0.029763694691488245   -0.0009226595338514111
-0.002457536255448783   -0.029589185546917866   -0.0008713344747830943
-0.00252663875343242   -0.029593003813143268   -0.0008501205121949138
-0.002355611891328428   -0.029562319002311283   -0.000840793861248913
-0.0024113583100438415   -0.029574260689629057   -0.0008438661810126893
-0.002457536255448783   -0.029589185546917866   -0.0008713344747830943
-0.00252663875343242   -0.029593003813143268   -0.0008501205121949138
-0.0024113583100438415   -0.029574260689629057   -0.0008438661810126893
-0.0021359975226852316   -0.029763694691488245   -0.0009226595338514111
-0.002457536255448783   -0.029589185546917866   -0.0008713344747830943
-0.002355611891328428   -0.029562319002311283   -0.000840793861248913
-0.002046580529290718   -0.029762582102576707   -0.0008481236022303061
-0.0023781856086008955   -0.029617478928284396   -0.0008512369316008236
-0.002355611891328428   -0.029562319002311283   -0.000840793861248913
-0.00252663875343242   -0.029593003813143268   -0.0008501205121949138
-0.002046580529290718   -0.029762582102576707   -0.0008481236022303061
-0.0024627639705846176   -0.02960236364430827   -0.0008046921403268971
-0.0023781856086008955   -0.029617478928284396   -0.0008512369316008236
-0.0019507755907559679   -0.029784557018242192   -0.0007735744593930235
-0.0024627639705846176   -0.02960236364430827   -0.0008046921403268971
-0.002046580529290718   -0.029762582102576707   -0.0008481236022303061
-0.0023781856086008955   -0.029617478928284396   -0.0008512369316008236
-0.0024627639705846176   -0.02960236364430827   -0.0008046921403268971
-0.0022989737454987254   -0.02957198259092223   -0.0008345675599779311
-0.002355611891328428   -0.029562319002311283   -0.000840793861248913
-0.0023781856086008955   -0.029617478928284396   -0.0008512369316008236
-0.0024627639705846176   -0.02960236364430827   -0.0008046921403268971
-0.002355611891328428   -0.029562319002311283   -0.000840793861248913
-0.002046580529290718   -0.029762582102576707   -0.0008481236022303061
-0.0022323362544517723   -0.029789143734377698   -0.0009973578692267164
-0.0026407318032679547   -0.029636152137857856   -0.0009306426438841175
-0.0018582636036533944   -0.03   -0.001063320740878637
-0.0021359975226852316   -0.029763694691488245   -0.0009226595338514111
-0.0026407318032679547   -0.029636152137857856   -0.0009306426438841175
-0.0029008005787068965   -0.029602457496967365   -0.0010143886774758816
-0.0018582636036533944   -0.03   -0.001063320740878637
-0.0028330298962819874   -0.029571034748240705   -0.0009395820235505745
-0.0021359975226852316   -0.029763694691488245   -0.0009226595338514111
-0.0017367639213305669   -0.03   -0.0009489471790360407
-0.0028330298962819874   -0.029571034748240705   -0.0009395820235505745
-0.0018582636036533944   -0.03   -0.001063320740878637
-0.0021359975226852316   -0.029763694691488245   -0.0009226595338514111
-0.0028330298962819874   -0.029571034748240705   -0.0009395820235505745
-0.0025888122155796186   -0.029603105642083006   -0.0008928292242873027
-0.0026407318032679547   -0.029636152137857856   -0.0009306426438841175
-0.0021359975226852316   -0.029763694691488245   -0.0009226595338514111
-0.0028330298962819874   -0.029571034748240705   -0.0009395820235505745
-0.0026407318032679547   -0.029636152137857856   -0.0009306426438841175
-0.0018582636036533944   -0.03   -0.001063320740878637
-0.0021359975226852316   -0.029763694691488245   -0.0009226595338514111
-0.0025888122155796186   -0.029603105642083006   -0.0008928292242873027
-0.0017367639213305669   -0.03   -0.0009489471790360407
-0.002046580529290718   -0.029762582102576707   -0.0008481236022303061
-0.0025888122155796186   -0.029603105642083006   -0.0008928292242873027
-0.0028330298962819874   -0.029571034748240705   -0.0009395820235505745
-0.0017367639213305669   -0.03   -0.0009489471790360407
-0.0027433633649844103   -0.029564195274072273   -0.0008592865427242973
-0.002046580529290718   -0.029762582102576707   -0.0008481236022303061
-0.0016144188701633128   -0.03   -0.0008332263441512557
-0.0027433633649844103   -0.029564195274072273   -0.0008592865427242973
-0.0017367639213305669   -0.03   -0.0009489471790360407
-0.002046580529290718   -0.029762582102576707   -0.0008481236022303061
-0.0027433633649844103   -0.029564195274072273   -0.0008592865427242973
-0.00252663875343242   -0.029593003813143268   -0.0008501205121949138
-0.0025888122155796186   -0.029603105642083006   -0.0008928292242873027
-0.002046580529290718   -0.029762582102576707   -0.0008481236022303061
-0.0027433633649844103   -0.029564195274072273   -0.0008592865427242973
-0.0025888122155796186   -0.029603105642083006   -0.0008928292242873027
-0.0017367639213305669   -0.03   -0.0009489471790360407
-0.002046580529290718   -0.029762582102576707   -0.0008481236022303061
-0.00252663875343242   -0.029593003813143268   -0.0008501205121949138
-0.0016144188701633128   -0.03   -0.0008332263441512557
-0.0019507755907559679   -0.029784557018242192   -0.0007735744593930235
-0.00252663875343242   -0.029593003813143268   -0.0008501205121949138
-0.0027433633649844103   -0.029564195274072273   -0.0008592865427242973
-0.0016144188701633128   -0.03   -0.0008332263441512557
-0.002659394446263676   -0.029577283779485413   -0.0007759742696565239
-0.0019507755907559679   -0.029784557018242192   -0.0007735744593930235
-0.0014951596573020962   -0.03   -0.0007190584349294111
-0.002659394446263676   -0.029577283779485413   -0.0007759742696565239
-0.0016144188701633128   -0.03   -0.0008332263441512557
-0.0019507755907559679   -0.029784557018242192   -0.0007735744593930235
-0.002659394446263676   -0.029577283779485413   -0.0007759742696565239
-0.0024627639705846176   -0.02960236364430827   -0.0008046921403268971
-0.00252663875343242   -0.029593003813143268   -0.0008501205121949138
-0.0019507755907559679   -0.029784557018242192   -0.0007735744593930235
-0.002659394446263676   -0.029577283779485413   -0.0007759742696565239
-0.00252663875343242   -0.029593003813143268   -0.0008501205121949138
-0.0016144188701633128   -0.03   -0.0008332263441512557
-0.0018582636036533944   -0.03   -0.001063320740878637
-0.0029008005787068965   -0.029602457496967365   -0.0010143886774758816
-0.0015839908634322033   -0.03   -0.001143199863722178
-0.0017367639213305669   -0.03   -0.0009489471790360407
-0.0029008005787068965   -0.029602457496967365   -0.0010143886774758816
-0.0034118076193903057   -0.02945808576961362   -0.0011039564122673638
-0.0015839908634322033   -0.03   -0.001143199863722178
-0.0032290458761007586   -0.02943121758058231   -0.0009812795646351436
-0.0017367639213305669   -0.03   -0.0009489471790360407
-0.0013277938107395617   -0.03   -0.0009772517584309003
-0.0032290458761007586   -0.02943121758058231   -0.0009812795646351436
-0.0015839908634322033   -0.03   -0.001143199863722178
-0.0017367639213305669   -0.03   -0.0009489471790360407
-0.0032290458761007586   -0.02943121758058231   -0.0009812795646351436
-0.0028330298962819874   -0.029571034748240705   -0.0009395820235505745
-0.0029008005787068965   -0.029602457496967365   -0.0010143886774758816
-0.0017367639213305669   -0.03   -0.0009489471790360407
-0.0032290458761007586   -0.02943121758058231   -0.0009812795646351436
-0.0029008005787068965   -0.029602457496967365   -0.0010143886774758816
-0.0015839908634322033   -0.03   -0.001143199863722178
-0.0017367639213305669   -0.03   -0.0009489471790360407
-0.0028330298962819874   -0.029571034748240705   -0.0009395820235505745
-0.0013277938107395617   -0.03   -0.0009772517584309003
-0.0016144188701633128   -0.03   -0.0008332263441512557
-0.0028330298962819874   -0.029571034748240705   -0.0009395820235505745
-0.0032290458761007586   -0.02943121758058231   -0.0009812795646351436
-0.0013277938107395617   -0.03   -0.0009772517584309003
-0.003061657295398578   -0.029427787190786522   -0.0008505795380185259
-0.0016144188701633128   -0.03   -0.0008332263441512557
-0.0011235023061789062   -0.03   -0.0008185290345398929
-0.003061657295398578   -0.029427787190786522   -0.0008505795380185259
-0.0013277938107395617   -0.03   -0.0009772517584309003
-0.0016144188701633128   -0.03   -0.0008332263441512557
-0.003061657295398578   -0.029427787190786522   -0.0008505795380185259
-0.0027433633649844103   -0.029564195274072273   -0.0008592865427242973
-0.0028330298962819874   -0.029571034748240705   -0.0009395820235505745
-0.0016144188701633128   -0.03   -0.0008332263441512557
-0.003061657295398578   -0.029427787190786522   -0.0008505795380185259
-0.0028330298962819874   -0.029571034748240705   -0.0009395820235505745
-0.0013277938107395617   -0.03   -0.0009772517584309003
-0.0016144188701633128   -0.03   -0.0008332263441512557
-0.0027433633649844103   -0.029564195274072273   -0.0008592865427242973
-0.0011235023061789062   -0.03   -0.0008185290345398929
-0.0014951596573020962   -0.03   -0.0007190584349294111
-0.0027433633649844103   -0.029564195274072273   -0.0008592865427242973
-0.003061657295398578   -0.029427787190786522   -0.0008505795380185259
-0.0011235023061789062   -0.03   -0.0008185290345398929
-0.002850164480028732   -0.02946294477318085   -0.0007140965661782159
-0.0014951596573020962   -0.03   -0.0007190584349294111
-0.0008712276998314116   -0.03   -0.0006537332768066587
-0.002850164480028732   -0.02946294477318085   -0.0007140965661782159
-0.0011235023061789062   -0.03   -0.0008185290345398929
-0.0014951596573020962   -0.03   -0.0007190584349294111
-0.002850164480028732   -0.02946294477318085   -0.0007140965661782159
-0.002659394446263676   -0.029577283779485413   -0.0007759742696565239
-0.0027433633649844103   -0.029564195274072273   -0.0008592865427242973
-0.0014951596573020962   -0.03   -0.0007190584349294111
-0.002850164480028732   -0.02946294477318085   -0.0007140965661782159
-0.0027433633649844103   -0.029564195274072273   -0.0008592865427242973
-0.0011235023061789062   -0.03   -0.0008185290345398929
-0.0021757865678374835   -0.029427618571628716   -0.0006424970604950063
-0.0009242406978406347   -0.028345923346401194   -0.0005540892068677458
-0.002294904672546216   -0.029540167261098888   -0.0007539522975606415
-0.0020299075393680546   -0.029377958373153438   -0.0007391342836933077
-0.0009242406978406347   -0.028345923346401194   -0.0005540892068677458
-0.0016632036127284039   -0.02843150103878176   -0.0006726511222102916
-0.002294904672546216   -0.029540167261098888   -0.0007539522975606415
-0.0016227941783757745   -0.028384719650980064   -0.0007095756741475217
-0.0020299075393680546   -0.029377958373153438   -0.0007391342836933077
-0.0022381828627411906   -0.029501543671329206   -0.0007951899582643409
-0.0016227941783757745   -0.028384719650980064   -0.0007095756741475217
-0.002294904672546216   -0.029540167261098888   -0.0007539522975606415
-0.0020299075393680546   -0.029377958373153438   -0.0007391342836933077
-0.0016227941783757745   -0.028384719650980064   -0.0007095756741475217
-0.0008073283857330631   -0.028287912762132952   -0.0006380427479486542
-0.0009242406978406347   -0.028345923346401194   -0.0005540892068677458
-0.0020299075393680546   -0.029377958373153438   -0.0007391342836933077
-0.0016227941783757745   -0.028384719650980064   -0.0007095756741475217
-0.0009242406978406347   -0.028345923346401194   -0.0005540892068677458
-0.002294904672546216   -0.029540167261098888   -0.0007539522975606415
-0.0020299075393680546   -0.029377958373153438   -0.0007391342836933077
-0.0008073283857330631   -0.028287912762132952   -0.0006380427479486542
-0.0022381828627411906   -0.029501543671329206   -0.0007951899582643409
-0.0019085262082616443   -0.02936333049987212   -0.000831930958754319
-0.0008073283857330631   -0.028287912762132952   -0.0006380427479486542
-0.0016227941783757745   -0.028384719650980064   -0.0007095756741475217
-0.0022381828627411906   -0.029501543671329206   -0.0007951899582643409
-0.0015771405771349372   -0.02835939485811362   -0.0007432577193514009
-0.0019085262082616443   -0.02936333049987212   -0.000831930958754319
-0.0021715167651468327   -0.029487867243493497   -0.0008333285568355793
-0.0015771405771349372   -0.02835939485811362   -0.0007432577193514009
-0.0022381828627411906   -0.029501543671329206   -0.0007951899582643409
-0.0019085262082616443   -0.02936333049987212   -0.000831930958754319
-0.0015771405771349372   -0.02835939485811362   -0.0007432577193514009
-0.0007153163316568864   -0.028260963461269783   -0.0007171952267489844
-0.0008073283857330631   -0.028287912762132952   -0.0006380427479486542
-0.0019085262082616443   -0.02936333049987212   -0.000831930958754319
-0.0015771405771349372   -0.02835939485811362   -0.0007432577193514009
-0.0008073283857330631   -0.028287912762132952   -0.0006380427479486542
-0.0022381828627411906   -0.029501543671329206   -0.0007951899582643409
-0.0019085262082616443   -0.02936333049987212   -0.000831930958754319
-0.0007153163316568864   -0.028260963461269783   -0.0007171952267489844
-0.0021715167651468327   -0.029487867243493497   -0.0008333285568355793
-0.0017708892289928645   -0.02937764192966971   -0.0009204948620816058
-0.0007153163316568864   -0.028260963461269783   -0.0007171952267489844
-0.0015771405771349372   -0.02835939485811362   -0.0007432577193514009
-0.0021715167651468327   -0.029487867243493497   -0.0008333285568355793
-0.001542184812394242   -0.028354811635953662   -0.0007738062841190997
-0.0017708892289928645   -0.02937764192966971   -0.0009204948620816058
-0.002114488029364974   -0.029499362086533615   -0.0008681783865208951
-0.001542184812394242   -0.028354811635953662   -0.0007738062841190997
-0.0021715167651468327   -0.029487867243493497   -0.0008333285568355793
-0.0017708892289928645   -0.02937764192966971   -0.0009204948620816058
-0.001542184812394242   -0.028354811635953662   -0.0007738062841190997
-0.0006144659441562594   -0.028257201015071936   -0.0007913505863099509
-0.0007153163316568864   -0.028260963461269783   -0.0007171952267489844
-0.0017708892289928645   -0.02937764192966971   -0.0009204948620816058
-0.001542184812394242   -0.028354811635953662   -0.0007738062841190997
-0.0007153163316568864   -0.028260963461269783   -0.0007171952267489844
-0.0021715167651468327   -0.029487867243493497   -0.0008333285568355793
-0.002294904672546216   -0.029540167261098888   -0.0007539522975606415
-0.0016632036127284039   -0.02843150103878176   -0.0006726511222102916
-0.0024614737159110193   -0.02960879046334103   -0.0008429218956547875
-0.0022381828627411906   -0.029501543671329206   -0.0007951899582643409
-0.0016632036127284039   -0.02843150103878176   -0.0006726511222102916
-0.0023953137620771536   -0.028461454688812678   -0.000769099137442287
-0.0024614737159110193   -0.02960879046334103   -0.0008429218956547875
-0.002361439186458939   -0.028420664002695675   -0.0007709881712547515
-0.0022381828627411906   -0.029501543671329206   -0.0007951899582643409
-0.0024113583100438415   -0.029574260689629057   -0.0008438661810126893
-0.002361439186458939   -0.028420664002695675   -0.0007709881712547515
-0.0024614737159110193   -0.02960879046334103   -0.0008429218956547875
-0.0022381828627411906   -0.029501543671329206   -0.0007951899582643409
-0.002361439186458939   -0.028420664002695675   -0.0007709881712547515
-0.0016227941783757745   -0.028384719650980064   -0.0007095756741475217
-0.0016632036127284039   -0.02843150103878176   -0.0006726511222102916
-0.0022381828627411906   -0.029501543671329206   -0.0007951899582643409
-0.002361439186458939   -0.028420664002695675   -0.0007709881712547515
-0.0016632036127284039   -0.02843150103878176   -0.0006726511222102916
-0.0024614737159110193   -0.02960879046334103   -0.0008429218956547875
-0.0022381828627411906   -0.029501543671329206   -0.0007951899582643409
-0.0016227941783757745   -0.028384719650980064   -0.0007095756741475217
-0.0024113583100438415   -0.029574260689629057   -0.0008438661810126893
-0.0021715167651468327   -0.029487867243493497   -0.0008333285568355793
-0.0016227941783757745   -0.028384719650980064   -0.0007095756741475217
-0.002361439186458939   -0.028420664002695675   -0.0007709881712547515
-0.0024113583100438415   -0.029574260689629057   -0.0008438661810126893
-0.002326385583779609   -0.028399207589847535   -0.0007698719151909848
-0.0021715167651468327   -0.029487867243493497   -0.0008333285568355793
-0.002355611891328428   -0.029562319002311283   -0.000840793861248913
-0.002326385583779609   -0.028399207589847535   -0.0007698719151909848
-0.0024113583100438415   -0.029574260689629057   -0.0008438661810126893
-0.0021715167651468327   -0.029487867243493497   -0.0008333285568355793
-0.002326385583779609   -0.028399207589847535   -0.0007698719151909848
-0.0015771405771349372   -0.02835939485811362   -0.0007432577193514009
-0.0016227941783757745   -0.028384719650980064   -0.0007095756741475217
-0.0021715167651468327   -0.029487867243493497   -0.0008333285568355793
-0.002326385583779609   -0.028399207589847535   -0.0007698719151909848
-0.0016227941783757745   -0.028384719650980064   -0.0007095756741475217
-0.0024113583100438415   -0.029574260689629057   -0.0008438661810126893
-0.0021715167651468327   -0.029487867243493497   -0.0008333285568355793
-0.0015771405771349372   -0.02835939485811362   -0.0007432577193514009
-0.002355611891328428   -0.029562319002311283   -0.000840793861248913
-0.002114488029364974   -0.029499362086533615   -0.0008681783865208951
-0.0015771405771349372   -0.02835939485811362   -0.0007432577193514009
-0.002326385583779609   -0.028399207589847535   -0.0007698719151909848
-0.002355611891328428   -0.029562319002311283   -0.000840793861248913
-0.002292602078193278   -0.028396194270202586   -0.0007657329497119738
-0.002114488029364974   -0.029499362086533615   -0.0008681783865208951
-0.0022989737454987254   -0.02957198259092223   -0.0008345675599779311
-0.002292602078193278   -0.028396194270202586   -0.0007657329497119738
-0.002355611891328428   -0.029562319002311283   -0.000840793861248913
-0.002114488029364974   -0.029499362086533615   -0.0008681783865208951
-0.002292602078193278   -0.028396194270202586   -0.0007657329497119738
-0.001542184812394242   -0.028354811635953662   -0.0007738062841190997
-0.0015771405771349372   -0.02835939485811362   -0.0007432577193514009
-0.002114488029364974   -0.029499362086533615   -0.0008681783865208951
-0.002292602078193278   -0.028396194270202586   -0.0007657329497119738
-0.0015771405771349372   -0.02835939485811362   -0.0007432577193514009
-0.002355611891328428   -0.029562319002311283   -0.000840793861248913
-0.0024614737159110193   -0.02960879046334103   -0.0008429218956547875
-0.0023953137620771536   -0.028461454688812678   -0.000769099137442287
-0.0026407318032679547   -0.029636152137857856   -0.0009306426438841175
-0.0024113583100438415   -0.029574260689629057   -0.0008438661810126893
-0.0023953137620771536   -0.028461454688812678   -0.000769099137442287
-0.0031227563991594516   -0.028434308200200546   -0.0008594298042414343
-0.0026407318032679547   -0.029636152137857856   -0.0009306426438841175
-0.0030891504697273618   -0.028398023160668806   -0.0008277009459602982
-0.0024113583100438415   -0.029574260689629057   -0.0008438661810126893
-0.0025888122155796186   -0.029603105642083006   -0.0008928292242873027
-0.0030891504697273618   -0.028398023160668806   -0.0008277009459602982
-0.0026407318032679547   -0.029636152137857856   -0.0009306426438841175
-0.0024113583100438415   -0.029574260689629057   -0.0008438661810126893
-0.0030891504697273618   -0.028398023160668806   -0.0008277009459602982
-0.002361439186458939   -0.028420664002695675   -0.0007709881712547515
-0.0023953137620771536   -0.028461454688812678   -0.000769099137442287
-0.0024113583100438415   -0.029574260689629057   -0.0008438661810126893
-0.0030891504697273618   -0.028398023160668806   -0.0008277009459602982
-0.0023953137620771536   -0.028461454688812678   -0.000769099137442287
-0.0026407318032679547   -0.029636152137857856   -0.0009306426438841175
-0.0024113583100438415   -0.029574260689629057   -0.0008438661810126893
-0.002361439186458939   -0.028420664002695675   -0.0007709881712547515
-0.0025888122155796186   -0.029603105642083006   -0.0008928292242873027
-0.002355611891328428   -0.029562319002311283   -0.000840793861248913
-0.002361439186458939   -0.028420664002695675   -0.0007709881712547515
-0.0030891504697273618   -0.028398023160668806   -0.0008277009459602982
-0.0025888122155796186   -0.029603105642083006   -0.0008928292242873027
-0.0030514406398129664   -0.02838076034094967   -0.0007930161784874268
-0.002355611891328428   -0.029562319002311283   -0.000840793861248913
-0.00252663875343242   -0.029593003813143268   -0.0008501205121949138
-0.0030514406398129664   -0.02838076034094967   -0.0007930161784874268
-0.0025888122155796186   -0.029603105642083006   -0.0008928292242873027
-0.002355611891328428   -0.029562319002311283   -0.000840793861248913
-0.0030514406398129664   -0.02838076034094967   -0.0007930161784874268
-0.002326385583779609   -0.028399207589847535   -0.0007698719151909848
-0.002361439186458939   -0.028420664002695675   -0.0007709881712547515
-0.002355611891328428   -0.029562319002311283   -0.000840793861248913
-0.0030514406398129664   -0.02838076034094967   -0.0007930161784874268
-0.002361439186458939   -0.028420664002695675   -0.0007709881712547515
-0.0025888122155796186   -0.029603105642083006   -0.0008928292242873027
-0.002355611891328428   -0.029562319002311283   -0.000840793861248913
-0.002326385583779609   -0.028399207589847535   -0.0007698719151909848
-0.00252663875343242   -0.029593003813143268   -0.0008501205121949138
-0.0022989737454987254   -0.02957198259092223   -0.0008345675599779311
-0.002326385583779609   -0.028399207589847535   -0.0007698719151909848
-0.0030514406398129664   -0.02838076034094967   -0.0007930161784874268
-0.00252663875343242   -0.029593003813143268   -0.0008501205121949138
-0.003013627845985776   -0.028380747889561124   -0.0007550162555339009
-0.0022989737454987254   -0.02957198259092223   -0.0008345675599779311
-0.0024627639705846176   -0.02960236364430827   -0.0008046921403268971
-0.003013627845985776   -0.028380747889561124   -0.0007550162555339009
-0.00252663875343242   -0.029593003813143268   -0.0008501205121949138
-0.0022989737454987254   -0.02957198259092223   -0.0008345675599779311
-0.003013627845985776   -0.028380747889561124   -0.0007550162555339009
-0.002292602078193278   -0.028396194270202586   -0.0007657329497119738
-0.002326385583779609   -0.028399207589847535   -0.0007698719151909848
-0.0022989737454987254   -0.02957198259092223   -0.0008345675599779311
-0.003013627845985776   -0.028380747889561124   -0.0007550162555339009
-0.002326385583779609   -0.028399207589847535   -0.0007698719151909848
-0.00252663875343242   -0.029593003813143268   -0.0008501205121949138
-0.0026407318032679547   -0.029636152137857856   -0.0009306426438841175
-0.0031227563991594516   -0.028434308200200546   -0.0008594298042414343
-0.0029008005787068965   -0.029602457496967365   -0.0010143886774758816
-0.0025888122155796186   -0.029603105642083006   -0.0008928292242873027
-0.0031227563991594516   -0.028434308200200546   -0.0008594298042414343
-0.003920888486853993   -0.02834655910542055   -0.0009426096048287932
-0.0029008005787068965   -0.029602457496967365   -0.0010143886774758816
-0.003879601939489819   -0.028314746812766103   -0.0008779549692850674
-0.0025888122155796186   -0.029603105642083006   -0.0008928292242873027
-0.0028330298962819874   -0.029571034748240705   -0.0009395820235505745
-0.003879601939489819   -0.028314746812766103   -0.0008779549692850674
-0.0029008005787068965   -0.029602457496967365   -0.0010143886774758816
-0.0025888122155796186   -0.029603105642083006   -0.0008928292242873027
-0.003879601939489819   -0.028314746812766103   -0.0008779549692850674
-0.0030891504697273618   -0.028398023160668806   -0.0008277009459602982
-0.0031227563991594516   -0.028434308200200546   -0.0008594298042414343
-0.0025888122155796186   -0.029603105642083006   -0.0008928292242873027
-0.003879601939489819   -0.028314746812766103   -0.0008779549692850674
-0.0031227563991594516   -0.028434308200200546   -0.0008594298042414343
-0.0029008005787068965   -0.029602457496967365   -0.0010143886774758816
-0.0025888122155796186   -0.029603105642083006   -0.0008928292242873027
-0.0030891504697273618   -0.028398023160668806   -0.0008277009459602982
-0.0028330298962819874   -0.029571034748240705   -0.0009395820235505745
-0.00252663875343242   -0.029593003813143268   -0.0008501205121949138
-0.0030891504697273618   -0.028398023160668806   -0.0008277009459602982
-0.003879601939489819   -0.028314746812766103   -0.0008779549692850674
-0.0028330298962819874   -0.029571034748240705   -0.0009395820235505745
-0.0038224565489979345   -0.028301661246410446   -0.0008105763355454633
-0.00252663875343242   -0.029593003813143268   -0.0008501205121949138
-0.0027433633649844103   -0.029564195274072273   -0.0008592865427242973
-0.0038224565489979345   -0.028301661246410446   -0.0008105763355454633
-0.0028330298962819874   -0.029571034748240705   -0.0009395820235505745
-0.00252663875343242   -0.029593003813143268   -0.0008501205121949138
-0.0038224565489979345   -0.028301661246410446   -0.0008105763355454633
-0.0030514406398129664   -0.02838076034094967   -0.0007930161784874268
-0.0030891504697273618   -0.028398023160668806   -0.0008277009459602982
-0.00252663875343242   -0.029593003813143268   -0.0008501205121949138
-0.0038224565489979345   -0.028301661246410446   -0.0008105763355454633
-0.0030891504697273618   -0.028398023160668806   -0.0008277009459602982
-0.0028330298962819874   -0.029571034748240705   -0.0009395820235505745
-0.00252663875343242   -0.029593003813143268   -0.0008501205121949138
-0.0030514406398129664   -0.02838076034094967   -0.0007930161784874268
-0.0027433633649844103   -0.029564195274072273   -0.0008592865427242973
-0.0024627639705846176   -0.02960236364430827   -0.0008046921403268971
-0.0030514406398129664   -0.02838076034094967   -0.0007930161784874268
-0.0038224565489979345   -0.028301661246410446   -0.0008105763355454633
-0.0027433633649844103   -0.029564195274072273   -0.0008592865427242973
-0.0037728249462633443   -0.02830731068200818   -0.0007386358514340108
-0.0024627639705846176   -0.02960236364430827   -0.0008046921403268971
-0.002659394446263676   -0.029577283779485413   -0.0007759742696565239
-0.0037728249462633443   -0.02830731068200818   -0.0007386358514340108
-0.0027433633649844103   -0.029564195274072273   -0.0008592865427242973
-0.0024627639705846176   -0.02960236364430827   -0.0008046921403268971
-0.0037728249462633443   -0.02830731068200818   -0.0007386358514340108
-0.003013627845985776   -0.028380747889561124   -0.0007550162555339009
-0.0030514406398129664   -0.02838076034094967   -0.0007930161784874268
-0.0024627639705846176   -0.02960236364430827   -0.0008046921403268971
-0.0037728249462633443   -0.02830731068200818   -0.0007386358514340108
-0.0030514406398129664   -0.02838076034094967   -0.0007930161784874268
-0.0027433633649844103   -0.029564195274072273   -0.0008592865427242973
-0.0029008005787068965   -0.029602457496967365   -0.0010143886774758816
-0.003920888486853993   -0.02834655910542055   -0.0009426096048287932
-0.0034118076193903057   -0.02945808576961362   -0.0011039564122673638
-0.0028330298962819874   -0.029571034748240705   -0.0009395820235505745
-0.003920888486853993   -0.02834655910542055   -0.0009426096048287932
-0.00494846742592316   -0.028203848731002484   -0.0010230745527251208
-0.0034118076193903057   -0.02945808576961362   -0.0011039564122673638
-0.004813356067227548   -0.02816909344201338   -0.0009209288845434283
-0.0028330298962819874   -0.029571034748240705   -0.0009395820235505745
-0.0032290458761007586   -0.02943121758058231   -0.0009812795646351436
-0.004813356067227548   -0.02816909344201338   -0.0009209288845434283
-0.0034118076193903057   -0.02945808576961362   -0.0011039564122673638
-0.0028330298962819874   -0.029571034748240705   -0.0009395820235505745
-0.004813356067227548   -0.02816909344201338   -0.0009209288845434283
-0.003879601939489819   -0.028314746812766103   -0.0008779549692850674
-0.003920888486853993   -0.02834655910542055   -0.0009426096048287932
-0.0028330298962819874   -0.029571034748240705   -0.0009395820235505745
-0.004813356067227548   -0.02816909344201338   -0.0009209288845434283
-0.003920888486853993   -0.02834655910542055   -0.0009426096048287932
-0.0034118076193903057   -0.02945808576961362   -0.0011039564122673638
-0.0028330298962819874   -0.029571034748240705   -0.0009395820235505745
-0.003879601939489819   -0.028314746812766103   -0.0008779549692850674
-0.0032290458761007586   -0.02943121758058231   -0.0009812795646351436
-0.0027433633649844103   -0.029564195274072273   -0.0008592865427242973
-0.003879601939489819   -0.028314746812766103   -0.0008779549692850674
-0.004813356067227548   -0.02816909344201338   -0.0009209288845434283
-0.0032290458761007586   -0.02943121758058231   -0.0009812795646351436
-0.0046926881609718925   -0.028156989803592204   -0.0008130377432599186
-0.0027433633649844103   -0.029564195274072273   -0.0008592865427242973
-0.003061657295398578   -0.029427787190786522   -0.0008505795380185259
-0.0046926881609718925   -0.028156989803592204   -0.0008130377432599186
-0.0032290458761007586   -0.02943121758058231   -0.0009812795646351436
-0.0027433633649844103   -0.029564195274072273   -0.0008592865427242973
-0.0046926881609718925   -0.028156989803592204   -0.0008130377432599186
-0.0038224565489979345   -0.028301661246410446   -0.0008105763355454633
-0.003879601939489819   -0.028314746812766103   -0.0008779549692850674
-0.0027433633649844103   -0.029564195274072273   -0.0008592865427242973
-0.0046926881609718925   -0.028156989803592204   -0.0008130377432599186
-0.003879601939489819   -0.028314746812766103   -0.0008779549692850674
-0.0032290458761007586   -0.02943121758058231   -0.0009812795646351436
-0.0027433633649844103   -0.029564195274072273   -0.0008592865427242973
-0.0038224565489979345   -0.028301661246410446   -0.0008105763355454633
-0.003061657295398578   -0.029427787190786522   -0.0008505795380185259
-0.002659394446263676   -0.029577283779485413   -0.0007759742696565239
-0.0038224565489979345   -0.028301661246410446   -0.0008105763355454633
-0.0046926881609718925   -0.028156989803592204   -0.0008130377432599186
-0.003061657295398578   -0.029427787190786522   -0.0008505795380185259
-0.004536353039561746   -0.028173925593480392   -0.0007004089844738884
-0.002659394446263676   -0.029577283779485413   -0.0007759742696565239
-0.002850164480028732   -0.02946294477318085   -0.0007140965661782159
-0.004536353039561746   -0.028173925593480392   -0.0007004089844738884
-0.003061657295398578   -0.029427787190786522   -0.0008505795380185259
-0.002659394446263676   -0.029577283779485413   -0.0007759742696565239
-0.004536353039561746   -0.028173925593480392   -0.0007004089844738884
-0.0037728249462633443   -0.02830731068200818   -0.0007386358514340108
-0.0038224565489979345   -0.028301661246410446   -0.0008105763355454633
-0.002659394446263676   -0.029577283779485413   -0.0007759742696565239
-0.004536353039561746   -0.028173925593480392   -0.0007004089844738884
-0.0038224565489979345   -0.028301661246410446   -0.0008105763355454633
-0.003061657295398578   -0.029427787190786522   -0.0008505795380185259
-0.0009242406978406347   -0.028345923346401194   -0.0005540892068677458
9.753768216534888e-05   -0.026331400549588796   -0.00045742861663277903
-0.0016632036127284039   -0.02843150103878176   -0.0006726511222102916
-0.0008073283857330631   -0.028287912762132952   -0.0006380427479486542
9.753768216534888e-05   -0.026331400549588796   -0.00045742861663277903
-0.0011583696495199546   -0.02639468049389095   -0.0005739886613533708
-0.0016632036127284039   -0.02843150103878176   -0.0006726511222102916
-0.0011367701332992892   -0.02634561647869378   -0.0006034739731084713
-0.0008073283857330631   -0.028287912762132952   -0.0006380427479486542
-0.0016227941783757745   -0.028384719650980064   -0.0007095756741475217
-0.0011367701332992892   -0.02634561647869378   -0.0006034739731084713
-0.0016632036127284039   -0.02843150103878176   -0.0006726511222102916
-0.0008073283857330631   -0.028287912762132952   -0.0006380427479486542
-0.0011367701332992892   -0.02634561647869378   -0.0006034739731084713
0.00017990621524571616   -0.02627236067197106   -0.0005247538853217332
9.753768216534888e-05   -0.026331400549588796   -0.00045742861663277903
-0.0008073283857330631   -0.028287912762132952   -0.0006380427479486542
-0.0011367701332992892   -0.02634561647869378   -0.0006034739731084713
9.753768216534888e-05   -0.026331400549588796   -0.00045742861663277903
-0.0016632036127284039   -0.02843150103878176   -0.0006726511222102916
-0.0008073283857330631   -0.028287912762132952   -0.0006380427479486542
0.00017990621524571616   -0.02627236067197106   -0.0005247538853217332
-0.0016227941783757745   -0.028384719650980064   -0.0007095756741475217
-0.0007153163316568864   -0.028260963461269783   -0.0007171952267489844
0.00017990621524571616   -0.02627236067197106   -0.0005247538853217332
-0.0011367701332992892   -0.02634561647869378   -0.0006034739731084713
-0.0016227941783757745   -0.028384719650980064   -0.0007095756741475217
-0.0011120481304501915   -0.026314168612529387   -0.0006296156073116546
-0.0007153163316568864   -0.028260963461269783   -0.0007171952267489844
-0.0015771405771349372   -0.02835939485811362   -0.0007432577193514009
-0.0011120481304501915   -0.026314168612529387   -0.0006296156073116546
-0.0016227941783757745   -0.028384719650980064   -0.0007095756741475217
-0.0007153163316568864   -0.028260963461269783   -0.0007171952267489844
-0.0011120481304501915   -0.026314168612529387   -0.0006296156073116546
0.00024057477424793098   -0.026238938955226363   -0.0005873984157190118
0.00017990621524571616   -0.02627236067197106   -0.0005247538853217332
-0.0007153163316568864   -0.028260963461269783   -0.0007171952267489844
-0.0011120481304501915   -0.026314168612529387   -0.0006296156073116546
0.00017990621524571616   -0.02627236067197106   -0.0005247538853217332
-0.0016227941783757745   -0.028384719650980064   -0.0007095756741475217
-0.0007153163316568864   -0.028260963461269783   -0.0007171952267489844
0.00024057477424793098   -0.026238938955226363   -0.0005873984157190118
-0.0015771405771349372   -0.02835939485811362   -0.0007432577193514009
-0.0006144659441562594   -0.028257201015071936   -0.0007913505863099509
0.00024057477424793098   -0.026238938955226363   -0.0005873984157190118
-0.0011120481304501915   -0.026314168612529387   -0.0006296156073116546
-0.0015771405771349372   -0.02835939485811362   -0.0007432577193514009
-0.0010972525716215452   -0.026299385486346492   -0.0006527445619439575
-0.0006144659441562594   -0.028257201015071936   -0.0007913505863099509
-0.001542184812394242   -0.028354811635953662   -0.0007738062841190997
-0.0010972525716215452   -0.026299385486346492   -0.0006527445619439575
-0.0015771405771349372   -0.02835939485811362   -0.0007432577193514009
-0.0006144659441562594   -0.028257201015071936   -0.0007913505863099509
-0.0010972525716215452   -0.026299385486346492   -0.0006527445619439575
0.00030586663373264857   -0.026223512149713413   -0.0006453449947974613
0.00024057477424793098   -0.026238938955226363   -0.0005873984157190118
-0.0006144659441562594   -0.028257201015071936   -0.0007913505863099509
-0.0010972525716215452   -0.026299385486346492   -0.0006527445619439575
0.00024057477424793098   -0.026238938955226363   -0.0005873984157190118
-0.0015771405771349372   -0.02835939485811362   -0.0007432577193514009
-0.0016632036127284039   -0.02843150103878176   -0.0006726511222102916
-0.0011583696495199546   -0.02639468049389095   -0.0005739886613533708
-0.0023953137620771536   -0.028461454688812678   -0.000769099137442287
-0.0016227941783757745   -0.028384719650980064   -0.0007095756741475217
-0.0011583696495199546   -0.02639468049389095   -0.0005739886613533708
-0.0023757620429061205   -0.026406844854537266   -0.0006696569300442695
-0.0023953137620771536   -0.028461454688812678   -0.000769099137442287
-0.002359976335755608   -0.02636481591312593   -0.0006703093531032358
-0.0016227941783757745   -0.028384719650980064   -0.0007095756741475217
-0.002361439186458939   -0.028420664002695675   -0.0007709881712547515
-0.002359976335755608   -0.02636481591312593   -0.0006703093531032358
-0.0023953137620771536   -0.028461454688812678   -0.000769099137442287
-0.0016227941783757745   -0.028384719650980064   -0.0007095756741475217
-0.002359976335755608   -0.02636481591312593   -0.0006703093531032358
-0.0011367701332992892   -0.02634561647869378   -0.0006034739731084713
-0.0011583696495199546   -0.02639468049389095   -0.0005739886613533708
-0.0016227941783757745   -0.028384719650980064   -0.0007095756741475217
-0.002359976335755608   -0.02636481591312593   -0.0006703093531032358
-0.0011583696495199546   -0.02639468049389095   -0.0005739886613533708
-0.0023953137620771536   -0.028461454688812678   -0.000769099137442287
-0.0016227941783757745   -0.028384719650980064   -0.0007095756741475217
-0.0011367701332992892   -0.02634561647869378   -0.0006034739731084713
-0.002361439186458939   -0.028420664002695675   -0.0007709881712547515
-0.0015771405771349372   -0.02835939485811362   -0.0007432577193514009
-0.0011367701332992892   -0.02634561647869378   -0.0006034739731084713
-0.002359976335755608   -0.02636481591312593   -0.0006703093531032358
-0.002361439186458939   -0.028420664002695675   -0.0007709881712547515
-0.002343727324348162   -0.026338545148534735   -0.0006677531016914635
-0.0015771405771349372   -0.02835939485811362   -0.0007432577193514009
-0.002326385583779609   -0.028399207589847535   -0.0007698719151909848
-0.002343727324348162   -0.026338545148534735   -0.0006677531016914635
-0.002361439186458939   -0.028420664002695675   -0.0007709881712547515
-0.0015771405771349372   -0.02835939485811362   -0.0007432577193514009
-0.002343727324348162   -0.026338545148534735   -0.0006677531016914635
-0.0011120481304501915   -0.026314168612529387   -0.0006296156073116546
-0.0011367701332992892   -0.02634561647869378   -0.0006034739731084713
-0.0015771405771349372   -0.02835939485811362   -0.0007432577193514009
-0.002343727324348162   -0.026338545148534735   -0.0006677531016914635
-0.0011367701332992892   -0.02634561647869378   -0.0006034739731084713
-0.002361439186458939   -0.028420664002695675   -0.0007709881712547515
-0.0015771405771349372   -0.02835939485811362   -0.0007432577193514009
-0.0011120481304501915   -0.026314168612529387   -0.0006296156073116546
-0.002326385583779609   -0.028399207589847535   -0.0007698719151909848
-0.001542184812394242   -0.028354811635953662   -0.0007738062841190997
-0.0011120481304501915   -0.026314168612529387   -0.0006296156073116546
-0.002343727324348162   -0.026338545148534735   -0.0006677531016914635
-0.002326385583779609   -0.028399207589847535   -0.0007698719151909848
-0.002329521613878041   -0.02632778719556737   -0.0006622097591508053
-0.001542184812394242   -0.028354811635953662   -0.0007738062841190997
-0.002292602078193278   -0.028396194270202586   -0.0007657329497119738
-0.002329521613878041   -0.02632778719556737   -0.0006622097591508053
-0.002326385583779609   -0.028399207589847535   -0.0007698719151909848
-0.001542184812394242   -0.028354811635953662   -0.0007738062841190997
-0.002329521613878041   -0.02632778719556737   -0.0006622097591508053
-0.0010972525716215452   -0.026299385486346492   -0.0006527445619439575
-0.0011120481304501915   -0.026314168612529387   -0.0006296156073116546
-0.001542184812394242   -0.028354811635953662   -0.0007738062841190997
-0.002329521613878041   -0.02632778719556737   -0.0006622097591508053
-0.0011120481304501915   -0.026314168612529387   -0.0006296156073116546
-0.002326385583779609   -0.028399207589847535   -0.0007698719151909848
-0.0023953137620771536   -0.028461454688812678   -0.000769099137442287
-0.0023757620429061205   -0.026406844854537266   -0.0006696569300442695
-0.0031227563991594516   -0.028434308200200546   -0.0008594298042414343
-0.002361439186458939   -0.028420664002695675   -0.0007709881712547515
-0.0023757620429061205   -0.026406844854537266   -0.0006696569300442695
-0.0035745338947183506   -0.026367834936223487   -0.0007559758971801832
-0.0031227563991594516   -0.028434308200200546   -0.0008594298042414343
-0.003559846735240976   -0.02633160362535   -0.0007284841822473958
-0.002361439186458939   -0.028420664002695675   -0.0007709881712547515
-0.0030891504697273618   -0.028398023160668806   -0.0008277009459602982
-0.003559846735240976   -0.02633160362535   -0.0007284841822473958
-0.0031227563991594516   -0.028434308200200546   -0.0008594298042414343
-0.002361439186458939   -0.028420664002695675   -0.0007709881712547515
-0.003559846735240976   -0.02633160362535   -0.0007284841822473958
-0.002359976335755608   -0.02636481591312593   -0.0006703093531032358
-0.0023757620429061205   -0.026406844854537266   -0.0006696569300442695
-0.002361439186458939   -0.028420664002695675   -0.0007709881712547515
-0.003559846735240976   -0.02633160362535   -0.0007284841822473958
-0.0023757620429061205   -0.026406844854537266   -0.0006696569300442695
-0.0031227563991594516   -0.028434308200200546   -0.0008594298042414343
-0.002361439186458939   -0.028420664002695675   -0.0007709881712547515
-0.002359976335755608   -0.02636481591312593   -0.0006703093531032358
-0.0030891504697273618   -0.028398023160668806   -0.0008277009459602982
-0.002326385583779609   -0.028399207589847535   -0.0007698719151909848
-0.002359976335755608   -0.02636481591312593   -0.0006703093531032358
-0.003559846735240976   -0.02633160362535   -0.0007284841822473958
-0.0030891504697273618   -0.028398023160668806   -0.0008277009459602982
-0.003542089679935026   -0.026310959802831487   -0.0006978578220342343
-0.002326385583779609   -0.028399207589847535   -0.0007698719151909848
-0.0030514406398129664   -0.02838076034094967   -0.0007930161784874268
-0.003542089679935026   -0.026310959802831487   -0.0006978578220342343
-0.0030891504697273618   -0.028398023160668806   -0.0008277009459602982
-0.002326385583779609   -0.028399207589847535   -0.0007698719151909848
-0.003542089679935026   -0.026310959802831487   -0.0006978578220342343
-0.002343727324348162   -0.026338545148534735   -0.0006677531016914635
-0.002359976335755608   -0.02636481591312593   -0.0006703093531032358
-0.002326385583779609   -0.028399207589847535   -0.0007698719151909848
-0.003542089679935026   -0.026310959802831487   -0.0006978578220342343
-0.002359976335755608   -0.02636481591312593   -0.0006703093531032358
-0.0030891504697273618   -0.028398023160668806   -0.0008277009459602982
-0.002326385583779609   -0.028399207589847535   -0.0007698719151909848
-0.002343727324348162   -0.026338545148534735   -0.0006677531016914635
-0.0030514406398129664   -0.02838076034094967   -0.0007930161784874268
-0.002292602078193278   -0.028396194270202586   -0.0007657329497119738
-0.002343727324348162   -0.026338545148534735   -0.0006677531016914635
-0.003542089679935026   -0.026310959802831487   -0.0006978578220342343
-0.0030514406398129664   -0.02838076034094967   -0.0007930161784874268
-0.0035248522450732575   -0.02630520695312639   -0.0006641922719230506
-0.002292602078193278   -0.028396194270202586   -0.0007657329497119738
-0.003013627845985776   -0.028380747889561124   -0.0007550162555339009
-0.0035248522450732575   -0.02630520695312639   -0.0006641922719230506
-0.0030514406398129664   -0.02838076034094967   -0.0007930161784874268
-0.002292602078193278   -0.028396194270202586   -0.0007657329497119738
-0.0035248522450732575   -0.02630520695312639   -0.0006641922719230506
-0.002329521613878041   -0.02632778719556737   -0.0006622097591508053
-0.002343727324348162   -0.026338545148534735   -0.0006677531016914635
-0.002292602078193278   -0.028396194270202586   -0.0007657329497119738
-0.0035248522450732575   -0.02630520695312639   -0.0006641922719230506
-0.002343727324348162   -0.026338545148534735   -0.0006677531016914635
-0.0030514406398129664   -0.02838076034094967   -0.0007930161784874268
-0.0031227563991594516   -0.028434308200200546   -0.0008594298042414343
-0.0035745338947183506   -0.026367834936223487   -0.0007559758971801832
-0.003920888486853993   -0.02834655910542055   -0.0009426096048287932
-0.0030891504697273618   -0.028398023160668806   -0.0008277009459602982
-0.0035745338947183506   -0.026367834936223487   -0.0007559758971801832
-0.0048301107486354855   -0.02627896173131145   -0.0008327070983941321
-0.003920888486853993   -0.02834655910542055   -0.0009426096048287932
-0.004810775351055088   -0.026248216529396556   -0.0007770116090570014
-0.0030891504697273618   -0.028398023160668806   -0.0008277009459602982
-0.003879601939489819   -0.028314746812766103   -0.0008779549692850674
-0.004810775351055088   -0.026248216529396556   -0.0007770116090570014
-0.003920888486853993   -0.02834655910542055   -0.0009426096048287932
-0.0030891504697273618   -0.028398023160668806   -0.0008277009459602982
-0.004810775351055088   -0.026248216529396556   -0.0007770116090570014
-0.003559846735240976   -0.02633160362535   -0.0007284841822473958
-0.0035745338947183506   -0.026367834936223487   -0.0007559758971801832
-0.0030891504697273618   -0.028398023160668806   -0.0008277009459602982
-0.004810775351055088   -0.026248216529396556   -0.0007770116090570014
-0.0035745338947183506   -0.026367834936223487   -0.0007559758971801832
-0.003920888486853993   -0.02834655910542055   -0.0009426096048287932
-0.0030891504697273618   -0.028398023160668806   -0.0008277009459602982
-0.003559846735240976   -0.02633160362535   -0.0007284841822473958
-0.003879601939489819   -0.028314746812766103   -0.0008779549692850674
-0.0030514406398129664   -0.02838076034094967   -0.0007930161784874268
-0.003559846735240976   -0.02633160362535   -0.0007284841822473958
-0.004810775351055088   -0.026248216529396556   -0.0007770116090570014
-0.003879601939489819   -0.028314746812766103   -0.0008779549692850674
-0.004777912319690724   -0.02623267345609167   -0.0007186702121935997
-0.0030514406398129664   -0.02838076034094967   -0.0007930161784874268
-0.0038224565489979345   -0.028301661246410446   -0.0008105763355454633
-0.004777912319690724   -0.02623267345609167   -0.0007186702121935997
-0.003879601939489819   -0.028314746812766103   -0.0008779549692850674
-0.0030514406398129664   -0.02838076034094967   -0.0007930161784874268
-0.004777912319690724   -0.02623267345609167   -0.0007186702121935997
-0.003542089679935026   -0.026310959802831487   -0.0006978578220342343
-0.003559846735240976   -0.02633160362535   -0.0007284841822473958
-0.0030514406398129664   -0.02838076034094967   -0.0007930161784874268
-0.004777912319690724   -0.02623267345609167   -0.0007186702121935997
-0.003559846735240976   -0.02633160362535   -0.0007284841822473958
-0.003879601939489819   -0.028314746812766103   -0.0008779549692850674
-0.0030514406398129664   -0.02838076034094967   -0.0007930161784874268
-0.003542089679935026   -0.026310959802831487   -0.0006978578220342343
-0.0038224565489979345   -0.028301661246410446   -0.0008105763355454633
-0.003013627845985776   -0.028380747889561124   -0.0007550162555339009
-0.003542089679935026   -0.026310959802831487   -0.0006978578220342343
-0.004777912319690724   -0.02623267345609167   -0.0007186702121935997
-0.0038224565489979345   -0.028301661246410446   -0.0008105763355454633
-0.0047513951094256155   -0.026233188985661533   -0.0006568431033100107
-0.003013627845985776   -0.028380747889561124   -0.0007550162555339009
-0.0037728249462633443   -0.02830731068200818   -0.0007386358514340108
-0.0047513951094256155   -0.026233188985661533   -0.0006568431033100107
-0.0038224565489979345   -0.028301661246410446   -0.0008105763355454633
-0.003013627845985776   -0.028380747889561124   -0.0007550162555339009
-0.0047513951094256155   -0.026233188985661533   -0.0006568431033100107
-0.0035248522450732575   -0.02630520695312639   -0.0006641922719230506
-0.003542089679935026   -0.026310959802831487   -0.0006978578220342343
-0.003013627845985776   -0.028380747889561124   -0.0007550162555339009
-0.0047513951094256155   -0.026233188985661533   -0.0006568431033100107
-0.003542089679935026   -0.026310959802831487   -0.0006978578220342343
-0.0038224565489979345   -0.028301661246410446   -0.0008105763355454633
-0.003920888486853993   -0.02834655910542055   -0.0009426096048287932
-0.0048301107486354855   -0.02627896173131145   -0.0008327070983941321
-0.00494846742592316   -0.028203848731002484   -0.0010230745527251208
-0.003879601939489819   -0.028314746812766103   -0.0008779549692850674
-0.0048301107486354855   -0.02627896173131145   -0.0008327070983941321
-0.006294052226229439   -0.026150514464196757   -0.0009046881154224896
-0.00494846742592316   -0.028203848731002484   -0.0010230745527251208
-0.0061935289919974445   -0.026118248870302695   -0.0008174084452683932
-0.003879601939489819   -0.028314746812766103   -0.0008779549692850674
-0.004813356067227548   -0.02816909344201338   -0.0009209288845434283
-0.0061935289919974445   -0.026118248870302695   -0.0008174084452683932
-0.00494846742592316   -0.028203848731002484   -0.0010230745527251208
-0.003879601939489819   -0.028314746812766103   -0.0008779549692850674
-0.0061935289919974445   -0.026118248870302695   -0.0008174084452683932
-0.004810775351055088   -0.026248216529396556   -0.0007770116090570014
-0.0048301107486354855   -0.02627896173131145   -0.0008327070983941321
-0.003879601939489819   -0.028314746812766103   -0.0008779549692850674
-0.0061935289919974445   -0.026118248870302695   -0.0008174084452683932
-0.0048301107486354855   -0.02627896173131145   -0.0008327070983941321
-0.00494846742592316   -0.028203848731002484   -0.0010230745527251208
-0.003879601939489819   -0.028314746812766103   -0.0008779549692850674
-0.004810775351055088   -0.026248216529396556   -0.0007770116090570014
-0.004813356067227548   -0.02816909344201338   -0.0009209288845434283
-0.0038224565489979345   -0.028301661246410446   -0.0008105763355454633
-0.004810775351055088   -0.026248216529396556   -0.0007770116090570014
-0.0061935289919974445   -0.026118248870302695   -0.0008174084452683932
-0.004813356067227548   -0.02816909344201338   -0.0009209288845434283
-0.006106565466528494   -0.026104091951922866   -0.0007257454802459741
-0.0038224565489979345   -0.028301661246410446   -0.0008105763355454633
-0.0046926881609718925   -0.028156989803592204   -0.0008130377432599186
-0.006106565466528494   -0.026104091951922866   -0.0007257454802459741
-0.004813356067227548   -0.02816909344201338   -0.0009209288845434283
-0.0038224565489979345   -0.028301661246410446   -0.0008105763355454633
-0.006106565466528494   -0.026104091951922866   -0.0007257454802459741
-0.004777912319690724   -0.02623267345609167   -0.0007186702121935997
-0.004810775351055088   -0.026248216529396556   -0.0007770116090570014
-0.0038224565489979345   -0.028301661246410446   -0.0008105763355454633
-0.006106565466528494   -0.026104091951922866   -0.0007257454802459741
-0.004810775351055088   -0.026248216529396556   -0.0007770116090570014
-0.004813356067227548   -0.02816909344201338   -0.0009209288845434283
-0.0038224565489979345   -0.028301661246410446   -0.0008105763355454633
-0.004777912319690724   -0.02623267345609167   -0.0007186702121935997
-0.0046926881609718925   -0.028156989803592204   -0.0008130377432599186
-0.0037728249462633443   -0.02830731068200818   -0.0007386358514340108
-0.004777912319690724   -0.02623267345609167   -0.0007186702121935997
-0.006106565466528494   -0.026104091951922866   -0.0007257454802459741
-0.0046926881609718925   -0.028156989803592204   -0.0008130377432599186
-0.005989523421642142   -0.026114409575905835   -0.0006302793881423636
-0.0037728249462633443   -0.02830731068200818   -0.0007386358514340108
-0.004536353039561746   -0.028173925593480392   -0.0007004089844738884
-0.005989523421642142   -0.026114409575905835   -0.0006302793881423636
-0.0046926881609718925   -0.028156989803592204   -0.0008130377432599186
-0.0037728249462633443   -0.02830731068200818   -0.0007386358514340108
-0.005989523421642142   -0.026114409575905835   -0.0006302793881423636
-0.0047513951094256155   -0.026233188985661533   -0.0006568431033100107
-0.004777912319690724   -0.02623267345609167   -0.0007186702121935997
-0.0037728249462633443   -0.02830731068200818   -0.0007386358514340108
-0.005989523421642142   -0.026114409575905835   -0.0006302793881423636
-0.004777912319690724   -0.02623267345609167   -0.0007186702121935997
-0.0046926881609718925   -0.028156989803592204   -0.0008130377432599186
9.753768216534888e-05   -0.026331400549588796   -0.00045742861663277903
0.0008795857559967349   -0.023579967482627837   -0.00034825853502149873
-0.0011583696495199546   -0.02639468049389095   -0.0005739886613533708
0.00017990621524571616   -0.02627236067197106   -0.0005247538853217332
0.0008795857559967349   -0.023579967482627837   -0.00034825853502149873
-0.0007907713150992851   -0.023622259244037387   -0.00045958944298614076
-0.0011583696495199546   -0.02639468049389095   -0.0005739886613533708
-0.0007860254317229707   -0.023573450203103877   -0.00048023858040957735
0.00017990621524571616   -0.02627236067197106   -0.0005247538853217332
-0.0011367701332992892   -0.02634561647869378   -0.0006034739731084713
-0.0007860254317229707   -0.023573450203103877   -0.00048023858040957735
-0.0011583696495199546   -0.02639468049389095   -0.0005739886613533708
0.00017990621524571616   -0.02627236067197106   -0.0005247538853217332
-0.0007860254317229707   -0.023573450203103877   -0.00048023858040957735
0.000929302035862763   -0.023522291578736393   -0.00039851111347242085
0.0008795857559967349   -0.023579967482627837   -0.00034825853502149873
0.00017990621524571616   -0.02627236067197106   -0.0005247538853217332
-0.0007860254317229707   -0.023573450203103877   -0.00048023858040957735
0.0008795857559967349   -0.023579967482627837   -0.00034825853502149873
-0.0011583696495199546   -0.02639468049389095   -0.0005739886613533708
0.00017990621524571616   -0.02627236067197106   -0.0005247538853217332
0.000929302035862763   -0.023522291578736393   -0.00039851111347242085
-0.0011367701332992892   -0.02634561647869378   -0.0006034739731084713
0.00024057477424793098   -0.026238938955226363   -0.0005873984157190118
0.000929302035862763   -0.023522291578736393   -0.00039851111347242085
-0.0007860254317229707   -0.023573450203103877   -0.00048023858040957735
-0.0011367701332992892   -0.02634561647869378   -0.0006034739731084713
-0.0007799483360800976   -0.023538640242388265   -0.0004978097857387982
0.00024057477424793098   -0.026238938955226363   -0.0005873984157190118
-0.0011120481304501915   -0.026314168612529387   -0.0006296156073116546
-0.0007799483360800976   -0.023538640242388265   -0.0004978097857387982
-0.0011367701332992892   -0.02634561647869378   -0.0006034739731084713
0.00024057477424793098   -0.026238938955226363   -0.0005873984157190118
-0.0007799483360800976   -0.023538640242388265   -0.0004978097857387982
0.0009613002607818647   -0.02348513848023018   -0.0004444089393253396
0.000929302035862763   -0.023522291578736393   -0.00039851111347242085
0.00024057477424793098   -0.026238938955226363   -0.0005873984157190118
-0.0007799483360800976   -0.023538640242388265   -0.0004978097857387982
0.000929302035862763   -0.023522291578736393   -0.00039851111347242085
-0.0011367701332992892   -0.02634561647869378   -0.0006034739731084713
0.00024057477424793098   -0.026238938955226363   -0.0005873984157190118
0.0009613002607818647   -0.02348513848023018   -0.0004444089393253396
-0.0011120481304501915   -0.026314168612529387   -0.0006296156073116546
0.00030586663373264857   -0.026223512149713413   -0.0006453449947974613
0.0009613002607818647   -0.02348513848023018   -0.0004444089393253396
-0.0007799483360800976   -0.023538640242388265   -0.0004978097857387982
-0.0011120481304501915   -0.026314168612529387   -0.0006296156073116546
-0.0007823928658857185   -0.023516683303226312   -0.0005125267111789866
0.00030586663373264857   -0.026223512149713413   -0.0006453449947974613
-0.0010972525716215452   -0.026299385486346492   -0.0006527445619439575
-0.0007823928658857185   -0.023516683303226312   -0.0005125267111789866
-0.0011120481304501915   -0.026314168612529387   -0.0006296156073116546
0.00030586663373264857   -0.026223512149713413   -0.0006453449947974613
-0.0007823928658857185   -0.023516683303226312   -0.0005125267111789866
0.0009944798538496162   -0.023461110671023355   -0.00048604808633368764
0.0009613002607818647   -0.02348513848023018   -0.0004444089393253396
0.00030586663373264857   -0.026223512149713413   -0.0006453449947974613
-0.0007823928658857185   -0.023516683303226312   -0.0005125267111789866
0.0009613002607818647   -0.02348513848023018   -0.0004444089393253396
-0.0011120481304501915   -0.026314168612529387   -0.0006296156073116546
-0.0011583696495199546   -0.02639468049389095   -0.0005739886613533708
-0.0007907713150992851   -0.023622259244037387   -0.00045958944298614076
-0.0023757620429061205   -0.026406844854537266   -0.0006696569300442695
-0.0011367701332992892   -0.02634561647869378   -0.0006034739731084713
-0.0007907713150992851   -0.023622259244037387   -0.00045958944298614076
-0.0024001242402242164   -0.023622723936934063   -0.0005509345271231325
-0.0023757620429061205   -0.026406844854537266   -0.0006696569300442695
-0.0024002071218399697   -0.02358158260665271   -0.000548972257688757
-0.0011367701332992892   -0.02634561647869378   -0.0006034739731084713
-0.002359976335755608   -0.02636481591312593   -0.0006703093531032358
-0.0024002071218399697   -0.02358158260665271   -0.000548972257688757
-0.0023757620429061205   -0.026406844854537266   -0.0006696569300442695
-0.0011367701332992892   -0.02634561647869378   -0.0006034739731084713
-0.0024002071218399697   -0.02358158260665271   -0.000548972257688757
-0.0007860254317229707   -0.023573450203103877   -0.00048023858040957735
-0.0007907713150992851   -0.023622259244037387   -0.00045958944298614076
-0.0011367701332992892   -0.02634561647869378   -0.0006034739731084713
-0.0024002071218399697   -0.02358158260665271   -0.000548972257688757
-0.0007907713150992851   -0.023622259244037387   -0.00045958944298614076
-0.0023757620429061205   -0.026406844854537266   -0.0006696569300442695
-0.0011367701332992892   -0.02634561647869378   -0.0006034739731084713
-0.0007860254317229707   -0.023573450203103877   -0.00048023858040957735
-0.002359976335755608   -0.02636481591312593   -0.0006703093531032358
-0.0011120481304501915   -0.026314168612529387   -0.0006296156073116546
-0.0007860254317229707   -0.023573450203103877   -0.00048023858040957735
-0.0024002071218399697   -0.02358158260665271   -0.000548972257688757
-0.002359976335755608   -0.02636481591312593   -0.0006703093531032358
-0.002400174062141599   -0.023552773898272768   -0.0005439384558064513
-0.0011120481304501915   -0.026314168612529387   -0.0006296156073116546
-0.002343727324348162   -0.026338545148534735   -0.0006677531016914635
-0.002400174062141599   -0.023552773898272768   -0.0005439384558064513
-0.002359976335755608   -0.02636481591312593   -0.0006703093531032358
-0.0011120481304501915   -0.026314168612529387   -0.0006296156073116546
-0.002400174062141599   -0.023552773898272768   -0.0005439384558064513
-0.0007799483360800976   -0.023538640242388265   -0.0004978097857387982
-0.0007860254317229707   -0.023573450203103877   -0.00048023858040957735
-0.0011120481304501915   -0.026314168612529387   -0.0006296156073116546
-0.002400174062141599   -0.023552773898272768   -0.0005439384558064513
-0.0007860254317229707   -0.023573450203103877   -0.00048023858040957735
-0.002359976335755608   -0.02636481591312593   -0.0006703093531032358
-0.0011120481304501915   -0.026314168612529387   -0.0006296156073116546
-0.0007799483360800976   -0.023538640242388265   -0.0004978097857387982
-0.002343727324348162   -0.026338545148534735   -0.0006677531016914635
-0.0010972525716215452   -0.026299385486346492   -0.0006527445619439575
-0.0007799483360800976   -0.023538640242388265   -0.0004978097857387982
-0.002400174062141599   -0.023552773898272768   -0.0005439384558064513
-0.002343727324348162   -0.026338545148534735   -0.0006677531016914635
-0.0024022782416366797   -0.02353632195971596   -0.0005359997512695058
-0.0010972525716215452   -0.026299385486346492   -0.0006527445619439575
-0.002329521613878041   -0.02632778719556737   -0.0006622097591508053
-0.0024022782416366797   -0.02353632195971596   -0.0005359997512695058
-0.002343727324348162   -0.026338545148534735   -0.0006677531016914635
-0.0010972525716215452   -0.026299385486346492   -0.0006527445619439575
-0.0024022782416366797   -0.02353632195971596   -0.0005359997512695058
-0.0007823928658857185   -0.023516683303226312   -0.0005125267111789866
-0.0007799483360800976   -0.023538640242388265   -0.0004978097857387982
-0.0010972525716215452   -0.026299385486346492   -0.0006527445619439575
-0.0024022782416366797   -0.02353632195971596   -0.0005359997512695058
-0.0007799483360800976   -0.023538640242388265   -0.0004978097857387982
-0.002343727324348162   -0.026338545148534735   -0.0006677531016914635
-0.0023757620429061205   -0.026406844854537266   -0.0006696569300442695
-0.0024001242402242164   -0.023622723936934063   -0.0005509345271231325
-0.0035745338947183506   -0.026367834936223487   -0.0007559758971801832
-0.002359976335755608   -0.02636481591312593   -0.0006703093531032358
-0.0024001242402242164   -0.023622723936934063   -0.0005509345271231325
-0.003982623493460701   -0.02358247508280747   -0.0006308016354652645
-0.0035745338947183506   -0.026367834936223487   -0.0007559758971801832
-0.003983914368640726   -0.023548023316070494   -0.0006065070635924696
-0.002359976335755608   -0.02636481591312593   -0.0006703093531032358
-0.003559846735240976   -0.02633160362535   -0.0007284841822473958
-0.003983914368640726   -0.023548023316070494   -0.0006065070635924696
-0.0035745338947183506   -0.026367834936223487   -0.0007559758971801832
-0.002359976335755608   -0.02636481591312593   -0.0006703093531032358
-0.003983914368640726   -0.023548023316070494   -0.0006065070635924696
-0.0024002071218399697   -0.02358158260665271   -0.000548972257688757
-0.0024001242402242164   -0.023622723936934063   -0.0005509345271231325
-0.002359976335755608   -0.02636481591312593   -0.0006703093531032358
-0.003983914368640726   -0.023548023316070494   -0.0006065070635924696
-0.0024001242402242164   -0.023622723936934063   -0.0005509345271231325
-0.0035745338947183506   -0.026367834936223487   -0.0007559758971801832
-0.002359976335755608   -0.02636481591312593   -0.0006703093531032358
-0.0024002071218399697   -0.02358158260665271   -0.000548972257688757
-0.003559846735240976   -0.02633160362535   -0.0007284841822473958
-0.002343727324348162   -0.026338545148534735   -0.0006677531016914635
-0.0024002071218399697   -0.02358158260665271   -0.000548972257688757
-0.003983914368640726   -0.023548023316070494   -0.0006065070635924696
-0.003559846735240976   -0.02633160362535   -0.0007284841822473958
-0.003982521286228203   -0.023525795761365913   -0.0005792044191960519
-0.002343727324348162   -0.026338545148534735   -0.0006677531016914635
-0.003542089679935026   -0.026310959802831487   -0.0006978578220342343
-0.003982521286228203   -0.023525795761365913   -0.0005792044191960519
-0.003559846735240976   -0.02633160362535   -0.0007284841822473958
-0.002343727324348162   -0.026338545148534735   -0.0006677531016914635
-0.003982521286228203   -0.023525795761365913   -0.0005792044191960519
-0.002400174062141599   -0.023552773898272768   -0.0005439384558064513
-0.0024002071218399697   -0.02358158260665271   -0.000548972257688757
-0.002343727324348162   -0.026338545148534735   -0.0006677531016914635
-0.003982521286228203   -0.023525795761365913   -0.0005792044191960519
-0.0024002071218399697   -0.02358158260665271   -0.000548972257688757
-0.003559846735240976   -0.02633160362535   -0.0007284841822473958
-0.002343727324348162   -0.026338545148534735   -0.0006677531016914635
-0.002400174062141599   -0.023552773898272768   -0.0005439384558064513
-0.003542089679935026   -0.026310959802831487   -0.0006978578220342343
-0.002329521613878041   -0.02632778719556737   -0.0006622097591508053
-0.002400174062141599   -0.023552773898272768   -0.0005439384558064513
-0.003982521286228203   -0.023525795761365913   -0.0005792044191960519
-0.003542089679935026   -0.026310959802831487   -0.0006978578220342343
-0.0039816293679877405   -0.023515585086690625   -0.0005489795346380186
-0.002329521613878041   -0.02632778719556737   -0.0006622097591508053
-0.0035248522450732575   -0.02630520695312639   -0.0006641922719230506
-0.0039816293679877405   -0.023515585086690625   -0.0005489795346380186
-0.003542089679935026   -0.026310959802831487   -0.0006978578220342343
-0.002329521613878041   -0.02632778719556737   -0.0006622097591508053
-0.0039816293679877405   -0.023515585086690625   -0.0005489795346380186
-0.0024022782416366797   -0.02353632195971596   -0.0005359997512695058
-0.002400174062141599   -0.023552773898272768   -0.0005439384558064513
-0.002329521613878041   -0.02632778719556737   -0.0006622097591508053
-0.0039816293679877405   -0.023515585086690625   -0.0005489795346380186
-0.002400174062141599   -0.023552773898272768   -0.0005439384558064513
-0.003542089679935026   -0.026310959802831487   -0.0006978578220342343
-0.0035745338947183506   -0.026367834936223487   -0.0007559758971801832
-0.003982623493460701   -0.02358247508280747   -0.0006308016354652645
-0.0048301107486354855   -0.02627896173131145   -0.0008327070983941321
-0.003559846735240976   -0.02633160362535   -0.0007284841822473958
-0.003982623493460701   -0.02358247508280747   -0.0006308016354652645
-0.005614132327561335   -0.023502978146103796   -0.0006994110571427823
-0.0048301107486354855   -0.02627896173131145   -0.0008327070983941321
-0.005612009966486741   -0.02347489154503514   -0.0006525087754607866
-0.003559846735240976   -0.02633160362535   -0.0007284841822473958
-0.004810775351055088   -0.026248216529396556   -0.0007770116090570014
-0.005612009966486741   -0.02347489154503514   -0.0006525087754607866
-0.0048301107486354855   -0.02627896173131145   -0.0008327070983941321
-0.003559846735240976   -0.02633160362535   -0.0007284841822473958
-0.005612009966486741   -0.02347489154503514   -0.0006525087754607866
-0.003983914368640726   -0.023548023316070494   -0.0006065070635924696
-0.003982623493460701   -0.02358247508280747   -0.0006308016354652645
-0.003559846735240976   -0.02633160362535   -0.0007284841822473958
-0.005612009966486741   -0.02347489154503514   -0.0006525087754607866
-0.003982623493460701   -0.02358247508280747   -0.0006308016354652645
-0.0048301107486354855   -0.02627896173131145   -0.0008327070983941321
-0.003559846735240976   -0.02633160362535   -0.0007284841822473958
-0.003983914368640726   -0.023548023316070494   -0.0006065070635924696
-0.004810775351055088   -0.026248216529396556   -0.0007770116090570014
-0.003542089679935026   -0.026310959802831487   -0.0006978578220342343
-0.003983914368640726   -0.023548023316070494   -0.0006065070635924696
-0.005612009966486741   -0.02347489154503514   -0.0006525087754607866
-0.004810775351055088   -0.026248216529396556   -0.0007770116090570014
-0.005598063280107424   -0.023458633413758215   -0.0006030544188940169
-0.003542089679935026   -0.026310959802831487   -0.0006978578220342343
-0.004777912319690724   -0.02623267345609167   -0.0007186702121935997
-0.005598063280107424   -0.023458633413758215   -0.0006030544188940169
-0.004810775351055088   -0.026248216529396556   -0.0007770116090570014
-0.003542089679935026   -0.026310959802831487   -0.0006978578220342343
-0.005598063280107424   -0.023458633413758215   -0.0006030544188940169
-0.003982521286228203   -0.023525795761365913   -0.0005792044191960519
-0.003983914368640726   -0.023548023316070494   -0.0006065070635924696
-0.003542089679935026   -0.026310959802831487   -0.0006978578220342343
-0.005598063280107424   -0.023458633413758215   -0.0006030544188940169
-0.003983914368640726   -0.023548023316070494   -0.0006065070635924696
-0.004810775351055088   -0.026248216529396556   -0.0007770116090570014
-0.003542089679935026   -0.026310959802831487   -0.0006978578220342343
-0.003982521286228203   -0.023525795761365913   -0.0005792044191960519
-0.004777912319690724   -0.02623267345609167   -0.0007186702121935997
-0.0035248522450732575   -0.02630520695312639   -0.0006641922719230506
-0.003982521286228203   -0.023525795761365913   -0.0005792044191960519
-0.005598063280107424   -0.023458633413758215   -0.0006030544188940169
-0.004777912319690724   -0.02623267345609167   -0.0007186702121935997
-0.005588803806128458   -0.02345540970664859   -0.000550438891958959
-0.0035248522450732575   -0.02630520695312639   -0.0006641922719230506
-0.0047513951094256155   -0.026233188985661533   -0.0006568431033100107
-0.005588803806128458   -0.02345540970664859   -0.000550438891958959
-0.004777912319690724   -0.02623267345609167   -0.0007186702121935997
-0.0035248522450732575   -0.02630520695312639   -0.0006641922719230506
-0.005588803806128458   -0.02345540970664859   -0.000550438891958959
-0.0039816293679877405   -0.023515585086690625   -0.0005489795346380186
-0.003982521286228203   -0.023525795761365913   -0.0005792044191960519
-0.0035248522450732575   -0.02630520695312639   -0.0006641922719230506
-0.005588803806128458   -0.02345540970664859   -0.000550438891958959
-0.003982521286228203   -0.023525795761365913   -0.0005792044191960519
-0.004777912319690724   -0.02623267345609167   -0.0007186702121935997
-0.0048301107486354855   -0.02627896173131145   -0.0008327070983941321
-0.005614132327561335   -0.023502978146103796   -0.0006994110571427823
-0.006294052226229439   -0.026150514464196757   -0.0009046881154224896
-0.004810775351055088   -0.026248216529396556   -0.0007770116090570014
-0.005614132327561335   -0.023502978146103796   -0.0006994110571427823
-0.007436622459516231   -0.023392911727278868   -0.0007615226162133488
-0.006294052226229439   -0.026150514464196757   -0.0009046881154224896
-0.007367110964175947   -0.023365226504601423   -0.000689625719365968
-0.004810775351055088   -0.026248216529396556   -0.0007770116090570014
-0.0061935289919974445   -0.026118248870302695   -0.0008174084452683932
-0.007367110964175947   -0.023365226504601423   -0.000689625719365968
-0.006294052226229439   -0.026150514464196757   -0.0009046881154224896
-0.004810775351055088   -0.026248216529396556   -0.0007770116090570014
-0.007367110964175947   -0.023365226504601423   -0.000689625719365968
-0.005612009966486741   -0.02347489154503514   -0.0006525087754607866
-0.005614132327561335   -0.023502978146103796   -0.0006994110571427823
-0.004810775351055088   -0.026248216529396556   -0.0007770116090570014
-0.007367110964175947   -0.023365226504601423   -0.000689625719365968
-0.005614132327561335   -0.023502978146103796   -0.0006994110571427823
-0.006294052226229439   -0.026150514464196757   -0.0009046881154224896
-0.004810775351055088   -0.026248216529396556   -0.0007770116090570014
-0.005612009966486741   -0.02347489154503514   -0.0006525087754607866
-0.0061935289919974445   -0.026118248870302695   -0.0008174084452683932
-0.004777912319690724   -0.02623267345609167   -0.0007186702121935997
-0.005612009966486741   -0.02347489154503514   -0.0006525087754607866
-0.007367110964175947   -0.023365226504601423   -0.000689625719365968
-0.0061935289919974445   -0.026118248870302695   -0.0008174084452683932
-0.0073078424733025   -0.023351153609744553   -0.0006134224892311749
-0.004777912319690724   -0.02623267345609167   -0.0007186702121935997
-0.006106565466528494   -0.026104091951922866   -0.0007257454802459741
-0.0073078424733025   -0.023351153609744553   -0.0006134224892311749
-0.0061935289919974445   -0.026118248870302695   -0.0008174084452683932
-0.004777912319690724   -0.02623267345609167   -0.0007186702121935997
-0.0073078424733025   -0.023351153609744553   -0.0006134224892311749
-0.005598063280107424   -0.023458633413758215   -0.0006030544188940169
-0.005612009966486741   -0.02347489154503514   -0.0006525087754607866
-0.004777912319690724   -0.02623267345609167   -0.0007186702121935997
-0.0073078424733025   -0.023351153609744553   -0.0006134224892311749
-0.005612009966486741   -0.02347489154503514   -0.0006525087754607866
-0.0061935289919974445   -0.026118248870302695   -0.0008174084452683932
-0.004777912319690724   -0.02623267345609167   -0.0007186702121935997
-0.005598063280107424   -0.023458633413758215   -0.0006030544188940169
-0.006106565466528494   -0.026104091951922866   -0.0007257454802459741
-0.0047513951094256155   -0.026233188985661533   -0.0006568431033100107
-0.005598063280107424   -0.023458633413758215   -0.0006030544188940169
-0.0073078424733025   -0.023351153609744553   -0.0006134224892311749
-0.006106565466528494   -0.026104091951922866   -0.0007257454802459741
-0.0072225549977914015   -0.02335768834892682   -0.000533511133278759
-0.0047513951094256155   -0.026233188985661533   -0.0006568431033100107
-0.005989523421642142   -0.026114409575905835   -0.0006302793881423636
-0.0072225549977914015   -0.02335768834892682   -0.000533511133278759
-0.006106565466528494   -0.026104091951922866   -0.0007257454802459741
-0.0047513951094256155   -0.026233188985661533   -0.0006568431033100107
-0.0072225549977914015   -0.02335768834892682   -0.000533511133278759
-0.005588803806128458   -0.02345540970664859   -0.000550438891958959
-0.005598063280107424   -0.023458633413758215   -0.0006030544188940169
-0.0047513951094256155   -0.026233188985661533   -0.0006568431033100107
-0.0072225549977914015   -0.02335768834892682   -0.000533511133278759
-0.005598063280107424   -0.023458633413758215   -0.0006030544188940169
-0.006106565466528494   -0.026104091951922866   -0.0007257454802459741
0.0008795857559967349   -0.023579967482627837   -0.00034825853502149873
0.001424435498611836   -0.02025604595778474   -0.00023227950793165372
-0.0007907713150992851   -0.023622259244037387   -0.00045958944298614076
0.000929302035862763   -0.023522291578736393   -0.00039851111347242085
0.001424435498611836   -0.02025604595778474   -0.00023227950793165372
-0.0005643126635147441   -0.02027735531675203   -0.00033697764109913864
-0.0007907713150992851   -0.023622259244037387   -0.00045958944298614076
-0.0005731984537300759   -0.02022976930678824   -0.0003483409307775596
0.000929302035862763   -0.023522291578736393   -0.00039851111347242085
-0.0007860254317229707   -0.023573450203103877   -0.00048023858040957735
-0.0005731984537300759   -0.02022976930678824   -0.0003483409307775596
-0.0007907713150992851   -0.023622259244037387   -0.00045958944298614076
0.000929302035862763   -0.023522291578736393   -0.00039851111347242085
-0.0005731984537300759   -0.02022976930678824   -0.0003483409307775596
0.0014450368048320324   -0.02020047210955973   -0.00026565548598528164
0.001424435498611836   -0.02025604595778474   -0.00023227950793165372
0.000929302035862763   -0.023522291578736393   -0.00039851111347242085
-0.0005731984537300759   -0.02022976930678824   -0.0003483409307775596
0.001424435498611836   -0.02025604595778474   -0.00023227950793165372
-0.0007907713150992851   -0.023622259244037387   -0.00045958944298614076
0.000929302035862763   -0.023522291578736393   -0.00039851111347242085
0.0014450368048320324   -0.02020047210955973   -0.00026565548598528164
-0.0007860254317229707   -0.023573450203103877   -0.00048023858040957735
0.0009613002607818647   -0.02348513848023018   -0.0004444089393253396
0.0014450368048320324   -0.02020047210955973   -0.00026565548598528164
-0.0005731984537300759   -0.02022976930678824   -0.0003483409307775596
-0.0007860254317229707   -0.023573450203103877   -0.00048023858040957735
-0.0005824800755241853   -0.020192649253080105   -0.0003569334123996506
0.0009613002607818647   -0.02348513848023018   -0.0004444089393253396
-0.0007799483360800976   -0.023538640242388265   -0.0004978097857387982
-0.0005824800755241853   -0.020192649253080105   -0.0003569334123996506
-0.0007860254317229707   -0.023573450203103877   -0.00048023858040957735
0.0009613002607818647   -0.02348513848023018   -0.0004444089393253396
-0.0005824800755241853   -0.020192649253080105   -0.0003569334123996506
0.0014519922132005746   -0.0201606325575132   -0.0002949380259849288
0.0014450368048320324   -0.02020047210955973   -0.00026565548598528164
0.0009613002607818647   -0.02348513848023018   -0.0004444089393253396
-0.0005824800755241853   -0.020192649253080105   -0.0003569334123996506
0.0014450368048320324   -0.02020047210955973   -0.00026565548598528164
-0.0007860254317229707   -0.023573450203103877   -0.00048023858040957735
0.0009613002607818647   -0.02348513848023018   -0.0004444089393253396
0.0014519922132005746   -0.0201606325575132   -0.0002949380259849288
-0.0007799483360800976   -0.023538640242388265   -0.0004978097857387982
0.0009944798538496162   -0.023461110671023355   -0.00048604808633368764
0.0014519922132005746   -0.0201606325575132   -0.0002949380259849288
-0.0005824800755241853   -0.020192649253080105   -0.0003569334123996506
-0.0007799483360800976   -0.023538640242388265   -0.0004978097857387982
-0.0005987125594923168   -0.02016479064301441   -0.0003628474887837602
0.0009944798538496162   -0.023461110671023355   -0.00048604808633368764
-0.0007823928658857185   -0.023516683303226312   -0.0005125267111789866
-0.0005987125594923168   -0.02016479064301441   -0.0003628474887837602
-0.0007799483360800976   -0.023538640242388265   -0.0004978097857387982
0.0009944798538496162   -0.023461110671023355   -0.00048604808633368764
-0.0005987125594923168   -0.02016479064301441   -0.0003628474887837602
0.0014566836484553162   -0.020129276376291947   -0.0003203237475573946
0.0014519922132005746   -0.0201606325575132   -0.0002949380259849288
0.0009944798538496162   -0.023461110671023355   -0.00048604808633368764
-0.0005987125594923168   -0.02016479064301441   -0.0003628474887837602
0.0014519922132005746   -0.0201606325575132   -0.0002949380259849288
-0.0007799483360800976   -0.023538640242388265   -0.0004978097857387982
-0.0007907713150992851   -0.023622259244037387   -0.00045958944298614076
-0.0005643126635147441   -0.02027735531675203   -0.00033697764109913864
-0.0024001242402242164   -0.023622723936934063   -0.0005509345271231325
-0.0007860254317229707   -0.023573450203103877   -0.00048023858040957735
-0.0005643126635147441   -0.02027735531675203   -0.00033697764109913864
-0.002471991152447206   -0.020267084434257576   -0.00042262967243674967
-0.0024001242402242164   -0.023622723936934063   -0.0005509345271231325
-0.0024846207706501807   -0.020227531327278572   -0.00041750549893646564
-0.0007860254317229707   -0.023573450203103877   -0.00048023858040957735
-0.0024002071218399697   -0.02358158260665271   -0.000548972257688757
-0.0024846207706501807   -0.020227531327278572   -0.00041750549893646564
-0.0024001242402242164   -0.023622723936934063   -0.0005509345271231325
-0.0007860254317229707   -0.023573450203103877   -0.00048023858040957735
-0.0024846207706501807   -0.020227531327278572   -0.00041750549893646564
-0.0005731984537300759   -0.02022976930678824   -0.0003483409307775596
-0.0005643126635147441   -0.02027735531675203   -0.00033697764109913864
-0.0007860254317229707   -0.023573450203103877   -0.00048023858040957735
-0.0024846207706501807   -0.020227531327278572   -0.00041750549893646564
-0.0005643126635147441   -0.02027735531675203   -0.00033697764109913864
-0.0024001242402242164   -0.023622723936934063   -0.0005509345271231325
-0.0007860254317229707   -0.023573450203103877   -0.00048023858040957735
-0.0005731984537300759   -0.02022976930678824   -0.0003483409307775596
-0.0024002071218399697   -0.02358158260665271   -0.000548972257688757
-0.0007799483360800976   -0.023538640242388265   -0.0004978097857387982
-0.0005731984537300759   -0.02022976930678824   -0.0003483409307775596
-0.0024846207706501807   -0.020227531327278572   -0.00041750549893646564
-0.0024002071218399697   -0.02358158260665271   -0.000548972257688757
-0.0024974267010698346   -0.020196943999542926   -0.0004095234764774341
-0.0007799483360800976   -0.023538640242388265   -0.0004978097857387982
-0.002400174062141599   -0.023552773898272768   -0.0005439384558064513
-0.0024974267010698346   -0.020196943999542926   -0.0004095234764774341
-0.0024002071218399697   -0.02358158260665271   -0.000548972257688757
-0.0007799483360800976   -0.023538640242388265   -0.0004978097857387982
-0.0024974267010698346   -0.020196943999542926   -0.0004095234764774341
-0.0005824800755241853   -0.020192649253080105   -0.0003569334123996506
-0.0005731984537300759   -0.02022976930678824   -0.0003483409307775596
-0.0007799483360800976   -0.023538640242388265   -0.0004978097857387982
-0.0024974267010698346   -0.020196943999542926   -0.0004095234764774341
-0.0005731984537300759   -0.02022976930678824   -0.0003483409307775596
-0.0024002071218399697   -0.02358158260665271   -0.000548972257688757
-0.0007799483360800976   -0.023538640242388265   -0.0004978097857387982
-0.0005824800755241853   -0.020192649253080105   -0.0003569334123996506
-0.002400174062141599   -0.023552773898272768   -0.0005439384558064513
-0.0007823928658857185   -0.023516683303226312   -0.0005125267111789866
-0.0005824800755241853   -0.020192649253080105   -0.0003569334123996506
-0.0024974267010698346   -0.020196943999542926   -0.0004095234764774341
-0.002400174062141599   -0.023552773898272768   -0.0005439384558064513
-0.0025122702641733876   -0.020175471919534546   -0.00039882816959983656
-0.0007823928658857185   -0.023516683303226312   -0.0005125267111789866
-0.0024022782416366797   -0.02353632195971596   -0.0005359997512695058
-0.0025122702641733876   -0.020175471919534546   -0.00039882816959983656
-0.002400174062141599   -0.023552773898272768   -0.0005439384558064513
-0.0007823928658857185   -0.023516683303226312   -0.0005125267111789866
-0.0025122702641733876   -0.020175471919534546   -0.00039882816959983656
-0.0005987125594923168   -0.02016479064301441   -0.0003628474887837602
-0.0005824800755241853   -0.020192649253080105   -0.0003569334123996506
-0.0007823928658857185   -0.023516683303226312   -0.0005125267111789866
-0.0025122702641733876   -0.020175471919534546   -0.00039882816959983656
-0.0005824800755241853   -0.020192649253080105   -0.0003569334123996506
-0.002400174062141599   -0.023552773898272768   -0.0005439384558064513
-0.0024001242402242164   -0.023622723936934063   -0.0005509345271231325
-0.002471991152447206   -0.020267084434257576   -0.00042262967243674967
-0.003982623493460701   -0.02358247508280747   -0.0006308016354652645
-0.0024002071218399697   -0.02358158260665271   -0.000548972257688757
-0.002471991152447206   -0.020267084434257576   -0.00042262967243674967
-0.0043477321616444495   -0.020227338635613434   -0.0004956575125910928
-0.003982623493460701   -0.02358247508280747   -0.0006308016354652645
-0.004361425101500436   -0.020195040056239726   -0.00047413918701015535
-0.0024002071218399697   -0.02358158260665271   -0.000548972257688757
-0.003983914368640726   -0.023548023316070494   -0.0006065070635924696
-0.004361425101500436   -0.020195040056239726   -0.00047413918701015535
-0.003982623493460701   -0.02358247508280747   -0.0006308016354652645
-0.0024002071218399697   -0.02358158260665271   -0.000548972257688757
-0.004361425101500436   -0.020195040056239726   -0.00047413918701015535
-0.0024846207706501807   -0.020227531327278572   -0.00041750549893646564
-0.002471991152447206   -0.020267084434257576   -0.00042262967243674967
-0.0024002071218399697   -0.02358158260665271   -0.000548972257688757
-0.004361425101500436   -0.020195040056239726   -0.00047413918701015535
-0.002471991152447206   -0.020267084434257576   -0.00042262967243674967
-0.003982623493460701   -0.02358247508280747   -0.0006308016354652645
-0.0024002071218399697   -0.02358158260665271   -0.000548972257688757
-0.0024846207706501807   -0.020227531327278572   -0.00041750549893646564
-0.003983914368640726   -0.023548023316070494   -0.0006065070635924696
-0.002400174062141599   -0.023552773898272768   -0.0005439384558064513
-0.0024846207706501807   -0.020227531327278572   -0.00041750549893646564
-0.004361425101500436   -0.020195040056239726   -0.00047413918701015535
-0.003983914368640726   -0.023548023316070494   -0.0006065070635924696
-0.0043727228063275645   -0.020171622618676943   -0.00044981678982304813
-0.002400174062141599   -0.023552773898272768   -0.0005439384558064513
-0.003982521286228203   -0.023525795761365913   -0.0005792044191960519
-0.0043727228063275645   -0.020171622618676943   -0.00044981678982304813
-0.003983914368640726   -0.023548023316070494   -0.0006065070635924696
-0.002400174062141599   -0.023552773898272768   -0.0005439384558064513
-0.0043727228063275645   -0.020171622618676943   -0.00044981678982304813
-0.0024974267010698346   -0.020196943999542926   -0.0004095234764774341
-0.0024846207706501807   -0.020227531327278572   -0.00041750549893646564
-0.002400174062141599   -0.023552773898272768   -0.0005439384558064513
-0.0043727228063275645   -0.020171622618676943   -0.00044981678982304813
-0.0024846207706501807   -0.020227531327278572   -0.00041750549893646564
-0.003983914368640726   -0.023548023316070494   -0.0006065070635924696
-0.002400174062141599   -0.023552773898272768   -0.0005439384558064513
-0.0024974267010698346   -0.020196943999542926   -0.0004095234764774341
-0.003982521286228203   -0.023525795761365913   -0.0005792044191960519
-0.0024022782416366797   -0.02353632195971596   -0.0005359997512695058
-0.0024974267010698346   -0.020196943999542926   -0.0004095234764774341
-0.0043727228063275645   -0.020171622618676943   -0.00044981678982304813
-0.003982521286228203   -0.023525795761365913   -0.0005792044191960519
-0.0043843643966771945   -0.020157046745615484   -0.0004227707250620843
-0.0024022782416366797   -0.02353632195971596   -0.0005359997512695058
-0.0039816293679877405   -0.023515585086690625   -0.0005489795346380186
-0.0043843643966771945   -0.020157046745615484   -0.0004227707250620843
-0.003982521286228203   -0.023525795761365913   -0.0005792044191960519
-0.0024022782416366797   -0.02353632195971596   -0.0005359997512695058
-0.0043843643966771945   -0.020157046745615484   -0.0004227707250620843
-0.0025122702641733876   -0.020175471919534546   -0.00039882816959983656
-0.0024974267010698346   -0.020196943999542926   -0.0004095234764774341
-0.0024022782416366797   -0.02353632195971596   -0.0005359997512695058
-0.0043843643966771945   -0.020157046745615484   -0.0004227707250620843
-0.0024974267010698346   -0.020196943999542926   -0.0004095234764774341
-0.003982521286228203   -0.023525795761365913   -0.0005792044191960519
-0.003982623493460701   -0.02358247508280747   -0.0006308016354652645
-0.0043477321616444495   -0.020227338635613434   -0.0004956575125910928
-0.005614132327561335   -0.023502978146103796   -0.0006994110571427823
-0.003983914368640726   -0.023548023316070494   -0.0006065070635924696
-0.0043477321616444495   -0.020227338635613434   -0.0004956575125910928
-0.006268050656413462   -0.020158884043986514   -0.0005563966373986968
-0.005614132327561335   -0.023502978146103796   -0.0006994110571427823
-0.006279259778403135   -0.020133641043466557   -0.0005182544626304002
-0.003983914368640726   -0.023548023316070494   -0.0006065070635924696
-0.005612009966486741   -0.02347489154503514   -0.0006525087754607866
-0.006279259778403135   -0.020133641043466557   -0.0005182544626304002
-0.005614132327561335   -0.023502978146103796   -0.0006994110571427823
-0.003983914368640726   -0.023548023316070494   -0.0006065070635924696
-0.006279259778403135   -0.020133641043466557   -0.0005182544626304002
-0.004361425101500436   -0.020195040056239726   -0.00047413918701015535
-0.0043477321616444495   -0.020227338635613434   -0.0004956575125910928
-0.003983914368640726   -0.023548023316070494   -0.0006065070635924696
-0.006279259778403135   -0.020133641043466557   -0.0005182544626304002
-0.0043477321616444495   -0.020227338635613434   -0.0004956575125910928
-0.005614132327561335   -0.023502978146103796   -0.0006994110571427823
-0.003983914368640726   -0.023548023316070494   -0.0006065070635924696
-0.004361425101500436   -0.020195040056239726   -0.00047413918701015535
-0.005612009966486741   -0.02347489154503514   -0.0006525087754607866
-0.003982521286228203   -0.023525795761365913   -0.0005792044191960519
-0.004361425101500436   -0.020195040056239726   -0.00047413918701015535
-0.006279259778403135   -0.020133641043466557   -0.0005182544626304002
-0.005612009966486741   -0.02347489154503514   -0.0006525087754607866
-0.0062802908689941865   -0.020116785311238686   -0.0004776951211660037
-0.003982521286228203   -0.023525795761365913   -0.0005792044191960519
-0.005598063280107424   -0.023458633413758215   -0.0006030544188940169
-0.0062802908689941865   -0.020116785311238686   -0.0004776951211660037
-0.005612009966486741   -0.02347489154503514   -0.0006525087754607866
-0.003982521286228203   -0.023525795761365913   -0.0005792044191960519
-0.0062802908689941865   -0.020116785311238686   -0.0004776951211660037
-0.0043727228063275645   -0.020171622618676943   -0.00044981678982304813
-0.004361425101500436   -0.020195040056239726   -0.00047413918701015535
-0.003982521286228203   -0.023525795761365913   -0.0005792044191960519
-0.0062802908689941865   -0.020116785311238686   -0.0004776951211660037
-0.004361425101500436   -0.020195040056239726   -0.00047413918701015535
-0.005612009966486741   -0.02347489154503514   -0.0006525087754607866
-0.003982521286228203   -0.023525795761365913   -0.0005792044191960519
-0.0043727228063275645   -0.020171622618676943   -0.00044981678982304813
-0.005598063280107424   -0.023458633413758215   -0.0006030544188940169
-0.0039816293679877405   -0.023515585086690625   -0.0005489795346380186
-0.0043727228063275645   -0.020171622618676943   -0.00044981678982304813
-0.0062802908689941865   -0.020116785311238686   -0.0004776951211660037
-0.005598063280107424   -0.023458633413758215   -0.0006030544188940169
-0.006284306769861365   -0.020109577317896282   -0.0004342032211846461
-0.0039816293679877405   -0.023515585086690625   -0.0005489795346380186
-0.005588803806128458   -0.02345540970664859   -0.000550438891958959
-0.006284306769861365   -0.020109577317896282   -0.0004342032211846461
-0.005598063280107424   -0.023458633413758215   -0.0006030544188940169
-0.0039816293679877405   -0.023515585086690625   -0.0005489795346380186
-0.006284306769861365   -0.020109577317896282   -0.0004342032211846461
-0.0043843643966771945   -0.020157046745615484   -0.0004227707250620843
-0.0043727228063275645   -0.020171622618676943   -0.00044981678982304813
-0.0039816293679877405   -0.023515585086690625   -0.0005489795346380186
-0.006284306769861365   -0.020109577317896282   -0.0004342032211846461
-0.0043727228063275645   -0.020171622618676943   -0.00044981678982304813
-0.005598063280107424   -0.023458633413758215   -0.0006030544188940169
-0.005614132327561335   -0.023502978146103796   -0.0006994110571427823
-0.006268050656413462   -0.020158884043986514   -0.0005563966373986968
-0.007436622459516231   -0.023392911727278868   -0.0007615226162133488
-0.005612009966486741   -0.02347489154503514   -0.0006525087754607866
-0.006268050656413462   -0.020158884043986514   -0.0005563966373986968
-0.008362812394138141   -0.020068607341880648   -0.0006083090975706176
-0.007436622459516231   -0.023392911727278868   -0.0007615226162133488
-0.008321281272548482   -0.02004554326490199   -0.0005524383164521902
-0.005612009966486741   -0.02347489154503514   -0.0006525087754607866
-0.007367110964175947   -0.023365226504601423   -0.000689625719365968
-0.008321281272548482   -0.02004554326490199   -0.0005524383164521902
-0.007436622459516231   -0.023392911727278868   -0.0007615226162133488
-0.005612009966486741   -0.02347489154503514   -0.0006525087754607866
-0.008321281272548482   -0.02004554326490199   -0.0005524383164521902
-0.006279259778403135   -0.020133641043466557   -0.0005182544626304002
-0.006268050656413462   -0.020158884043986514   -0.0005563966373986968
-0.005612009966486741   -0.02347489154503514   -0.0006525087754607866
-0.008321281272548482   -0.02004554326490199   -0.0005524383164521902
-0.006268050656413462   -0.020158884043986514   -0.0005563966373986968
-0.007436622459516231   -0.023392911727278868   -0.0007615226162133488
-0.005612009966486741   -0.02347489154503514   -0.0006525087754607866
-0.006279259778403135   -0.020133641043466557   -0.0005182544626304002
-0.007367110964175947   -0.023365226504601423   -0.000689625719365968
-0.005598063280107424   -0.023458633413758215   -0.0006030544188940169
-0.006279259778403135   -0.020133641043466557   -0.0005182544626304002
-0.008321281272548482   -0.02004554326490199   -0.0005524383164521902
-0.007367110964175947   -0.023365226504601423   -0.000689625719365968
-0.008286354561193044   -0.020031476645919876   -0.0004923373870544511
-0.005598063280107424   -0.023458633413758215   -0.0006030544188940169
-0.0073078424733025   -0.023351153609744553   -0.0006134224892311749
-0.008286354561193044   -0.020031476645919876   -0.0004923373870544511
-0.007367110964175947   -0.023365226504601423   -0.000689625719365968
-0.005598063280107424   -0.023458633413758215   -0.0006030544188940169
-0.008286354561193044   -0.020031476645919876   -0.0004923373870544511
-0.0062802908689941865   -0.020116785311238686   -0.0004776951211660037
-0.006279259778403135   -0.020133641043466557   -0.0005182544626304002
-0.005598063280107424   -0.023458633413758215   -0.0006030544188940169
-0.008286354561193044   -0.020031476645919876   -0.0004923373870544511
-0.006279259778403135   -0.020133641043466557   -0.0005182544626304002
-0.007367110964175947   -0.023365226504601423   -0.000689625719365968
-0.005598063280107424   -0.023458633413758215   -0.0006030544188940169
-0.0062802908689941865   -0.020116785311238686   -0.0004776951211660037
-0.0073078424733025   -0.023351153609744553   -0.0006134224892311749
-0.005588803806128458   -0.02345540970664859   -0.000550438891958959
-0.0062802908689941865   -0.020116785311238686   -0.0004776951211660037
-0.008286354561193044   -0.020031476645919876   -0.0004923373870544511
-0.0073078424733025   -0.023351153609744553   -0.0006134224892311749
-0.008229241911956195   -0.02003372626639887   -0.00042853666080174197
-0.005588803806128458   -0.02345540970664859   -0.000550438891958959
-0.0072225549977914015   -0.02335768834892682   -0.000533511133278759
-0.008229241911956195   -0.02003372626639887   -0.00042853666080174197
-0.0073078424733025   -0.023351153609744553   -0.0006134224892311749
-0.005588803806128458   -0.02345540970664859   -0.000550438891958959
-0.008229241911956195   -0.02003372626639887   -0.00042853666080174197
-0.006284306769861365   -0.020109577317896282   -0.0004342032211846461
-0.0062802908689941865   -0.020116785311238686   -0.0004776951211660037
-0.005588803806128458   -0.02345540970664859   -0.000550438891958959
-0.008229241911956195   -0.02003372626639887   -0.00042853666080174197
-0.0062802908689941865   -0.020116785311238686   -0.0004776951211660037
-0.0073078424733025   -0.023351153609744553   -0.0006134224892311749
0.001424435498611836   -0.02025604595778474   -0.00023227950793165372
0.0017334722164186224   -0.016512925358774185   -0.00011918110886274988
-0.0005643126635147441   -0.02027735531675203   -0.00033697764109913864
0.0014450368048320324   -0.02020047210955973   -0.00026565548598528164
0.0017334722164186224   -0.016512925358774185   -0.00011918110886274988
-0.0004809980721900455   -0.016513297811070558   -0.00021608054284557904
-0.0005643126635147441   -0.02027735531675203   -0.00033697764109913864
-0.0005001834845644445   -0.016467350577192615   -0.00021795763578938922
0.0014450368048320324   -0.02020047210955973   -0.00026565548598528164
-0.0005731984537300759   -0.02022976930678824   -0.0003483409307775596
-0.0005001834845644445   -0.016467350577192615   -0.00021795763578938922
-0.0005643126635147441   -0.02027735531675203   -0.00033697764109913864
0.0014450368048320324   -0.02020047210955973   -0.00026565548598528164
-0.0005001834845644445   -0.016467350577192615   -0.00021795763578938922
0.0017285408428001996   -0.016459783067349344   -0.00013572475859407413
0.0017334722164186224   -0.016512925358774185   -0.00011918110886274988
0.0014450368048320324   -0.02020047210955973   -0.00026565548598528164
-0.0005001834845644445   -0.016467350577192615   -0.00021795763578938922
0.0017334722164186224   -0.016512925358774185   -0.00011918110886274988
-0.0005643126635147441   -0.02027735531675203   -0.00033697764109913864
0.0014450368048320324   -0.02020047210955973   -0.00026565548598528164
0.0017285408428001996   -0.016459783067349344   -0.00013572475859407413
-0.0005731984537300759   -0.02022976930678824   -0.0003483409307775596
0.0014519922132005746   -0.0201606325575132   -0.0002949380259849288
0.0017285408428001996   -0.016459783067349344   -0.00013572475859407413
-0.0005001834845644445   -0.016467350577192615   -0.00021795763578938922
-0.0005731984537300759   -0.02022976930678824   -0.0003483409307775596
-0.0005215135048172273   -0.01642824454231233   -0.00021735498407765073
0.0014519922132005746   -0.0201606325575132   -0.0002949380259849288
-0.0005824800755241853   -0.020192649253080105   -0.0003569334123996506
-0.0005215135048172273   -0.01642824454231233   -0.00021735498407765073
-0.0005731984537300759   -0.02022976930678824   -0.0003483409307775596
0.0014519922132005746   -0.0201606325575132   -0.0002949380259849288
-0.0005215135048172273   -0.01642824454231233   -0.00021735498407765073
0.0017138261825023228   -0.016417617768360496   -0.00014829365189956083
0.0017285408428001996   -0.016459783067349344   -0.00013572475859407413
0.0014519922132005746   -0.0201606325575132   -0.0002949380259849288
-0.0005215135048172273   -0.01642824454231233   -0.00021735498407765073
0.0017285408428001996   -0.016459783067349344   -0.00013572475859407413
-0.0005731984537300759   -0.02022976930678824   -0.0003483409307775596
0.0014519922132005746   -0.0201606325575132   -0.0002949380259849288
0.0017138261825023228   -0.016417617768360496   -0.00014829365189956083
-0.0005824800755241853   -0.020192649253080105   -0.0003569334123996506
0.0014566836484553162   -0.020129276376291947   -0.0003203237475573946
0.0017138261825023228   -0.016417617768360496   -0.00014829365189956083
-0.0005215135048172273   -0.01642824454231233   -0.00021735498407765073
-0.0005824800755241853   -0.020192649253080105   -0.0003569334123996506
-0.0005482083510776211   -0.016394930904129263   -0.0002141748249402886
0.0014566836484553162   -0.020129276376291947   -0.0003203237475573946
-0.0005987125594923168   -0.02016479064301441   -0.0003628474887837602
-0.0005482083510776211   -0.016394930904129263   -0.0002141748249402886
-0.0005824800755241853   -0.020192649253080105   -0.0003569334123996506
0.0014566836484553162   -0.020129276376291947   -0.0003203237475573946
-0.0005482083510776211   -0.016394930904129263   -0.0002141748249402886
0.001693067607910328   -0.016379289513480586   -0.00015716559873130175
0.0017138261825023228   -0.016417617768360496   -0.00014829365189956083
0.0014566836484553162   -0.020129276376291947   -0.0003203237475573946
-0.0005482083510776211   -0.016394930904129263   -0.0002141748249402886
0.0017138261825023228   -0.016417617768360496   -0.00014829365189956083
-0.0005824800755241853   -0.020192649253080105   -0.0003569334123996506
-0.0005643126635147441   -0.02027735531675203   -0.00033697764109913864
-0.0004809980721900455   -0.016513297811070558   -0.00021608054284557904
-0.002471991152447206   -0.020267084434257576   -0.00042262967243674967
-0.0005731984537300759   -0.02022976930678824   -0.0003483409307775596
-0.0004809980721900455   -0.016513297811070558   -0.00021608054284557904
-0.0025938968841804867   -0.016493458706842525   -0.0002954121380121227
-0.002471991152447206   -0.020267084434257576   -0.00042262967243674967
-0.0026155990319989483   -0.016455584760568975   -0.00028683042143073527
-0.0005731984537300759   -0.02022976930678824   -0.0003483409307775596
-0.0024846207706501807   -0.020227531327278572   -0.00041750549893646564
-0.0026155990319989483   -0.016455584760568975   -0.00028683042143073527
-0.002471991152447206   -0.020267084434257576   -0.00042262967243674967
-0.0005731984537300759   -0.02022976930678824   -0.0003483409307775596
-0.0026155990319989483   -0.016455584760568975   -0.00028683042143073527
-0.0005001834845644445   -0.016467350577192615   -0.00021795763578938922
-0.0004809980721900455   -0.016513297811070558   -0.00021608054284557904
-0.0005731984537300759   -0.02022976930678824   -0.0003483409307775596
-0.0026155990319989483   -0.016455584760568975   -0.00028683042143073527
-0.0004809980721900455   -0.016513297811070558   -0.00021608054284557904
-0.002471991152447206   -0.020267084434257576   -0.00042262967243674967
-0.0005731984537300759   -0.02022976930678824   -0.0003483409307775596
-0.0005001834845644445   -0.016467350577192615   -0.00021795763578938922
-0.0024846207706501807   -0.020227531327278572   -0.00041750549893646564
-0.0005824800755241853   -0.020192649253080105   -0.0003569334123996506
-0.0005001834845644445   -0.016467350577192615   -0.00021795763578938922
-0.0026155990319989483   -0.016455584760568975   -0.00028683042143073527
-0.0024846207706501807   -0.020227531327278572   -0.00041750549893646564
-0.0026377527353442253   -0.016423278437129797   -0.00027565991358927746
-0.0005824800755241853   -0.020192649253080105   -0.0003569334123996506
-0.0024974267010698346   -0.020196943999542926   -0.0004095234764774341
-0.0026377527353442253   -0.016423278437129797   -0.00027565991358927746
-0.0024846207706501807   -0.020227531327278572   -0.00041750549893646564
-0.0005824800755241853   -0.020192649253080105   -0.0003569334123996506
-0.0026377527353442253   -0.016423278437129797   -0.00027565991358927746
-0.0005215135048172273   -0.01642824454231233   -0.00021735498407765073
-0.0005001834845644445   -0.016467350577192615   -0.00021795763578938922
-0.0005824800755241853   -0.020192649253080105   -0.0003569334123996506
-0.0026377527353442253   -0.016423278437129797   -0.00027565991358927746
-0.0005001834845644445   -0.016467350577192615   -0.00021795763578938922
-0.0024846207706501807   -0.020227531327278572   -0.00041750549893646564
-0.0005824800755241853   -0.020192649253080105   -0.0003569334123996506
-0.0005215135048172273   -0.01642824454231233   -0.00021735498407765073
-0.0024974267010698346   -0.020196943999542926   -0.0004095234764774341
-0.0005987125594923168   -0.02016479064301441   -0.0003628474887837602
-0.0005215135048172273   -0.01642824454231233   -0.00021735498407765073
-0.0026377527353442253   -0.016423278437129797   -0.00027565991358927746
-0.0024974267010698346   -0.020196943999542926   -0.0004095234764774341
-0.0026618163905870757   -0.016396861715971208   -0.00026202858487045364
-0.0005987125594923168   -0.02016479064301441   -0.0003628474887837602
-0.0025122702641733876   -0.020175471919534546   -0.00039882816959983656
-0.0026618163905870757   -0.016396861715971208   -0.00026202858487045364
-0.0024974267010698346   -0.020196943999542926   -0.0004095234764774341
-0.0005987125594923168   -0.02016479064301441   -0.0003628474887837602
-0.0026618163905870757   -0.016396861715971208   -0.00026202858487045364
-0.0005482083510776211   -0.016394930904129263   -0.0002141748249402886
-0.0005215135048172273   -0.01642824454231233   -0.00021735498407765073
-0.0005987125594923168   -0.02016479064301441   -0.0003628474887837602
-0.0026618163905870757   -0.016396861715971208   -0.00026202858487045364
-0.0005215135048172273   -0.01642824454231233   -0.00021735498407765073
-0.0024974267010698346   -0.020196943999542926   -0.0004095234764774341
-0.002471991152447206   -0.020267084434257576   -0.00042262967243674967
-0.0025938968841804867   -0.016493458706842525   -0.0002954121380121227
-0.0043477321616444495   -0.020227338635613434   -0.0004956575125910928
-0.0024846207706501807   -0.020227531327278572   -0.00041750549893646564
-0.0025938968841804867   -0.016493458706842525   -0.0002954121380121227
-0.004671104092492049   -0.016455856524177158   -0.0003619819371069804
-0.0043477321616444495   -0.020227338635613434   -0.0004956575125910928
-0.004693523931883247   -0.016425382289011622   -0.0003429799730050305
-0.0024846207706501807   -0.020227531327278572   -0.00041750549893646564
-0.004361425101500436   -0.020195040056239726   -0.00047413918701015535
-0.004693523931883247   -0.016425382289011622   -0.0003429799730050305
-0.0043477321616444495   -0.020227338635613434   -0.0004956575125910928
-0.0024846207706501807   -0.020227531327278572   -0.00041750549893646564
-0.004693523931883247   -0.016425382289011622   -0.0003429799730050305
-0.0026155990319989483   -0.016455584760568975   -0.00028683042143073527
-0.0025938968841804867   -0.016493458706842525   -0.0002954121380121227
-0.0024846207706501807   -0.020227531327278572   -0.00041750549893646564
-0.004693523931883247   -0.016425382289011622   -0.0003429799730050305
-0.0025938968841804867   -0.016493458706842525   -0.0002954121380121227
-0.0043477321616444495   -0.020227338635613434   -0.0004956575125910928
-0.0024846207706501807   -0.020227531327278572   -0.00041750549893646564
-0.0026155990319989483   -0.016455584760568975   -0.00028683042143073527
-0.004361425101500436   -0.020195040056239726   -0.00047413918701015535
-0.0024974267010698346   -0.020196943999542926   -0.0004095234764774341
-0.0026155990319989483   -0.016455584760568975   -0.00028683042143073527
-0.004693523931883247   -0.016425382289011622   -0.0003429799730050305
-0.004361425101500436   -0.020195040056239726   -0.00047413918701015535
-0.004713826203892142   -0.01640043651220051   -0.00032145165801047445
-0.0024974267010698346   -0.020196943999542926   -0.0004095234764774341
-0.0043727228063275645   -0.020171622618676943   -0.00044981678982304813
-0.004713826203892142   -0.01640043651220051   -0.00032145165801047445
-0.004361425101500436   -0.020195040056239726   -0.00047413918701015535
-0.0024974267010698346   -0.020196943999542926   -0.0004095234764774341
-0.004713826203892142   -0.01640043651220051   -0.00032145165801047445
-0.0026377527353442253   -0.016423278437129797   -0.00027565991358927746
-0.0026155990319989483   -0.016455584760568975   -0.00028683042143073527
-0.0024974267010698346   -0.020196943999542926   -0.0004095234764774341
-0.004713826203892142   -0.01640043651220051   -0.00032145165801047445
-0.0026155990319989483   -0.016455584760568975   -0.00028683042143073527
-0.004361425101500436   -0.020195040056239726   -0.00047413918701015535
-0.0024974267010698346   -0.020196943999542926   -0.0004095234764774341
-0.0026377527353442253   -0.016423278437129797   -0.00027565991358927746
-0.0043727228063275645   -0.020171622618676943   -0.00044981678982304813
-0.0025122702641733876   -0.020175471919534546   -0.00039882816959983656
-0.0026377527353442253   -0.016423278437129797   -0.00027565991358927746
-0.004713826203892142   -0.01640043651220051   -0.00032145165801047445
-0.0043727228063275645   -0.020171622618676943   -0.00044981678982304813
-0.004734325956870032   -0.01638105643388915   -0.00029749081283234204
-0.0025122702641733876   -0.020175471919534546   -0.00039882816959983656
-0.0043843643966771945   -0.020157046745615484   -0.0004227707250620843
-0.004734325956870032   -0.01638105643388915   -0.00029749081283234204
-0.0043727228063275645   -0.020171622618676943   -0.00044981678982304813
-0.0025122702641733876   -0.020175471919534546   -0.00039882816959983656
-0.004734325956870032   -0.01638105643388915   -0.00029749081283234204
-0.0026618163905870757   -0.016396861715971208   -0.00026202858487045364
-0.0026377527353442253   -0.016423278437129797   -0.00027565991358927746
-0.0025122702641733876   -0.020175471919534546   -0.00039882816959983656
-0.004734325956870032   -0.01638105643388915   -0.00029749081283234204
-0.0026377527353442253   -0.016423278437129797   -0.00027565991358927746
-0.0043727228063275645   -0.020171622618676943   -0.00044981678982304813
-0.0043477321616444495   -0.020227338635613434   -0.0004956575125910928
-0.004671104092492049   -0.016455856524177158   -0.0003619819371069804
-0.006268050656413462   -0.020158884043986514   -0.0005563966373986968
-0.004361425101500436   -0.020195040056239726   -0.00047413918701015535
-0.004671104092492049   -0.016455856524177158   -0.0003619819371069804
-0.006789613453852429   -0.01639970325779008   -0.0004159812760745819
-0.006268050656413462   -0.020158884043986514   -0.0005563966373986968
-0.006810358814228408   -0.016376671784695013   -0.00038647583406528407
-0.004361425101500436   -0.020195040056239726   -0.00047413918701015535
-0.006279259778403135   -0.020133641043466557   -0.0005182544626304002
-0.006810358814228408   -0.016376671784695013   -0.00038647583406528407
-0.006268050656413462   -0.020158884043986514   -0.0005563966373986968
-0.004361425101500436   -0.020195040056239726   -0.00047413918701015535
-0.006810358814228408   -0.016376671784695013   -0.00038647583406528407
-0.004693523931883247   -0.016425382289011622   -0.0003429799730050305
-0.004671104092492049   -0.016455856524177158   -0.0003619819371069804
-0.004361425101500436   -0.020195040056239726   -0.00047413918701015535
-0.006810358814228408   -0.016376671784695013   -0.00038647583406528407
-0.004671104092492049   -0.016455856524177158   -0.0003619819371069804
-0.006268050656413462   -0.020158884043986514   -0.0005563966373986968
-0.004361425101500436   -0.020195040056239726   -0.00047413918701015535
-0.004693523931883247   -0.016425382289011622   -0.0003429799730050305
-0.006279259778403135   -0.020133641043466557   -0.0005182544626304002
-0.0043727228063275645   -0.020171622618676943   -0.00044981678982304813
-0.004693523931883247   -0.016425382289011622   -0.0003429799730050305
-0.006810358814228408   -0.016376671784695013   -0.00038647583406528407
-0.006279259778403135   -0.020133641043466557   -0.0005182544626304002
-0.006822654625684405   -0.016358520698747693   -0.0003547793350733793
-0.0043727228063275645   -0.020171622618676943   -0.00044981678982304813
-0.0062802908689941865   -0.020116785311238686   -0.0004776951211660037
-0.006822654625684405   -0.016358520698747693   -0.0003547793350733793
-0.006279259778403135   -0.020133641043466557   -0.0005182544626304002
-0.0043727228063275645   -0.020171622618676943   -0.00044981678982304813
-0.006822654625684405   -0.016358520698747693   -0.0003547793350733793
-0.004713826203892142   -0.01640043651220051   -0.00032145165801047445
-0.004693523931883247   -0.016425382289011622   -0.0003429799730050305
-0.0043727228063275645   -0.020171622618676943   -0.00044981678982304813
-0.006822654625684405   -0.016358520698747693   -0.0003547793350733793
-0.004693523931883247   -0.016425382289011622   -0.0003429799730050305
-0.006279259778403135   -0.020133641043466557   -0.0005182544626304002
-0.0043727228063275645   -0.020171622618676943   -0.00044981678982304813
-0.004713826203892142   -0.01640043651220051   -0.00032145165801047445
-0.0062802908689941865   -0.020116785311238686   -0.0004776951211660037
-0.0043843643966771945   -0.020157046745615484   -0.0004227707250620843
-0.004713826203892142   -0.01640043651220051   -0.00032145165801047445
-0.006822654625684405   -0.016358520698747693   -0.0003547793350733793
-0.0062802908689941865   -0.020116785311238686   -0.0004776951211660037
-0.006836300623783071   -0.01634643141132582   -0.00032044144551710257
-0.0043843643966771945   -0.020157046745615484   -0.0004227707250620843
-0.006284306769861365   -0.020109577317896282   -0.0004342032211846461
-0.006836300623783071   -0.01634643141132582   -0.00032044144551710257
-0.0062802908689941865   -0.020116785311238686   -0.0004776951211660037
-0.0043843643966771945   -0.020157046745615484   -0.0004227707250620843
-0.006836300623783071   -0.01634643141132582   -0.00032044144551710257
-0.004734325956870032   -0.01638105643388915   -0.00029749081283234204
-0.004713826203892142   -0.01640043651220051   -0.00032145165801047445
-0.0043843643966771945   -0.020157046745615484   -0.0004227707250620843
-0.006836300623783071   -0.01634643141132582   -0.00032044144551710257
-0.004713826203892142   -0.01640043651220051   -0.00032145165801047445
-0.0062802908689941865   -0.020116785311238686   -0.0004776951211660037
-0.006268050656413462   -0.020158884043986514   -0.0005563966373986968
-0.006789613453852429   -0.01639970325779008   -0.0004159812760745819
-0.008362812394138141   -0.020068607341880648   -0.0006083090975706176
-0.006279259778403135   -0.020133641043466557   -0.0005182544626304002
-0.006789613453852429   -0.01639970325779008   -0.0004159812760745819
-0.009064603293986609   -0.01633015852472524   -0.00045866938620507723
-0.008362812394138141   -0.020068607341880648   -0.0006083090975706176
-0.00904758380238262   -0.01631089624840973   -0.00041907735496243625
-0.006279259778403135   -0.020133641043466557   -0.0005182544626304002
-0.008321281272548482   -0.02004554326490199   -0.0005524383164521902
-0.00904758380238262   -0.01631089624840973   -0.00041907735496243625
-0.008362812394138141   -0.020068607341880648   -0.0006083090975706176
-0.006279259778403135   -0.020133641043466557   -0.0005182544626304002
-0.00904758380238262   -0.01631089624840973   -0.00041907735496243625
-0.006810358814228408   -0.016376671784695013   -0.00038647583406528407
-0.006789613453852429   -0.01639970325779008   -0.0004159812760745819
-0.006279259778403135   -0.020133641043466557   -0.0005182544626304002
-0.00904758380238262   -0.01631089624840973   -0.00041907735496243625
-0.006789613453852429   -0.01639970325779008   -0.0004159812760745819
-0.008362812394138141   -0.020068607341880648   -0.0006083090975706176
-0.006279259778403135   -0.020133641043466557   -0.0005182544626304002
-0.006810358814228408   -0.016376671784695013   -0.00038647583406528407
-0.008321281272548482   -0.02004554326490199   -0.0005524383164521902
-0.0062802908689941865   -0.020116785311238686   -0.0004776951211660037
-0.006810358814228408   -0.016376671784695013   -0.00038647583406528407
-0.00904758380238262   -0.01631089624840973   -0.00041907735496243625
-0.008321281272548482   -0.02004554326490199   -0.0005524383164521902
-0.009033695163415548   -0.016295951529755607   -0.00037546388627217775
-0.0062802908689941865   -0.020116785311238686   -0.0004776951211660037
-0.008286354561193044   -0.020031476645919876   -0.0004923373870544511
-0.009033695163415548   -0.016295951529755607   -0.00037546388627217775
-0.008321281272548482   -0.02004554326490199   -0.0005524383164521902
-0.0062802908689941865   -0.020116785311238686   -0.0004776951211660037
-0.009033695163415548   -0.016295951529755607   -0.00037546388627217775
-0.006822654625684405   -0.016358520698747693   -0.0003547793350733793
-0.006810358814228408   -0.016376671784695013   -0.00038647583406528407
-0.0062802908689941865   -0.020116785311238686   -0.0004776951211660037
-0.009033695163415548   -0.016295951529755607   -0.00037546388627217775
-0.006810358814228408   -0.016376671784695013   -0.00038647583406528407
-0.008321281272548482   -0.02004554326490199   -0.0005524383164521902
-0.0062802908689941865   -0.020116785311238686   -0.0004776951211660037
-0.006822654625684405   -0.016358520698747693   -0.0003547793350733793
-0.008286354561193044   -0.020031476645919876   -0.0004923373870544511
-0.006284306769861365   -0.020109577317896282   -0.0004342032211846461
-0.006822654625684405   -0.016358520698747693   -0.0003547793350733793
-0.009033695163415548   -0.016295951529755607   -0.00037546388627217775
-0.008286354561193044   -0.020031476645919876   -0.0004923373870544511
-0.009001688317956969   -0.016292676232076236   -0.00032828590601269075
-0.006284306769861365   -0.020109577317896282   -0.0004342032211846461
-0.008229241911956195   -0.02003372626639887   -0.00042853666080174197
-0.009001688317956969   -0.016292676232076236   -0.00032828590601269075
-0.008286354561193044   -0.020031476645919876   -0.0004923373870544511
-0.006284306769861365   -0.020109577317896282   -0.0004342032211846461
-0.009001688317956969   -0.016292676232076236   -0.00032828590601269075
-0.006836300623783071   -0.01634643141132582   -0.00032044144551710257
-0.006822654625684405   -0.016358520698747693   -0.0003547793350733793
-0.006284306769861365   -0.020109577317896282   -0.0004342032211846461
-0.009001688317956969   -0.016292676232076236   -0.00032828590601269075
-0.006822654625684405   -0.016358520698747693   -0.0003547793350733793
-0.008286354561193044   -0.020031476645919876   -0.0004923373870544511
0.0017334722164186224   -0.016512925358774185   -0.00011918110886274988
0.001804831169115896   -0.012498991191737707   -2.0306741364700578e-05
-0.0004809980721900455   -0.016513297811070558   -0.00021608054284557904
0.0017285408428001996   -0.016459783067349344   -0.00013572475859407413
0.001804831169115896   -0.012498991191737707   -2.0306741364700578e-05
-0.0005416251333361952   -0.012479120960327444   -0.00010704424084708345
-0.0004809980721900455   -0.016513297811070558   -0.00021608054284557904
-0.0005682492369741504   -0.012435277450964673   -9.935078194484091e-05
0.0017285408428001996   -0.016459783067349344   -0.00013572475859407413
-0.0005001834845644445   -0.016467350577192615   -0.00021795763578938922
-0.0005682492369741504   -0.012435277450964673   -9.935078194484091e-05
-0.0004809980721900455   -0.016513297811070558   -0.00021608054284557904
0.0017285408428001996   -0.016459783067349344   -0.00013572475859407413
-0.0005682492369741504   -0.012435277450964673   -9.935078194484091e-05
0.0017773792350235138   -0.012448429701182373   -1.9596863004565475e-05
0.001804831169115896   -0.012498991191737707   -2.0306741364700578e-05
0.0017285408428001996   -0.016459783067349344   -0.00013572475859407413
-0.0005682492369741504   -0.012435277450964673   -9.935078194484091e-05
0.001804831169115896   -0.012498991191737707   -2.0306741364700578e-05
-0.0004809980721900455   -0.016513297811070558   -0.00021608054284557904
0.0017285408428001996   -0.016459783067349344   -0.00013572475859407413
0.0017773792350235138   -0.012448429701182373   -1.9596863004565475e-05
-0.0005001834845644445   -0.016467350577192615   -0.00021795763578938922
0.0017138261825023228   -0.016417617768360496   -0.00014829365189956083
0.0017773792350235138   -0.012448429701182373   -1.9596863004565475e-05
-0.0005682492369741504   -0.012435277450964673   -9.935078194484091e-05
-0.0005001834845644445   -0.016467350577192615   -0.00021795763578938922
-0.0005987926074033849   -0.012394213726859978   -8.938866406710521e-05
0.0017138261825023228   -0.016417617768360496   -0.00014829365189956083
-0.0005215135048172273   -0.01642824454231233   -0.00021735498407765073
-0.0005987926074033849   -0.012394213726859978   -8.938866406710521e-05
-0.0005001834845644445   -0.016467350577192615   -0.00021795763578938922
0.0017138261825023228   -0.016417617768360496   -0.00014829365189956083
-0.0005987926074033849   -0.012394213726859978   -8.938866406710521e-05
0.0017430592516092225   -0.012403728866175263   -1.4265141179004583e-05
0.0017773792350235138   -0.012448429701182373   -1.9596863004565475e-05
0.0017138261825023228   -0.016417617768360496   -0.00014829365189956083
-0.0005987926074033849   -0.012394213726859978   -8.938866406710521e-05
0.0017773792350235138   -0.012448429701182373   -1.9596863004565475e-05
-0.0005001834845644445   -0.016467350577192615   -0.00021795763578938922
0.0017138261825023228   -0.016417617768360496   -0.00014829365189956083
0.0017430592516092225   -0.012403728866175263   -1.4265141179004583e-05
-0.0005215135048172273   -0.01642824454231233   -0.00021735498407765073
0.001693067607910328   -0.016379289513480586   -0.00015716559873130175
0.0017430592516092225   -0.012403728866175263   -1.4265141179004583e-05
-0.0005987926074033849   -0.012394213726859978   -8.938866406710521e-05
-0.0005215135048172273   -0.01642824454231233   -0.00021735498407765073
-0.0006332285251095586   -0.012355351555828151   -7.659186187981819e-05
0.001693067607910328   -0.016379289513480586   -0.00015716559873130175
-0.0005482083510776211   -0.016394930904129263   -0.0002141748249402886
-0.0006332285251095586   -0.012355351555828151   -7.659186187981819e-05
-0.0005215135048172273   -0.01642824454231233   -0.00021735498407765073
0.001693067607910328   -0.016379289513480586   -0.00015716559873130175
-0.0006332285251095586   -0.012355351555828151   -7.659186187981819e-05
0.001697654645975208   -0.01235721148757665   -4.516486603384332e-06
0.0017430592516092225   -0.012403728866175263   -1.4265141179004583e-05
0.001693067607910328   -0.016379289513480586   -0.00015716559873130175
-0.0006332285251095586   -0.012355351555828151   -7.659186187981819e-05
0.0017430592516092225   -0.012403728866175263   -1.4265141179004583e-05
-0.0005215135048172273   -0.01642824454231233   -0.00021735498407765073
-0.0004809980721900455   -0.016513297811070558   -0.00021608054284557904
-0.0005416251333361952   -0.012479120960327444   -0.00010704424084708345
-0.0025938968841804867   -0.016493458706842525   -0.0002954121380121227
-0.0005001834845644445   -0.016467350577192615   -0.00021795763578938922
-0.0005416251333361952   -0.012479120960327444   -0.00010704424084708345
-0.002764797063203657   -0.012455171907929712   -0.00017978495860969306
-0.0025938968841804867   -0.016493458706842525   -0.0002954121380121227
-0.002792159906066198   -0.012418797803477084   -0.00016748504286478368
-0.0005001834845644445   -0.016467350577192615   -0.00021795763578938922
-0.0026155990319989483   -0.016455584760568975   -0.00028683042143073527
-0.002792159906066198   -0.012418797803477084   -0.00016748504286478368
-0.0025938968841804867   -0.016493458706842525   -0.0002954121380121227
-0.0005001834845644445   -0.016467350577192615   -0.00021795763578938922
-0.002792159906066198   -0.012418797803477084   -0.00016748504286478368
-0.0005682492369741504   -0.012435277450964673   -9.935078194484091e-05
-0.0005416251333361952   -0.012479120960327444   -0.00010704424084708345
-0.0005001834845644445   -0.016467350577192615   -0.00021795763578938922
-0.002792159906066198   -0.012418797803477084   -0.00016748504286478368
-0.0005416251333361952   -0.012479120960327444   -0.00010704424084708345
-0.0025938968841804867   -0.016493458706842525   -0.0002954121380121227
-0.0005001834845644445   -0.016467350577192615   -0.00021795763578938922
-0.0005682492369741504   -0.012435277450964673   -9.935078194484091e-05
-0.0026155990319989483   -0.016455584760568975   -0.00028683042143073527
-0.0005215135048172273   -0.01642824454231233   -0.00021735498407765073
-0.0005682492369741504   -0.012435277450964673   -9.935078194484091e-05
-0.002792159906066198   -0.012418797803477084   -0.00016748504286478368
-0.0026155990319989483   -0.016455584760568975   -0.00028683042143073527
-0.002820159577262685   -0.012384574351775696   -0.00015301232607342277
-0.0005215135048172273   -0.01642824454231233   -0.00021735498407765073
-0.0026377527353442253   -0.016423278437129797   -0.00027565991358927746
-0.002820159577262685   -0.012384574351775696   -0.00015301232607342277
-0.0026155990319989483   -0.016455584760568975   -0.00028683042143073527
-0.0005215135048172273   -0.01642824454231233   -0.00021735498407765073
-0.002820159577262685   -0.012384574351775696   -0.00015301232607342277
-0.0005987926074033849   -0.012394213726859978   -8.938866406710521e-05
-0.0005682492369741504   -0.012435277450964673   -9.935078194484091e-05
-0.0005215135048172273   -0.01642824454231233   -0.00021735498407765073
-0.002820159577262685   -0.012384574351775696   -0.00015301232607342277
-0.0005682492369741504   -0.012435277450964673   -9.935078194484091e-05
-0.0026155990319989483   -0.016455584760568975   -0.00028683042143073527
-0.0005215135048172273   -0.01642824454231233   -0.00021735498407765073
-0.0005987926074033849   -0.012394213726859978   -8.938866406710521e-05
-0.0026377527353442253   -0.016423278437129797   -0.00027565991358927746
-0.0005482083510776211   -0.016394930904129263   -0.0002141748249402886
-0.0005987926074033849   -0.012394213726859978   -8.938866406710521e-05
-0.002820159577262685   -0.012384574351775696   -0.00015301232607342277
-0.0026377527353442253   -0.016423278437129797   -0.00027565991358927746
-0.002849977016898456   -0.0123530647440951   -0.00013635170806481885
-0.0005482083510776211   -0.016394930904129263   -0.0002141748249402886
-0.0026618163905870757   -0.016396861715971208   -0.00026202858487045364
-0.002849977016898456   -0.0123530647440951   -0.00013635170806481885
-0.0026377527353442253   -0.016423278437129797   -0.00027565991358927746
-0.0005482083510776211   -0.016394930904129263   -0.0002141748249402886
-0.002849977016898456   -0.0123530647440951   -0.00013635170806481885
-0.0006332285251095586   -0.012355351555828151   -7.659186187981819e-05
-0.0005987926074033849   -0.012394213726859978   -8.938866406710521e-05
-0.0005482083510776211   -0.016394930904129263   -0.0002141748249402886
-0.002849977016898456   -0.0123530647440951   -0.00013635170806481885
-0.0005987926074033849   -0.012394213726859978   -8.938866406710521e-05
-0.0026377527353442253   -0.016423278437129797   -0.00027565991358927746
-0.0025938968841804867   -0.016493458706842525   -0.0002954121380121227
-0.002764797063203657   -0.012455171907929712   -0.00017978495860969306
-0.004671104092492049   -0.016455856524177158   -0.0003619819371069804
-0.0026155990319989483   -0.016455584760568975   -0.00028683042143073527
-0.002764797063203657   -0.012455171907929712   -0.00017978495860969306
-0.004951390381896613   -0.01242609078809665   -0.00024116461529942538
-0.004671104092492049   -0.016455856524177158   -0.0003619819371069804
-0.004978634650980687   -0.012396595220568817   -0.00022429276645093916
-0.0026155990319989483   -0.016455584760568975   -0.00028683042143073527
-0.004693523931883247   -0.016425382289011622   -0.0003429799730050305
-0.004978634650980687   -0.012396595220568817   -0.00022429276645093916
-0.004671104092492049   -0.016455856524177158   -0.0003619819371069804
-0.0026155990319989483   -0.016455584760568975   -0.00028683042143073527
-0.004978634650980687   -0.012396595220568817   -0.00022429276645093916
-0.002792159906066198   -0.012418797803477084   -0.00016748504286478368
-0.002764797063203657   -0.012455171907929712   -0.00017978495860969306
-0.0026155990319989483   -0.016455584760568975   -0.00028683042143073527
-0.004978634650980687   -0.012396595220568817   -0.00022429276645093916
-0.002764797063203657   -0.012455171907929712   -0.00017978495860969306
-0.004671104092492049   -0.016455856524177158   -0.0003619819371069804
-0.0026155990319989483   -0.016455584760568975   -0.00028683042143073527
-0.002792159906066198   -0.012418797803477084   -0.00016748504286478368
-0.004693523931883247   -0.016425382289011622   -0.0003429799730050305
-0.0026377527353442253   -0.016423278437129797   -0.00027565991358927746
-0.002792159906066198   -0.012418797803477084   -0.00016748504286478368
-0.004978634650980687   -0.012396595220568817   -0.00022429276645093916
-0.004693523931883247   -0.016425382289011622   -0.0003429799730050305
-0.005004093632619913   -0.012369358230509313   -0.00020532189586671827
-0.0026377527353442253   -0.016423278437129797   -0.00027565991358927746
-0.004713826203892142   -0.01640043651220051   -0.00032145165801047445
-0.005004093632619913   -0.012369358230509313   -0.00020532189586671827
-0.004693523931883247   -0.016425382289011622   -0.0003429799730050305
-0.0026377527353442253   -0.016423278437129797   -0.00027565991358927746
-0.005004093632619913   -0.012369358230509313   -0.00020532189586671827
-0.002820159577262685   -0.012384574351775696   -0.00015301232607342277
-0.002792159906066198   -0.012418797803477084   -0.00016748504286478368
-0.0026377527353442253   -0.016423278437129797   -0.00027565991358927746
-0.005004093632619913   -0.012369358230509313   -0.00020532189586671827
-0.002792159906066198   -0.012418797803477084   -0.00016748504286478368
-0.004693523931883247   -0.016425382289011622   -0.0003429799730050305
-0.0026377527353442253   -0.016423278437129797   -0.00027565991358927746
-0.002820159577262685   -0.012384574351775696   -0.00015301232607342277
-0.004713826203892142   -0.01640043651220051   -0.00032145165801047445
-0.0026618163905870757   -0.016396861715971208   -0.00026202858487045364
-0.002820159577262685   -0.012384574351775696   -0.00015301232607342277
-0.005004093632619913   -0.012369358230509313   -0.00020532189586671827
-0.004713826203892142   -0.01640043651220051   -0.00032145165801047445
-0.005029644424357994   -0.01234445016470119   -0.00018435347450658805
-0.0026618163905870757   -0.016396861715971208   -0.00026202858487045364
-0.004734325956870032   -0.01638105643388915   -0.00029749081283234204
-0.005029644424357994   -0.01234445016470119   -0.00018435347450658805
-0.004713826203892142   -0.01640043651220051   -0.00032145165801047445
-0.0026618163905870757   -0.016396861715971208   -0.00026202858487045364
-0.005029644424357994   -0.01234445016470119   -0.00018435347450658805
-0.002849977016898456   -0.0123530647440951   -0.00013635170806481885
-0.002820159577262685   -0.012384574351775696   -0.00015301232607342277
-0.0026618163905870757   -0.016396861715971208   -0.00026202858487045364
-0.005029644424357994   -0.01234445016470119   -0.00018435347450658805
-0.002820159577262685   -0.012384574351775696   -0.00015301232607342277
-0.004713826203892142   -0.01640043651220051   -0.00032145165801047445
-0.004671104092492049   -0.016455856524177158   -0.0003619819371069804
-0.004951390381896613   -0.01242609078809665   -0.00024116461529942538
-0.006789613453852429   -0.01639970325779008   -0.0004159812760745819
-0.004693523931883247   -0.016425382289011622   -0.0003429799730050305
-0.004951390381896613   -0.01242609078809665   -0.00024116461529942538
-0.007177725755940679   -0.012386541556417987   -0.0002906525526334298
-0.006789613453852429   -0.01639970325779008   -0.0004159812760745819
-0.007203783540926093   -0.012364277515680122   -0.0002692648399707099
-0.004693523931883247   -0.016425382289011622   -0.0003429799730050305
-0.006810358814228408   -0.016376671784695013   -0.00038647583406528407
-0.007203783540926093   -0.012364277515680122   -0.0002692648399707099
-0.006789613453852429   -0.01639970325779008   -0.0004159812760745819
-0.004693523931883247   -0.016425382289011622   -0.0003429799730050305
-0.007203783540926093   -0.012364277515680122   -0.0002692648399707099
-0.004978634650980687   -0.012396595220568817   -0.00022429276645093916
-0.004951390381896613   -0.01242609078809665   -0.00024116461529942538
-0.004693523931883247   -0.016425382289011622   -0.0003429799730050305
-0.007203783540926093   -0.012364277515680122   -0.0002692648399707099
-0.004951390381896613   -0.01242609078809665   -0.00024116461529942538
-0.006789613453852429   -0.01639970325779008   -0.0004159812760745819
-0.004693523931883247   -0.016425382289011622   -0.0003429799730050305
-0.004978634650980687   -0.012396595220568817   -0.00022429276645093916
-0.006810358814228408   -0.016376671784695013   -0.00038647583406528407
-0.004713826203892142   -0.01640043651220051   -0.00032145165801047445
-0.004978634650980687   -0.012396595220568817   -0.00022429276645093916
-0.007203783540926093   -0.012364277515680122   -0.0002692648399707099
-0.006810358814228408   -0.016376671784695013   -0.00038647583406528407
-0.007223352010045822   -0.012343495582268783   -0.00024611276505515935
-0.004713826203892142   -0.01640043651220051   -0.00032145165801047445
-0.006822654625684405   -0.016358520698747693   -0.0003547793350733793
-0.007223352010045822   -0.012343495582268783   -0.00024611276505515935
-0.006810358814228408   -0.016376671784695013   -0.00038647583406528407
-0.004713826203892142   -0.01640043651220051   -0.00032145165801047445
-0.007223352010045822   -0.012343495582268783   -0.00024611276505515935
-0.005004093632619913   -0.012369358230509313   -0.00020532189586671827
-0.004978634650980687   -0.012396595220568817   -0.00022429276645093916
-0.004713826203892142   -0.01640043651220051   -0.00032145165801047445
-0.007223352010045822   -0.012343495582268783   -0.00024611276505515935
-0.004978634650980687   -0.012396595220568817   -0.00022429276645093916
-0.006810358814228408   -0.016376671784695013   -0.00038647583406528407
-0.004713826203892142   -0.01640043651220051   -0.00032145165801047445
-0.005004093632619913   -0.012369358230509313   -0.00020532189586671827
-0.006822654625684405   -0.016358520698747693   -0.0003547793350733793
-0.004734325956870032   -0.01638105643388915   -0.00029749081283234204
-0.005004093632619913   -0.012369358230509313   -0.00020532189586671827
-0.007223352010045822   -0.012343495582268783   -0.00024611276505515935
-0.006822654625684405   -0.016358520698747693   -0.0003547793350733793
-0.007242812278289263   -0.012325186441917624   -0.00022074631243205429
-0.004734325956870032   -0.01638105643388915   -0.00029749081283234204
-0.006836300623783071   -0.01634643141132582   -0.00032044144551710257
-0.007242812278289263   -0.012325186441917624   -0.00022074631243205429
-0.006822654625684405   -0.016358520698747693   -0.0003547793350733793
-0.004734325956870032   -0.01638105643388915   -0.00029749081283234204
-0.007242812278289263   -0.012325186441917624   -0.00022074631243205429
-0.005029644424357994   -0.01234445016470119   -0.00018435347450658805
-0.005004093632619913   -0.012369358230509313   -0.00020532189586671827
-0.004734325956870032   -0.01638105643388915   -0.00029749081283234204
-0.007242812278289263   -0.012325186441917624   -0.00022074631243205429
-0.005004093632619913   -0.012369358230509313   -0.00020532189586671827
-0.006822654625684405   -0.016358520698747693   -0.0003547793350733793
-0.006789613453852429   -0.01639970325779008   -0.0004159812760745819
-0.007177725755940679   -0.012386541556417987   -0.0002906525526334298
-0.009064603293986609   -0.01633015852472524   -0.00045866938620507723
-0.006810358814228408   -0.016376671784695013   -0.00038647583406528407
-0.007177725755940679   -0.012386541556417987   -0.0002906525526334298
-0.009539150149049993   -0.012339408487992086   -0.0003268246387582633
-0.009064603293986609   -0.01633015852472524   -0.00045866938620507723
-0.009542059619001052   -0.012321950382161818   -0.00030285571007243844
-0.006810358814228408   -0.016376671784695013   -0.00038647583406528407
-0.00904758380238262   -0.01631089624840973   -0.00041907735496243625
-0.009542059619001052   -0.012321950382161818   -0.00030285571007243844
-0.009064603293986609   -0.01633015852472524   -0.00045866938620507723
-0.006810358814228408   -0.016376671784695013   -0.00038647583406528407
-0.009542059619001052   -0.012321950382161818   -0.00030285571007243844
-0.007203783540926093   -0.012364277515680122   -0.0002692648399707099
-0.007177725755940679   -0.012386541556417987   -0.0002906525526334298
-0.006810358814228408   -0.016376671784695013   -0.00038647583406528407
-0.009542059619001052   -0.012321950382161818   -0.00030285571007243844
-0.007177725755940679   -0.012386541556417987   -0.0002906525526334298
-0.009064603293986609   -0.01633015852472524   -0.00045866938620507723
-0.006810358814228408   -0.016376671784695013   -0.00038647583406528407
-0.007203783540926093   -0.012364277515680122   -0.0002692648399707099
-0.00904758380238262   -0.01631089624840973   -0.00041907735496243625
-0.006822654625684405   -0.016358520698747693   -0.0003547793350733793
-0.007203783540926093   -0.012364277515680122   -0.0002692648399707099
-0.009542059619001052   -0.012321950382161818   -0.00030285571007243844
-0.00904758380238262   -0.01631089624840973   -0.00041907735496243625
-0.009545228814119852   -0.012304488631562138   -0.00027534759926830507
-0.006822654625684405   -0.016358520698747693   -0.0003547793350733793
-0.009033695163415548   -0.016295951529755607   -0.00037546388627217775
-0.009545228814119852   -0.012304488631562138   -0.00027534759926830507
-0.00904758380238262   -0.01631089624840973   -0.00041907735496243625
-0.006822654625684405   -0.016358520698747693   -0.0003547793350733793
-0.009545228814119852   -0.012304488631562138   -0.00027534759926830507
-0.007223352010045822   -0.012343495582268783   -0.00024611276505515935
-0.007203783540926093   -0.012364277515680122   -0.0002692648399707099
-0.006822654625684405   -0.016358520698747693   -0.0003547793350733793
-0.009545228814119852   -0.012304488631562138   -0.00027534759926830507
-0.007203783540926093   -0.012364277515680122   -0.0002692648399707099
-0.00904758380238262   -0.01631089624840973   -0.00041907735496243625
-0.006822654625684405   -0.016358520698747693   -0.0003547793350733793
-0.007223352010045822   -0.012343495582268783   -0.00024611276505515935
-0.009033695163415548   -0.016295951529755607   -0.00037546388627217775
-0.006836300623783071   -0.01634643141132582   -0.00032044144551710257
-0.007223352010045822   -0.012343495582268783   -0.00024611276505515935
-0.009545228814119852   -0.012304488631562138   -0.00027534759926830507
-0.009033695163415548   -0.016295951529755607   -0.00037546388627217775
-0.009534827364962112   -0.01229390021963633   -0.0002447126268924139
-0.006836300623783071   -0.01634643141132582   -0.00032044144551710257
-0.009001688317956969   -0.016292676232076236   -0.00032828590601269075
-0.009534827364962112   -0.01229390021963633   -0.0002447126268924139
-0.009033695163415548   -0.016295951529755607   -0.00037546388627217775
-0.006836300623783071   -0.01634643141132582   -0.00032044144551710257
-0.009534827364962112   -0.01229390021963633   -0.0002447126268924139
-0.007242812278289263   -0.012325186441917624   -0.00022074631243205429
-0.007223352010045822   -0.012343495582268783   -0.00024611276505515935
-0.006836300623783071   -0.01634643141132582   -0.00032044144551710257
-0.009534827364962112   -0.01229390021963633   -0.0002447126268924139
-0.007223352010045822   -0.012343495582268783   -0.00024611276505515935
-0.009033695163415548   -0.016295951529755607   -0.00037546388627217775
0.001804831169115896   -0.012498991191737707   -2.0306741364700578e-05
0.0016265302055730438   -0.00835450243650052   4.80560204533697e-05
-0.0005416251333361952   -0.012479120960327444   -0.00010704424084708345
0.0017773792350235138   -0.012448429701182373   -1.9596863004565475e-05
0.0016265302055730438   -0.00835450243650052   4.80560204533697e-05
-0.0007435827500166884   -0.008316210787291469   -2.005874679688685e-05
-0.0005416251333361952   -0.012479120960327444   -0.00010704424084708345
-0.0007757513237505027   -0.008276729212228212   -3.4552349574159656e-06
0.0017773792350235138   -0.012448429701182373   -1.9596863004565475e-05
-0.0005682492369741504   -0.012435277450964673   -9.935078194484091e-05
-0.0007757513237505027   -0.008276729212228212   -3.4552349574159656e-06
-0.0005416251333361952   -0.012479120960327444   -0.00010704424084708345
0.0017773792350235138   -0.012448429701182373   -1.9596863004565475e-05
-0.0007757513237505027   -0.008276729212228212   -3.4552349574159656e-06
0.001576434426659207   -0.008306493445319963   6.82336582876966e-05
0.0016265302055730438   -0.00835450243650052   4.80560204533697e-05
0.0017773792350235138   -0.012448429701182373   -1.9596863004565475e-05
-0.0007757513237505027   -0.008276729212228212   -3.4552349574159656e-06
0.0016265302055730438   -0.00835450243650052   4.80560204533697e-05
-0.0005416251333361952   -0.012479120960327444   -0.00010704424084708345
0.0017773792350235138   -0.012448429701182373   -1.9596863004565475e-05
0.001576434426659207   -0.008306493445319963   6.82336582876966e-05
-0.0005682492369741504   -0.012435277450964673   -9.935078194484091e-05
0.0017430592516092225   -0.012403728866175263   -1.4265141179004583e-05
0.001576434426659207   -0.008306493445319963   6.82336582876966e-05
-0.0007757513237505027   -0.008276729212228212   -3.4552349574159656e-06
-0.0005682492369741504   -0.012435277450964673   -9.935078194484091e-05
-0.0008134773965059288   -0.008235183224079083   1.6177240657779066e-05
0.0017430592516092225   -0.012403728866175263   -1.4265141179004583e-05
-0.0005987926074033849   -0.012394213726859978   -8.938866406710521e-05
-0.0008134773965059288   -0.008235183224079083   1.6177240657779066e-05
-0.0005682492369741504   -0.012435277450964673   -9.935078194484091e-05
0.0017430592516092225   -0.012403728866175263   -1.4265141179004583e-05
-0.0008134773965059288   -0.008235183224079083   1.6177240657779066e-05
0.0015200102687068227   -0.00825911242242336   9.765726806593381e-05
0.001576434426659207   -0.008306493445319963   6.82336582876966e-05
0.0017430592516092225   -0.012403728866175263   -1.4265141179004583e-05
-0.0008134773965059288   -0.008235183224079083   1.6177240657779066e-05
0.001576434426659207   -0.008306493445319963   6.82336582876966e-05
-0.0005682492369741504   -0.012435277450964673   -9.935078194484091e-05
0.0017430592516092225   -0.012403728866175263   -1.4265141179004583e-05
0.0015200102687068227   -0.00825911242242336   9.765726806593381e-05
-0.0005987926074033849   -0.012394213726859978   -8.938866406710521e-05
0.001697654645975208   -0.01235721148757665   -4.516486603384332e-06
0.0015200102687068227   -0.00825911242242336   9.765726806593381e-05
-0.0008134773965059288   -0.008235183224079083   1.6177240657779066e-05
-0.0005987926074033849   -0.012394213726859978   -8.938866406710521e-05
-0.0008526120106908717   -0.008191181740679154   3.881333994378717e-05
0.001697654645975208   -0.01235721148757665   -4.516486603384332e-06
-0.0006332285251095586   -0.012355351555828151   -7.659186187981819e-05
-0.0008526120106908717   -0.008191181740679154   3.881333994378717e-05
-0.0005987926074033849   -0.012394213726859978   -8.938866406710521e-05
0.001697654645975208   -0.01235721148757665   -4.516486603384332e-06
-0.0008526120106908717   -0.008191181740679154   3.881333994378717e-05
0.0014510196362369971   -0.008200792303340676   0.00013011081788287594
0.0015200102687068227   -0.00825911242242336   9.765726806593381e-05
0.001697654645975208   -0.01235721148757665   -4.516486603384332e-06
-0.0008526120106908717   -0.008191181740679154   3.881333994378717e-05
0.0015200102687068227   -0.00825911242242336   9.765726806593381e-05
-0.0005987926074033849   -0.012394213726859978   -8.938866406710521e-05
-0.0005416251333361952   -0.012479120960327444   -0.00010704424084708345
-0.0007435827500166884   -0.008316210787291469   -2.005874679688685e-05
-0.002764797063203657   -0.012455171907929712   -0.00017978495860969306
-0.0005682492369741504   -0.012435277450964673   -9.935078194484091e-05
-0.0007435827500166884   -0.008316210787291469   -2.005874679688685e-05
-0.002973772883023373   -0.008306260621715982   -8.535407164847984e-05
-0.002764797063203657   -0.012455171907929712   -0.00017978495860969306
-0.0030030379434356842   -0.008272075881504483   -6.966865683222969e-05
-0.0005682492369741504   -0.012435277450964673   -9.935078194484091e-05
-0.002792159906066198   -0.012418797803477084   -0.00016748504286478368
-0.0030030379434356842   -0.008272075881504483   -6.966865683222969e-05
-0.002764797063203657   -0.012455171907929712   -0.00017978495860969306
-0.0005682492369741504   -0.012435277450964673   -9.935078194484091e-05
-0.0030030379434356842   -0.008272075881504483   -6.966865683222969e-05
-0.0007757513237505027   -0.008276729212228212   -3.4552349574159656e-06
-0.0007435827500166884   -0.008316210787291469   -2.005874679688685e-05
-0.0005682492369741504   -0.012435277450964673   -9.935078194484091e-05
-0.0030030379434356842   -0.008272075881504483   -6.966865683222969e-05
-0.0007435827500166884   -0.008316210787291469   -2.005874679688685e-05
-0.002764797063203657   -0.012455171907929712   -0.00017978495860969306
-0.0005682492369741504   -0.012435277450964673   -9.935078194484091e-05
-0.0007757513237505027   -0.008276729212228212   -3.4552349574159656e-06
-0.002792159906066198   -0.012418797803477084   -0.00016748504286478368
-0.0005987926074033849   -0.012394213726859978   -8.938866406710521e-05
-0.0007757513237505027   -0.008276729212228212   -3.4552349574159656e-06
-0.0030030379434356842   -0.008272075881504483   -6.966865683222969e-05
-0.002792159906066198   -0.012418797803477084   -0.00016748504286478368
-0.0030333578236946017   -0.008236565302896296   -5.238181071888368e-05
-0.0005987926074033849   -0.012394213726859978   -8.938866406710521e-05
-0.002820159577262685   -0.012384574351775696   -0.00015301232607342277
-0.0030333578236946017   -0.008236565302896296   -5.238181071888368e-05
-0.002792159906066198   -0.012418797803477084   -0.00016748504286478368
-0.0005987926074033849   -0.012394213726859978   -8.938866406710521e-05
-0.0030333578236946017   -0.008236565302896296   -5.238181071888368e-05
-0.0008134773965059288   -0.008235183224079083   1.6177240657779066e-05
-0.0007757513237505027   -0.008276729212228212   -3.4552349574159656e-06
-0.0005987926074033849   -0.012394213726859978   -8.938866406710521e-05
-0.0030333578236946017   -0.008236565302896296   -5.238181071888368e-05
-0.0007757513237505027   -0.008276729212228212   -3.4552349574159656e-06
-0.002792159906066198   -0.012418797803477084   -0.00016748504286478368
-0.0005987926074033849   -0.012394213726859978   -8.938866406710521e-05
-0.0008134773965059288   -0.008235183224079083   1.6177240657779066e-05
-0.002820159577262685   -0.012384574351775696   -0.00015301232607342277
-0.0006332285251095586   -0.012355351555828151   -7.659186187981819e-05
-0.0008134773965059288   -0.008235183224079083   1.6177240657779066e-05
-0.0030333578236946017   -0.008236565302896296   -5.238181071888368e-05
-0.002820159577262685   -0.012384574351775696   -0.00015301232607342277
-0.003064970053833825   -0.008200429236834669   -3.3183851113880834e-05
-0.0006332285251095586   -0.012355351555828151   -7.659186187981819e-05
-0.002849977016898456   -0.0123530647440951   -0.00013635170806481885
-0.003064970053833825   -0.008200429236834669   -3.3183851113880834e-05
-0.002820159577262685   -0.012384574351775696   -0.00015301232607342277
-0.0006332285251095586   -0.012355351555828151   -7.659186187981819e-05
-0.003064970053833825   -0.008200429236834669   -3.3183851113880834e-05
-0.0008526120106908717   -0.008191181740679154   3.881333994378717e-05
-0.0008134773965059288   -0.008235183224079083   1.6177240657779066e-05
-0.0006332285251095586   -0.012355351555828151   -7.659186187981819e-05
-0.003064970053833825   -0.008200429236834669   -3.3183851113880834e-05
-0.0008134773965059288   -0.008235183224079083   1.6177240657779066e-05
-0.002820159577262685   -0.012384574351775696   -0.00015301232607342277
-0.002764797063203657   -0.012455171907929712   -0.00017978495860969306
-0.002973772883023373   -0.008306260621715982   -8.535407164847984e-05
-0.004951390381896613   -0.01242609078809665   -0.00024116461529942538
-0.002792159906066198   -0.012418797803477084   -0.00016748504286478368
-0.002973772883023373   -0.008306260621715982   -8.535407164847984e-05
-0.005179880320110577   -0.008303437020756282   -0.00014415007765246186
-0.004951390381896613   -0.01242609078809665   -0.00024116461529942538
-0.0052079494756596565   -0.008273660515885038   -0.0001289836922460778
-0.002792159906066198   -0.012418797803477084   -0.00016748504286478368
-0.004978634650980687   -0.012396595220568817   -0.00022429276645093916
-0.0052079494756596565   -0.008273660515885038   -0.0001289836922460778
-0.004951390381896613   -0.01242609078809665   -0.00024116461529942538
-0.002792159906066198   -0.012418797803477084   -0.00016748504286478368
-0.0052079494756596565   -0.008273660515885038   -0.0001289836922460778
-0.0030030379434356842   -0.008272075881504483   -6.966865683222969e-05
-0.002973772883023373   -0.008306260621715982   -8.535407164847984e-05
-0.002792159906066198   -0.012418797803477084   -0.00016748504286478368
-0.0052079494756596565   -0.008273660515885038   -0.0001289836922460778
-0.002973772883023373   -0.008306260621715982   -8.535407164847984e-05
-0.004951390381896613   -0.01242609078809665   -0.00024116461529942538
-0.002792159906066198   -0.012418797803477084   -0.00016748504286478368
-0.0030030379434356842   -0.008272075881504483   -6.966865683222969e-05
-0.004978634650980687   -0.012396595220568817   -0.00022429276645093916
-0.002820159577262685   -0.012384574351775696   -0.00015301232607342277
-0.0030030379434356842   -0.008272075881504483   -6.966865683222969e-05
-0.0052079494756596565   -0.008273660515885038   -0.0001289836922460778
-0.004978634650980687   -0.012396595220568817   -0.00022429276645093916
-0.005234693727150601   -0.008243423674225678   -0.00011240935298200742
-0.002820159577262685   -0.012384574351775696   -0.00015301232607342277
-0.005004093632619913   -0.012369358230509313   -0.00020532189586671827
-0.005234693727150601   -0.008243423674225678   -0.00011240935298200742
-0.004978634650980687   -0.012396595220568817   -0.00022429276645093916
-0.002820159577262685   -0.012384574351775696   -0.00015301232607342277
-0.005234693727150601   -0.008243423674225678   -0.00011240935298200742
-0.0030333578236946017   -0.008236565302896296   -5.238181071888368e-05
-0.0030030379434356842   -0.008272075881504483   -6.966865683222969e-05
-0.002820159577262685   -0.012384574351775696   -0.00015301232607342277
-0.005234693727150601   -0.008243423674225678   -0.00011240935298200742
-0.0030030379434356842   -0.008272075881504483   -6.966865683222969e-05
-0.004978634650980687   -0.012396595220568817   -0.00022429276645093916
-0.002820159577262685   -0.012384574351775696   -0.00015301232607342277
-0.0030333578236946017   -0.008236565302896296   -5.238181071888368e-05
-0.005004093632619913   -0.012369358230509313   -0.00020532189586671827
-0.002849977016898456   -0.0123530647440951   -0.00013635170806481885
-0.0030333578236946017   -0.008236565302896296   -5.238181071888368e-05
-0.005234693727150601   -0.008243423674225678   -0.00011240935298200742
-0.005004093632619913   -0.012369358230509313   -0.00020532189586671827
-0.0052611740277554355   -0.008212541838289157   -9.449974779853248e-05
-0.002849977016898456   -0.0123530647440951   -0.00013635170806481885
-0.005029644424357994   -0.01234445016470119   -0.00018435347450658805
-0.0052611740277554355   -0.008212541838289157   -9.449974779853248e-05
-0.005004093632619913   -0.012369358230509313   -0.00020532189586671827
-0.002849977016898456   -0.0123530647440951   -0.00013635170806481885
-0.0052611740277554355   -0.008212541838289157   -9.449974779853248e-05
-0.003064970053833825   -0.008200429236834669   -3.3183851113880834e-05
-0.0030333578236946017   -0.008236565302896296   -5.238181071888368e-05
-0.002849977016898456   -0.0123530647440951   -0.00013635170806481885
-0.0052611740277554355   -0.008212541838289157   -9.449974779853248e-05
-0.0030333578236946017   -0.008236565302896296   -5.238181071888368e-05
-0.005004093632619913   -0.012369358230509313   -0.00020532189586671827
-0.004951390381896613   -0.01242609078809665   -0.00024116461529942538
-0.005179880320110577   -0.008303437020756282   -0.00014415007765246186
-0.007177725755940679   -0.012386541556417987   -0.0002906525526334298
-0.004978634650980687   -0.012396595220568817   -0.00022429276645093916
-0.005179880320110577   -0.008303437020756282   -0.00014415007765246186
-0.007432902140648213   -0.00829033662865661   -0.00019309074967492252
-0.007177725755940679   -0.012386541556417987   -0.0002906525526334298
-0.0074596577812968915   -0.00826639041299903   -0.00017854562107469588
-0.004978634650980687   -0.012396595220568817   -0.00022429276645093916
-0.007203783540926093   -0.012364277515680122   -0.0002692648399707099
-0.0074596577812968915   -0.00826639041299903   -0.00017854562107469588
-0.007177725755940679   -0.012386541556417987   -0.0002906525526334298
-0.004978634650980687   -0.012396595220568817   -0.00022429276645093916
-0.0074596577812968915   -0.00826639041299903   -0.00017854562107469588
-0.0052079494756596565   -0.008273660515885038   -0.0001289836922460778
-0.005179880320110577   -0.008303437020756282   -0.00014415007765246186
-0.004978634650980687   -0.012396595220568817   -0.00022429276645093916
-0.0074596577812968915   -0.00826639041299903   -0.00017854562107469588
-0.005179880320110577   -0.008303437020756282   -0.00014415007765246186
-0.007177725755940679   -0.012386541556417987   -0.0002906525526334298
-0.004978634650980687   -0.012396595220568817   -0.00022429276645093916
-0.0052079494756596565   -0.008273660515885038   -0.0001289836922460778
-0.007203783540926093   -0.012364277515680122   -0.0002692648399707099
-0.005004093632619913   -0.012369358230509313   -0.00020532189586671827
-0.0052079494756596565   -0.008273660515885038   -0.0001289836922460778
-0.0074596577812968915   -0.00826639041299903   -0.00017854562107469588
-0.007203783540926093   -0.012364277515680122   -0.0002692648399707099
-0.0074822269524438215   -0.00824115850557621   -0.00016297843214135312
-0.005004093632619913   -0.012369358230509313   -0.00020532189586671827
-0.007223352010045822   -0.012343495582268783   -0.00024611276505515935
-0.0074822269524438215   -0.00824115850557621   -0.00016297843214135312
-0.007203783540926093   -0.012364277515680122   -0.0002692648399707099
-0.005004093632619913   -0.012369358230509313   -0.00020532189586671827
-0.0074822269524438215   -0.00824115850557621   -0.00016297843214135312
-0.005234693727150601   -0.008243423674225678   -0.00011240935298200742
-0.0052079494756596565   -0.008273660515885038   -0.0001289836922460778
-0.005004093632619913   -0.012369358230509313   -0.00020532189586671827
-0.0074822269524438215   -0.00824115850557621   -0.00016297843214135312
-0.0052079494756596565   -0.008273660515885038   -0.0001289836922460778
-0.007203783540926093   -0.012364277515680122   -0.0002692648399707099
-0.005004093632619913   -0.012369358230509313   -0.00020532189586671827
-0.005234693727150601   -0.008243423674225678   -0.00011240935298200742
-0.007223352010045822   -0.012343495582268783   -0.00024611276505515935
-0.005029644424357994   -0.01234445016470119   -0.00018435347450658805
-0.005234693727150601   -0.008243423674225678   -0.00011240935298200742
-0.0074822269524438215   -0.00824115850557621   -0.00016297843214135312
-0.007223352010045822   -0.012343495582268783   -0.00024611276505515935
-0.0075035523566740385   -0.008215330199959134   -0.00014596521020042352
-0.005029644424357994   -0.01234445016470119   -0.00018435347450658805
-0.007242812278289263   -0.012325186441917624   -0.00022074631243205429
-0.0075035523566740385   -0.008215330199959134   -0.00014596521020042352
-0.007223352010045822   -0.012343495582268783   -0.00024611276505515935
-0.005029644424357994   -0.01234445016470119   -0.00018435347450658805
-0.0075035523566740385   -0.008215330199959134   -0.00014596521020042352
-0.0052611740277554355   -0.008212541838289157   -9.449974779853248e-05
-0.005234693727150601   -0.008243423674225678   -0.00011240935298200742
-0.005029644424357994   -0.01234445016470119   -0.00018435347450658805
-0.0075035523566740385   -0.008215330199959134   -0.00014596521020042352
-0.005234693727150601   -0.008243423674225678   -0.00011240935298200742
-0.007223352010045822   -0.012343495582268783   -0.00024611276505515935
-0.007177725755940679   -0.012386541556417987   -0.0002906525526334298
-0.007432902140648213   -0.00829033662865661   -0.00019309074967492252
-0.009539150149049993   -0.012339408487992086   -0.0003268246387582633
-0.007203783540926093   -0.012364277515680122   -0.0002692648399707099
-0.007432902140648213   -0.00829033662865661   -0.00019309074967492252
-0.009795112271043996   -0.008268464146997103   -0.0002285766649876361
-0.009539150149049993   -0.012339408487992086   -0.0003268246387582633
-0.009811203365598181   -0.008248679557863478   -0.0002173439876638581
-0.007203783540926093   -0.012364277515680122   -0.0002692648399707099
-0.009542059619001052   -0.012321950382161818   -0.00030285571007243844
-0.009811203365598181   -0.008248679557863478   -0.0002173439876638581
-0.009539150149049993   -0.012339408487992086   -0.0003268246387582633
-0.007203783540926093   -0.012364277515680122   -0.0002692648399707099
-0.009811203365598181   -0.008248679557863478   -0.0002173439876638581
-0.0074596577812968915   -0.00826639041299903   -0.00017854562107469588
-0.007432902140648213   -0.00829033662865661   -0.00019309074967492252
-0.007203783540926093   -0.012364277515680122   -0.0002692648399707099
-0.009811203365598181   -0.008248679557863478   -0.0002173439876638581
-0.007432902140648213   -0.00829033662865661   -0.00019309074967492252
-0.009539150149049993   -0.012339408487992086   -0.0003268246387582633
-0.007203783540926093   -0.012364277515680122   -0.0002692648399707099
-0.0074596577812968915   -0.00826639041299903   -0.00017854562107469588
-0.009542059619001052   -0.012321950382161818   -0.00030285571007243844
-0.007223352010045822   -0.012343495582268783   -0.00024611276505515935
-0.0074596577812968915   -0.00826639041299903   -0.00017854562107469588
-0.009811203365598181   -0.008248679557863478   -0.0002173439876638581
-0.009542059619001052   -0.012321950382161818   -0.00030285571007243844
-0.009825917176785104   -0.008226159893102953   -0.00020364936158963375
-0.007223352010045822   -0.012343495582268783   -0.00024611276505515935
-0.009545228814119852   -0.012304488631562138   -0.00027534759926830507
-0.009825917176785104   -0.008226159893102953   -0.00020364936158963375
-0.009542059619001052   -0.012321950382161818   -0.00030285571007243844
-0.007223352010045822   -0.012343495582268783   -0.00024611276505515935
-0.009825917176785104   -0.008226159893102953   -0.00020364936158963375
-0.0074822269524438215   -0.00824115850557621   -0.00016297843214135312
-0.0074596577812968915   -0.00826639041299903   -0.00017854562107469588
-0.007223352010045822   -0.012343495582268783   -0.00024611276505515935
-0.009825917176785104   -0.008226159893102953   -0.00020364936158963375
-0.0074596577812968915   -0.00826639041299903   -0.00017854562107469588
-0.009542059619001052   -0.012321950382161818   -0.00030285571007243844
-0.007223352010045822   -0.012343495582268783   -0.00024611276505515935
-0.0074822269524438215   -0.00824115850557621   -0.00016297843214135312
-0.009545228814119852   -0.012304488631562138   -0.00027534759926830507
-0.007242812278289263   -0.012325186441917624   -0.00022074631243205429
-0.0074822269524438215   -0.00824115850557621   -0.00016297843214135312
-0.009825917176785104   -0.008226159893102953   -0.00020364936158963375
-0.009545228814119852   -0.012304488631562138   -0.00027534759926830507
-0.009832444754137708   -0.008205890364484136   -0.00018808295576256616
-0.007242812278289263   -0.012325186441917624   -0.00022074631243205429
-0.009534827364962112   -0.01229390021963633   -0.0002447126268924139
-0.009832444754137708   -0.008205890364484136   -0.00018808295576256616
-0.009545228814119852   -0.012304488631562138   -0.00027534759926830507
-0.007242812278289263   -0.012325186441917624   -0.00022074631243205429
-0.009832444754137708   -0.008205890364484136   -0.00018808295576256616
-0.0075035523566740385   -0.008215330199959134   -0.00014596521020042352
-0.0074822269524438215   -0.00824115850557621   -0.00016297843214135312
-0.007242812278289263   -0.012325186441917624   -0.00022074631243205429
-0.009832444754137708   -0.008205890364484136   -0.00018808295576256616
-0.0074822269524438215   -0.00824115850557621   -0.00016297843214135312
-0.009545228814119852   -0.012304488631562138   -0.00027534759926830507
0.0016265302055730438   -0.00835450243650052   4.80560204533697e-05
0.0011452036131400461   -0.004206267518037985   5.229000890407293e-05
-0.0007435827500166884   -0.008316210787291469   -2.005874679688685e-05
0.001576434426659207   -0.008306493445319963   6.82336582876966e-05
0.0011452036131400461   -0.004206267518037985   5.229000890407293e-05
-0.001071717726801823   -0.00415348013715337   2.9474319659618883e-05
-0.0007435827500166884   -0.008316210787291469   -2.005874679688685e-05
-0.0011039503019310136   -0.004134426754920312   5.290162760856405e-05
0.001576434426659207   -0.008306493445319963   6.82336582876966e-05
-0.0007757513237505027   -0.008276729212228212   -3.4552349574159656e-06
-0.0011039503019310136   -0.004134426754920312   5.290162760856405e-05
-0.0007435827500166884   -0.008316210787291469   -2.005874679688685e-05
0.001576434426659207   -0.008306493445319963   6.82336582876966e-05
-0.0011039503019310136   -0.004134426754920312   5.290162760856405e-05
0.0010444754937601584   -0.004154866844802526   0.00010993659224345167
0.0011452036131400461   -0.004206267518037985   5.229000890407293e-05
0.001576434426659207   -0.008306493445319963   6.82336582876966e-05
-0.0011039503019310136   -0.004134426754920312   5.290162760856405e-05
0.0011452036131400461   -0.004206267518037985   5.229000890407293e-05
-0.0007435827500166884   -0.008316210787291469   -2.005874679688685e-05
0.001576434426659207   -0.008306493445319963   6.82336582876966e-05
0.0010444754937601584   -0.004154866844802526   0.00010993659224345167
-0.0007757513237505027   -0.008276729212228212   -3.4552349574159656e-06
0.0015200102687068227   -0.00825911242242336   9.765726806593381e-05
0.0010444754937601584   -0.004154866844802526   0.00010993659224345167
-0.0011039503019310136   -0.004134426754920312   5.290162760856405e-05
-0.0007757513237505027   -0.008276729212228212   -3.4552349574159656e-06
-0.0011467139705410574   -0.004099133858517223   8.146482028025563e-05
0.0015200102687068227   -0.00825911242242336   9.765726806593381e-05
-0.0008134773965059288   -0.008235183224079083   1.6177240657779066e-05
-0.0011467139705410574   -0.004099133858517223   8.146482028025563e-05
-0.0007757513237505027   -0.008276729212228212   -3.4552349574159656e-06
0.0015200102687068227   -0.00825911242242336   9.765726806593381e-05
-0.0011467139705410574   -0.004099133858517223   8.146482028025563e-05
0.0009856708529767644   -0.004113465989451567   0.00015273227985727786
0.0010444754937601584   -0.004154866844802526   0.00010993659224345167
0.0015200102687068227   -0.00825911242242336   9.765726806593381e-05
-0.0011467139705410574   -0.004099133858517223   8.146482028025563e-05
0.0010444754937601584   -0.004154866844802526   0.00010993659224345167
-0.0007757513237505027   -0.008276729212228212   -3.4552349574159656e-06
0.0015200102687068227   -0.00825911242242336   9.765726806593381e-05
0.0009856708529767644   -0.004113465989451567   0.00015273227985727786
-0.0008134773965059288   -0.008235183224079083   1.6177240657779066e-05
0.0014510196362369971   -0.008200792303340676   0.00013011081788287594
0.0009856708529767644   -0.004113465989451567   0.00015273227985727786
-0.0011467139705410574   -0.004099133858517223   8.146482028025563e-05
-0.0008134773965059288   -0.008235183224079083   1.6177240657779066e-05
-0.001182843611092554   -0.004061430550635906   0.00010658438233159433
0.0014510196362369971   -0.008200792303340676   0.00013011081788287594
-0.0008526120106908717   -0.008191181740679154   3.881333994378717e-05
-0.001182843611092554   -0.004061430550635906   0.00010658438233159433
-0.0008134773965059288   -0.008235183224079083   1.6177240657779066e-05
0.0014510196362369971   -0.008200792303340676   0.00013011081788287594
-0.001182843611092554   -0.004061430550635906   0.00010658438233159433
0.0009100205578637909   -0.004049589703897502   0.00020184006884099858
0.0009856708529767644   -0.004113465989451567   0.00015273227985727786
0.0014510196362369971   -0.008200792303340676   0.00013011081788287594
-0.001182843611092554   -0.004061430550635906   0.00010658438233159433
0.0009856708529767644   -0.004113465989451567   0.00015273227985727786
-0.0008134773965059288   -0.008235183224079083   1.6177240657779066e-05
-0.0007435827500166884   -0.008316210787291469   -2.005874679688685e-05
-0.001071717726801823   -0.00415348013715337   2.9474319659618883e-05
-0.002973772883023373   -0.008306260621715982   -8.535407164847984e-05
-0.0007757513237505027   -0.008276729212228212   -3.4552349574159656e-06
-0.001071717726801823   -0.00415348013715337   2.9474319659618883e-05
-0.003176643717675416   -0.004216125759590113   -2.155980960230744e-05
-0.002973772883023373   -0.008306260621715982   -8.535407164847984e-05
-0.003206679434323595   -0.004186031465000426   -4.8199072102362586e-06
-0.0007757513237505027   -0.008276729212228212   -3.4552349574159656e-06
-0.0030030379434356842   -0.008272075881504483   -6.966865683222969e-05
-0.003206679434323595   -0.004186031465000426   -4.8199072102362586e-06
-0.002973772883023373   -0.008306260621715982   -8.535407164847984e-05
-0.0007757513237505027   -0.008276729212228212   -3.4552349574159656e-06
-0.003206679434323595   -0.004186031465000426   -4.8199072102362586e-06
-0.0011039503019310136   -0.004134426754920312   5.290162760856405e-05
-0.001071717726801823   -0.00415348013715337   2.9474319659618883e-05
-0.0007757513237505027   -0.008276729212228212   -3.4552349574159656e-06
-0.003206679434323595   -0.004186031465000426   -4.8199072102362586e-06
-0.001071717726801823   -0.00415348013715337   2.9474319659618883e-05
-0.002973772883023373   -0.008306260621715982   -8.535407164847984e-05
-0.0007757513237505027   -0.008276729212228212   -3.4552349574159656e-06
-0.0011039503019310136   -0.004134426754920312   5.290162760856405e-05
-0.0030030379434356842   -0.008272075881504483   -6.966865683222969e-05
-0.0008134773965059288   -0.008235183224079083   1.6177240657779066e-05
-0.0011039503019310136   -0.004134426754920312   5.290162760856405e-05
-0.003206679434323595   -0.004186031465000426   -4.8199072102362586e-06
-0.0030030379434356842   -0.008272075881504483   -6.966865683222969e-05
-0.003238311960030205   -0.00415180524887952   1.2993428618522772e-05
-0.0008134773965059288   -0.008235183224079083   1.6177240657779066e-05
-0.0030333578236946017   -0.008236565302896296   -5.238181071888368e-05
-0.003238311960030205   -0.00415180524887952   1.2993428618522772e-05
-0.0030030379434356842   -0.008272075881504483   -6.966865683222969e-05
-0.0008134773965059288   -0.008235183224079083   1.6177240657779066e-05
-0.003238311960030205   -0.00415180524887952   1.2993428618522772e-05
-0.0011467139705410574   -0.004099133858517223   8.146482028025563e-05
-0.0011039503019310136   -0.004134426754920312   5.290162760856405e-05
-0.0008134773965059288   -0.008235183224079083   1.6177240657779066e-05
-0.003238311960030205   -0.00415180524887952   1.2993428618522772e-05
-0.0011039503019310136   -0.004134426754920312   5.290162760856405e-05
-0.0030030379434356842   -0.008272075881504483   -6.966865683222969e-05
-0.0008134773965059288   -0.008235183224079083   1.6177240657779066e-05
-0.0011467139705410574   -0.004099133858517223   8.146482028025563e-05
-0.0030333578236946017   -0.008236565302896296   -5.238181071888368e-05
-0.0008526120106908717   -0.008191181740679154   3.881333994378717e-05
-0.0011467139705410574   -0.004099133858517223   8.146482028025563e-05
-0.003238311960030205   -0.00415180524887952   1.2993428618522772e-05
-0.0030333578236946017   -0.008236565302896296   -5.238181071888368e-05
-0.0032685387270474137   -0.004114290415647611   3.269659574167559e-05
-0.0008526120106908717   -0.008191181740679154   3.881333994378717e-05
-0.003064970053833825   -0.008200429236834669   -3.3183851113880834e-05
-0.0032685387270474137   -0.004114290415647611   3.269659574167559e-05
-0.0030333578236946017   -0.008236565302896296   -5.238181071888368e-05
-0.0008526120106908717   -0.008191181740679154   3.881333994378717e-05
-0.0032685387270474137   -0.004114290415647611   3.269659574167559e-05
-0.001182843611092554   -0.004061430550635906   0.00010658438233159433
-0.0011467139705410574   -0.004099133858517223   8.146482028025563e-05
-0.0008526120106908717   -0.008191181740679154   3.881333994378717e-05
-0.0032685387270474137   -0.004114290415647611   3.269659574167559e-05
-0.0011467139705410574   -0.004099133858517223   8.146482028025563e-05
-0.0030333578236946017   -0.008236565302896296   -5.238181071888368e-05
-0.002973772883023373   -0.008306260621715982   -8.535407164847984e-05
-0.003176643717675416   -0.004216125759590113   -2.155980960230744e-05
-0.005179880320110577   -0.008303437020756282   -0.00014415007765246186
-0.0030030379434356842   -0.008272075881504483   -6.966865683222969e-05
-0.003176643717675416   -0.004216125759590113   -2.155980960230744e-05
-0.005330997804445916   -0.004265098152068635   -7.874231543585312e-05
-0.005179880320110577   -0.008303437020756282   -0.00014415007765246186
-0.005358130644793662   -0.004234129503318504   -6.565101453270254e-05
-0.0030030379434356842   -0.008272075881504483   -6.966865683222969e-05
-0.0052079494756596565   -0.008273660515885038   -0.0001289836922460778
-0.005358130644793662   -0.004234129503318504   -6.565101453270254e-05
-0.005179880320110577   -0.008303437020756282   -0.00014415007765246186
-0.0030030379434356842   -0.008272075881504483   -6.966865683222969e-05
-0.005358130644793662   -0.004234129503318504   -6.565101453270254e-05
-0.003206679434323595   -0.004186031465000426   -4.8199072102362586e-06
-0.003176643717675416   -0.004216125759590113   -2.155980960230744e-05
-0.0030030379434356842   -0.008272075881504483   -6.966865683222969e-05
-0.005358130644793662   -0.004234129503318504   -6.565101453270254e-05
-0.003176643717675416   -0.004216125759590113   -2.155980960230744e-05
-0.005179880320110577   -0.008303437020756282   -0.00014415007765246186
-0.0030030379434356842   -0.008272075881504483   -6.966865683222969e-05
-0.003206679434323595   -0.004186031465000426   -4.8199072102362586e-06
-0.0052079494756596565   -0.008273660515885038   -0.0001289836922460778
-0.0030333578236946017   -0.008236565302896296   -5.238181071888368e-05
-0.003206679434323595   -0.004186031465000426   -4.8199072102362586e-06
-0.005358130644793662   -0.004234129503318504   -6.565101453270254e-05
-0.0052079494756596565   -0.008273660515885038   -0.0001289836922460778
-0.0053842112263694465   -0.004201312088116098   -5.25327739590181e-05
-0.0030333578236946017   -0.008236565302896296   -5.238181071888368e-05
-0.005234693727150601   -0.008243423674225678   -0.00011240935298200742
-0.0053842112263694465   -0.004201312088116098   -5.25327739590181e-05
-0.0052079494756596565   -0.008273660515885038   -0.0001289836922460778
-0.0030333578236946017   -0.008236565302896296   -5.238181071888368e-05
-0.0053842112263694465   -0.004201312088116098   -5.25327739590181e-05
-0.003238311960030205   -0.00415180524887952   1.2993428618522772e-05
-0.003206679434323595   -0.004186031465000426   -4.8199072102362586e-06
-0.0030333578236946017   -0.008236565302896296   -5.238181071888368e-05
-0.0053842112263694465   -0.004201312088116098   -5.25327739590181e-05
-0.003206679434323595   -0.004186031465000426   -4.8199072102362586e-06
-0.0052079494756596565   -0.008273660515885038   -0.0001289836922460778
-0.0030333578236946017   -0.008236565302896296   -5.238181071888368e-05
-0.003238311960030205   -0.00415180524887952   1.2993428618522772e-05
-0.005234693727150601   -0.008243423674225678   -0.00011240935298200742
-0.003064970053833825   -0.008200429236834669   -3.3183851113880834e-05
-0.003238311960030205   -0.00415180524887952   1.2993428618522772e-05
-0.0053842112263694465   -0.004201312088116098   -5.25327739590181e-05
-0.005234693727150601   -0.008243423674225678   -0.00011240935298200742
-0.005408340917007961   -0.004165695204849174   -3.817732548974151e-05
-0.003064970053833825   -0.008200429236834669   -3.3183851113880834e-05
-0.0052611740277554355   -0.008212541838289157   -9.449974779853248e-05
-0.005408340917007961   -0.004165695204849174   -3.817732548974151e-05
-0.005234693727150601   -0.008243423674225678   -0.00011240935298200742
-0.003064970053833825   -0.008200429236834669   -3.3183851113880834e-05
-0.005408340917007961   -0.004165695204849174   -3.817732548974151e-05
-0.0032685387270474137   -0.004114290415647611   3.269659574167559e-05
-0.003238311960030205   -0.00415180524887952   1.2993428618522772e-05
-0.003064970053833825   -0.008200429236834669   -3.3183851113880834e-05
-0.005408340917007961   -0.004165695204849174   -3.817732548974151e-05
-0.003238311960030205   -0.00415180524887952   1.2993428618522772e-05
-0.005234693727150601   -0.008243423674225678   -0.00011240935298200742
-0.005179880320110577   -0.008303437020756282   -0.00014415007765246186
-0.005330997804445916   -0.004265098152068635   -7.874231543585312e-05
-0.007432902140648213   -0.00829033662865661   -0.00019309074967492252
-0.0052079494756596565   -0.008273660515885038   -0.0001289836922460778
-0.005330997804445916   -0.004265098152068635   -7.874231543585312e-05
-0.007561090302356601   -0.0042853061816852615   -0.00013138595642401443
-0.007432902140648213   -0.00829033662865661   -0.00019309074967492252
-0.007585569055245096   -0.004257679153887433   -0.00012174408287352287
-0.0052079494756596565   -0.008273660515885038   -0.0001289836922460778
-0.0074596577812968915   -0.00826639041299903   -0.00017854562107469588
-0.007585569055245096   -0.004257679153887433   -0.00012174408287352287
-0.007432902140648213   -0.00829033662865661   -0.00019309074967492252
-0.0052079494756596565   -0.008273660515885038   -0.0001289836922460778
-0.007585569055245096   -0.004257679153887433   -0.00012174408287352287
-0.005358130644793662   -0.004234129503318504   -6.565101453270254e-05
-0.005330997804445916   -0.004265098152068635   -7.874231543585312e-05
-0.0052079494756596565   -0.008273660515885038   -0.0001289836922460778
-0.007585569055245096   -0.004257679153887433   -0.00012174408287352287
-0.005330997804445916   -0.004265098152068635   -7.874231543585312e-05
-0.007432902140648213   -0.00829033662865661   -0.00019309074967492252
-0.0052079494756596565   -0.008273660515885038   -0.0001289836922460778
-0.005358130644793662   -0.004234129503318504   -6.565101453270254e-05
-0.0074596577812968915   -0.00826639041299903   -0.00017854562107469588
-0.005234693727150601   -0.008243423674225678   -0.00011240935298200742
-0.005358130644793662   -0.004234129503318504   -6.565101453270254e-05
-0.007585569055245096   -0.004257679153887433   -0.00012174408287352287
-0.0074596577812968915   -0.00826639041299903   -0.00017854562107469588
-0.007607389176914323   -0.004227440642571458   -0.0001123133195774117
-0.005234693727150601   -0.008243423674225678   -0.00011240935298200742
-0.0074822269524438215   -0.00824115850557621   -0.00016297843214135312
-0.007607389176914323   -0.004227440642571458   -0.0001123133195774117
-0.0074596577812968915   -0.00826639041299903   -0.00017854562107469588
-0.005234693727150601   -0.008243423674225678   -0.00011240935298200742
-0.007607389176914323   -0.004227440642571458   -0.0001123133195774117
-0.0053842112263694465   -0.004201312088116098   -5.25327739590181e-05
-0.005358130644793662   -0.004234129503318504   -6.565101453270254e-05
-0.005234693727150601   -0.008243423674225678   -0.00011240935298200742
-0.007607389176914323   -0.004227440642571458   -0.0001123133195774117
-0.005358130644793662   -0.004234129503318504   -6.565101453270254e-05
-0.0074596577812968915   -0.00826639041299903   -0.00017854562107469588
-0.005234693727150601   -0.008243423674225678   -0.00011240935298200742
-0.0053842112263694465   -0.004201312088116098   -5.25327739590181e-05
-0.0074822269524438215   -0.00824115850557621   -0.00016297843214135312
-0.0052611740277554355   -0.008212541838289157   -9.449974779853248e-05
-0.0053842112263694465   -0.004201312088116098   -5.25327739590181e-05
-0.007607389176914323   -0.004227440642571458   -0.0001123133195774117
-0.0074822269524438215   -0.00824115850557621   -0.00016297843214135312
-0.0076271748502886785   -0.004195179486864527   -0.00010252801346304263
-0.0052611740277554355   -0.008212541838289157   -9.449974779853248e-05
-0.0075035523566740385   -0.008215330199959134   -0.00014596521020042352
-0.0076271748502886785   -0.004195179486864527   -0.00010252801346304263
-0.0074822269524438215   -0.00824115850557621   -0.00016297843214135312
-0.0052611740277554355   -0.008212541838289157   -9.449974779853248e-05
-0.0076271748502886785   -0.004195179486864527   -0.00010252801346304263
-0.005408340917007961   -0.004165695204849174   -3.817732548974151e-05
-0.0053842112263694465   -0.004201312088116098   -5.25327739590181e-05
-0.0052611740277554355   -0.008212541838289157   -9.449974779853248e-05
-0.0076271748502886785   -0.004195179486864527   -0.00010252801346304263
-0.0053842112263694465   -0.004201312088116098   -5.25327739590181e-05
-0.0074822269524438215   -0.00824115850557621   -0.00016297843214135312
-0.007432902140648213   -0.00829033662865661   -0.00019309074967492252
-0.007561090302356601   -0.0042853061816852615   -0.00013138595642401443
-0.009795112271043996   -0.008268464146997103   -0.0002285766649876361
-0.0074596577812968915   -0.00826639041299903   -0.00017854562107469588
-0.007561090302356601   -0.0042853061816852615   -0.00013138595642401443
-0.009872644994448546   -0.0042873846617771435   -0.00017459735090794847
-0.009795112271043996   -0.008268464146997103   -0.0002285766649876361
-0.009893513974132727   -0.004260653623339919   -0.00017026758198642706
-0.0074596577812968915   -0.00826639041299903   -0.00017854562107469588
-0.009811203365598181   -0.008248679557863478   -0.0002173439876638581
-0.009893513974132727   -0.004260653623339919   -0.00017026758198642706
-0.009795112271043996   -0.008268464146997103   -0.0002285766649876361
-0.0074596577812968915   -0.00826639041299903   -0.00017854562107469588
-0.009893513974132727   -0.004260653623339919   -0.00017026758198642706
-0.007585569055245096   -0.004257679153887433   -0.00012174408287352287
-0.007561090302356601   -0.0042853061816852615   -0.00013138595642401443
-0.0074596577812968915   -0.00826639041299903   -0.00017854562107469588
-0.009893513974132727   -0.004260653623339919   -0.00017026758198642706
-0.007561090302356601   -0.0042853061816852615   -0.00013138595642401443
-0.009795112271043996   -0.008268464146997103   -0.0002285766649876361
-0.0074596577812968915   -0.00826639041299903   -0.00017854562107469588
-0.007585569055245096   -0.004257679153887433   -0.00012174408287352287
-0.009811203365598181   -0.008248679557863478   -0.0002173439876638581
-0.0074822269524438215   -0.00824115850557621   -0.00016297843214135312
-0.007585569055245096   -0.004257679153887433   -0.00012174408287352287
-0.009893513974132727   -0.004260653623339919   -0.00017026758198642706
-0.009811203365598181   -0.008248679557863478   -0.0002173439876638581
-0.009912210957080484   -0.004231602617371841   -0.00016516840266520992
-0.0074822269524438215   -0.00824115850557621   -0.00016297843214135312
-0.009825917176785104   -0.008226159893102953   -0.00020364936158963375
-0.009912210957080484   -0.004231602617371841   -0.00016516840266520992
-0.009811203365598181   -0.008248679557863478   -0.0002173439876638581
-0.0074822269524438215   -0.00824115850557621   -0.00016297843214135312
-0.009912210957080484   -0.004231602617371841   -0.00016516840266520992
-0.007607389176914323   -0.004227440642571458   -0.0001123133195774117
-0.007585569055245096   -0.004257679153887433   -0.00012174408287352287
-0.0074822269524438215   -0.00824115850557621   -0.00016297843214135312
-0.009912210957080484   -0.004231602617371841   -0.00016516840266520992
-0.007585569055245096   -0.004257679153887433   -0.00012174408287352287
-0.009811203365598181   -0.008248679557863478   -0.0002173439876638581
-0.0074822269524438215   -0.00824115850557621   -0.00016297843214135312
-0.007607389176914323   -0.004227440642571458   -0.0001123133195774117
-0.009825917176785104   -0.008226159893102953   -0.00020364936158963375
-0.0075035523566740385   -0.008215330199959134   -0.00014596521020042352
-0.007607389176914323   -0.004227440642571458   -0.0001123133195774117
-0.009912210957080484   -0.004231602617371841   -0.00016516840266520992
-0.009825917176785104   -0.008226159893102953   -0.00020364936158963375
-0.009927723432572004   -0.004200868755867512   -0.00016030481303210657
-0.0075035523566740385   -0.008215330199959134   -0.00014596521020042352
-0.009832444754137708   -0.008205890364484136   -0.00018808295576256616
-0.009927723432572004   -0.004200868755867512   -0.00016030481303210657
-0.009825917176785104   -0.008226159893102953   -0.00020364936158963375
-0.0075035523566740385   -0.008215330199959134   -0.00014596521020042352
-0.009927723432572004   -0.004200868755867512   -0.00016030481303210657
-0.0076271748502886785   -0.004195179486864527   -0.00010252801346304263
-0.007607389176914323   -0.004227440642571458   -0.0001123133195774117
-0.0075035523566740385   -0.008215330199959134   -0.00014596521020042352
-0.009927723432572004   -0.004200868755867512   -0.00016030481303210657
-0.007607389176914323   -0.004227440642571458   -0.0001123133195774117
-0.009825917176785104   -0.008226159893102953   -0.00020364936158963375
0.0011452036131400461   -0.004206267518037985   5.229000890407293e-05
0.0   0.0   0.0
-0.001071717726801823   -0.00415348013715337   2.9474319659618883e-05
0.0010444754937601584   -0.004154866844802526   0.00010993659224345167
0.0   0.0   0.0
-0.0013385644337478738   -0.0003509510296180415   -8.540776332020585e-06
-0.001071717726801823   -0.00415348013715337   2.9474319659618883e-05
-0.0014187874200176553   -0.000275070261213901   3.874458044233138e-05
0.0010444754937601584   -0.004154866844802526   0.00010993659224345167
-0.0011039503019310136   -0.004134426754920312   5.290162760856405e-05
-0.0014187874200176553   -0.000275070261213901   3.874458044233138e-05
-0.001071717726801823   -0.00415348013715337   2.9474319659618883e-05
0.0010444754937601584   -0.004154866844802526   0.00010993659224345167
-0.0014187874200176553   -0.000275070261213901   3.874458044233138e-05
0.0   0.0   0.0
0.0   0.0   0.0
0.0010444754937601584   -0.004154866844802526   0.00010993659224345167
-0.0014187874200176553   -0.000275070261213901   3.874458044233138e-05
0.0   0.0   0.0
-0.001071717726801823   -0.00415348013715337   2.9474319659618883e-05
0.0010444754937601584   -0.004154866844802526   0.00010993659224345167
0.0   0.0   0.0
-0.0011039503019310136   -0.004134426754920312   5.290162760856405e-05
0.0009856708529767644   -0.004113465989451567   0.00015273227985727786
0.0   0.0   0.0
-0.0014187874200176553   -0.000275070261213901   3.874458044233138e-05
-0.0011039503019310136   -0.004134426754920312   5.290162760856405e-05
-0.0014694835423226845   -0.00023881269645427986   6.642743305602112e-05
0.0009856708529767644   -0.004113465989451567   0.00015273227985727786
-0.0011467139705410574   -0.004099133858517223   8.146482028025563e-05
-0.0014694835423226845   -0.00023881269645427986   6.642743305602112e-05
-0.0011039503019310136   -0.004134426754920312   5.290162760856405e-05
0.0009856708529767644   -0.004113465989451567   0.00015273227985727786
-0.0014694835423226845   -0.00023881269645427986   6.642743305602112e-05
0.0   0.0   0.0
0.0   0.0   0.0
0.0009856708529767644   -0.004113465989451567   0.00015273227985727786
-0.0014694835423226845   -0.00023881269645427986   6.642743305602112e-05
0.0   0.0   0.0
-0.0011039503019310136   -0.004134426754920312   5.290162760856405e-05
0.0009856708529767644   -0.004113465989451567   0.00015273227985727786
0.0   0.0   0.0
-0.0011467139705410574   -0.004099133858517223   8.146482028025563e-05
0.0009100205578637909   -0.004049589703897502   0.00020184006884099858
0.0   0.0   0.0
-0.0014694835423226845   -0.00023881269645427986   6.642743305602112e-05
-0.0011467139705410574   -0.004099133858517223   8.146482028025563e-05
-0.0015380615257983873   -0.00019046665194365794   9.827694368965335e-05
0.0009100205578637909   -0.004049589703897502   0.00020184006884099858
-0.001182843611092554   -0.004061430550635906   0.00010658438233159433
-0.0015380615257983873   -0.00019046665194365794   9.827694368965335e-05
-0.0011467139705410574   -0.004099133858517223   8.146482028025563e-05
0.0009100205578637909   -0.004049589703897502   0.00020184006884099858
-0.0015380615257983873   -0.00019046665194365794   9.827694368965335e-05
0.0   0.0   0.0
0.0   0.0   0.0
0.0009100205578637909   -0.004049589703897502   0.00020184006884099858
-0.0015380615257983873   -0.00019046665194365794   9.827694368965335e-05
0.0   0.0   0.0
-0.0011467139705410574   -0.004099133858517223   8.146482028025563e-05
-0.001071717726801823   -0.00415348013715337   2.9474319659618883e-05
-0.0013385644337478738   -0.0003509510296180415   -8.540776332020585e-06
-0.003176643717675416   -0.004216125759590113   -2.155980960230744e-05
-0.0011039503019310136   -0.004134426754920312   5.290162760856405e-05
-0.0013385644337478738   -0.0003509510296180415   -8.540776332020585e-06
-0.003268901663070661   -0.00046394037415275823   -4.072190562532555e-06
-0.003176643717675416   -0.004216125759590113   -2.155980960230744e-05
-0.0033106976811888597   -0.0004231215416172199   8.574219995539011e-06
-0.0011039503019310136   -0.004134426754920312   5.290162760856405e-05
-0.003206679434323595   -0.004186031465000426   -4.8199072102362586e-06
-0.0033106976811888597   -0.0004231215416172199   8.574219995539011e-06
-0.003176643717675416   -0.004216125759590113   -2.155980960230744e-05
-0.0011039503019310136   -0.004134426754920312   5.290162760856405e-05
-0.0033106976811888597   -0.0004231215416172199   8.574219995539011e-06
-0.0014187874200176553   -0.000275070261213901   3.874458044233138e-05
-0.0013385644337478738   -0.0003509510296180415   -8.540776332020585e-06
-0.0011039503019310136   -0.004134426754920312   5.290162760856405e-05
-0.0033106976811888597   -0.0004231215416172199   8.574219995539011e-06
-0.0013385644337478738   -0.0003509510296180415   -8.540776332020585e-06
-0.003176643717675416   -0.004216125759590113   -2.155980960230744e-05
-0.0011039503019310136   -0.004134426754920312   5.290162760856405e-05
-0.0014187874200176553   -0.000275070261213901   3.874458044233138e-05
-0.003206679434323595   -0.004186031465000426   -4.8199072102362586e-06
-0.0011467139705410574   -0.004099133858517223   8.146482028025563e-05
-0.0014187874200176553   -0.000275070261213901   3.874458044233138e-05
-0.0033106976811888597   -0.0004231215416172199   8.574219995539011e-06
-0.003206679434323595   -0.004186031465000426   -4.8199072102362586e-06
-0.003352479318880503   -0.00037518819807153935   3.082897285966672e-05
-0.0011467139705410574   -0.004099133858517223   8.146482028025563e-05
-0.003238311960030205   -0.00415180524887952   1.2993428618522772e-05
-0.003352479318880503   -0.00037518819807153935   3.082897285966672e-05
-0.003206679434323595   -0.004186031465000426   -4.8199072102362586e-06
-0.0011467139705410574   -0.004099133858517223   8.146482028025563e-05
-0.003352479318880503   -0.00037518819807153935   3.082897285966672e-05
-0.0014694835423226845   -0.00023881269645427986   6.642743305602112e-05
-0.0014187874200176553   -0.000275070261213901   3.874458044233138e-05
-0.0011467139705410574   -0.004099133858517223   8.146482028025563e-05
-0.003352479318880503   -0.00037518819807153935   3.082897285966672e-05
-0.0014187874200176553   -0.000275070261213901   3.874458044233138e-05
-0.003206679434323595   -0.004186031465000426   -4.8199072102362586e-06
-0.0011467139705410574   -0.004099133858517223   8.146482028025563e-05
-0.0014694835423226845   -0.00023881269645427986   6.642743305602112e-05
-0.003238311960030205   -0.00415180524887952   1.2993428618522772e-05
-0.001182843611092554   -0.004061430550635906   0.00010658438233159433
-0.0014694835423226845   -0.00023881269645427986   6.642743305602112e-05
-0.003352479318880503   -0.00037518819807153935   3.082897285966672e-05
-0.003238311960030205   -0.00415180524887952   1.2993428618522772e-05
-0.003399375385905344   -0.00031937471020553407   5.238652237021471e-05
-0.001182843611092554   -0.004061430550635906   0.00010658438233159433
-0.0032685387270474137   -0.004114290415647611   3.269659574167559e-05
-0.003399375385905344   -0.00031937471020553407   5.238652237021471e-05
-0.003238311960030205   -0.00415180524887952   1.2993428618522772e-05
-0.001182843611092554   -0.004061430550635906   0.00010658438233159433
-0.003399375385905344   -0.00031937471020553407   5.238652237021471e-05
-0.0015380615257983873   -0.00019046665194365794   9.827694368965335e-05
-0.0014694835423226845   -0.00023881269645427986   6.642743305602112e-05
-0.001182843611092554   -0.004061430550635906   0.00010658438233159433
-0.003399375385905344   -0.00031937471020553407   5.238652237021471e-05
-0.0014694835423226845   -0.00023881269645427986   6.642743305602112e-05
-0.003238311960030205   -0.00415180524887952   1.2993428618522772e-05
-0.003176643717675416   -0.004216125759590113   -2.155980960230744e-05
-0.003268901663070661   -0.00046394037415275823   -4.072190562532555e-06
-0.005330997804445916   -0.004265098152068635   -7.874231543585312e-05
-0.003206679434323595   -0.004186031465000426   -4.8199072102362586e-06
-0.003268901663070661   -0.00046394037415275823   -4.072190562532555e-06
-0.005382901311815681   -0.0004978799553398519   -3.880029996477504e-05
-0.005330997804445916   -0.004265098152068635   -7.874231543585312e-05
-0.005408517725703229   -0.00046676793185278914   -3.5065101800481175e-05
-0.003206679434323595   -0.004186031465000426   -4.8199072102362586e-06
-0.005358130644793662   -0.004234129503318504   -6.565101453270254e-05
-0.005408517725703229   -0.00046676793185278914   -3.5065101800481175e-05
-0.005330997804445916   -0.004265098152068635   -7.874231543585312e-05
-0.003206679434323595   -0.004186031465000426   -4.8199072102362586e-06
-0.005408517725703229   -0.00046676793185278914   -3.5065101800481175e-05
-0.0033106976811888597   -0.0004231215416172199   8.574219995539011e-06
-0.003268901663070661   -0.00046394037415275823   -4.072190562532555e-06
-0.003206679434323595   -0.004186031465000426   -4.8199072102362586e-06
-0.005408517725703229   -0.00046676793185278914   -3.5065101800481175e-05
-0.003268901663070661   -0.00046394037415275823   -4.072190562532555e-06
-0.005330997804445916   -0.004265098152068635   -7.874231543585312e-05
-0.003206679434323595   -0.004186031465000426   -4.8199072102362586e-06
-0.0033106976811888597   -0.0004231215416172199   8.574219995539011e-06
-0.005358130644793662   -0.004234129503318504   -6.565101453270254e-05
-0.003238311960030205   -0.00415180524887952   1.2993428618522772e-05
-0.0033106976811888597   -0.0004231215416172199   8.574219995539011e-06
-0.005408517725703229   -0.00046676793185278914   -3.5065101800481175e-05
-0.005358130644793662   -0.004234129503318504   -6.565101453270254e-05
-0.00543520001330429   -0.0004303002761397726   -2.8643115216139486e-05
-0.003238311960030205   -0.00415180524887952   1.2993428618522772e-05
-0.0053842112263694465   -0.004201312088116098   -5.25327739590181e-05
-0.00543520001330429   -0.0004303002761397726   -2.8643115216139486e-05
-0.005358130644793662   -0.004234129503318504   -6.565101453270254e-05
-0.003238311960030205   -0.00415180524887952   1.2993428618522772e-05
-0.00543520001330429   -0.0004303002761397726   -2.8643115216139486e-05
-0.003352479318880503   -0.00037518819807153935   3.082897285966672e-05
-0.0033106976811888597   -0.0004231215416172199   8.574219995539011e-06
-0.003238311960030205   -0.00415180524887952   1.2993428618522772e-05
-0.00543520001330429   -0.0004303002761397726   -2.8643115216139486e-05
-0.0033106976811888597   -0.0004231215416172199   8.574219995539011e-06
-0.005358130644793662   -0.004234129503318504   -6.565101453270254e-05
-0.003238311960030205   -0.00415180524887952   1.2993428618522772e-05
-0.003352479318880503   -0.00037518819807153935   3.082897285966672e-05
-0.0053842112263694465   -0.004201312088116098   -5.25327739590181e-05
-0.0032685387270474137   -0.004114290415647611   3.269659574167559e-05
-0.003352479318880503   -0.00037518819807153935   3.082897285966672e-05
-0.00543520001330429   -0.0004303002761397726   -2.8643115216139486e-05
-0.0053842112263694465   -0.004201312088116098   -5.25327739590181e-05
-0.005461037797749455   -0.00038533667730290187   -2.014435738293683e-05
-0.0032685387270474137   -0.004114290415647611   3.269659574167559e-05
-0.005408340917007961   -0.004165695204849174   -3.817732548974151e-05
-0.005461037797749455   -0.00038533667730290187   -2.014435738293683e-05
-0.0053842112263694465   -0.004201312088116098   -5.25327739590181e-05
-0.0032685387270474137   -0.004114290415647611   3.269659574167559e-05
-0.005461037797749455   -0.00038533667730290187   -2.014435738293683e-05
-0.003399375385905344   -0.00031937471020553407   5.238652237021471e-05
-0.003352479318880503   -0.00037518819807153935   3.082897285966672e-05
-0.0032685387270474137   -0.004114290415647611   3.269659574167559e-05
-0.005461037797749455   -0.00038533667730290187   -2.014435738293683e-05
-0.003352479318880503   -0.00037518819807153935   3.082897285966672e-05
-0.0053842112263694465   -0.004201312088116098   -5.25327739590181e-05
-0.005330997804445916   -0.004265098152068635   -7.874231543585312e-05
-0.005382901311815681   -0.0004978799553398519   -3.880029996477504e-05
-0.007561090302356601   -0.0042853061816852615   -0.00013138595642401443
-0.005358130644793662   -0.004234129503318504   -6.565101453270254e-05
-0.005382901311815681   -0.0004978799553398519   -3.880029996477504e-05
-0.007600614666487491   -0.0004947487494321653   -9.059339262191552e-05
-0.007561090302356601   -0.0042853061816852615   -0.00013138595642401443
-0.00761798311321477   -0.0004673273277477788   -8.895915490600743e-05
-0.005358130644793662   -0.004234129503318504   -6.565101453270254e-05
-0.007585569055245096   -0.004257679153887433   -0.00012174408287352287
-0.00761798311321477   -0.0004673273277477788   -8.895915490600743e-05
-0.007561090302356601   -0.0042853061816852615   -0.00013138595642401443
-0.005358130644793662   -0.004234129503318504   -6.565101453270254e-05
-0.00761798311321477   -0.0004673273277477788   -8.895915490600743e-05
-0.005408517725703229   -0.00046676793185278914   -3.5065101800481175e-05
-0.005382901311815681   -0.0004978799553398519   -3.880029996477504e-05
-0.005358130644793662   -0.004234129503318504   -6.565101453270254e-05
-0.00761798311321477   -0.0004673273277477788   -8.895915490600743e-05
-0.005382901311815681   -0.0004978799553398519   -3.880029996477504e-05
-0.007561090302356601   -0.0042853061816852615   -0.00013138595642401443
-0.005358130644793662   -0.004234129503318504   -6.565101453270254e-05
-0.005408517725703229   -0.00046676793185278914   -3.5065101800481175e-05
-0.007585569055245096   -0.004257679153887433   -0.00012174408287352287
-0.0053842112263694465   -0.004201312088116098   -5.25327739590181e-05
-0.005408517725703229   -0.00046676793185278914   -3.5065101800481175e-05
-0.00761798311321477   -0.0004673273277477788   -8.895915490600743e-05
-0.007585569055245096   -0.004257679153887433   -0.00012174408287352287
-0.007636087787454061   -0.0004364612723681027   -8.762640100435761e-05
-0.0053842112263694465   -0.004201312088116098   -5.25327739590181e-05
-0.007607389176914323   -0.004227440642571458   -0.0001123133195774117
-0.007636087787454061   -0.0004364612723681027   -8.762640100435761e-05
-0.007585569055245096   -0.004257679153887433   -0.00012174408287352287
-0.0053842112263694465   -0.004201312088116098   -5.25327739590181e-05
-0.007636087787454061   -0.0004364612723681027   -8.762640100435761e-05
-0.00543520001330429   -0.0004303002761397726   -2.8643115216139486e-05
-0.005408517725703229   -0.00046676793185278914   -3.5065101800481175e-05
-0.0053842112263694465   -0.004201312088116098   -5.25327739590181e-05
-0.007636087787454061   -0.0004364612723681027   -8.762640100435761e-05
-0.005408517725703229   -0.00046676793185278914   -3.5065101800481175e-05
-0.007585569055245096   -0.004257679153887433   -0.00012174408287352287
-0.0053842112263694465   -0.004201312088116098   -5.25327739590181e-05
-0.00543520001330429   -0.0004303002761397726   -2.8643115216139486e-05
-0.007607389176914323   -0.004227440642571458   -0.0001123133195774117
-0.005408340917007961   -0.004165695204849174   -3.817732548974151e-05
-0.00543520001330429   -0.0004303002761397726   -2.8643115216139486e-05
-0.007636087787454061   -0.0004364612723681027   -8.762640100435761e-05
-0.007607389176914323   -0.004227440642571458   -0.0001123133195774117
-0.007650201264096361   -0.0004026909361515833   -8.665366407296236e-05
-0.005408340917007961   -0.004165695204849174   -3.817732548974151e-05
-0.0076271748502886785   -0.004195179486864527   -0.00010252801346304263
-0.007650201264096361   -0.0004026909361515833   -8.665366407296236e-05
-0.007607389176914323   -0.004227440642571458   -0.0001123133195774117
-0.005408340917007961   -0.004165695204849174   -3.817732548974151e-05
-0.007650201264096361   -0.0004026909361515833   -8.665366407296236e-05
-0.005461037797749455   -0.00038533667730290187   -2.014435738293683e-05
-0.00543520001330429   -0.0004303002761397726   -2.8643115216139486e-05
-0.005408340917007961   -0.004165695204849174   -3.817732548974151e-05
-0.007650201264096361   -0.0004026909361515833   -8.665366407296236e-05
-0.00543520001330429   -0.0004303002761397726   -2.8643115216139486e-05
-0.007607389176914323   -0.004227440642571458   -0.0001123133195774117
-0.007561090302356601   -0.0042853061816852615   -0.00013138595642401443
-0.007600614666487491   -0.0004947487494321653   -9.059339262191552e-05
-0.009872644994448546   -0.0042873846617771435   -0.00017459735090794847
-0.007585569055245096   -0.004257679153887433   -0.00012174408287352287
-0.007600614666487491   -0.0004947487494321653   -9.059339262191552e-05
-0.009881033737156554   -0.0004916032579118458   -0.00014175266763896764
-0.009872644994448546   -0.0042873846617771435   -0.00017459735090794847
-0.00989495875497514   -0.000461984367558744   -0.00014161318855602023
-0.007585569055245096   -0.004257679153887433   -0.00012174408287352287
-0.009893513974132727   -0.004260653623339919   -0.00017026758198642706
-0.00989495875497514   -0.000461984367558744   -0.00014161318855602023
-0.009872644994448546   -0.0042873846617771435   -0.00017459735090794847
-0.007585569055245096   -0.004257679153887433   -0.00012174408287352287
-0.00989495875497514   -0.000461984367558744   -0.00014161318855602023
-0.00761798311321477   -0.0004673273277477788   -8.895915490600743e-05
-0.007600614666487491   -0.0004947487494321653   -9.059339262191552e-05
-0.007585569055245096   -0.004257679153887433   -0.00012174408287352287
-0.00989495875497514   -0.000461984367558744   -0.00014161318855602023
-0.007600614666487491   -0.0004947487494321653   -9.059339262191552e-05
-0.009872644994448546   -0.0042873846617771435   -0.00017459735090794847
-0.007585569055245096   -0.004257679153887433   -0.00012174408287352287
-0.00761798311321477   -0.0004673273277477788   -8.895915490600743e-05
-0.009893513974132727   -0.004260653623339919   -0.00017026758198642706
-0.007607389176914323   -0.004227440642571458   -0.0001123133195774117
-0.00761798311321477   -0.0004673273277477788   -8.895915490600743e-05
-0.00989495875497514   -0.000461984367558744   -0.00014161318855602023
-0.009893513974132727   -0.004260653623339919   -0.00017026758198642706
-0.00991021334091103   -0.00043216143886763   -0.00014379717561718077
-0.007607389176914323   -0.004227440642571458   -0.0001123133195774117
-0.009912210957080484   -0.004231602617371841   -0.00016516840266520992
-0.00991021334091103   -0.00043216143886763   -0.00014379717561718077
-0.009893513974132727   -0.004260653623339919   -0.00017026758198642706
-0.007607389176914323   -0.004227440642571458   -0.0001123133195774117
-0.00991021334091103   -0.00043216143886763   -0.00014379717561718077
-0.007636087787454061   -0.0004364612723681027   -8.762640100435761e-05
-0.00761798311321477   -0.0004673273277477788   -8.895915490600743e-05
-0.007607389176914323   -0.004227440642571458   -0.0001123133195774117
-0.00991021334091103   -0.00043216143886763   -0.00014379717561718077
-0.00761798311321477   -0.0004673273277477788   -8.895915490600743e-05
-0.009893513974132727   -0.004260653623339919   -0.00017026758198642706
-0.007607389176914323   -0.004227440642571458   -0.0001123133195774117
-0.007636087787454061   -0.0004364612723681027   -8.762640100435761e-05
-0.009912210957080484   -0.004231602617371841   -0.00016516840266520992
-0.0076271748502886785   -0.004195179486864527   -0.00010252801346304263
-0.007636087787454061   -0.0004364612723681027   -8.762640100435761e-05
-0.00991021334091103   -0.00043216143886763   -0.00014379717561718077
-0.009912210957080484   -0.004231602617371841   -0.00016516840266520992
-0.009921570736568564   -0.0003995295531540484   -0.00014606435980251876
-0.0076271748502886785   -0.004195179486864527   -0.00010252801346304263
-0.009927723432572004   -0.004200868755867512   -0.00016030481303210657
-0.009921570736568564   -0.0003995295531540484   -0.00014606435980251876
-0.009912210957080484   -0.004231602617371841   -0.00016516840266520992
-0.0076271748502886785   -0.004195179486864527   -0.00010252801346304263
-0.009921570736568564   -0.0003995295531540484   -0.00014606435980251876
-0.007650201264096361   -0.0004026909361515833   -8.665366407296236e-05
-0.007636087787454061   -0.0004364612723681027   -8.762640100435761e-05
-0.0076271748502886785   -0.004195179486864527   -0.00010252801346304263
-0.009921570736568564   -0.0003995295531540484   -0.00014606435980251876
-0.007636087787454061   -0.0004364612723681027   -8.762640100435761e-05
-0.009912210957080484   -0.004231602617371841   -0.00016516840266520992
              </DataArray>   
          </PointData>  
       </Piece>  
   </UnstructuredGrid> 
</VTKFile> 
