<?xml version="1.0"?> 
<VTKFile type="UnstructuredGrid"> 
   <UnstructuredGrid> 
      <Piece NumberOfPoints="6000"  NumberOfCells="1500">  
          <Points>  
             <DataArray type="Float64" NumberOfComponents="3" format="ascii">   
-500.0   0.0   0.0
-450.0   0.0   0.0
-500.0   30.0   0.0
-500.0   0.0   16.666666666666668
-450.0   0.0   0.0
-450.0   30.0   0.0
-500.0   30.0   0.0
-450.0   30.0   16.666666666666668
-500.0   0.0   16.666666666666668
-500.0   30.0   16.666666666666668
-450.0   30.0   16.666666666666668
-500.0   30.0   0.0
-500.0   0.0   16.666666666666668
-450.0   30.0   16.666666666666668
-450.0   0.0   16.666666666666668
-450.0   0.0   0.0
-500.0   0.0   16.666666666666668
-450.0   30.0   16.666666666666668
-450.0   0.0   0.0
-500.0   30.0   0.0
-500.0   0.0   16.666666666666668
-450.0   0.0   16.666666666666668
-500.0   30.0   16.666666666666668
-500.0   0.0   33.333333333333336
-450.0   0.0   16.666666666666668
-450.0   30.0   16.666666666666668
-500.0   30.0   16.666666666666668
-450.0   30.0   33.333333333333336
-500.0   0.0   33.333333333333336
-500.0   30.0   33.333333333333336
-450.0   30.0   33.333333333333336
-500.0   30.0   16.666666666666668
-500.0   0.0   33.333333333333336
-450.0   30.0   33.333333333333336
-450.0   0.0   33.333333333333336
-450.0   0.0   16.666666666666668
-500.0   0.0   33.333333333333336
-450.0   30.0   33.333333333333336
-450.0   0.0   16.666666666666668
-500.0   30.0   16.666666666666668
-500.0   0.0   33.333333333333336
-450.0   0.0   33.333333333333336
-500.0   30.0   33.333333333333336
-500.0   0.0   50.0
-450.0   0.0   33.333333333333336
-450.0   30.0   33.333333333333336
-500.0   30.0   33.333333333333336
-450.0   30.0   50.0
-500.0   0.0   50.0
-500.0   30.0   50.0
-450.0   30.0   50.0
-500.0   30.0   33.333333333333336
-500.0   0.0   50.0
-450.0   30.0   50.0
-450.0   0.0   50.0
-450.0   0.0   33.333333333333336
-500.0   0.0   50.0
-450.0   30.0   50.0
-450.0   0.0   33.333333333333336
-500.0   30.0   33.333333333333336
-500.0   30.0   0.0
-450.0   30.0   0.0
-500.0   60.0   0.0
-500.0   30.0   16.666666666666668
-450.0   30.0   0.0
-450.0   60.0   0.0
-500.0   60.0   0.0
-450.0   60.0   16.666666666666668
-500.0   30.0   16.666666666666668
-500.0   60.0   16.666666666666668
-450.0   60.0   16.666666666666668
-500.0   60.0   0.0
-500.0   30.0   16.666666666666668
-450.0   60.0   16.666666666666668
-450.0   30.0   16.666666666666668
-450.0   30.0   0.0
-500.0   30.0   16.666666666666668
-450.0   60.0   16.666666666666668
-450.0   30.0   0.0
-500.0   60.0   0.0
-500.0   30.0   16.666666666666668
-450.0   30.0   16.666666666666668
-500.0   60.0   16.666666666666668
-500.0   30.0   33.333333333333336
-450.0   30.0   16.666666666666668
-450.0   60.0   16.666666666666668
-500.0   60.0   16.666666666666668
-450.0   60.0   33.333333333333336
-500.0   30.0   33.333333333333336
-500.0   60.0   33.333333333333336
-450.0   60.0   33.333333333333336
-500.0   60.0   16.666666666666668
-500.0   30.0   33.333333333333336
-450.0   60.0   33.333333333333336
-450.0   30.0   33.333333333333336
-450.0   30.0   16.666666666666668
-500.0   30.0   33.333333333333336
-450.0   60.0   33.333333333333336
-450.0   30.0   16.666666666666668
-500.0   60.0   16.666666666666668
-500.0   30.0   33.333333333333336
-450.0   30.0   33.333333333333336
-500.0   60.0   33.333333333333336
-500.0   30.0   50.0
-450.0   30.0   33.333333333333336
-450.0   60.0   33.333333333333336
-500.0   60.0   33.333333333333336
-450.0   60.0   50.0
-500.0   30.0   50.0
-500.0   60.0   50.0
-450.0   60.0   50.0
-500.0   60.0   33.333333333333336
-500.0   30.0   50.0
-450.0   60.0   50.0
-450.0   30.0   50.0
-450.0   30.0   33.333333333333336
-500.0   30.0   50.0
-450.0   60.0   50.0
-450.0   30.0   33.333333333333336
-500.0   60.0   33.333333333333336
-500.0   60.0   0.0
-450.0   60.0   0.0
-500.0   90.0   0.0
-500.0   60.0   16.666666666666668
-450.0   60.0   0.0
-450.0   90.0   0.0
-500.0   90.0   0.0
-450.0   90.0   16.666666666666668
-500.0   60.0   16.666666666666668
-500.0   90.0   16.666666666666668
-450.0   90.0   16.666666666666668
-500.0   90.0   0.0
-500.0   60.0   16.666666666666668
-450.0   90.0   16.666666666666668
-450.0   60.0   16.666666666666668
-450.0   60.0   0.0
-500.0   60.0   16.666666666666668
-450.0   90.0   16.666666666666668
-450.0   60.0   0.0
-500.0   90.0   0.0
-500.0   60.0   16.666666666666668
-450.0   60.0   16.666666666666668
-500.0   90.0   16.666666666666668
-500.0   60.0   33.333333333333336
-450.0   60.0   16.666666666666668
-450.0   90.0   16.666666666666668
-500.0   90.0   16.666666666666668
-450.0   90.0   33.333333333333336
-500.0   60.0   33.333333333333336
-500.0   90.0   33.333333333333336
-450.0   90.0   33.333333333333336
-500.0   90.0   16.666666666666668
-500.0   60.0   33.333333333333336
-450.0   90.0   33.333333333333336
-450.0   60.0   33.333333333333336
-450.0   60.0   16.666666666666668
-500.0   60.0   33.333333333333336
-450.0   90.0   33.333333333333336
-450.0   60.0   16.666666666666668
-500.0   90.0   16.666666666666668
-500.0   60.0   33.333333333333336
-450.0   60.0   33.333333333333336
-500.0   90.0   33.333333333333336
-500.0   60.0   50.0
-450.0   60.0   33.333333333333336
-450.0   90.0   33.333333333333336
-500.0   90.0   33.333333333333336
-450.0   90.0   50.0
-500.0   60.0   50.0
-500.0   90.0   50.0
-450.0   90.0   50.0
-500.0   90.0   33.333333333333336
-500.0   60.0   50.0
-450.0   90.0   50.0
-450.0   60.0   50.0
-450.0   60.0   33.333333333333336
-500.0   60.0   50.0
-450.0   90.0   50.0
-450.0   60.0   33.333333333333336
-500.0   90.0   33.333333333333336
-500.0   90.0   0.0
-450.0   90.0   0.0
-500.0   120.0   0.0
-500.0   90.0   16.666666666666668
-450.0   90.0   0.0
-450.0   120.0   0.0
-500.0   120.0   0.0
-450.0   120.0   16.666666666666668
-500.0   90.0   16.666666666666668
-500.0   120.0   16.666666666666668
-450.0   120.0   16.666666666666668
-500.0   120.0   0.0
-500.0   90.0   16.666666666666668
-450.0   120.0   16.666666666666668
-450.0   90.0   16.666666666666668
-450.0   90.0   0.0
-500.0   90.0   16.666666666666668
-450.0   120.0   16.666666666666668
-450.0   90.0   0.0
-500.0   120.0   0.0
-500.0   90.0   16.666666666666668
-450.0   90.0   16.666666666666668
-500.0   120.0   16.666666666666668
-500.0   90.0   33.333333333333336
-450.0   90.0   16.666666666666668
-450.0   120.0   16.666666666666668
-500.0   120.0   16.666666666666668
-450.0   120.0   33.333333333333336
-500.0   90.0   33.333333333333336
-500.0   120.0   33.333333333333336
-450.0   120.0   33.333333333333336
-500.0   120.0   16.666666666666668
-500.0   90.0   33.333333333333336
-450.0   120.0   33.333333333333336
-450.0   90.0   33.333333333333336
-450.0   90.0   16.666666666666668
-500.0   90.0   33.333333333333336
-450.0   120.0   33.333333333333336
-450.0   90.0   16.666666666666668
-500.0   120.0   16.666666666666668
-500.0   90.0   33.333333333333336
-450.0   90.0   33.333333333333336
-500.0   120.0   33.333333333333336
-500.0   90.0   50.0
-450.0   90.0   33.333333333333336
-450.0   120.0   33.333333333333336
-500.0   120.0   33.333333333333336
-450.0   120.0   50.0
-500.0   90.0   50.0
-500.0   120.0   50.0
-450.0   120.0   50.0
-500.0   120.0   33.333333333333336
-500.0   90.0   50.0
-450.0   120.0   50.0
-450.0   90.0   50.0
-450.0   90.0   33.333333333333336
-500.0   90.0   50.0
-450.0   120.0   50.0
-450.0   90.0   33.333333333333336
-500.0   120.0   33.333333333333336
-500.0   120.0   0.0
-450.0   120.0   0.0
-500.0   150.0   0.0
-500.0   120.0   16.666666666666668
-450.0   120.0   0.0
-450.0   150.0   0.0
-500.0   150.0   0.0
-450.0   150.0   16.666666666666668
-500.0   120.0   16.666666666666668
-500.0   150.0   16.666666666666668
-450.0   150.0   16.666666666666668
-500.0   150.0   0.0
-500.0   120.0   16.666666666666668
-450.0   150.0   16.666666666666668
-450.0   120.0   16.666666666666668
-450.0   120.0   0.0
-500.0   120.0   16.666666666666668
-450.0   150.0   16.666666666666668
-450.0   120.0   0.0
-500.0   150.0   0.0
-500.0   120.0   16.666666666666668
-450.0   120.0   16.666666666666668
-500.0   150.0   16.666666666666668
-500.0   120.0   33.333333333333336
-450.0   120.0   16.666666666666668
-450.0   150.0   16.666666666666668
-500.0   150.0   16.666666666666668
-450.0   150.0   33.333333333333336
-500.0   120.0   33.333333333333336
-500.0   150.0   33.333333333333336
-450.0   150.0   33.333333333333336
-500.0   150.0   16.666666666666668
-500.0   120.0   33.333333333333336
-450.0   150.0   33.333333333333336
-450.0   120.0   33.333333333333336
-450.0   120.0   16.666666666666668
-500.0   120.0   33.333333333333336
-450.0   150.0   33.333333333333336
-450.0   120.0   16.666666666666668
-500.0   150.0   16.666666666666668
-500.0   120.0   33.333333333333336
-450.0   120.0   33.333333333333336
-500.0   150.0   33.333333333333336
-500.0   120.0   50.0
-450.0   120.0   33.333333333333336
-450.0   150.0   33.333333333333336
-500.0   150.0   33.333333333333336
-450.0   150.0   50.0
-500.0   120.0   50.0
-500.0   150.0   50.0
-450.0   150.0   50.0
-500.0   150.0   33.333333333333336
-500.0   120.0   50.0
-450.0   150.0   50.0
-450.0   120.0   50.0
-450.0   120.0   33.333333333333336
-500.0   120.0   50.0
-450.0   150.0   50.0
-450.0   120.0   33.333333333333336
-500.0   150.0   33.333333333333336
-450.0   0.0   0.0
-400.0   0.0   0.0
-450.0   30.0   0.0
-450.0   0.0   16.666666666666668
-400.0   0.0   0.0
-400.0   30.0   0.0
-450.0   30.0   0.0
-400.0   30.0   16.666666666666668
-450.0   0.0   16.666666666666668
-450.0   30.0   16.666666666666668
-400.0   30.0   16.666666666666668
-450.0   30.0   0.0
-450.0   0.0   16.666666666666668
-400.0   30.0   16.666666666666668
-400.0   0.0   16.666666666666668
-400.0   0.0   0.0
-450.0   0.0   16.666666666666668
-400.0   30.0   16.666666666666668
-400.0   0.0   0.0
-450.0   30.0   0.0
-450.0   0.0   16.666666666666668
-400.0   0.0   16.666666666666668
-450.0   30.0   16.666666666666668
-450.0   0.0   33.333333333333336
-400.0   0.0   16.666666666666668
-400.0   30.0   16.666666666666668
-450.0   30.0   16.666666666666668
-400.0   30.0   33.333333333333336
-450.0   0.0   33.333333333333336
-450.0   30.0   33.333333333333336
-400.0   30.0   33.333333333333336
-450.0   30.0   16.666666666666668
-450.0   0.0   33.333333333333336
-400.0   30.0   33.333333333333336
-400.0   0.0   33.333333333333336
-400.0   0.0   16.666666666666668
-450.0   0.0   33.333333333333336
-400.0   30.0   33.333333333333336
-400.0   0.0   16.666666666666668
-450.0   30.0   16.666666666666668
-450.0   0.0   33.333333333333336
-400.0   0.0   33.333333333333336
-450.0   30.0   33.333333333333336
-450.0   0.0   50.0
-400.0   0.0   33.333333333333336
-400.0   30.0   33.333333333333336
-450.0   30.0   33.333333333333336
-400.0   30.0   50.0
-450.0   0.0   50.0
-450.0   30.0   50.0
-400.0   30.0   50.0
-450.0   30.0   33.333333333333336
-450.0   0.0   50.0
-400.0   30.0   50.0
-400.0   0.0   50.0
-400.0   0.0   33.333333333333336
-450.0   0.0   50.0
-400.0   30.0   50.0
-400.0   0.0   33.333333333333336
-450.0   30.0   33.333333333333336
-450.0   30.0   0.0
-400.0   30.0   0.0
-450.0   60.0   0.0
-450.0   30.0   16.666666666666668
-400.0   30.0   0.0
-400.0   60.0   0.0
-450.0   60.0   0.0
-400.0   60.0   16.666666666666668
-450.0   30.0   16.666666666666668
-450.0   60.0   16.666666666666668
-400.0   60.0   16.666666666666668
-450.0   60.0   0.0
-450.0   30.0   16.666666666666668
-400.0   60.0   16.666666666666668
-400.0   30.0   16.666666666666668
-400.0   30.0   0.0
-450.0   30.0   16.666666666666668
-400.0   60.0   16.666666666666668
-400.0   30.0   0.0
-450.0   60.0   0.0
-450.0   30.0   16.666666666666668
-400.0   30.0   16.666666666666668
-450.0   60.0   16.666666666666668
-450.0   30.0   33.333333333333336
-400.0   30.0   16.666666666666668
-400.0   60.0   16.666666666666668
-450.0   60.0   16.666666666666668
-400.0   60.0   33.333333333333336
-450.0   30.0   33.333333333333336
-450.0   60.0   33.333333333333336
-400.0   60.0   33.333333333333336
-450.0   60.0   16.666666666666668
-450.0   30.0   33.333333333333336
-400.0   60.0   33.333333333333336
-400.0   30.0   33.333333333333336
-400.0   30.0   16.666666666666668
-450.0   30.0   33.333333333333336
-400.0   60.0   33.333333333333336
-400.0   30.0   16.666666666666668
-450.0   60.0   16.666666666666668
-450.0   30.0   33.333333333333336
-400.0   30.0   33.333333333333336
-450.0   60.0   33.333333333333336
-450.0   30.0   50.0
-400.0   30.0   33.333333333333336
-400.0   60.0   33.333333333333336
-450.0   60.0   33.333333333333336
-400.0   60.0   50.0
-450.0   30.0   50.0
-450.0   60.0   50.0
-400.0   60.0   50.0
-450.0   60.0   33.333333333333336
-450.0   30.0   50.0
-400.0   60.0   50.0
-400.0   30.0   50.0
-400.0   30.0   33.333333333333336
-450.0   30.0   50.0
-400.0   60.0   50.0
-400.0   30.0   33.333333333333336
-450.0   60.0   33.333333333333336
-450.0   60.0   0.0
-400.0   60.0   0.0
-450.0   90.0   0.0
-450.0   60.0   16.666666666666668
-400.0   60.0   0.0
-400.0   90.0   0.0
-450.0   90.0   0.0
-400.0   90.0   16.666666666666668
-450.0   60.0   16.666666666666668
-450.0   90.0   16.666666666666668
-400.0   90.0   16.666666666666668
-450.0   90.0   0.0
-450.0   60.0   16.666666666666668
-400.0   90.0   16.666666666666668
-400.0   60.0   16.666666666666668
-400.0   60.0   0.0
-450.0   60.0   16.666666666666668
-400.0   90.0   16.666666666666668
-400.0   60.0   0.0
-450.0   90.0   0.0
-450.0   60.0   16.666666666666668
-400.0   60.0   16.666666666666668
-450.0   90.0   16.666666666666668
-450.0   60.0   33.333333333333336
-400.0   60.0   16.666666666666668
-400.0   90.0   16.666666666666668
-450.0   90.0   16.666666666666668
-400.0   90.0   33.333333333333336
-450.0   60.0   33.333333333333336
-450.0   90.0   33.333333333333336
-400.0   90.0   33.333333333333336
-450.0   90.0   16.666666666666668
-450.0   60.0   33.333333333333336
-400.0   90.0   33.333333333333336
-400.0   60.0   33.333333333333336
-400.0   60.0   16.666666666666668
-450.0   60.0   33.333333333333336
-400.0   90.0   33.333333333333336
-400.0   60.0   16.666666666666668
-450.0   90.0   16.666666666666668
-450.0   60.0   33.333333333333336
-400.0   60.0   33.333333333333336
-450.0   90.0   33.333333333333336
-450.0   60.0   50.0
-400.0   60.0   33.333333333333336
-400.0   90.0   33.333333333333336
-450.0   90.0   33.333333333333336
-400.0   90.0   50.0
-450.0   60.0   50.0
-450.0   90.0   50.0
-400.0   90.0   50.0
-450.0   90.0   33.333333333333336
-450.0   60.0   50.0
-400.0   90.0   50.0
-400.0   60.0   50.0
-400.0   60.0   33.333333333333336
-450.0   60.0   50.0
-400.0   90.0   50.0
-400.0   60.0   33.333333333333336
-450.0   90.0   33.333333333333336
-450.0   90.0   0.0
-400.0   90.0   0.0
-450.0   120.0   0.0
-450.0   90.0   16.666666666666668
-400.0   90.0   0.0
-400.0   120.0   0.0
-450.0   120.0   0.0
-400.0   120.0   16.666666666666668
-450.0   90.0   16.666666666666668
-450.0   120.0   16.666666666666668
-400.0   120.0   16.666666666666668
-450.0   120.0   0.0
-450.0   90.0   16.666666666666668
-400.0   120.0   16.666666666666668
-400.0   90.0   16.666666666666668
-400.0   90.0   0.0
-450.0   90.0   16.666666666666668
-400.0   120.0   16.666666666666668
-400.0   90.0   0.0
-450.0   120.0   0.0
-450.0   90.0   16.666666666666668
-400.0   90.0   16.666666666666668
-450.0   120.0   16.666666666666668
-450.0   90.0   33.333333333333336
-400.0   90.0   16.666666666666668
-400.0   120.0   16.666666666666668
-450.0   120.0   16.666666666666668
-400.0   120.0   33.333333333333336
-450.0   90.0   33.333333333333336
-450.0   120.0   33.333333333333336
-400.0   120.0   33.333333333333336
-450.0   120.0   16.666666666666668
-450.0   90.0   33.333333333333336
-400.0   120.0   33.333333333333336
-400.0   90.0   33.333333333333336
-400.0   90.0   16.666666666666668
-450.0   90.0   33.333333333333336
-400.0   120.0   33.333333333333336
-400.0   90.0   16.666666666666668
-450.0   120.0   16.666666666666668
-450.0   90.0   33.333333333333336
-400.0   90.0   33.333333333333336
-450.0   120.0   33.333333333333336
-450.0   90.0   50.0
-400.0   90.0   33.333333333333336
-400.0   120.0   33.333333333333336
-450.0   120.0   33.333333333333336
-400.0   120.0   50.0
-450.0   90.0   50.0
-450.0   120.0   50.0
-400.0   120.0   50.0
-450.0   120.0   33.333333333333336
-450.0   90.0   50.0
-400.0   120.0   50.0
-400.0   90.0   50.0
-400.0   90.0   33.333333333333336
-450.0   90.0   50.0
-400.0   120.0   50.0
-400.0   90.0   33.333333333333336
-450.0   120.0   33.333333333333336
-450.0   120.0   0.0
-400.0   120.0   0.0
-450.0   150.0   0.0
-450.0   120.0   16.666666666666668
-400.0   120.0   0.0
-400.0   150.0   0.0
-450.0   150.0   0.0
-400.0   150.0   16.666666666666668
-450.0   120.0   16.666666666666668
-450.0   150.0   16.666666666666668
-400.0   150.0   16.666666666666668
-450.0   150.0   0.0
-450.0   120.0   16.666666666666668
-400.0   150.0   16.666666666666668
-400.0   120.0   16.666666666666668
-400.0   120.0   0.0
-450.0   120.0   16.666666666666668
-400.0   150.0   16.666666666666668
-400.0   120.0   0.0
-450.0   150.0   0.0
-450.0   120.0   16.666666666666668
-400.0   120.0   16.666666666666668
-450.0   150.0   16.666666666666668
-450.0   120.0   33.333333333333336
-400.0   120.0   16.666666666666668
-400.0   150.0   16.666666666666668
-450.0   150.0   16.666666666666668
-400.0   150.0   33.333333333333336
-450.0   120.0   33.333333333333336
-450.0   150.0   33.333333333333336
-400.0   150.0   33.333333333333336
-450.0   150.0   16.666666666666668
-450.0   120.0   33.333333333333336
-400.0   150.0   33.333333333333336
-400.0   120.0   33.333333333333336
-400.0   120.0   16.666666666666668
-450.0   120.0   33.333333333333336
-400.0   150.0   33.333333333333336
-400.0   120.0   16.666666666666668
-450.0   150.0   16.666666666666668
-450.0   120.0   33.333333333333336
-400.0   120.0   33.333333333333336
-450.0   150.0   33.333333333333336
-450.0   120.0   50.0
-400.0   120.0   33.333333333333336
-400.0   150.0   33.333333333333336
-450.0   150.0   33.333333333333336
-400.0   150.0   50.0
-450.0   120.0   50.0
-450.0   150.0   50.0
-400.0   150.0   50.0
-450.0   150.0   33.333333333333336
-450.0   120.0   50.0
-400.0   150.0   50.0
-400.0   120.0   50.0
-400.0   120.0   33.333333333333336
-450.0   120.0   50.0
-400.0   150.0   50.0
-400.0   120.0   33.333333333333336
-450.0   150.0   33.333333333333336
-400.0   0.0   0.0
-350.0   0.0   0.0
-400.0   30.0   0.0
-400.0   0.0   16.666666666666668
-350.0   0.0   0.0
-350.0   30.0   0.0
-400.0   30.0   0.0
-350.0   30.0   16.666666666666668
-400.0   0.0   16.666666666666668
-400.0   30.0   16.666666666666668
-350.0   30.0   16.666666666666668
-400.0   30.0   0.0
-400.0   0.0   16.666666666666668
-350.0   30.0   16.666666666666668
-350.0   0.0   16.666666666666668
-350.0   0.0   0.0
-400.0   0.0   16.666666666666668
-350.0   30.0   16.666666666666668
-350.0   0.0   0.0
-400.0   30.0   0.0
-400.0   0.0   16.666666666666668
-350.0   0.0   16.666666666666668
-400.0   30.0   16.666666666666668
-400.0   0.0   33.333333333333336
-350.0   0.0   16.666666666666668
-350.0   30.0   16.666666666666668
-400.0   30.0   16.666666666666668
-350.0   30.0   33.333333333333336
-400.0   0.0   33.333333333333336
-400.0   30.0   33.333333333333336
-350.0   30.0   33.333333333333336
-400.0   30.0   16.666666666666668
-400.0   0.0   33.333333333333336
-350.0   30.0   33.333333333333336
-350.0   0.0   33.333333333333336
-350.0   0.0   16.666666666666668
-400.0   0.0   33.333333333333336
-350.0   30.0   33.333333333333336
-350.0   0.0   16.666666666666668
-400.0   30.0   16.666666666666668
-400.0   0.0   33.333333333333336
-350.0   0.0   33.333333333333336
-400.0   30.0   33.333333333333336
-400.0   0.0   50.0
-350.0   0.0   33.333333333333336
-350.0   30.0   33.333333333333336
-400.0   30.0   33.333333333333336
-350.0   30.0   50.0
-400.0   0.0   50.0
-400.0   30.0   50.0
-350.0   30.0   50.0
-400.0   30.0   33.333333333333336
-400.0   0.0   50.0
-350.0   30.0   50.0
-350.0   0.0   50.0
-350.0   0.0   33.333333333333336
-400.0   0.0   50.0
-350.0   30.0   50.0
-350.0   0.0   33.333333333333336
-400.0   30.0   33.333333333333336
-400.0   30.0   0.0
-350.0   30.0   0.0
-400.0   60.0   0.0
-400.0   30.0   16.666666666666668
-350.0   30.0   0.0
-350.0   60.0   0.0
-400.0   60.0   0.0
-350.0   60.0   16.666666666666668
-400.0   30.0   16.666666666666668
-400.0   60.0   16.666666666666668
-350.0   60.0   16.666666666666668
-400.0   60.0   0.0
-400.0   30.0   16.666666666666668
-350.0   60.0   16.666666666666668
-350.0   30.0   16.666666666666668
-350.0   30.0   0.0
-400.0   30.0   16.666666666666668
-350.0   60.0   16.666666666666668
-350.0   30.0   0.0
-400.0   60.0   0.0
-400.0   30.0   16.666666666666668
-350.0   30.0   16.666666666666668
-400.0   60.0   16.666666666666668
-400.0   30.0   33.333333333333336
-350.0   30.0   16.666666666666668
-350.0   60.0   16.666666666666668
-400.0   60.0   16.666666666666668
-350.0   60.0   33.333333333333336
-400.0   30.0   33.333333333333336
-400.0   60.0   33.333333333333336
-350.0   60.0   33.333333333333336
-400.0   60.0   16.666666666666668
-400.0   30.0   33.333333333333336
-350.0   60.0   33.333333333333336
-350.0   30.0   33.333333333333336
-350.0   30.0   16.666666666666668
-400.0   30.0   33.333333333333336
-350.0   60.0   33.333333333333336
-350.0   30.0   16.666666666666668
-400.0   60.0   16.666666666666668
-400.0   30.0   33.333333333333336
-350.0   30.0   33.333333333333336
-400.0   60.0   33.333333333333336
-400.0   30.0   50.0
-350.0   30.0   33.333333333333336
-350.0   60.0   33.333333333333336
-400.0   60.0   33.333333333333336
-350.0   60.0   50.0
-400.0   30.0   50.0
-400.0   60.0   50.0
-350.0   60.0   50.0
-400.0   60.0   33.333333333333336
-400.0   30.0   50.0
-350.0   60.0   50.0
-350.0   30.0   50.0
-350.0   30.0   33.333333333333336
-400.0   30.0   50.0
-350.0   60.0   50.0
-350.0   30.0   33.333333333333336
-400.0   60.0   33.333333333333336
-400.0   60.0   0.0
-350.0   60.0   0.0
-400.0   90.0   0.0
-400.0   60.0   16.666666666666668
-350.0   60.0   0.0
-350.0   90.0   0.0
-400.0   90.0   0.0
-350.0   90.0   16.666666666666668
-400.0   60.0   16.666666666666668
-400.0   90.0   16.666666666666668
-350.0   90.0   16.666666666666668
-400.0   90.0   0.0
-400.0   60.0   16.666666666666668
-350.0   90.0   16.666666666666668
-350.0   60.0   16.666666666666668
-350.0   60.0   0.0
-400.0   60.0   16.666666666666668
-350.0   90.0   16.666666666666668
-350.0   60.0   0.0
-400.0   90.0   0.0
-400.0   60.0   16.666666666666668
-350.0   60.0   16.666666666666668
-400.0   90.0   16.666666666666668
-400.0   60.0   33.333333333333336
-350.0   60.0   16.666666666666668
-350.0   90.0   16.666666666666668
-400.0   90.0   16.666666666666668
-350.0   90.0   33.333333333333336
-400.0   60.0   33.333333333333336
-400.0   90.0   33.333333333333336
-350.0   90.0   33.333333333333336
-400.0   90.0   16.666666666666668
-400.0   60.0   33.333333333333336
-350.0   90.0   33.333333333333336
-350.0   60.0   33.333333333333336
-350.0   60.0   16.666666666666668
-400.0   60.0   33.333333333333336
-350.0   90.0   33.333333333333336
-350.0   60.0   16.666666666666668
-400.0   90.0   16.666666666666668
-400.0   60.0   33.333333333333336
-350.0   60.0   33.333333333333336
-400.0   90.0   33.333333333333336
-400.0   60.0   50.0
-350.0   60.0   33.333333333333336
-350.0   90.0   33.333333333333336
-400.0   90.0   33.333333333333336
-350.0   90.0   50.0
-400.0   60.0   50.0
-400.0   90.0   50.0
-350.0   90.0   50.0
-400.0   90.0   33.333333333333336
-400.0   60.0   50.0
-350.0   90.0   50.0
-350.0   60.0   50.0
-350.0   60.0   33.333333333333336
-400.0   60.0   50.0
-350.0   90.0   50.0
-350.0   60.0   33.333333333333336
-400.0   90.0   33.333333333333336
-400.0   90.0   0.0
-350.0   90.0   0.0
-400.0   120.0   0.0
-400.0   90.0   16.666666666666668
-350.0   90.0   0.0
-350.0   120.0   0.0
-400.0   120.0   0.0
-350.0   120.0   16.666666666666668
-400.0   90.0   16.666666666666668
-400.0   120.0   16.666666666666668
-350.0   120.0   16.666666666666668
-400.0   120.0   0.0
-400.0   90.0   16.666666666666668
-350.0   120.0   16.666666666666668
-350.0   90.0   16.666666666666668
-350.0   90.0   0.0
-400.0   90.0   16.666666666666668
-350.0   120.0   16.666666666666668
-350.0   90.0   0.0
-400.0   120.0   0.0
-400.0   90.0   16.666666666666668
-350.0   90.0   16.666666666666668
-400.0   120.0   16.666666666666668
-400.0   90.0   33.333333333333336
-350.0   90.0   16.666666666666668
-350.0   120.0   16.666666666666668
-400.0   120.0   16.666666666666668
-350.0   120.0   33.333333333333336
-400.0   90.0   33.333333333333336
-400.0   120.0   33.333333333333336
-350.0   120.0   33.333333333333336
-400.0   120.0   16.666666666666668
-400.0   90.0   33.333333333333336
-350.0   120.0   33.333333333333336
-350.0   90.0   33.333333333333336
-350.0   90.0   16.666666666666668
-400.0   90.0   33.333333333333336
-350.0   120.0   33.333333333333336
-350.0   90.0   16.666666666666668
-400.0   120.0   16.666666666666668
-400.0   90.0   33.333333333333336
-350.0   90.0   33.333333333333336
-400.0   120.0   33.333333333333336
-400.0   90.0   50.0
-350.0   90.0   33.333333333333336
-350.0   120.0   33.333333333333336
-400.0   120.0   33.333333333333336
-350.0   120.0   50.0
-400.0   90.0   50.0
-400.0   120.0   50.0
-350.0   120.0   50.0
-400.0   120.0   33.333333333333336
-400.0   90.0   50.0
-350.0   120.0   50.0
-350.0   90.0   50.0
-350.0   90.0   33.333333333333336
-400.0   90.0   50.0
-350.0   120.0   50.0
-350.0   90.0   33.333333333333336
-400.0   120.0   33.333333333333336
-400.0   120.0   0.0
-350.0   120.0   0.0
-400.0   150.0   0.0
-400.0   120.0   16.666666666666668
-350.0   120.0   0.0
-350.0   150.0   0.0
-400.0   150.0   0.0
-350.0   150.0   16.666666666666668
-400.0   120.0   16.666666666666668
-400.0   150.0   16.666666666666668
-350.0   150.0   16.666666666666668
-400.0   150.0   0.0
-400.0   120.0   16.666666666666668
-350.0   150.0   16.666666666666668
-350.0   120.0   16.666666666666668
-350.0   120.0   0.0
-400.0   120.0   16.666666666666668
-350.0   150.0   16.666666666666668
-350.0   120.0   0.0
-400.0   150.0   0.0
-400.0   120.0   16.666666666666668
-350.0   120.0   16.666666666666668
-400.0   150.0   16.666666666666668
-400.0   120.0   33.333333333333336
-350.0   120.0   16.666666666666668
-350.0   150.0   16.666666666666668
-400.0   150.0   16.666666666666668
-350.0   150.0   33.333333333333336
-400.0   120.0   33.333333333333336
-400.0   150.0   33.333333333333336
-350.0   150.0   33.333333333333336
-400.0   150.0   16.666666666666668
-400.0   120.0   33.333333333333336
-350.0   150.0   33.333333333333336
-350.0   120.0   33.333333333333336
-350.0   120.0   16.666666666666668
-400.0   120.0   33.333333333333336
-350.0   150.0   33.333333333333336
-350.0   120.0   16.666666666666668
-400.0   150.0   16.666666666666668
-400.0   120.0   33.333333333333336
-350.0   120.0   33.333333333333336
-400.0   150.0   33.333333333333336
-400.0   120.0   50.0
-350.0   120.0   33.333333333333336
-350.0   150.0   33.333333333333336
-400.0   150.0   33.333333333333336
-350.0   150.0   50.0
-400.0   120.0   50.0
-400.0   150.0   50.0
-350.0   150.0   50.0
-400.0   150.0   33.333333333333336
-400.0   120.0   50.0
-350.0   150.0   50.0
-350.0   120.0   50.0
-350.0   120.0   33.333333333333336
-400.0   120.0   50.0
-350.0   150.0   50.0
-350.0   120.0   33.333333333333336
-400.0   150.0   33.333333333333336
-350.0   0.0   0.0
-300.0   0.0   0.0
-350.0   30.0   0.0
-350.0   0.0   16.666666666666668
-300.0   0.0   0.0
-300.0   30.0   0.0
-350.0   30.0   0.0
-300.0   30.0   16.666666666666668
-350.0   0.0   16.666666666666668
-350.0   30.0   16.666666666666668
-300.0   30.0   16.666666666666668
-350.0   30.0   0.0
-350.0   0.0   16.666666666666668
-300.0   30.0   16.666666666666668
-300.0   0.0   16.666666666666668
-300.0   0.0   0.0
-350.0   0.0   16.666666666666668
-300.0   30.0   16.666666666666668
-300.0   0.0   0.0
-350.0   30.0   0.0
-350.0   0.0   16.666666666666668
-300.0   0.0   16.666666666666668
-350.0   30.0   16.666666666666668
-350.0   0.0   33.333333333333336
-300.0   0.0   16.666666666666668
-300.0   30.0   16.666666666666668
-350.0   30.0   16.666666666666668
-300.0   30.0   33.333333333333336
-350.0   0.0   33.333333333333336
-350.0   30.0   33.333333333333336
-300.0   30.0   33.333333333333336
-350.0   30.0   16.666666666666668
-350.0   0.0   33.333333333333336
-300.0   30.0   33.333333333333336
-300.0   0.0   33.333333333333336
-300.0   0.0   16.666666666666668
-350.0   0.0   33.333333333333336
-300.0   30.0   33.333333333333336
-300.0   0.0   16.666666666666668
-350.0   30.0   16.666666666666668
-350.0   0.0   33.333333333333336
-300.0   0.0   33.333333333333336
-350.0   30.0   33.333333333333336
-350.0   0.0   50.0
-300.0   0.0   33.333333333333336
-300.0   30.0   33.333333333333336
-350.0   30.0   33.333333333333336
-300.0   30.0   50.0
-350.0   0.0   50.0
-350.0   30.0   50.0
-300.0   30.0   50.0
-350.0   30.0   33.333333333333336
-350.0   0.0   50.0
-300.0   30.0   50.0
-300.0   0.0   50.0
-300.0   0.0   33.333333333333336
-350.0   0.0   50.0
-300.0   30.0   50.0
-300.0   0.0   33.333333333333336
-350.0   30.0   33.333333333333336
-350.0   30.0   0.0
-300.0   30.0   0.0
-350.0   60.0   0.0
-350.0   30.0   16.666666666666668
-300.0   30.0   0.0
-300.0   60.0   0.0
-350.0   60.0   0.0
-300.0   60.0   16.666666666666668
-350.0   30.0   16.666666666666668
-350.0   60.0   16.666666666666668
-300.0   60.0   16.666666666666668
-350.0   60.0   0.0
-350.0   30.0   16.666666666666668
-300.0   60.0   16.666666666666668
-300.0   30.0   16.666666666666668
-300.0   30.0   0.0
-350.0   30.0   16.666666666666668
-300.0   60.0   16.666666666666668
-300.0   30.0   0.0
-350.0   60.0   0.0
-350.0   30.0   16.666666666666668
-300.0   30.0   16.666666666666668
-350.0   60.0   16.666666666666668
-350.0   30.0   33.333333333333336
-300.0   30.0   16.666666666666668
-300.0   60.0   16.666666666666668
-350.0   60.0   16.666666666666668
-300.0   60.0   33.333333333333336
-350.0   30.0   33.333333333333336
-350.0   60.0   33.333333333333336
-300.0   60.0   33.333333333333336
-350.0   60.0   16.666666666666668
-350.0   30.0   33.333333333333336
-300.0   60.0   33.333333333333336
-300.0   30.0   33.333333333333336
-300.0   30.0   16.666666666666668
-350.0   30.0   33.333333333333336
-300.0   60.0   33.333333333333336
-300.0   30.0   16.666666666666668
-350.0   60.0   16.666666666666668
-350.0   30.0   33.333333333333336
-300.0   30.0   33.333333333333336
-350.0   60.0   33.333333333333336
-350.0   30.0   50.0
-300.0   30.0   33.333333333333336
-300.0   60.0   33.333333333333336
-350.0   60.0   33.333333333333336
-300.0   60.0   50.0
-350.0   30.0   50.0
-350.0   60.0   50.0
-300.0   60.0   50.0
-350.0   60.0   33.333333333333336
-350.0   30.0   50.0
-300.0   60.0   50.0
-300.0   30.0   50.0
-300.0   30.0   33.333333333333336
-350.0   30.0   50.0
-300.0   60.0   50.0
-300.0   30.0   33.333333333333336
-350.0   60.0   33.333333333333336
-350.0   60.0   0.0
-300.0   60.0   0.0
-350.0   90.0   0.0
-350.0   60.0   16.666666666666668
-300.0   60.0   0.0
-300.0   90.0   0.0
-350.0   90.0   0.0
-300.0   90.0   16.666666666666668
-350.0   60.0   16.666666666666668
-350.0   90.0   16.666666666666668
-300.0   90.0   16.666666666666668
-350.0   90.0   0.0
-350.0   60.0   16.666666666666668
-300.0   90.0   16.666666666666668
-300.0   60.0   16.666666666666668
-300.0   60.0   0.0
-350.0   60.0   16.666666666666668
-300.0   90.0   16.666666666666668
-300.0   60.0   0.0
-350.0   90.0   0.0
-350.0   60.0   16.666666666666668
-300.0   60.0   16.666666666666668
-350.0   90.0   16.666666666666668
-350.0   60.0   33.333333333333336
-300.0   60.0   16.666666666666668
-300.0   90.0   16.666666666666668
-350.0   90.0   16.666666666666668
-300.0   90.0   33.333333333333336
-350.0   60.0   33.333333333333336
-350.0   90.0   33.333333333333336
-300.0   90.0   33.333333333333336
-350.0   90.0   16.666666666666668
-350.0   60.0   33.333333333333336
-300.0   90.0   33.333333333333336
-300.0   60.0   33.333333333333336
-300.0   60.0   16.666666666666668
-350.0   60.0   33.333333333333336
-300.0   90.0   33.333333333333336
-300.0   60.0   16.666666666666668
-350.0   90.0   16.666666666666668
-350.0   60.0   33.333333333333336
-300.0   60.0   33.333333333333336
-350.0   90.0   33.333333333333336
-350.0   60.0   50.0
-300.0   60.0   33.333333333333336
-300.0   90.0   33.333333333333336
-350.0   90.0   33.333333333333336
-300.0   90.0   50.0
-350.0   60.0   50.0
-350.0   90.0   50.0
-300.0   90.0   50.0
-350.0   90.0   33.333333333333336
-350.0   60.0   50.0
-300.0   90.0   50.0
-300.0   60.0   50.0
-300.0   60.0   33.333333333333336
-350.0   60.0   50.0
-300.0   90.0   50.0
-300.0   60.0   33.333333333333336
-350.0   90.0   33.333333333333336
-350.0   90.0   0.0
-300.0   90.0   0.0
-350.0   120.0   0.0
-350.0   90.0   16.666666666666668
-300.0   90.0   0.0
-300.0   120.0   0.0
-350.0   120.0   0.0
-300.0   120.0   16.666666666666668
-350.0   90.0   16.666666666666668
-350.0   120.0   16.666666666666668
-300.0   120.0   16.666666666666668
-350.0   120.0   0.0
-350.0   90.0   16.666666666666668
-300.0   120.0   16.666666666666668
-300.0   90.0   16.666666666666668
-300.0   90.0   0.0
-350.0   90.0   16.666666666666668
-300.0   120.0   16.666666666666668
-300.0   90.0   0.0
-350.0   120.0   0.0
-350.0   90.0   16.666666666666668
-300.0   90.0   16.666666666666668
-350.0   120.0   16.666666666666668
-350.0   90.0   33.333333333333336
-300.0   90.0   16.666666666666668
-300.0   120.0   16.666666666666668
-350.0   120.0   16.666666666666668
-300.0   120.0   33.333333333333336
-350.0   90.0   33.333333333333336
-350.0   120.0   33.333333333333336
-300.0   120.0   33.333333333333336
-350.0   120.0   16.666666666666668
-350.0   90.0   33.333333333333336
-300.0   120.0   33.333333333333336
-300.0   90.0   33.333333333333336
-300.0   90.0   16.666666666666668
-350.0   90.0   33.333333333333336
-300.0   120.0   33.333333333333336
-300.0   90.0   16.666666666666668
-350.0   120.0   16.666666666666668
-350.0   90.0   33.333333333333336
-300.0   90.0   33.333333333333336
-350.0   120.0   33.333333333333336
-350.0   90.0   50.0
-300.0   90.0   33.333333333333336
-300.0   120.0   33.333333333333336
-350.0   120.0   33.333333333333336
-300.0   120.0   50.0
-350.0   90.0   50.0
-350.0   120.0   50.0
-300.0   120.0   50.0
-350.0   120.0   33.333333333333336
-350.0   90.0   50.0
-300.0   120.0   50.0
-300.0   90.0   50.0
-300.0   90.0   33.333333333333336
-350.0   90.0   50.0
-300.0   120.0   50.0
-300.0   90.0   33.333333333333336
-350.0   120.0   33.333333333333336
-350.0   120.0   0.0
-300.0   120.0   0.0
-350.0   150.0   0.0
-350.0   120.0   16.666666666666668
-300.0   120.0   0.0
-300.0   150.0   0.0
-350.0   150.0   0.0
-300.0   150.0   16.666666666666668
-350.0   120.0   16.666666666666668
-350.0   150.0   16.666666666666668
-300.0   150.0   16.666666666666668
-350.0   150.0   0.0
-350.0   120.0   16.666666666666668
-300.0   150.0   16.666666666666668
-300.0   120.0   16.666666666666668
-300.0   120.0   0.0
-350.0   120.0   16.666666666666668
-300.0   150.0   16.666666666666668
-300.0   120.0   0.0
-350.0   150.0   0.0
-350.0   120.0   16.666666666666668
-300.0   120.0   16.666666666666668
-350.0   150.0   16.666666666666668
-350.0   120.0   33.333333333333336
-300.0   120.0   16.666666666666668
-300.0   150.0   16.666666666666668
-350.0   150.0   16.666666666666668
-300.0   150.0   33.333333333333336
-350.0   120.0   33.333333333333336
-350.0   150.0   33.333333333333336
-300.0   150.0   33.333333333333336
-350.0   150.0   16.666666666666668
-350.0   120.0   33.333333333333336
-300.0   150.0   33.333333333333336
-300.0   120.0   33.333333333333336
-300.0   120.0   16.666666666666668
-350.0   120.0   33.333333333333336
-300.0   150.0   33.333333333333336
-300.0   120.0   16.666666666666668
-350.0   150.0   16.666666666666668
-350.0   120.0   33.333333333333336
-300.0   120.0   33.333333333333336
-350.0   150.0   33.333333333333336
-350.0   120.0   50.0
-300.0   120.0   33.333333333333336
-300.0   150.0   33.333333333333336
-350.0   150.0   33.333333333333336
-300.0   150.0   50.0
-350.0   120.0   50.0
-350.0   150.0   50.0
-300.0   150.0   50.0
-350.0   150.0   33.333333333333336
-350.0   120.0   50.0
-300.0   150.0   50.0
-300.0   120.0   50.0
-300.0   120.0   33.333333333333336
-350.0   120.0   50.0
-300.0   150.0   50.0
-300.0   120.0   33.333333333333336
-350.0   150.0   33.333333333333336
-300.0   0.0   0.0
-250.0   0.0   0.0
-300.0   30.0   0.0
-300.0   0.0   16.666666666666668
-250.0   0.0   0.0
-250.0   30.0   0.0
-300.0   30.0   0.0
-250.0   30.0   16.666666666666668
-300.0   0.0   16.666666666666668
-300.0   30.0   16.666666666666668
-250.0   30.0   16.666666666666668
-300.0   30.0   0.0
-300.0   0.0   16.666666666666668
-250.0   30.0   16.666666666666668
-250.0   0.0   16.666666666666668
-250.0   0.0   0.0
-300.0   0.0   16.666666666666668
-250.0   30.0   16.666666666666668
-250.0   0.0   0.0
-300.0   30.0   0.0
-300.0   0.0   16.666666666666668
-250.0   0.0   16.666666666666668
-300.0   30.0   16.666666666666668
-300.0   0.0   33.333333333333336
-250.0   0.0   16.666666666666668
-250.0   30.0   16.666666666666668
-300.0   30.0   16.666666666666668
-250.0   30.0   33.333333333333336
-300.0   0.0   33.333333333333336
-300.0   30.0   33.333333333333336
-250.0   30.0   33.333333333333336
-300.0   30.0   16.666666666666668
-300.0   0.0   33.333333333333336
-250.0   30.0   33.333333333333336
-250.0   0.0   33.333333333333336
-250.0   0.0   16.666666666666668
-300.0   0.0   33.333333333333336
-250.0   30.0   33.333333333333336
-250.0   0.0   16.666666666666668
-300.0   30.0   16.666666666666668
-300.0   0.0   33.333333333333336
-250.0   0.0   33.333333333333336
-300.0   30.0   33.333333333333336
-300.0   0.0   50.0
-250.0   0.0   33.333333333333336
-250.0   30.0   33.333333333333336
-300.0   30.0   33.333333333333336
-250.0   30.0   50.0
-300.0   0.0   50.0
-300.0   30.0   50.0
-250.0   30.0   50.0
-300.0   30.0   33.333333333333336
-300.0   0.0   50.0
-250.0   30.0   50.0
-250.0   0.0   50.0
-250.0   0.0   33.333333333333336
-300.0   0.0   50.0
-250.0   30.0   50.0
-250.0   0.0   33.333333333333336
-300.0   30.0   33.333333333333336
-300.0   30.0   0.0
-250.0   30.0   0.0
-300.0   60.0   0.0
-300.0   30.0   16.666666666666668
-250.0   30.0   0.0
-250.0   60.0   0.0
-300.0   60.0   0.0
-250.0   60.0   16.666666666666668
-300.0   30.0   16.666666666666668
-300.0   60.0   16.666666666666668
-250.0   60.0   16.666666666666668
-300.0   60.0   0.0
-300.0   30.0   16.666666666666668
-250.0   60.0   16.666666666666668
-250.0   30.0   16.666666666666668
-250.0   30.0   0.0
-300.0   30.0   16.666666666666668
-250.0   60.0   16.666666666666668
-250.0   30.0   0.0
-300.0   60.0   0.0
-300.0   30.0   16.666666666666668
-250.0   30.0   16.666666666666668
-300.0   60.0   16.666666666666668
-300.0   30.0   33.333333333333336
-250.0   30.0   16.666666666666668
-250.0   60.0   16.666666666666668
-300.0   60.0   16.666666666666668
-250.0   60.0   33.333333333333336
-300.0   30.0   33.333333333333336
-300.0   60.0   33.333333333333336
-250.0   60.0   33.333333333333336
-300.0   60.0   16.666666666666668
-300.0   30.0   33.333333333333336
-250.0   60.0   33.333333333333336
-250.0   30.0   33.333333333333336
-250.0   30.0   16.666666666666668
-300.0   30.0   33.333333333333336
-250.0   60.0   33.333333333333336
-250.0   30.0   16.666666666666668
-300.0   60.0   16.666666666666668
-300.0   30.0   33.333333333333336
-250.0   30.0   33.333333333333336
-300.0   60.0   33.333333333333336
-300.0   30.0   50.0
-250.0   30.0   33.333333333333336
-250.0   60.0   33.333333333333336
-300.0   60.0   33.333333333333336
-250.0   60.0   50.0
-300.0   30.0   50.0
-300.0   60.0   50.0
-250.0   60.0   50.0
-300.0   60.0   33.333333333333336
-300.0   30.0   50.0
-250.0   60.0   50.0
-250.0   30.0   50.0
-250.0   30.0   33.333333333333336
-300.0   30.0   50.0
-250.0   60.0   50.0
-250.0   30.0   33.333333333333336
-300.0   60.0   33.333333333333336
-300.0   60.0   0.0
-250.0   60.0   0.0
-300.0   90.0   0.0
-300.0   60.0   16.666666666666668
-250.0   60.0   0.0
-250.0   90.0   0.0
-300.0   90.0   0.0
-250.0   90.0   16.666666666666668
-300.0   60.0   16.666666666666668
-300.0   90.0   16.666666666666668
-250.0   90.0   16.666666666666668
-300.0   90.0   0.0
-300.0   60.0   16.666666666666668
-250.0   90.0   16.666666666666668
-250.0   60.0   16.666666666666668
-250.0   60.0   0.0
-300.0   60.0   16.666666666666668
-250.0   90.0   16.666666666666668
-250.0   60.0   0.0
-300.0   90.0   0.0
-300.0   60.0   16.666666666666668
-250.0   60.0   16.666666666666668
-300.0   90.0   16.666666666666668
-300.0   60.0   33.333333333333336
-250.0   60.0   16.666666666666668
-250.0   90.0   16.666666666666668
-300.0   90.0   16.666666666666668
-250.0   90.0   33.333333333333336
-300.0   60.0   33.333333333333336
-300.0   90.0   33.333333333333336
-250.0   90.0   33.333333333333336
-300.0   90.0   16.666666666666668
-300.0   60.0   33.333333333333336
-250.0   90.0   33.333333333333336
-250.0   60.0   33.333333333333336
-250.0   60.0   16.666666666666668
-300.0   60.0   33.333333333333336
-250.0   90.0   33.333333333333336
-250.0   60.0   16.666666666666668
-300.0   90.0   16.666666666666668
-300.0   60.0   33.333333333333336
-250.0   60.0   33.333333333333336
-300.0   90.0   33.333333333333336
-300.0   60.0   50.0
-250.0   60.0   33.333333333333336
-250.0   90.0   33.333333333333336
-300.0   90.0   33.333333333333336
-250.0   90.0   50.0
-300.0   60.0   50.0
-300.0   90.0   50.0
-250.0   90.0   50.0
-300.0   90.0   33.333333333333336
-300.0   60.0   50.0
-250.0   90.0   50.0
-250.0   60.0   50.0
-250.0   60.0   33.333333333333336
-300.0   60.0   50.0
-250.0   90.0   50.0
-250.0   60.0   33.333333333333336
-300.0   90.0   33.333333333333336
-300.0   90.0   0.0
-250.0   90.0   0.0
-300.0   120.0   0.0
-300.0   90.0   16.666666666666668
-250.0   90.0   0.0
-250.0   120.0   0.0
-300.0   120.0   0.0
-250.0   120.0   16.666666666666668
-300.0   90.0   16.666666666666668
-300.0   120.0   16.666666666666668
-250.0   120.0   16.666666666666668
-300.0   120.0   0.0
-300.0   90.0   16.666666666666668
-250.0   120.0   16.666666666666668
-250.0   90.0   16.666666666666668
-250.0   90.0   0.0
-300.0   90.0   16.666666666666668
-250.0   120.0   16.666666666666668
-250.0   90.0   0.0
-300.0   120.0   0.0
-300.0   90.0   16.666666666666668
-250.0   90.0   16.666666666666668
-300.0   120.0   16.666666666666668
-300.0   90.0   33.333333333333336
-250.0   90.0   16.666666666666668
-250.0   120.0   16.666666666666668
-300.0   120.0   16.666666666666668
-250.0   120.0   33.333333333333336
-300.0   90.0   33.333333333333336
-300.0   120.0   33.333333333333336
-250.0   120.0   33.333333333333336
-300.0   120.0   16.666666666666668
-300.0   90.0   33.333333333333336
-250.0   120.0   33.333333333333336
-250.0   90.0   33.333333333333336
-250.0   90.0   16.666666666666668
-300.0   90.0   33.333333333333336
-250.0   120.0   33.333333333333336
-250.0   90.0   16.666666666666668
-300.0   120.0   16.666666666666668
-300.0   90.0   33.333333333333336
-250.0   90.0   33.333333333333336
-300.0   120.0   33.333333333333336
-300.0   90.0   50.0
-250.0   90.0   33.333333333333336
-250.0   120.0   33.333333333333336
-300.0   120.0   33.333333333333336
-250.0   120.0   50.0
-300.0   90.0   50.0
-300.0   120.0   50.0
-250.0   120.0   50.0
-300.0   120.0   33.333333333333336
-300.0   90.0   50.0
-250.0   120.0   50.0
-250.0   90.0   50.0
-250.0   90.0   33.333333333333336
-300.0   90.0   50.0
-250.0   120.0   50.0
-250.0   90.0   33.333333333333336
-300.0   120.0   33.333333333333336
-300.0   120.0   0.0
-250.0   120.0   0.0
-300.0   150.0   0.0
-300.0   120.0   16.666666666666668
-250.0   120.0   0.0
-250.0   150.0   0.0
-300.0   150.0   0.0
-250.0   150.0   16.666666666666668
-300.0   120.0   16.666666666666668
-300.0   150.0   16.666666666666668
-250.0   150.0   16.666666666666668
-300.0   150.0   0.0
-300.0   120.0   16.666666666666668
-250.0   150.0   16.666666666666668
-250.0   120.0   16.666666666666668
-250.0   120.0   0.0
-300.0   120.0   16.666666666666668
-250.0   150.0   16.666666666666668
-250.0   120.0   0.0
-300.0   150.0   0.0
-300.0   120.0   16.666666666666668
-250.0   120.0   16.666666666666668
-300.0   150.0   16.666666666666668
-300.0   120.0   33.333333333333336
-250.0   120.0   16.666666666666668
-250.0   150.0   16.666666666666668
-300.0   150.0   16.666666666666668
-250.0   150.0   33.333333333333336
-300.0   120.0   33.333333333333336
-300.0   150.0   33.333333333333336
-250.0   150.0   33.333333333333336
-300.0   150.0   16.666666666666668
-300.0   120.0   33.333333333333336
-250.0   150.0   33.333333333333336
-250.0   120.0   33.333333333333336
-250.0   120.0   16.666666666666668
-300.0   120.0   33.333333333333336
-250.0   150.0   33.333333333333336
-250.0   120.0   16.666666666666668
-300.0   150.0   16.666666666666668
-300.0   120.0   33.333333333333336
-250.0   120.0   33.333333333333336
-300.0   150.0   33.333333333333336
-300.0   120.0   50.0
-250.0   120.0   33.333333333333336
-250.0   150.0   33.333333333333336
-300.0   150.0   33.333333333333336
-250.0   150.0   50.0
-300.0   120.0   50.0
-300.0   150.0   50.0
-250.0   150.0   50.0
-300.0   150.0   33.333333333333336
-300.0   120.0   50.0
-250.0   150.0   50.0
-250.0   120.0   50.0
-250.0   120.0   33.333333333333336
-300.0   120.0   50.0
-250.0   150.0   50.0
-250.0   120.0   33.333333333333336
-300.0   150.0   33.333333333333336
-250.0   0.0   0.0
-200.0   0.0   0.0
-250.0   30.0   0.0
-250.0   0.0   16.666666666666668
-200.0   0.0   0.0
-200.0   30.0   0.0
-250.0   30.0   0.0
-200.0   30.0   16.666666666666668
-250.0   0.0   16.666666666666668
-250.0   30.0   16.666666666666668
-200.0   30.0   16.666666666666668
-250.0   30.0   0.0
-250.0   0.0   16.666666666666668
-200.0   30.0   16.666666666666668
-200.0   0.0   16.666666666666668
-200.0   0.0   0.0
-250.0   0.0   16.666666666666668
-200.0   30.0   16.666666666666668
-200.0   0.0   0.0
-250.0   30.0   0.0
-250.0   0.0   16.666666666666668
-200.0   0.0   16.666666666666668
-250.0   30.0   16.666666666666668
-250.0   0.0   33.333333333333336
-200.0   0.0   16.666666666666668
-200.0   30.0   16.666666666666668
-250.0   30.0   16.666666666666668
-200.0   30.0   33.333333333333336
-250.0   0.0   33.333333333333336
-250.0   30.0   33.333333333333336
-200.0   30.0   33.333333333333336
-250.0   30.0   16.666666666666668
-250.0   0.0   33.333333333333336
-200.0   30.0   33.333333333333336
-200.0   0.0   33.333333333333336
-200.0   0.0   16.666666666666668
-250.0   0.0   33.333333333333336
-200.0   30.0   33.333333333333336
-200.0   0.0   16.666666666666668
-250.0   30.0   16.666666666666668
-250.0   0.0   33.333333333333336
-200.0   0.0   33.333333333333336
-250.0   30.0   33.333333333333336
-250.0   0.0   50.0
-200.0   0.0   33.333333333333336
-200.0   30.0   33.333333333333336
-250.0   30.0   33.333333333333336
-200.0   30.0   50.0
-250.0   0.0   50.0
-250.0   30.0   50.0
-200.0   30.0   50.0
-250.0   30.0   33.333333333333336
-250.0   0.0   50.0
-200.0   30.0   50.0
-200.0   0.0   50.0
-200.0   0.0   33.333333333333336
-250.0   0.0   50.0
-200.0   30.0   50.0
-200.0   0.0   33.333333333333336
-250.0   30.0   33.333333333333336
-250.0   30.0   0.0
-200.0   30.0   0.0
-250.0   60.0   0.0
-250.0   30.0   16.666666666666668
-200.0   30.0   0.0
-200.0   60.0   0.0
-250.0   60.0   0.0
-200.0   60.0   16.666666666666668
-250.0   30.0   16.666666666666668
-250.0   60.0   16.666666666666668
-200.0   60.0   16.666666666666668
-250.0   60.0   0.0
-250.0   30.0   16.666666666666668
-200.0   60.0   16.666666666666668
-200.0   30.0   16.666666666666668
-200.0   30.0   0.0
-250.0   30.0   16.666666666666668
-200.0   60.0   16.666666666666668
-200.0   30.0   0.0
-250.0   60.0   0.0
-250.0   30.0   16.666666666666668
-200.0   30.0   16.666666666666668
-250.0   60.0   16.666666666666668
-250.0   30.0   33.333333333333336
-200.0   30.0   16.666666666666668
-200.0   60.0   16.666666666666668
-250.0   60.0   16.666666666666668
-200.0   60.0   33.333333333333336
-250.0   30.0   33.333333333333336
-250.0   60.0   33.333333333333336
-200.0   60.0   33.333333333333336
-250.0   60.0   16.666666666666668
-250.0   30.0   33.333333333333336
-200.0   60.0   33.333333333333336
-200.0   30.0   33.333333333333336
-200.0   30.0   16.666666666666668
-250.0   30.0   33.333333333333336
-200.0   60.0   33.333333333333336
-200.0   30.0   16.666666666666668
-250.0   60.0   16.666666666666668
-250.0   30.0   33.333333333333336
-200.0   30.0   33.333333333333336
-250.0   60.0   33.333333333333336
-250.0   30.0   50.0
-200.0   30.0   33.333333333333336
-200.0   60.0   33.333333333333336
-250.0   60.0   33.333333333333336
-200.0   60.0   50.0
-250.0   30.0   50.0
-250.0   60.0   50.0
-200.0   60.0   50.0
-250.0   60.0   33.333333333333336
-250.0   30.0   50.0
-200.0   60.0   50.0
-200.0   30.0   50.0
-200.0   30.0   33.333333333333336
-250.0   30.0   50.0
-200.0   60.0   50.0
-200.0   30.0   33.333333333333336
-250.0   60.0   33.333333333333336
-250.0   60.0   0.0
-200.0   60.0   0.0
-250.0   90.0   0.0
-250.0   60.0   16.666666666666668
-200.0   60.0   0.0
-200.0   90.0   0.0
-250.0   90.0   0.0
-200.0   90.0   16.666666666666668
-250.0   60.0   16.666666666666668
-250.0   90.0   16.666666666666668
-200.0   90.0   16.666666666666668
-250.0   90.0   0.0
-250.0   60.0   16.666666666666668
-200.0   90.0   16.666666666666668
-200.0   60.0   16.666666666666668
-200.0   60.0   0.0
-250.0   60.0   16.666666666666668
-200.0   90.0   16.666666666666668
-200.0   60.0   0.0
-250.0   90.0   0.0
-250.0   60.0   16.666666666666668
-200.0   60.0   16.666666666666668
-250.0   90.0   16.666666666666668
-250.0   60.0   33.333333333333336
-200.0   60.0   16.666666666666668
-200.0   90.0   16.666666666666668
-250.0   90.0   16.666666666666668
-200.0   90.0   33.333333333333336
-250.0   60.0   33.333333333333336
-250.0   90.0   33.333333333333336
-200.0   90.0   33.333333333333336
-250.0   90.0   16.666666666666668
-250.0   60.0   33.333333333333336
-200.0   90.0   33.333333333333336
-200.0   60.0   33.333333333333336
-200.0   60.0   16.666666666666668
-250.0   60.0   33.333333333333336
-200.0   90.0   33.333333333333336
-200.0   60.0   16.666666666666668
-250.0   90.0   16.666666666666668
-250.0   60.0   33.333333333333336
-200.0   60.0   33.333333333333336
-250.0   90.0   33.333333333333336
-250.0   60.0   50.0
-200.0   60.0   33.333333333333336
-200.0   90.0   33.333333333333336
-250.0   90.0   33.333333333333336
-200.0   90.0   50.0
-250.0   60.0   50.0
-250.0   90.0   50.0
-200.0   90.0   50.0
-250.0   90.0   33.333333333333336
-250.0   60.0   50.0
-200.0   90.0   50.0
-200.0   60.0   50.0
-200.0   60.0   33.333333333333336
-250.0   60.0   50.0
-200.0   90.0   50.0
-200.0   60.0   33.333333333333336
-250.0   90.0   33.333333333333336
-250.0   90.0   0.0
-200.0   90.0   0.0
-250.0   120.0   0.0
-250.0   90.0   16.666666666666668
-200.0   90.0   0.0
-200.0   120.0   0.0
-250.0   120.0   0.0
-200.0   120.0   16.666666666666668
-250.0   90.0   16.666666666666668
-250.0   120.0   16.666666666666668
-200.0   120.0   16.666666666666668
-250.0   120.0   0.0
-250.0   90.0   16.666666666666668
-200.0   120.0   16.666666666666668
-200.0   90.0   16.666666666666668
-200.0   90.0   0.0
-250.0   90.0   16.666666666666668
-200.0   120.0   16.666666666666668
-200.0   90.0   0.0
-250.0   120.0   0.0
-250.0   90.0   16.666666666666668
-200.0   90.0   16.666666666666668
-250.0   120.0   16.666666666666668
-250.0   90.0   33.333333333333336
-200.0   90.0   16.666666666666668
-200.0   120.0   16.666666666666668
-250.0   120.0   16.666666666666668
-200.0   120.0   33.333333333333336
-250.0   90.0   33.333333333333336
-250.0   120.0   33.333333333333336
-200.0   120.0   33.333333333333336
-250.0   120.0   16.666666666666668
-250.0   90.0   33.333333333333336
-200.0   120.0   33.333333333333336
-200.0   90.0   33.333333333333336
-200.0   90.0   16.666666666666668
-250.0   90.0   33.333333333333336
-200.0   120.0   33.333333333333336
-200.0   90.0   16.666666666666668
-250.0   120.0   16.666666666666668
-250.0   90.0   33.333333333333336
-200.0   90.0   33.333333333333336
-250.0   120.0   33.333333333333336
-250.0   90.0   50.0
-200.0   90.0   33.333333333333336
-200.0   120.0   33.333333333333336
-250.0   120.0   33.333333333333336
-200.0   120.0   50.0
-250.0   90.0   50.0
-250.0   120.0   50.0
-200.0   120.0   50.0
-250.0   120.0   33.333333333333336
-250.0   90.0   50.0
-200.0   120.0   50.0
-200.0   90.0   50.0
-200.0   90.0   33.333333333333336
-250.0   90.0   50.0
-200.0   120.0   50.0
-200.0   90.0   33.333333333333336
-250.0   120.0   33.333333333333336
-250.0   120.0   0.0
-200.0   120.0   0.0
-250.0   150.0   0.0
-250.0   120.0   16.666666666666668
-200.0   120.0   0.0
-200.0   150.0   0.0
-250.0   150.0   0.0
-200.0   150.0   16.666666666666668
-250.0   120.0   16.666666666666668
-250.0   150.0   16.666666666666668
-200.0   150.0   16.666666666666668
-250.0   150.0   0.0
-250.0   120.0   16.666666666666668
-200.0   150.0   16.666666666666668
-200.0   120.0   16.666666666666668
-200.0   120.0   0.0
-250.0   120.0   16.666666666666668
-200.0   150.0   16.666666666666668
-200.0   120.0   0.0
-250.0   150.0   0.0
-250.0   120.0   16.666666666666668
-200.0   120.0   16.666666666666668
-250.0   150.0   16.666666666666668
-250.0   120.0   33.333333333333336
-200.0   120.0   16.666666666666668
-200.0   150.0   16.666666666666668
-250.0   150.0   16.666666666666668
-200.0   150.0   33.333333333333336
-250.0   120.0   33.333333333333336
-250.0   150.0   33.333333333333336
-200.0   150.0   33.333333333333336
-250.0   150.0   16.666666666666668
-250.0   120.0   33.333333333333336
-200.0   150.0   33.333333333333336
-200.0   120.0   33.333333333333336
-200.0   120.0   16.666666666666668
-250.0   120.0   33.333333333333336
-200.0   150.0   33.333333333333336
-200.0   120.0   16.666666666666668
-250.0   150.0   16.666666666666668
-250.0   120.0   33.333333333333336
-200.0   120.0   33.333333333333336
-250.0   150.0   33.333333333333336
-250.0   120.0   50.0
-200.0   120.0   33.333333333333336
-200.0   150.0   33.333333333333336
-250.0   150.0   33.333333333333336
-200.0   150.0   50.0
-250.0   120.0   50.0
-250.0   150.0   50.0
-200.0   150.0   50.0
-250.0   150.0   33.333333333333336
-250.0   120.0   50.0
-200.0   150.0   50.0
-200.0   120.0   50.0
-200.0   120.0   33.333333333333336
-250.0   120.0   50.0
-200.0   150.0   50.0
-200.0   120.0   33.333333333333336
-250.0   150.0   33.333333333333336
-200.0   0.0   0.0
-150.0   0.0   0.0
-200.0   30.0   0.0
-200.0   0.0   16.666666666666668
-150.0   0.0   0.0
-150.0   30.0   0.0
-200.0   30.0   0.0
-150.0   30.0   16.666666666666668
-200.0   0.0   16.666666666666668
-200.0   30.0   16.666666666666668
-150.0   30.0   16.666666666666668
-200.0   30.0   0.0
-200.0   0.0   16.666666666666668
-150.0   30.0   16.666666666666668
-150.0   0.0   16.666666666666668
-150.0   0.0   0.0
-200.0   0.0   16.666666666666668
-150.0   30.0   16.666666666666668
-150.0   0.0   0.0
-200.0   30.0   0.0
-200.0   0.0   16.666666666666668
-150.0   0.0   16.666666666666668
-200.0   30.0   16.666666666666668
-200.0   0.0   33.333333333333336
-150.0   0.0   16.666666666666668
-150.0   30.0   16.666666666666668
-200.0   30.0   16.666666666666668
-150.0   30.0   33.333333333333336
-200.0   0.0   33.333333333333336
-200.0   30.0   33.333333333333336
-150.0   30.0   33.333333333333336
-200.0   30.0   16.666666666666668
-200.0   0.0   33.333333333333336
-150.0   30.0   33.333333333333336
-150.0   0.0   33.333333333333336
-150.0   0.0   16.666666666666668
-200.0   0.0   33.333333333333336
-150.0   30.0   33.333333333333336
-150.0   0.0   16.666666666666668
-200.0   30.0   16.666666666666668
-200.0   0.0   33.333333333333336
-150.0   0.0   33.333333333333336
-200.0   30.0   33.333333333333336
-200.0   0.0   50.0
-150.0   0.0   33.333333333333336
-150.0   30.0   33.333333333333336
-200.0   30.0   33.333333333333336
-150.0   30.0   50.0
-200.0   0.0   50.0
-200.0   30.0   50.0
-150.0   30.0   50.0
-200.0   30.0   33.333333333333336
-200.0   0.0   50.0
-150.0   30.0   50.0
-150.0   0.0   50.0
-150.0   0.0   33.333333333333336
-200.0   0.0   50.0
-150.0   30.0   50.0
-150.0   0.0   33.333333333333336
-200.0   30.0   33.333333333333336
-200.0   30.0   0.0
-150.0   30.0   0.0
-200.0   60.0   0.0
-200.0   30.0   16.666666666666668
-150.0   30.0   0.0
-150.0   60.0   0.0
-200.0   60.0   0.0
-150.0   60.0   16.666666666666668
-200.0   30.0   16.666666666666668
-200.0   60.0   16.666666666666668
-150.0   60.0   16.666666666666668
-200.0   60.0   0.0
-200.0   30.0   16.666666666666668
-150.0   60.0   16.666666666666668
-150.0   30.0   16.666666666666668
-150.0   30.0   0.0
-200.0   30.0   16.666666666666668
-150.0   60.0   16.666666666666668
-150.0   30.0   0.0
-200.0   60.0   0.0
-200.0   30.0   16.666666666666668
-150.0   30.0   16.666666666666668
-200.0   60.0   16.666666666666668
-200.0   30.0   33.333333333333336
-150.0   30.0   16.666666666666668
-150.0   60.0   16.666666666666668
-200.0   60.0   16.666666666666668
-150.0   60.0   33.333333333333336
-200.0   30.0   33.333333333333336
-200.0   60.0   33.333333333333336
-150.0   60.0   33.333333333333336
-200.0   60.0   16.666666666666668
-200.0   30.0   33.333333333333336
-150.0   60.0   33.333333333333336
-150.0   30.0   33.333333333333336
-150.0   30.0   16.666666666666668
-200.0   30.0   33.333333333333336
-150.0   60.0   33.333333333333336
-150.0   30.0   16.666666666666668
-200.0   60.0   16.666666666666668
-200.0   30.0   33.333333333333336
-150.0   30.0   33.333333333333336
-200.0   60.0   33.333333333333336
-200.0   30.0   50.0
-150.0   30.0   33.333333333333336
-150.0   60.0   33.333333333333336
-200.0   60.0   33.333333333333336
-150.0   60.0   50.0
-200.0   30.0   50.0
-200.0   60.0   50.0
-150.0   60.0   50.0
-200.0   60.0   33.333333333333336
-200.0   30.0   50.0
-150.0   60.0   50.0
-150.0   30.0   50.0
-150.0   30.0   33.333333333333336
-200.0   30.0   50.0
-150.0   60.0   50.0
-150.0   30.0   33.333333333333336
-200.0   60.0   33.333333333333336
-200.0   60.0   0.0
-150.0   60.0   0.0
-200.0   90.0   0.0
-200.0   60.0   16.666666666666668
-150.0   60.0   0.0
-150.0   90.0   0.0
-200.0   90.0   0.0
-150.0   90.0   16.666666666666668
-200.0   60.0   16.666666666666668
-200.0   90.0   16.666666666666668
-150.0   90.0   16.666666666666668
-200.0   90.0   0.0
-200.0   60.0   16.666666666666668
-150.0   90.0   16.666666666666668
-150.0   60.0   16.666666666666668
-150.0   60.0   0.0
-200.0   60.0   16.666666666666668
-150.0   90.0   16.666666666666668
-150.0   60.0   0.0
-200.0   90.0   0.0
-200.0   60.0   16.666666666666668
-150.0   60.0   16.666666666666668
-200.0   90.0   16.666666666666668
-200.0   60.0   33.333333333333336
-150.0   60.0   16.666666666666668
-150.0   90.0   16.666666666666668
-200.0   90.0   16.666666666666668
-150.0   90.0   33.333333333333336
-200.0   60.0   33.333333333333336
-200.0   90.0   33.333333333333336
-150.0   90.0   33.333333333333336
-200.0   90.0   16.666666666666668
-200.0   60.0   33.333333333333336
-150.0   90.0   33.333333333333336
-150.0   60.0   33.333333333333336
-150.0   60.0   16.666666666666668
-200.0   60.0   33.333333333333336
-150.0   90.0   33.333333333333336
-150.0   60.0   16.666666666666668
-200.0   90.0   16.666666666666668
-200.0   60.0   33.333333333333336
-150.0   60.0   33.333333333333336
-200.0   90.0   33.333333333333336
-200.0   60.0   50.0
-150.0   60.0   33.333333333333336
-150.0   90.0   33.333333333333336
-200.0   90.0   33.333333333333336
-150.0   90.0   50.0
-200.0   60.0   50.0
-200.0   90.0   50.0
-150.0   90.0   50.0
-200.0   90.0   33.333333333333336
-200.0   60.0   50.0
-150.0   90.0   50.0
-150.0   60.0   50.0
-150.0   60.0   33.333333333333336
-200.0   60.0   50.0
-150.0   90.0   50.0
-150.0   60.0   33.333333333333336
-200.0   90.0   33.333333333333336
-200.0   90.0   0.0
-150.0   90.0   0.0
-200.0   120.0   0.0
-200.0   90.0   16.666666666666668
-150.0   90.0   0.0
-150.0   120.0   0.0
-200.0   120.0   0.0
-150.0   120.0   16.666666666666668
-200.0   90.0   16.666666666666668
-200.0   120.0   16.666666666666668
-150.0   120.0   16.666666666666668
-200.0   120.0   0.0
-200.0   90.0   16.666666666666668
-150.0   120.0   16.666666666666668
-150.0   90.0   16.666666666666668
-150.0   90.0   0.0
-200.0   90.0   16.666666666666668
-150.0   120.0   16.666666666666668
-150.0   90.0   0.0
-200.0   120.0   0.0
-200.0   90.0   16.666666666666668
-150.0   90.0   16.666666666666668
-200.0   120.0   16.666666666666668
-200.0   90.0   33.333333333333336
-150.0   90.0   16.666666666666668
-150.0   120.0   16.666666666666668
-200.0   120.0   16.666666666666668
-150.0   120.0   33.333333333333336
-200.0   90.0   33.333333333333336
-200.0   120.0   33.333333333333336
-150.0   120.0   33.333333333333336
-200.0   120.0   16.666666666666668
-200.0   90.0   33.333333333333336
-150.0   120.0   33.333333333333336
-150.0   90.0   33.333333333333336
-150.0   90.0   16.666666666666668
-200.0   90.0   33.333333333333336
-150.0   120.0   33.333333333333336
-150.0   90.0   16.666666666666668
-200.0   120.0   16.666666666666668
-200.0   90.0   33.333333333333336
-150.0   90.0   33.333333333333336
-200.0   120.0   33.333333333333336
-200.0   90.0   50.0
-150.0   90.0   33.333333333333336
-150.0   120.0   33.333333333333336
-200.0   120.0   33.333333333333336
-150.0   120.0   50.0
-200.0   90.0   50.0
-200.0   120.0   50.0
-150.0   120.0   50.0
-200.0   120.0   33.333333333333336
-200.0   90.0   50.0
-150.0   120.0   50.0
-150.0   90.0   50.0
-150.0   90.0   33.333333333333336
-200.0   90.0   50.0
-150.0   120.0   50.0
-150.0   90.0   33.333333333333336
-200.0   120.0   33.333333333333336
-200.0   120.0   0.0
-150.0   120.0   0.0
-200.0   150.0   0.0
-200.0   120.0   16.666666666666668
-150.0   120.0   0.0
-150.0   150.0   0.0
-200.0   150.0   0.0
-150.0   150.0   16.666666666666668
-200.0   120.0   16.666666666666668
-200.0   150.0   16.666666666666668
-150.0   150.0   16.666666666666668
-200.0   150.0   0.0
-200.0   120.0   16.666666666666668
-150.0   150.0   16.666666666666668
-150.0   120.0   16.666666666666668
-150.0   120.0   0.0
-200.0   120.0   16.666666666666668
-150.0   150.0   16.666666666666668
-150.0   120.0   0.0
-200.0   150.0   0.0
-200.0   120.0   16.666666666666668
-150.0   120.0   16.666666666666668
-200.0   150.0   16.666666666666668
-200.0   120.0   33.333333333333336
-150.0   120.0   16.666666666666668
-150.0   150.0   16.666666666666668
-200.0   150.0   16.666666666666668
-150.0   150.0   33.333333333333336
-200.0   120.0   33.333333333333336
-200.0   150.0   33.333333333333336
-150.0   150.0   33.333333333333336
-200.0   150.0   16.666666666666668
-200.0   120.0   33.333333333333336
-150.0   150.0   33.333333333333336
-150.0   120.0   33.333333333333336
-150.0   120.0   16.666666666666668
-200.0   120.0   33.333333333333336
-150.0   150.0   33.333333333333336
-150.0   120.0   16.666666666666668
-200.0   150.0   16.666666666666668
-200.0   120.0   33.333333333333336
-150.0   120.0   33.333333333333336
-200.0   150.0   33.333333333333336
-200.0   120.0   50.0
-150.0   120.0   33.333333333333336
-150.0   150.0   33.333333333333336
-200.0   150.0   33.333333333333336
-150.0   150.0   50.0
-200.0   120.0   50.0
-200.0   150.0   50.0
-150.0   150.0   50.0
-200.0   150.0   33.333333333333336
-200.0   120.0   50.0
-150.0   150.0   50.0
-150.0   120.0   50.0
-150.0   120.0   33.333333333333336
-200.0   120.0   50.0
-150.0   150.0   50.0
-150.0   120.0   33.333333333333336
-200.0   150.0   33.333333333333336
-150.0   0.0   0.0
-100.0   0.0   0.0
-150.0   30.0   0.0
-150.0   0.0   16.666666666666668
-100.0   0.0   0.0
-100.0   30.0   0.0
-150.0   30.0   0.0
-100.0   30.0   16.666666666666668
-150.0   0.0   16.666666666666668
-150.0   30.0   16.666666666666668
-100.0   30.0   16.666666666666668
-150.0   30.0   0.0
-150.0   0.0   16.666666666666668
-100.0   30.0   16.666666666666668
-100.0   0.0   16.666666666666668
-100.0   0.0   0.0
-150.0   0.0   16.666666666666668
-100.0   30.0   16.666666666666668
-100.0   0.0   0.0
-150.0   30.0   0.0
-150.0   0.0   16.666666666666668
-100.0   0.0   16.666666666666668
-150.0   30.0   16.666666666666668
-150.0   0.0   33.333333333333336
-100.0   0.0   16.666666666666668
-100.0   30.0   16.666666666666668
-150.0   30.0   16.666666666666668
-100.0   30.0   33.333333333333336
-150.0   0.0   33.333333333333336
-150.0   30.0   33.333333333333336
-100.0   30.0   33.333333333333336
-150.0   30.0   16.666666666666668
-150.0   0.0   33.333333333333336
-100.0   30.0   33.333333333333336
-100.0   0.0   33.333333333333336
-100.0   0.0   16.666666666666668
-150.0   0.0   33.333333333333336
-100.0   30.0   33.333333333333336
-100.0   0.0   16.666666666666668
-150.0   30.0   16.666666666666668
-150.0   0.0   33.333333333333336
-100.0   0.0   33.333333333333336
-150.0   30.0   33.333333333333336
-150.0   0.0   50.0
-100.0   0.0   33.333333333333336
-100.0   30.0   33.333333333333336
-150.0   30.0   33.333333333333336
-100.0   30.0   50.0
-150.0   0.0   50.0
-150.0   30.0   50.0
-100.0   30.0   50.0
-150.0   30.0   33.333333333333336
-150.0   0.0   50.0
-100.0   30.0   50.0
-100.0   0.0   50.0
-100.0   0.0   33.333333333333336
-150.0   0.0   50.0
-100.0   30.0   50.0
-100.0   0.0   33.333333333333336
-150.0   30.0   33.333333333333336
-150.0   30.0   0.0
-100.0   30.0   0.0
-150.0   60.0   0.0
-150.0   30.0   16.666666666666668
-100.0   30.0   0.0
-100.0   60.0   0.0
-150.0   60.0   0.0
-100.0   60.0   16.666666666666668
-150.0   30.0   16.666666666666668
-150.0   60.0   16.666666666666668
-100.0   60.0   16.666666666666668
-150.0   60.0   0.0
-150.0   30.0   16.666666666666668
-100.0   60.0   16.666666666666668
-100.0   30.0   16.666666666666668
-100.0   30.0   0.0
-150.0   30.0   16.666666666666668
-100.0   60.0   16.666666666666668
-100.0   30.0   0.0
-150.0   60.0   0.0
-150.0   30.0   16.666666666666668
-100.0   30.0   16.666666666666668
-150.0   60.0   16.666666666666668
-150.0   30.0   33.333333333333336
-100.0   30.0   16.666666666666668
-100.0   60.0   16.666666666666668
-150.0   60.0   16.666666666666668
-100.0   60.0   33.333333333333336
-150.0   30.0   33.333333333333336
-150.0   60.0   33.333333333333336
-100.0   60.0   33.333333333333336
-150.0   60.0   16.666666666666668
-150.0   30.0   33.333333333333336
-100.0   60.0   33.333333333333336
-100.0   30.0   33.333333333333336
-100.0   30.0   16.666666666666668
-150.0   30.0   33.333333333333336
-100.0   60.0   33.333333333333336
-100.0   30.0   16.666666666666668
-150.0   60.0   16.666666666666668
-150.0   30.0   33.333333333333336
-100.0   30.0   33.333333333333336
-150.0   60.0   33.333333333333336
-150.0   30.0   50.0
-100.0   30.0   33.333333333333336
-100.0   60.0   33.333333333333336
-150.0   60.0   33.333333333333336
-100.0   60.0   50.0
-150.0   30.0   50.0
-150.0   60.0   50.0
-100.0   60.0   50.0
-150.0   60.0   33.333333333333336
-150.0   30.0   50.0
-100.0   60.0   50.0
-100.0   30.0   50.0
-100.0   30.0   33.333333333333336
-150.0   30.0   50.0
-100.0   60.0   50.0
-100.0   30.0   33.333333333333336
-150.0   60.0   33.333333333333336
-150.0   60.0   0.0
-100.0   60.0   0.0
-150.0   90.0   0.0
-150.0   60.0   16.666666666666668
-100.0   60.0   0.0
-100.0   90.0   0.0
-150.0   90.0   0.0
-100.0   90.0   16.666666666666668
-150.0   60.0   16.666666666666668
-150.0   90.0   16.666666666666668
-100.0   90.0   16.666666666666668
-150.0   90.0   0.0
-150.0   60.0   16.666666666666668
-100.0   90.0   16.666666666666668
-100.0   60.0   16.666666666666668
-100.0   60.0   0.0
-150.0   60.0   16.666666666666668
-100.0   90.0   16.666666666666668
-100.0   60.0   0.0
-150.0   90.0   0.0
-150.0   60.0   16.666666666666668
-100.0   60.0   16.666666666666668
-150.0   90.0   16.666666666666668
-150.0   60.0   33.333333333333336
-100.0   60.0   16.666666666666668
-100.0   90.0   16.666666666666668
-150.0   90.0   16.666666666666668
-100.0   90.0   33.333333333333336
-150.0   60.0   33.333333333333336
-150.0   90.0   33.333333333333336
-100.0   90.0   33.333333333333336
-150.0   90.0   16.666666666666668
-150.0   60.0   33.333333333333336
-100.0   90.0   33.333333333333336
-100.0   60.0   33.333333333333336
-100.0   60.0   16.666666666666668
-150.0   60.0   33.333333333333336
-100.0   90.0   33.333333333333336
-100.0   60.0   16.666666666666668
-150.0   90.0   16.666666666666668
-150.0   60.0   33.333333333333336
-100.0   60.0   33.333333333333336
-150.0   90.0   33.333333333333336
-150.0   60.0   50.0
-100.0   60.0   33.333333333333336
-100.0   90.0   33.333333333333336
-150.0   90.0   33.333333333333336
-100.0   90.0   50.0
-150.0   60.0   50.0
-150.0   90.0   50.0
-100.0   90.0   50.0
-150.0   90.0   33.333333333333336
-150.0   60.0   50.0
-100.0   90.0   50.0
-100.0   60.0   50.0
-100.0   60.0   33.333333333333336
-150.0   60.0   50.0
-100.0   90.0   50.0
-100.0   60.0   33.333333333333336
-150.0   90.0   33.333333333333336
-150.0   90.0   0.0
-100.0   90.0   0.0
-150.0   120.0   0.0
-150.0   90.0   16.666666666666668
-100.0   90.0   0.0
-100.0   120.0   0.0
-150.0   120.0   0.0
-100.0   120.0   16.666666666666668
-150.0   90.0   16.666666666666668
-150.0   120.0   16.666666666666668
-100.0   120.0   16.666666666666668
-150.0   120.0   0.0
-150.0   90.0   16.666666666666668
-100.0   120.0   16.666666666666668
-100.0   90.0   16.666666666666668
-100.0   90.0   0.0
-150.0   90.0   16.666666666666668
-100.0   120.0   16.666666666666668
-100.0   90.0   0.0
-150.0   120.0   0.0
-150.0   90.0   16.666666666666668
-100.0   90.0   16.666666666666668
-150.0   120.0   16.666666666666668
-150.0   90.0   33.333333333333336
-100.0   90.0   16.666666666666668
-100.0   120.0   16.666666666666668
-150.0   120.0   16.666666666666668
-100.0   120.0   33.333333333333336
-150.0   90.0   33.333333333333336
-150.0   120.0   33.333333333333336
-100.0   120.0   33.333333333333336
-150.0   120.0   16.666666666666668
-150.0   90.0   33.333333333333336
-100.0   120.0   33.333333333333336
-100.0   90.0   33.333333333333336
-100.0   90.0   16.666666666666668
-150.0   90.0   33.333333333333336
-100.0   120.0   33.333333333333336
-100.0   90.0   16.666666666666668
-150.0   120.0   16.666666666666668
-150.0   90.0   33.333333333333336
-100.0   90.0   33.333333333333336
-150.0   120.0   33.333333333333336
-150.0   90.0   50.0
-100.0   90.0   33.333333333333336
-100.0   120.0   33.333333333333336
-150.0   120.0   33.333333333333336
-100.0   120.0   50.0
-150.0   90.0   50.0
-150.0   120.0   50.0
-100.0   120.0   50.0
-150.0   120.0   33.333333333333336
-150.0   90.0   50.0
-100.0   120.0   50.0
-100.0   90.0   50.0
-100.0   90.0   33.333333333333336
-150.0   90.0   50.0
-100.0   120.0   50.0
-100.0   90.0   33.333333333333336
-150.0   120.0   33.333333333333336
-150.0   120.0   0.0
-100.0   120.0   0.0
-150.0   150.0   0.0
-150.0   120.0   16.666666666666668
-100.0   120.0   0.0
-100.0   150.0   0.0
-150.0   150.0   0.0
-100.0   150.0   16.666666666666668
-150.0   120.0   16.666666666666668
-150.0   150.0   16.666666666666668
-100.0   150.0   16.666666666666668
-150.0   150.0   0.0
-150.0   120.0   16.666666666666668
-100.0   150.0   16.666666666666668
-100.0   120.0   16.666666666666668
-100.0   120.0   0.0
-150.0   120.0   16.666666666666668
-100.0   150.0   16.666666666666668
-100.0   120.0   0.0
-150.0   150.0   0.0
-150.0   120.0   16.666666666666668
-100.0   120.0   16.666666666666668
-150.0   150.0   16.666666666666668
-150.0   120.0   33.333333333333336
-100.0   120.0   16.666666666666668
-100.0   150.0   16.666666666666668
-150.0   150.0   16.666666666666668
-100.0   150.0   33.333333333333336
-150.0   120.0   33.333333333333336
-150.0   150.0   33.333333333333336
-100.0   150.0   33.333333333333336
-150.0   150.0   16.666666666666668
-150.0   120.0   33.333333333333336
-100.0   150.0   33.333333333333336
-100.0   120.0   33.333333333333336
-100.0   120.0   16.666666666666668
-150.0   120.0   33.333333333333336
-100.0   150.0   33.333333333333336
-100.0   120.0   16.666666666666668
-150.0   150.0   16.666666666666668
-150.0   120.0   33.333333333333336
-100.0   120.0   33.333333333333336
-150.0   150.0   33.333333333333336
-150.0   120.0   50.0
-100.0   120.0   33.333333333333336
-100.0   150.0   33.333333333333336
-150.0   150.0   33.333333333333336
-100.0   150.0   50.0
-150.0   120.0   50.0
-150.0   150.0   50.0
-100.0   150.0   50.0
-150.0   150.0   33.333333333333336
-150.0   120.0   50.0
-100.0   150.0   50.0
-100.0   120.0   50.0
-100.0   120.0   33.333333333333336
-150.0   120.0   50.0
-100.0   150.0   50.0
-100.0   120.0   33.333333333333336
-150.0   150.0   33.333333333333336
-100.0   0.0   0.0
-50.0   0.0   0.0
-100.0   30.0   0.0
-100.0   0.0   16.666666666666668
-50.0   0.0   0.0
-50.0   30.0   0.0
-100.0   30.0   0.0
-50.0   30.0   16.666666666666668
-100.0   0.0   16.666666666666668
-100.0   30.0   16.666666666666668
-50.0   30.0   16.666666666666668
-100.0   30.0   0.0
-100.0   0.0   16.666666666666668
-50.0   30.0   16.666666666666668
-50.0   0.0   16.666666666666668
-50.0   0.0   0.0
-100.0   0.0   16.666666666666668
-50.0   30.0   16.666666666666668
-50.0   0.0   0.0
-100.0   30.0   0.0
-100.0   0.0   16.666666666666668
-50.0   0.0   16.666666666666668
-100.0   30.0   16.666666666666668
-100.0   0.0   33.333333333333336
-50.0   0.0   16.666666666666668
-50.0   30.0   16.666666666666668
-100.0   30.0   16.666666666666668
-50.0   30.0   33.333333333333336
-100.0   0.0   33.333333333333336
-100.0   30.0   33.333333333333336
-50.0   30.0   33.333333333333336
-100.0   30.0   16.666666666666668
-100.0   0.0   33.333333333333336
-50.0   30.0   33.333333333333336
-50.0   0.0   33.333333333333336
-50.0   0.0   16.666666666666668
-100.0   0.0   33.333333333333336
-50.0   30.0   33.333333333333336
-50.0   0.0   16.666666666666668
-100.0   30.0   16.666666666666668
-100.0   0.0   33.333333333333336
-50.0   0.0   33.333333333333336
-100.0   30.0   33.333333333333336
-100.0   0.0   50.0
-50.0   0.0   33.333333333333336
-50.0   30.0   33.333333333333336
-100.0   30.0   33.333333333333336
-50.0   30.0   50.0
-100.0   0.0   50.0
-100.0   30.0   50.0
-50.0   30.0   50.0
-100.0   30.0   33.333333333333336
-100.0   0.0   50.0
-50.0   30.0   50.0
-50.0   0.0   50.0
-50.0   0.0   33.333333333333336
-100.0   0.0   50.0
-50.0   30.0   50.0
-50.0   0.0   33.333333333333336
-100.0   30.0   33.333333333333336
-100.0   30.0   0.0
-50.0   30.0   0.0
-100.0   60.0   0.0
-100.0   30.0   16.666666666666668
-50.0   30.0   0.0
-50.0   60.0   0.0
-100.0   60.0   0.0
-50.0   60.0   16.666666666666668
-100.0   30.0   16.666666666666668
-100.0   60.0   16.666666666666668
-50.0   60.0   16.666666666666668
-100.0   60.0   0.0
-100.0   30.0   16.666666666666668
-50.0   60.0   16.666666666666668
-50.0   30.0   16.666666666666668
-50.0   30.0   0.0
-100.0   30.0   16.666666666666668
-50.0   60.0   16.666666666666668
-50.0   30.0   0.0
-100.0   60.0   0.0
-100.0   30.0   16.666666666666668
-50.0   30.0   16.666666666666668
-100.0   60.0   16.666666666666668
-100.0   30.0   33.333333333333336
-50.0   30.0   16.666666666666668
-50.0   60.0   16.666666666666668
-100.0   60.0   16.666666666666668
-50.0   60.0   33.333333333333336
-100.0   30.0   33.333333333333336
-100.0   60.0   33.333333333333336
-50.0   60.0   33.333333333333336
-100.0   60.0   16.666666666666668
-100.0   30.0   33.333333333333336
-50.0   60.0   33.333333333333336
-50.0   30.0   33.333333333333336
-50.0   30.0   16.666666666666668
-100.0   30.0   33.333333333333336
-50.0   60.0   33.333333333333336
-50.0   30.0   16.666666666666668
-100.0   60.0   16.666666666666668
-100.0   30.0   33.333333333333336
-50.0   30.0   33.333333333333336
-100.0   60.0   33.333333333333336
-100.0   30.0   50.0
-50.0   30.0   33.333333333333336
-50.0   60.0   33.333333333333336
-100.0   60.0   33.333333333333336
-50.0   60.0   50.0
-100.0   30.0   50.0
-100.0   60.0   50.0
-50.0   60.0   50.0
-100.0   60.0   33.333333333333336
-100.0   30.0   50.0
-50.0   60.0   50.0
-50.0   30.0   50.0
-50.0   30.0   33.333333333333336
-100.0   30.0   50.0
-50.0   60.0   50.0
-50.0   30.0   33.333333333333336
-100.0   60.0   33.333333333333336
-100.0   60.0   0.0
-50.0   60.0   0.0
-100.0   90.0   0.0
-100.0   60.0   16.666666666666668
-50.0   60.0   0.0
-50.0   90.0   0.0
-100.0   90.0   0.0
-50.0   90.0   16.666666666666668
-100.0   60.0   16.666666666666668
-100.0   90.0   16.666666666666668
-50.0   90.0   16.666666666666668
-100.0   90.0   0.0
-100.0   60.0   16.666666666666668
-50.0   90.0   16.666666666666668
-50.0   60.0   16.666666666666668
-50.0   60.0   0.0
-100.0   60.0   16.666666666666668
-50.0   90.0   16.666666666666668
-50.0   60.0   0.0
-100.0   90.0   0.0
-100.0   60.0   16.666666666666668
-50.0   60.0   16.666666666666668
-100.0   90.0   16.666666666666668
-100.0   60.0   33.333333333333336
-50.0   60.0   16.666666666666668
-50.0   90.0   16.666666666666668
-100.0   90.0   16.666666666666668
-50.0   90.0   33.333333333333336
-100.0   60.0   33.333333333333336
-100.0   90.0   33.333333333333336
-50.0   90.0   33.333333333333336
-100.0   90.0   16.666666666666668
-100.0   60.0   33.333333333333336
-50.0   90.0   33.333333333333336
-50.0   60.0   33.333333333333336
-50.0   60.0   16.666666666666668
-100.0   60.0   33.333333333333336
-50.0   90.0   33.333333333333336
-50.0   60.0   16.666666666666668
-100.0   90.0   16.666666666666668
-100.0   60.0   33.333333333333336
-50.0   60.0   33.333333333333336
-100.0   90.0   33.333333333333336
-100.0   60.0   50.0
-50.0   60.0   33.333333333333336
-50.0   90.0   33.333333333333336
-100.0   90.0   33.333333333333336
-50.0   90.0   50.0
-100.0   60.0   50.0
-100.0   90.0   50.0
-50.0   90.0   50.0
-100.0   90.0   33.333333333333336
-100.0   60.0   50.0
-50.0   90.0   50.0
-50.0   60.0   50.0
-50.0   60.0   33.333333333333336
-100.0   60.0   50.0
-50.0   90.0   50.0
-50.0   60.0   33.333333333333336
-100.0   90.0   33.333333333333336
-100.0   90.0   0.0
-50.0   90.0   0.0
-100.0   120.0   0.0
-100.0   90.0   16.666666666666668
-50.0   90.0   0.0
-50.0   120.0   0.0
-100.0   120.0   0.0
-50.0   120.0   16.666666666666668
-100.0   90.0   16.666666666666668
-100.0   120.0   16.666666666666668
-50.0   120.0   16.666666666666668
-100.0   120.0   0.0
-100.0   90.0   16.666666666666668
-50.0   120.0   16.666666666666668
-50.0   90.0   16.666666666666668
-50.0   90.0   0.0
-100.0   90.0   16.666666666666668
-50.0   120.0   16.666666666666668
-50.0   90.0   0.0
-100.0   120.0   0.0
-100.0   90.0   16.666666666666668
-50.0   90.0   16.666666666666668
-100.0   120.0   16.666666666666668
-100.0   90.0   33.333333333333336
-50.0   90.0   16.666666666666668
-50.0   120.0   16.666666666666668
-100.0   120.0   16.666666666666668
-50.0   120.0   33.333333333333336
-100.0   90.0   33.333333333333336
-100.0   120.0   33.333333333333336
-50.0   120.0   33.333333333333336
-100.0   120.0   16.666666666666668
-100.0   90.0   33.333333333333336
-50.0   120.0   33.333333333333336
-50.0   90.0   33.333333333333336
-50.0   90.0   16.666666666666668
-100.0   90.0   33.333333333333336
-50.0   120.0   33.333333333333336
-50.0   90.0   16.666666666666668
-100.0   120.0   16.666666666666668
-100.0   90.0   33.333333333333336
-50.0   90.0   33.333333333333336
-100.0   120.0   33.333333333333336
-100.0   90.0   50.0
-50.0   90.0   33.333333333333336
-50.0   120.0   33.333333333333336
-100.0   120.0   33.333333333333336
-50.0   120.0   50.0
-100.0   90.0   50.0
-100.0   120.0   50.0
-50.0   120.0   50.0
-100.0   120.0   33.333333333333336
-100.0   90.0   50.0
-50.0   120.0   50.0
-50.0   90.0   50.0
-50.0   90.0   33.333333333333336
-100.0   90.0   50.0
-50.0   120.0   50.0
-50.0   90.0   33.333333333333336
-100.0   120.0   33.333333333333336
-100.0   120.0   0.0
-50.0   120.0   0.0
-100.0   150.0   0.0
-100.0   120.0   16.666666666666668
-50.0   120.0   0.0
-50.0   150.0   0.0
-100.0   150.0   0.0
-50.0   150.0   16.666666666666668
-100.0   120.0   16.666666666666668
-100.0   150.0   16.666666666666668
-50.0   150.0   16.666666666666668
-100.0   150.0   0.0
-100.0   120.0   16.666666666666668
-50.0   150.0   16.666666666666668
-50.0   120.0   16.666666666666668
-50.0   120.0   0.0
-100.0   120.0   16.666666666666668
-50.0   150.0   16.666666666666668
-50.0   120.0   0.0
-100.0   150.0   0.0
-100.0   120.0   16.666666666666668
-50.0   120.0   16.666666666666668
-100.0   150.0   16.666666666666668
-100.0   120.0   33.333333333333336
-50.0   120.0   16.666666666666668
-50.0   150.0   16.666666666666668
-100.0   150.0   16.666666666666668
-50.0   150.0   33.333333333333336
-100.0   120.0   33.333333333333336
-100.0   150.0   33.333333333333336
-50.0   150.0   33.333333333333336
-100.0   150.0   16.666666666666668
-100.0   120.0   33.333333333333336
-50.0   150.0   33.333333333333336
-50.0   120.0   33.333333333333336
-50.0   120.0   16.666666666666668
-100.0   120.0   33.333333333333336
-50.0   150.0   33.333333333333336
-50.0   120.0   16.666666666666668
-100.0   150.0   16.666666666666668
-100.0   120.0   33.333333333333336
-50.0   120.0   33.333333333333336
-100.0   150.0   33.333333333333336
-100.0   120.0   50.0
-50.0   120.0   33.333333333333336
-50.0   150.0   33.333333333333336
-100.0   150.0   33.333333333333336
-50.0   150.0   50.0
-100.0   120.0   50.0
-100.0   150.0   50.0
-50.0   150.0   50.0
-100.0   150.0   33.333333333333336
-100.0   120.0   50.0
-50.0   150.0   50.0
-50.0   120.0   50.0
-50.0   120.0   33.333333333333336
-100.0   120.0   50.0
-50.0   150.0   50.0
-50.0   120.0   33.333333333333336
-100.0   150.0   33.333333333333336
-50.0   0.0   0.0
0.0   0.0   0.0
-50.0   30.0   0.0
-50.0   0.0   16.666666666666668
0.0   0.0   0.0
0.0   30.0   0.0
-50.0   30.0   0.0
0.0   30.0   16.666666666666668
-50.0   0.0   16.666666666666668
-50.0   30.0   16.666666666666668
0.0   30.0   16.666666666666668
-50.0   30.0   0.0
-50.0   0.0   16.666666666666668
0.0   30.0   16.666666666666668
0.0   0.0   16.666666666666668
0.0   0.0   0.0
-50.0   0.0   16.666666666666668
0.0   30.0   16.666666666666668
0.0   0.0   0.0
-50.0   30.0   0.0
-50.0   0.0   16.666666666666668
0.0   0.0   16.666666666666668
-50.0   30.0   16.666666666666668
-50.0   0.0   33.333333333333336
0.0   0.0   16.666666666666668
0.0   30.0   16.666666666666668
-50.0   30.0   16.666666666666668
0.0   30.0   33.333333333333336
-50.0   0.0   33.333333333333336
-50.0   30.0   33.333333333333336
0.0   30.0   33.333333333333336
-50.0   30.0   16.666666666666668
-50.0   0.0   33.333333333333336
0.0   30.0   33.333333333333336
0.0   0.0   33.333333333333336
0.0   0.0   16.666666666666668
-50.0   0.0   33.333333333333336
0.0   30.0   33.333333333333336
0.0   0.0   16.666666666666668
-50.0   30.0   16.666666666666668
-50.0   0.0   33.333333333333336
0.0   0.0   33.333333333333336
-50.0   30.0   33.333333333333336
-50.0   0.0   50.0
0.0   0.0   33.333333333333336
0.0   30.0   33.333333333333336
-50.0   30.0   33.333333333333336
0.0   30.0   50.0
-50.0   0.0   50.0
-50.0   30.0   50.0
0.0   30.0   50.0
-50.0   30.0   33.333333333333336
-50.0   0.0   50.0
0.0   30.0   50.0
0.0   0.0   50.0
0.0   0.0   33.333333333333336
-50.0   0.0   50.0
0.0   30.0   50.0
0.0   0.0   33.333333333333336
-50.0   30.0   33.333333333333336
-50.0   30.0   0.0
0.0   30.0   0.0
-50.0   60.0   0.0
-50.0   30.0   16.666666666666668
0.0   30.0   0.0
0.0   60.0   0.0
-50.0   60.0   0.0
0.0   60.0   16.666666666666668
-50.0   30.0   16.666666666666668
-50.0   60.0   16.666666666666668
0.0   60.0   16.666666666666668
-50.0   60.0   0.0
-50.0   30.0   16.666666666666668
0.0   60.0   16.666666666666668
0.0   30.0   16.666666666666668
0.0   30.0   0.0
-50.0   30.0   16.666666666666668
0.0   60.0   16.666666666666668
0.0   30.0   0.0
-50.0   60.0   0.0
-50.0   30.0   16.666666666666668
0.0   30.0   16.666666666666668
-50.0   60.0   16.666666666666668
-50.0   30.0   33.333333333333336
0.0   30.0   16.666666666666668
0.0   60.0   16.666666666666668
-50.0   60.0   16.666666666666668
0.0   60.0   33.333333333333336
-50.0   30.0   33.333333333333336
-50.0   60.0   33.333333333333336
0.0   60.0   33.333333333333336
-50.0   60.0   16.666666666666668
-50.0   30.0   33.333333333333336
0.0   60.0   33.333333333333336
0.0   30.0   33.333333333333336
0.0   30.0   16.666666666666668
-50.0   30.0   33.333333333333336
0.0   60.0   33.333333333333336
0.0   30.0   16.666666666666668
-50.0   60.0   16.666666666666668
-50.0   30.0   33.333333333333336
0.0   30.0   33.333333333333336
-50.0   60.0   33.333333333333336
-50.0   30.0   50.0
0.0   30.0   33.333333333333336
0.0   60.0   33.333333333333336
-50.0   60.0   33.333333333333336
0.0   60.0   50.0
-50.0   30.0   50.0
-50.0   60.0   50.0
0.0   60.0   50.0
-50.0   60.0   33.333333333333336
-50.0   30.0   50.0
0.0   60.0   50.0
0.0   30.0   50.0
0.0   30.0   33.333333333333336
-50.0   30.0   50.0
0.0   60.0   50.0
0.0   30.0   33.333333333333336
-50.0   60.0   33.333333333333336
-50.0   60.0   0.0
0.0   60.0   0.0
-50.0   90.0   0.0
-50.0   60.0   16.666666666666668
0.0   60.0   0.0
0.0   90.0   0.0
-50.0   90.0   0.0
0.0   90.0   16.666666666666668
-50.0   60.0   16.666666666666668
-50.0   90.0   16.666666666666668
0.0   90.0   16.666666666666668
-50.0   90.0   0.0
-50.0   60.0   16.666666666666668
0.0   90.0   16.666666666666668
0.0   60.0   16.666666666666668
0.0   60.0   0.0
-50.0   60.0   16.666666666666668
0.0   90.0   16.666666666666668
0.0   60.0   0.0
-50.0   90.0   0.0
-50.0   60.0   16.666666666666668
0.0   60.0   16.666666666666668
-50.0   90.0   16.666666666666668
-50.0   60.0   33.333333333333336
0.0   60.0   16.666666666666668
0.0   90.0   16.666666666666668
-50.0   90.0   16.666666666666668
0.0   90.0   33.333333333333336
-50.0   60.0   33.333333333333336
-50.0   90.0   33.333333333333336
0.0   90.0   33.333333333333336
-50.0   90.0   16.666666666666668
-50.0   60.0   33.333333333333336
0.0   90.0   33.333333333333336
0.0   60.0   33.333333333333336
0.0   60.0   16.666666666666668
-50.0   60.0   33.333333333333336
0.0   90.0   33.333333333333336
0.0   60.0   16.666666666666668
-50.0   90.0   16.666666666666668
-50.0   60.0   33.333333333333336
0.0   60.0   33.333333333333336
-50.0   90.0   33.333333333333336
-50.0   60.0   50.0
0.0   60.0   33.333333333333336
0.0   90.0   33.333333333333336
-50.0   90.0   33.333333333333336
0.0   90.0   50.0
-50.0   60.0   50.0
-50.0   90.0   50.0
0.0   90.0   50.0
-50.0   90.0   33.333333333333336
-50.0   60.0   50.0
0.0   90.0   50.0
0.0   60.0   50.0
0.0   60.0   33.333333333333336
-50.0   60.0   50.0
0.0   90.0   50.0
0.0   60.0   33.333333333333336
-50.0   90.0   33.333333333333336
-50.0   90.0   0.0
0.0   90.0   0.0
-50.0   120.0   0.0
-50.0   90.0   16.666666666666668
0.0   90.0   0.0
0.0   120.0   0.0
-50.0   120.0   0.0
0.0   120.0   16.666666666666668
-50.0   90.0   16.666666666666668
-50.0   120.0   16.666666666666668
0.0   120.0   16.666666666666668
-50.0   120.0   0.0
-50.0   90.0   16.666666666666668
0.0   120.0   16.666666666666668
0.0   90.0   16.666666666666668
0.0   90.0   0.0
-50.0   90.0   16.666666666666668
0.0   120.0   16.666666666666668
0.0   90.0   0.0
-50.0   120.0   0.0
-50.0   90.0   16.666666666666668
0.0   90.0   16.666666666666668
-50.0   120.0   16.666666666666668
-50.0   90.0   33.333333333333336
0.0   90.0   16.666666666666668
0.0   120.0   16.666666666666668
-50.0   120.0   16.666666666666668
0.0   120.0   33.333333333333336
-50.0   90.0   33.333333333333336
-50.0   120.0   33.333333333333336
0.0   120.0   33.333333333333336
-50.0   120.0   16.666666666666668
-50.0   90.0   33.333333333333336
0.0   120.0   33.333333333333336
0.0   90.0   33.333333333333336
0.0   90.0   16.666666666666668
-50.0   90.0   33.333333333333336
0.0   120.0   33.333333333333336
0.0   90.0   16.666666666666668
-50.0   120.0   16.666666666666668
-50.0   90.0   33.333333333333336
0.0   90.0   33.333333333333336
-50.0   120.0   33.333333333333336
-50.0   90.0   50.0
0.0   90.0   33.333333333333336
0.0   120.0   33.333333333333336
-50.0   120.0   33.333333333333336
0.0   120.0   50.0
-50.0   90.0   50.0
-50.0   120.0   50.0
0.0   120.0   50.0
-50.0   120.0   33.333333333333336
-50.0   90.0   50.0
0.0   120.0   50.0
0.0   90.0   50.0
0.0   90.0   33.333333333333336
-50.0   90.0   50.0
0.0   120.0   50.0
0.0   90.0   33.333333333333336
-50.0   120.0   33.333333333333336
-50.0   120.0   0.0
0.0   120.0   0.0
-50.0   150.0   0.0
-50.0   120.0   16.666666666666668
0.0   120.0   0.0
0.0   150.0   0.0
-50.0   150.0   0.0
0.0   150.0   16.666666666666668
-50.0   120.0   16.666666666666668
-50.0   150.0   16.666666666666668
0.0   150.0   16.666666666666668
-50.0   150.0   0.0
-50.0   120.0   16.666666666666668
0.0   150.0   16.666666666666668
0.0   120.0   16.666666666666668
0.0   120.0   0.0
-50.0   120.0   16.666666666666668
0.0   150.0   16.666666666666668
0.0   120.0   0.0
-50.0   150.0   0.0
-50.0   120.0   16.666666666666668
0.0   120.0   16.666666666666668
-50.0   150.0   16.666666666666668
-50.0   120.0   33.333333333333336
0.0   120.0   16.666666666666668
0.0   150.0   16.666666666666668
-50.0   150.0   16.666666666666668
0.0   150.0   33.333333333333336
-50.0   120.0   33.333333333333336
-50.0   150.0   33.333333333333336
0.0   150.0   33.333333333333336
-50.0   150.0   16.666666666666668
-50.0   120.0   33.333333333333336
0.0   150.0   33.333333333333336
0.0   120.0   33.333333333333336
0.0   120.0   16.666666666666668
-50.0   120.0   33.333333333333336
0.0   150.0   33.333333333333336
0.0   120.0   16.666666666666668
-50.0   150.0   16.666666666666668
-50.0   120.0   33.333333333333336
0.0   120.0   33.333333333333336
-50.0   150.0   33.333333333333336
-50.0   120.0   50.0
0.0   120.0   33.333333333333336
0.0   150.0   33.333333333333336
-50.0   150.0   33.333333333333336
0.0   150.0   50.0
-50.0   120.0   50.0
-50.0   150.0   50.0
0.0   150.0   50.0
-50.0   150.0   33.333333333333336
-50.0   120.0   50.0
0.0   150.0   50.0
0.0   120.0   50.0
0.0   120.0   33.333333333333336
-50.0   120.0   50.0
0.0   150.0   50.0
0.0   120.0   33.333333333333336
-50.0   150.0   33.333333333333336
0.0   0.0   0.0
50.0   0.0   0.0
0.0   30.0   0.0
0.0   0.0   16.666666666666668
50.0   0.0   0.0
50.0   30.0   0.0
0.0   30.0   0.0
50.0   30.0   16.666666666666668
0.0   0.0   16.666666666666668
0.0   30.0   16.666666666666668
50.0   30.0   16.666666666666668
0.0   30.0   0.0
0.0   0.0   16.666666666666668
50.0   30.0   16.666666666666668
50.0   0.0   16.666666666666668
50.0   0.0   0.0
0.0   0.0   16.666666666666668
50.0   30.0   16.666666666666668
50.0   0.0   0.0
0.0   30.0   0.0
0.0   0.0   16.666666666666668
50.0   0.0   16.666666666666668
0.0   30.0   16.666666666666668
0.0   0.0   33.333333333333336
50.0   0.0   16.666666666666668
50.0   30.0   16.666666666666668
0.0   30.0   16.666666666666668
50.0   30.0   33.333333333333336
0.0   0.0   33.333333333333336
0.0   30.0   33.333333333333336
50.0   30.0   33.333333333333336
0.0   30.0   16.666666666666668
0.0   0.0   33.333333333333336
50.0   30.0   33.333333333333336
50.0   0.0   33.333333333333336
50.0   0.0   16.666666666666668
0.0   0.0   33.333333333333336
50.0   30.0   33.333333333333336
50.0   0.0   16.666666666666668
0.0   30.0   16.666666666666668
0.0   0.0   33.333333333333336
50.0   0.0   33.333333333333336
0.0   30.0   33.333333333333336
0.0   0.0   50.0
50.0   0.0   33.333333333333336
50.0   30.0   33.333333333333336
0.0   30.0   33.333333333333336
50.0   30.0   50.0
0.0   0.0   50.0
0.0   30.0   50.0
50.0   30.0   50.0
0.0   30.0   33.333333333333336
0.0   0.0   50.0
50.0   30.0   50.0
50.0   0.0   50.0
50.0   0.0   33.333333333333336
0.0   0.0   50.0
50.0   30.0   50.0
50.0   0.0   33.333333333333336
0.0   30.0   33.333333333333336
0.0   30.0   0.0
50.0   30.0   0.0
0.0   60.0   0.0
0.0   30.0   16.666666666666668
50.0   30.0   0.0
50.0   60.0   0.0
0.0   60.0   0.0
50.0   60.0   16.666666666666668
0.0   30.0   16.666666666666668
0.0   60.0   16.666666666666668
50.0   60.0   16.666666666666668
0.0   60.0   0.0
0.0   30.0   16.666666666666668
50.0   60.0   16.666666666666668
50.0   30.0   16.666666666666668
50.0   30.0   0.0
0.0   30.0   16.666666666666668
50.0   60.0   16.666666666666668
50.0   30.0   0.0
0.0   60.0   0.0
0.0   30.0   16.666666666666668
50.0   30.0   16.666666666666668
0.0   60.0   16.666666666666668
0.0   30.0   33.333333333333336
50.0   30.0   16.666666666666668
50.0   60.0   16.666666666666668
0.0   60.0   16.666666666666668
50.0   60.0   33.333333333333336
0.0   30.0   33.333333333333336
0.0   60.0   33.333333333333336
50.0   60.0   33.333333333333336
0.0   60.0   16.666666666666668
0.0   30.0   33.333333333333336
50.0   60.0   33.333333333333336
50.0   30.0   33.333333333333336
50.0   30.0   16.666666666666668
0.0   30.0   33.333333333333336
50.0   60.0   33.333333333333336
50.0   30.0   16.666666666666668
0.0   60.0   16.666666666666668
0.0   30.0   33.333333333333336
50.0   30.0   33.333333333333336
0.0   60.0   33.333333333333336
0.0   30.0   50.0
50.0   30.0   33.333333333333336
50.0   60.0   33.333333333333336
0.0   60.0   33.333333333333336
50.0   60.0   50.0
0.0   30.0   50.0
0.0   60.0   50.0
50.0   60.0   50.0
0.0   60.0   33.333333333333336
0.0   30.0   50.0
50.0   60.0   50.0
50.0   30.0   50.0
50.0   30.0   33.333333333333336
0.0   30.0   50.0
50.0   60.0   50.0
50.0   30.0   33.333333333333336
0.0   60.0   33.333333333333336
0.0   60.0   0.0
50.0   60.0   0.0
0.0   90.0   0.0
0.0   60.0   16.666666666666668
50.0   60.0   0.0
50.0   90.0   0.0
0.0   90.0   0.0
50.0   90.0   16.666666666666668
0.0   60.0   16.666666666666668
0.0   90.0   16.666666666666668
50.0   90.0   16.666666666666668
0.0   90.0   0.0
0.0   60.0   16.666666666666668
50.0   90.0   16.666666666666668
50.0   60.0   16.666666666666668
50.0   60.0   0.0
0.0   60.0   16.666666666666668
50.0   90.0   16.666666666666668
50.0   60.0   0.0
0.0   90.0   0.0
0.0   60.0   16.666666666666668
50.0   60.0   16.666666666666668
0.0   90.0   16.666666666666668
0.0   60.0   33.333333333333336
50.0   60.0   16.666666666666668
50.0   90.0   16.666666666666668
0.0   90.0   16.666666666666668
50.0   90.0   33.333333333333336
0.0   60.0   33.333333333333336
0.0   90.0   33.333333333333336
50.0   90.0   33.333333333333336
0.0   90.0   16.666666666666668
0.0   60.0   33.333333333333336
50.0   90.0   33.333333333333336
50.0   60.0   33.333333333333336
50.0   60.0   16.666666666666668
0.0   60.0   33.333333333333336
50.0   90.0   33.333333333333336
50.0   60.0   16.666666666666668
0.0   90.0   16.666666666666668
0.0   60.0   33.333333333333336
50.0   60.0   33.333333333333336
0.0   90.0   33.333333333333336
0.0   60.0   50.0
50.0   60.0   33.333333333333336
50.0   90.0   33.333333333333336
0.0   90.0   33.333333333333336
50.0   90.0   50.0
0.0   60.0   50.0
0.0   90.0   50.0
50.0   90.0   50.0
0.0   90.0   33.333333333333336
0.0   60.0   50.0
50.0   90.0   50.0
50.0   60.0   50.0
50.0   60.0   33.333333333333336
0.0   60.0   50.0
50.0   90.0   50.0
50.0   60.0   33.333333333333336
0.0   90.0   33.333333333333336
0.0   90.0   0.0
50.0   90.0   0.0
0.0   120.0   0.0
0.0   90.0   16.666666666666668
50.0   90.0   0.0
50.0   120.0   0.0
0.0   120.0   0.0
50.0   120.0   16.666666666666668
0.0   90.0   16.666666666666668
0.0   120.0   16.666666666666668
50.0   120.0   16.666666666666668
0.0   120.0   0.0
0.0   90.0   16.666666666666668
50.0   120.0   16.666666666666668
50.0   90.0   16.666666666666668
50.0   90.0   0.0
0.0   90.0   16.666666666666668
50.0   120.0   16.666666666666668
50.0   90.0   0.0
0.0   120.0   0.0
0.0   90.0   16.666666666666668
50.0   90.0   16.666666666666668
0.0   120.0   16.666666666666668
0.0   90.0   33.333333333333336
50.0   90.0   16.666666666666668
50.0   120.0   16.666666666666668
0.0   120.0   16.666666666666668
50.0   120.0   33.333333333333336
0.0   90.0   33.333333333333336
0.0   120.0   33.333333333333336
50.0   120.0   33.333333333333336
0.0   120.0   16.666666666666668
0.0   90.0   33.333333333333336
50.0   120.0   33.333333333333336
50.0   90.0   33.333333333333336
50.0   90.0   16.666666666666668
0.0   90.0   33.333333333333336
50.0   120.0   33.333333333333336
50.0   90.0   16.666666666666668
0.0   120.0   16.666666666666668
0.0   90.0   33.333333333333336
50.0   90.0   33.333333333333336
0.0   120.0   33.333333333333336
0.0   90.0   50.0
50.0   90.0   33.333333333333336
50.0   120.0   33.333333333333336
0.0   120.0   33.333333333333336
50.0   120.0   50.0
0.0   90.0   50.0
0.0   120.0   50.0
50.0   120.0   50.0
0.0   120.0   33.333333333333336
0.0   90.0   50.0
50.0   120.0   50.0
50.0   90.0   50.0
50.0   90.0   33.333333333333336
0.0   90.0   50.0
50.0   120.0   50.0
50.0   90.0   33.333333333333336
0.0   120.0   33.333333333333336
0.0   120.0   0.0
50.0   120.0   0.0
0.0   150.0   0.0
0.0   120.0   16.666666666666668
50.0   120.0   0.0
50.0   150.0   0.0
0.0   150.0   0.0
50.0   150.0   16.666666666666668
0.0   120.0   16.666666666666668
0.0   150.0   16.666666666666668
50.0   150.0   16.666666666666668
0.0   150.0   0.0
0.0   120.0   16.666666666666668
50.0   150.0   16.666666666666668
50.0   120.0   16.666666666666668
50.0   120.0   0.0
0.0   120.0   16.666666666666668
50.0   150.0   16.666666666666668
50.0   120.0   0.0
0.0   150.0   0.0
0.0   120.0   16.666666666666668
50.0   120.0   16.666666666666668
0.0   150.0   16.666666666666668
0.0   120.0   33.333333333333336
50.0   120.0   16.666666666666668
50.0   150.0   16.666666666666668
0.0   150.0   16.666666666666668
50.0   150.0   33.333333333333336
0.0   120.0   33.333333333333336
0.0   150.0   33.333333333333336
50.0   150.0   33.333333333333336
0.0   150.0   16.666666666666668
0.0   120.0   33.333333333333336
50.0   150.0   33.333333333333336
50.0   120.0   33.333333333333336
50.0   120.0   16.666666666666668
0.0   120.0   33.333333333333336
50.0   150.0   33.333333333333336
50.0   120.0   16.666666666666668
0.0   150.0   16.666666666666668
0.0   120.0   33.333333333333336
50.0   120.0   33.333333333333336
0.0   150.0   33.333333333333336
0.0   120.0   50.0
50.0   120.0   33.333333333333336
50.0   150.0   33.333333333333336
0.0   150.0   33.333333333333336
50.0   150.0   50.0
0.0   120.0   50.0
0.0   150.0   50.0
50.0   150.0   50.0
0.0   150.0   33.333333333333336
0.0   120.0   50.0
50.0   150.0   50.0
50.0   120.0   50.0
50.0   120.0   33.333333333333336
0.0   120.0   50.0
50.0   150.0   50.0
50.0   120.0   33.333333333333336
0.0   150.0   33.333333333333336
50.0   0.0   0.0
100.0   0.0   0.0
50.0   30.0   0.0
50.0   0.0   16.666666666666668
100.0   0.0   0.0
100.0   30.0   0.0
50.0   30.0   0.0
100.0   30.0   16.666666666666668
50.0   0.0   16.666666666666668
50.0   30.0   16.666666666666668
100.0   30.0   16.666666666666668
50.0   30.0   0.0
50.0   0.0   16.666666666666668
100.0   30.0   16.666666666666668
100.0   0.0   16.666666666666668
100.0   0.0   0.0
50.0   0.0   16.666666666666668
100.0   30.0   16.666666666666668
100.0   0.0   0.0
50.0   30.0   0.0
50.0   0.0   16.666666666666668
100.0   0.0   16.666666666666668
50.0   30.0   16.666666666666668
50.0   0.0   33.333333333333336
100.0   0.0   16.666666666666668
100.0   30.0   16.666666666666668
50.0   30.0   16.666666666666668
100.0   30.0   33.333333333333336
50.0   0.0   33.333333333333336
50.0   30.0   33.333333333333336
100.0   30.0   33.333333333333336
50.0   30.0   16.666666666666668
50.0   0.0   33.333333333333336
100.0   30.0   33.333333333333336
100.0   0.0   33.333333333333336
100.0   0.0   16.666666666666668
50.0   0.0   33.333333333333336
100.0   30.0   33.333333333333336
100.0   0.0   16.666666666666668
50.0   30.0   16.666666666666668
50.0   0.0   33.333333333333336
100.0   0.0   33.333333333333336
50.0   30.0   33.333333333333336
50.0   0.0   50.0
100.0   0.0   33.333333333333336
100.0   30.0   33.333333333333336
50.0   30.0   33.333333333333336
100.0   30.0   50.0
50.0   0.0   50.0
50.0   30.0   50.0
100.0   30.0   50.0
50.0   30.0   33.333333333333336
50.0   0.0   50.0
100.0   30.0   50.0
100.0   0.0   50.0
100.0   0.0   33.333333333333336
50.0   0.0   50.0
100.0   30.0   50.0
100.0   0.0   33.333333333333336
50.0   30.0   33.333333333333336
50.0   30.0   0.0
100.0   30.0   0.0
50.0   60.0   0.0
50.0   30.0   16.666666666666668
100.0   30.0   0.0
100.0   60.0   0.0
50.0   60.0   0.0
100.0   60.0   16.666666666666668
50.0   30.0   16.666666666666668
50.0   60.0   16.666666666666668
100.0   60.0   16.666666666666668
50.0   60.0   0.0
50.0   30.0   16.666666666666668
100.0   60.0   16.666666666666668
100.0   30.0   16.666666666666668
100.0   30.0   0.0
50.0   30.0   16.666666666666668
100.0   60.0   16.666666666666668
100.0   30.0   0.0
50.0   60.0   0.0
50.0   30.0   16.666666666666668
100.0   30.0   16.666666666666668
50.0   60.0   16.666666666666668
50.0   30.0   33.333333333333336
100.0   30.0   16.666666666666668
100.0   60.0   16.666666666666668
50.0   60.0   16.666666666666668
100.0   60.0   33.333333333333336
50.0   30.0   33.333333333333336
50.0   60.0   33.333333333333336
100.0   60.0   33.333333333333336
50.0   60.0   16.666666666666668
50.0   30.0   33.333333333333336
100.0   60.0   33.333333333333336
100.0   30.0   33.333333333333336
100.0   30.0   16.666666666666668
50.0   30.0   33.333333333333336
100.0   60.0   33.333333333333336
100.0   30.0   16.666666666666668
50.0   60.0   16.666666666666668
50.0   30.0   33.333333333333336
100.0   30.0   33.333333333333336
50.0   60.0   33.333333333333336
50.0   30.0   50.0
100.0   30.0   33.333333333333336
100.0   60.0   33.333333333333336
50.0   60.0   33.333333333333336
100.0   60.0   50.0
50.0   30.0   50.0
50.0   60.0   50.0
100.0   60.0   50.0
50.0   60.0   33.333333333333336
50.0   30.0   50.0
100.0   60.0   50.0
100.0   30.0   50.0
100.0   30.0   33.333333333333336
50.0   30.0   50.0
100.0   60.0   50.0
100.0   30.0   33.333333333333336
50.0   60.0   33.333333333333336
50.0   60.0   0.0
100.0   60.0   0.0
50.0   90.0   0.0
50.0   60.0   16.666666666666668
100.0   60.0   0.0
100.0   90.0   0.0
50.0   90.0   0.0
100.0   90.0   16.666666666666668
50.0   60.0   16.666666666666668
50.0   90.0   16.666666666666668
100.0   90.0   16.666666666666668
50.0   90.0   0.0
50.0   60.0   16.666666666666668
100.0   90.0   16.666666666666668
100.0   60.0   16.666666666666668
100.0   60.0   0.0
50.0   60.0   16.666666666666668
100.0   90.0   16.666666666666668
100.0   60.0   0.0
50.0   90.0   0.0
50.0   60.0   16.666666666666668
100.0   60.0   16.666666666666668
50.0   90.0   16.666666666666668
50.0   60.0   33.333333333333336
100.0   60.0   16.666666666666668
100.0   90.0   16.666666666666668
50.0   90.0   16.666666666666668
100.0   90.0   33.333333333333336
50.0   60.0   33.333333333333336
50.0   90.0   33.333333333333336
100.0   90.0   33.333333333333336
50.0   90.0   16.666666666666668
50.0   60.0   33.333333333333336
100.0   90.0   33.333333333333336
100.0   60.0   33.333333333333336
100.0   60.0   16.666666666666668
50.0   60.0   33.333333333333336
100.0   90.0   33.333333333333336
100.0   60.0   16.666666666666668
50.0   90.0   16.666666666666668
50.0   60.0   33.333333333333336
100.0   60.0   33.333333333333336
50.0   90.0   33.333333333333336
50.0   60.0   50.0
100.0   60.0   33.333333333333336
100.0   90.0   33.333333333333336
50.0   90.0   33.333333333333336
100.0   90.0   50.0
50.0   60.0   50.0
50.0   90.0   50.0
100.0   90.0   50.0
50.0   90.0   33.333333333333336
50.0   60.0   50.0
100.0   90.0   50.0
100.0   60.0   50.0
100.0   60.0   33.333333333333336
50.0   60.0   50.0
100.0   90.0   50.0
100.0   60.0   33.333333333333336
50.0   90.0   33.333333333333336
50.0   90.0   0.0
100.0   90.0   0.0
50.0   120.0   0.0
50.0   90.0   16.666666666666668
100.0   90.0   0.0
100.0   120.0   0.0
50.0   120.0   0.0
100.0   120.0   16.666666666666668
50.0   90.0   16.666666666666668
50.0   120.0   16.666666666666668
100.0   120.0   16.666666666666668
50.0   120.0   0.0
50.0   90.0   16.666666666666668
100.0   120.0   16.666666666666668
100.0   90.0   16.666666666666668
100.0   90.0   0.0
50.0   90.0   16.666666666666668
100.0   120.0   16.666666666666668
100.0   90.0   0.0
50.0   120.0   0.0
50.0   90.0   16.666666666666668
100.0   90.0   16.666666666666668
50.0   120.0   16.666666666666668
50.0   90.0   33.333333333333336
100.0   90.0   16.666666666666668
100.0   120.0   16.666666666666668
50.0   120.0   16.666666666666668
100.0   120.0   33.333333333333336
50.0   90.0   33.333333333333336
50.0   120.0   33.333333333333336
100.0   120.0   33.333333333333336
50.0   120.0   16.666666666666668
50.0   90.0   33.333333333333336
100.0   120.0   33.333333333333336
100.0   90.0   33.333333333333336
100.0   90.0   16.666666666666668
50.0   90.0   33.333333333333336
100.0   120.0   33.333333333333336
100.0   90.0   16.666666666666668
50.0   120.0   16.666666666666668
50.0   90.0   33.333333333333336
100.0   90.0   33.333333333333336
50.0   120.0   33.333333333333336
50.0   90.0   50.0
100.0   90.0   33.333333333333336
100.0   120.0   33.333333333333336
50.0   120.0   33.333333333333336
100.0   120.0   50.0
50.0   90.0   50.0
50.0   120.0   50.0
100.0   120.0   50.0
50.0   120.0   33.333333333333336
50.0   90.0   50.0
100.0   120.0   50.0
100.0   90.0   50.0
100.0   90.0   33.333333333333336
50.0   90.0   50.0
100.0   120.0   50.0
100.0   90.0   33.333333333333336
50.0   120.0   33.333333333333336
50.0   120.0   0.0
100.0   120.0   0.0
50.0   150.0   0.0
50.0   120.0   16.666666666666668
100.0   120.0   0.0
100.0   150.0   0.0
50.0   150.0   0.0
100.0   150.0   16.666666666666668
50.0   120.0   16.666666666666668
50.0   150.0   16.666666666666668
100.0   150.0   16.666666666666668
50.0   150.0   0.0
50.0   120.0   16.666666666666668
100.0   150.0   16.666666666666668
100.0   120.0   16.666666666666668
100.0   120.0   0.0
50.0   120.0   16.666666666666668
100.0   150.0   16.666666666666668
100.0   120.0   0.0
50.0   150.0   0.0
50.0   120.0   16.666666666666668
100.0   120.0   16.666666666666668
50.0   150.0   16.666666666666668
50.0   120.0   33.333333333333336
100.0   120.0   16.666666666666668
100.0   150.0   16.666666666666668
50.0   150.0   16.666666666666668
100.0   150.0   33.333333333333336
50.0   120.0   33.333333333333336
50.0   150.0   33.333333333333336
100.0   150.0   33.333333333333336
50.0   150.0   16.666666666666668
50.0   120.0   33.333333333333336
100.0   150.0   33.333333333333336
100.0   120.0   33.333333333333336
100.0   120.0   16.666666666666668
50.0   120.0   33.333333333333336
100.0   150.0   33.333333333333336
100.0   120.0   16.666666666666668
50.0   150.0   16.666666666666668
50.0   120.0   33.333333333333336
100.0   120.0   33.333333333333336
50.0   150.0   33.333333333333336
50.0   120.0   50.0
100.0   120.0   33.333333333333336
100.0   150.0   33.333333333333336
50.0   150.0   33.333333333333336
100.0   150.0   50.0
50.0   120.0   50.0
50.0   150.0   50.0
100.0   150.0   50.0
50.0   150.0   33.333333333333336
50.0   120.0   50.0
100.0   150.0   50.0
100.0   120.0   50.0
100.0   120.0   33.333333333333336
50.0   120.0   50.0
100.0   150.0   50.0
100.0   120.0   33.333333333333336
50.0   150.0   33.333333333333336
100.0   0.0   0.0
150.0   0.0   0.0
100.0   30.0   0.0
100.0   0.0   16.666666666666668
150.0   0.0   0.0
150.0   30.0   0.0
100.0   30.0   0.0
150.0   30.0   16.666666666666668
100.0   0.0   16.666666666666668
100.0   30.0   16.666666666666668
150.0   30.0   16.666666666666668
100.0   30.0   0.0
100.0   0.0   16.666666666666668
150.0   30.0   16.666666666666668
150.0   0.0   16.666666666666668
150.0   0.0   0.0
100.0   0.0   16.666666666666668
150.0   30.0   16.666666666666668
150.0   0.0   0.0
100.0   30.0   0.0
100.0   0.0   16.666666666666668
150.0   0.0   16.666666666666668
100.0   30.0   16.666666666666668
100.0   0.0   33.333333333333336
150.0   0.0   16.666666666666668
150.0   30.0   16.666666666666668
100.0   30.0   16.666666666666668
150.0   30.0   33.333333333333336
100.0   0.0   33.333333333333336
100.0   30.0   33.333333333333336
150.0   30.0   33.333333333333336
100.0   30.0   16.666666666666668
100.0   0.0   33.333333333333336
150.0   30.0   33.333333333333336
150.0   0.0   33.333333333333336
150.0   0.0   16.666666666666668
100.0   0.0   33.333333333333336
150.0   30.0   33.333333333333336
150.0   0.0   16.666666666666668
100.0   30.0   16.666666666666668
100.0   0.0   33.333333333333336
150.0   0.0   33.333333333333336
100.0   30.0   33.333333333333336
100.0   0.0   50.0
150.0   0.0   33.333333333333336
150.0   30.0   33.333333333333336
100.0   30.0   33.333333333333336
150.0   30.0   50.0
100.0   0.0   50.0
100.0   30.0   50.0
150.0   30.0   50.0
100.0   30.0   33.333333333333336
100.0   0.0   50.0
150.0   30.0   50.0
150.0   0.0   50.0
150.0   0.0   33.333333333333336
100.0   0.0   50.0
150.0   30.0   50.0
150.0   0.0   33.333333333333336
100.0   30.0   33.333333333333336
100.0   30.0   0.0
150.0   30.0   0.0
100.0   60.0   0.0
100.0   30.0   16.666666666666668
150.0   30.0   0.0
150.0   60.0   0.0
100.0   60.0   0.0
150.0   60.0   16.666666666666668
100.0   30.0   16.666666666666668
100.0   60.0   16.666666666666668
150.0   60.0   16.666666666666668
100.0   60.0   0.0
100.0   30.0   16.666666666666668
150.0   60.0   16.666666666666668
150.0   30.0   16.666666666666668
150.0   30.0   0.0
100.0   30.0   16.666666666666668
150.0   60.0   16.666666666666668
150.0   30.0   0.0
100.0   60.0   0.0
100.0   30.0   16.666666666666668
150.0   30.0   16.666666666666668
100.0   60.0   16.666666666666668
100.0   30.0   33.333333333333336
150.0   30.0   16.666666666666668
150.0   60.0   16.666666666666668
100.0   60.0   16.666666666666668
150.0   60.0   33.333333333333336
100.0   30.0   33.333333333333336
100.0   60.0   33.333333333333336
150.0   60.0   33.333333333333336
100.0   60.0   16.666666666666668
100.0   30.0   33.333333333333336
150.0   60.0   33.333333333333336
150.0   30.0   33.333333333333336
150.0   30.0   16.666666666666668
100.0   30.0   33.333333333333336
150.0   60.0   33.333333333333336
150.0   30.0   16.666666666666668
100.0   60.0   16.666666666666668
100.0   30.0   33.333333333333336
150.0   30.0   33.333333333333336
100.0   60.0   33.333333333333336
100.0   30.0   50.0
150.0   30.0   33.333333333333336
150.0   60.0   33.333333333333336
100.0   60.0   33.333333333333336
150.0   60.0   50.0
100.0   30.0   50.0
100.0   60.0   50.0
150.0   60.0   50.0
100.0   60.0   33.333333333333336
100.0   30.0   50.0
150.0   60.0   50.0
150.0   30.0   50.0
150.0   30.0   33.333333333333336
100.0   30.0   50.0
150.0   60.0   50.0
150.0   30.0   33.333333333333336
100.0   60.0   33.333333333333336
100.0   60.0   0.0
150.0   60.0   0.0
100.0   90.0   0.0
100.0   60.0   16.666666666666668
150.0   60.0   0.0
150.0   90.0   0.0
100.0   90.0   0.0
150.0   90.0   16.666666666666668
100.0   60.0   16.666666666666668
100.0   90.0   16.666666666666668
150.0   90.0   16.666666666666668
100.0   90.0   0.0
100.0   60.0   16.666666666666668
150.0   90.0   16.666666666666668
150.0   60.0   16.666666666666668
150.0   60.0   0.0
100.0   60.0   16.666666666666668
150.0   90.0   16.666666666666668
150.0   60.0   0.0
100.0   90.0   0.0
100.0   60.0   16.666666666666668
150.0   60.0   16.666666666666668
100.0   90.0   16.666666666666668
100.0   60.0   33.333333333333336
150.0   60.0   16.666666666666668
150.0   90.0   16.666666666666668
100.0   90.0   16.666666666666668
150.0   90.0   33.333333333333336
100.0   60.0   33.333333333333336
100.0   90.0   33.333333333333336
150.0   90.0   33.333333333333336
100.0   90.0   16.666666666666668
100.0   60.0   33.333333333333336
150.0   90.0   33.333333333333336
150.0   60.0   33.333333333333336
150.0   60.0   16.666666666666668
100.0   60.0   33.333333333333336
150.0   90.0   33.333333333333336
150.0   60.0   16.666666666666668
100.0   90.0   16.666666666666668
100.0   60.0   33.333333333333336
150.0   60.0   33.333333333333336
100.0   90.0   33.333333333333336
100.0   60.0   50.0
150.0   60.0   33.333333333333336
150.0   90.0   33.333333333333336
100.0   90.0   33.333333333333336
150.0   90.0   50.0
100.0   60.0   50.0
100.0   90.0   50.0
150.0   90.0   50.0
100.0   90.0   33.333333333333336
100.0   60.0   50.0
150.0   90.0   50.0
150.0   60.0   50.0
150.0   60.0   33.333333333333336
100.0   60.0   50.0
150.0   90.0   50.0
150.0   60.0   33.333333333333336
100.0   90.0   33.333333333333336
100.0   90.0   0.0
150.0   90.0   0.0
100.0   120.0   0.0
100.0   90.0   16.666666666666668
150.0   90.0   0.0
150.0   120.0   0.0
100.0   120.0   0.0
150.0   120.0   16.666666666666668
100.0   90.0   16.666666666666668
100.0   120.0   16.666666666666668
150.0   120.0   16.666666666666668
100.0   120.0   0.0
100.0   90.0   16.666666666666668
150.0   120.0   16.666666666666668
150.0   90.0   16.666666666666668
150.0   90.0   0.0
100.0   90.0   16.666666666666668
150.0   120.0   16.666666666666668
150.0   90.0   0.0
100.0   120.0   0.0
100.0   90.0   16.666666666666668
150.0   90.0   16.666666666666668
100.0   120.0   16.666666666666668
100.0   90.0   33.333333333333336
150.0   90.0   16.666666666666668
150.0   120.0   16.666666666666668
100.0   120.0   16.666666666666668
150.0   120.0   33.333333333333336
100.0   90.0   33.333333333333336
100.0   120.0   33.333333333333336
150.0   120.0   33.333333333333336
100.0   120.0   16.666666666666668
100.0   90.0   33.333333333333336
150.0   120.0   33.333333333333336
150.0   90.0   33.333333333333336
150.0   90.0   16.666666666666668
100.0   90.0   33.333333333333336
150.0   120.0   33.333333333333336
150.0   90.0   16.666666666666668
100.0   120.0   16.666666666666668
100.0   90.0   33.333333333333336
150.0   90.0   33.333333333333336
100.0   120.0   33.333333333333336
100.0   90.0   50.0
150.0   90.0   33.333333333333336
150.0   120.0   33.333333333333336
100.0   120.0   33.333333333333336
150.0   120.0   50.0
100.0   90.0   50.0
100.0   120.0   50.0
150.0   120.0   50.0
100.0   120.0   33.333333333333336
100.0   90.0   50.0
150.0   120.0   50.0
150.0   90.0   50.0
150.0   90.0   33.333333333333336
100.0   90.0   50.0
150.0   120.0   50.0
150.0   90.0   33.333333333333336
100.0   120.0   33.333333333333336
100.0   120.0   0.0
150.0   120.0   0.0
100.0   150.0   0.0
100.0   120.0   16.666666666666668
150.0   120.0   0.0
150.0   150.0   0.0
100.0   150.0   0.0
150.0   150.0   16.666666666666668
100.0   120.0   16.666666666666668
100.0   150.0   16.666666666666668
150.0   150.0   16.666666666666668
100.0   150.0   0.0
100.0   120.0   16.666666666666668
150.0   150.0   16.666666666666668
150.0   120.0   16.666666666666668
150.0   120.0   0.0
100.0   120.0   16.666666666666668
150.0   150.0   16.666666666666668
150.0   120.0   0.0
100.0   150.0   0.0
100.0   120.0   16.666666666666668
150.0   120.0   16.666666666666668
100.0   150.0   16.666666666666668
100.0   120.0   33.333333333333336
150.0   120.0   16.666666666666668
150.0   150.0   16.666666666666668
100.0   150.0   16.666666666666668
150.0   150.0   33.333333333333336
100.0   120.0   33.333333333333336
100.0   150.0   33.333333333333336
150.0   150.0   33.333333333333336
100.0   150.0   16.666666666666668
100.0   120.0   33.333333333333336
150.0   150.0   33.333333333333336
150.0   120.0   33.333333333333336
150.0   120.0   16.666666666666668
100.0   120.0   33.333333333333336
150.0   150.0   33.333333333333336
150.0   120.0   16.666666666666668
100.0   150.0   16.666666666666668
100.0   120.0   33.333333333333336
150.0   120.0   33.333333333333336
100.0   150.0   33.333333333333336
100.0   120.0   50.0
150.0   120.0   33.333333333333336
150.0   150.0   33.333333333333336
100.0   150.0   33.333333333333336
150.0   150.0   50.0
100.0   120.0   50.0
100.0   150.0   50.0
150.0   150.0   50.0
100.0   150.0   33.333333333333336
100.0   120.0   50.0
150.0   150.0   50.0
150.0   120.0   50.0
150.0   120.0   33.333333333333336
100.0   120.0   50.0
150.0   150.0   50.0
150.0   120.0   33.333333333333336
100.0   150.0   33.333333333333336
150.0   0.0   0.0
200.0   0.0   0.0
150.0   30.0   0.0
150.0   0.0   16.666666666666668
200.0   0.0   0.0
200.0   30.0   0.0
150.0   30.0   0.0
200.0   30.0   16.666666666666668
150.0   0.0   16.666666666666668
150.0   30.0   16.666666666666668
200.0   30.0   16.666666666666668
150.0   30.0   0.0
150.0   0.0   16.666666666666668
200.0   30.0   16.666666666666668
200.0   0.0   16.666666666666668
200.0   0.0   0.0
150.0   0.0   16.666666666666668
200.0   30.0   16.666666666666668
200.0   0.0   0.0
150.0   30.0   0.0
150.0   0.0   16.666666666666668
200.0   0.0   16.666666666666668
150.0   30.0   16.666666666666668
150.0   0.0   33.333333333333336
200.0   0.0   16.666666666666668
200.0   30.0   16.666666666666668
150.0   30.0   16.666666666666668
200.0   30.0   33.333333333333336
150.0   0.0   33.333333333333336
150.0   30.0   33.333333333333336
200.0   30.0   33.333333333333336
150.0   30.0   16.666666666666668
150.0   0.0   33.333333333333336
200.0   30.0   33.333333333333336
200.0   0.0   33.333333333333336
200.0   0.0   16.666666666666668
150.0   0.0   33.333333333333336
200.0   30.0   33.333333333333336
200.0   0.0   16.666666666666668
150.0   30.0   16.666666666666668
150.0   0.0   33.333333333333336
200.0   0.0   33.333333333333336
150.0   30.0   33.333333333333336
150.0   0.0   50.0
200.0   0.0   33.333333333333336
200.0   30.0   33.333333333333336
150.0   30.0   33.333333333333336
200.0   30.0   50.0
150.0   0.0   50.0
150.0   30.0   50.0
200.0   30.0   50.0
150.0   30.0   33.333333333333336
150.0   0.0   50.0
200.0   30.0   50.0
200.0   0.0   50.0
200.0   0.0   33.333333333333336
150.0   0.0   50.0
200.0   30.0   50.0
200.0   0.0   33.333333333333336
150.0   30.0   33.333333333333336
150.0   30.0   0.0
200.0   30.0   0.0
150.0   60.0   0.0
150.0   30.0   16.666666666666668
200.0   30.0   0.0
200.0   60.0   0.0
150.0   60.0   0.0
200.0   60.0   16.666666666666668
150.0   30.0   16.666666666666668
150.0   60.0   16.666666666666668
200.0   60.0   16.666666666666668
150.0   60.0   0.0
150.0   30.0   16.666666666666668
200.0   60.0   16.666666666666668
200.0   30.0   16.666666666666668
200.0   30.0   0.0
150.0   30.0   16.666666666666668
200.0   60.0   16.666666666666668
200.0   30.0   0.0
150.0   60.0   0.0
150.0   30.0   16.666666666666668
200.0   30.0   16.666666666666668
150.0   60.0   16.666666666666668
150.0   30.0   33.333333333333336
200.0   30.0   16.666666666666668
200.0   60.0   16.666666666666668
150.0   60.0   16.666666666666668
200.0   60.0   33.333333333333336
150.0   30.0   33.333333333333336
150.0   60.0   33.333333333333336
200.0   60.0   33.333333333333336
150.0   60.0   16.666666666666668
150.0   30.0   33.333333333333336
200.0   60.0   33.333333333333336
200.0   30.0   33.333333333333336
200.0   30.0   16.666666666666668
150.0   30.0   33.333333333333336
200.0   60.0   33.333333333333336
200.0   30.0   16.666666666666668
150.0   60.0   16.666666666666668
150.0   30.0   33.333333333333336
200.0   30.0   33.333333333333336
150.0   60.0   33.333333333333336
150.0   30.0   50.0
200.0   30.0   33.333333333333336
200.0   60.0   33.333333333333336
150.0   60.0   33.333333333333336
200.0   60.0   50.0
150.0   30.0   50.0
150.0   60.0   50.0
200.0   60.0   50.0
150.0   60.0   33.333333333333336
150.0   30.0   50.0
200.0   60.0   50.0
200.0   30.0   50.0
200.0   30.0   33.333333333333336
150.0   30.0   50.0
200.0   60.0   50.0
200.0   30.0   33.333333333333336
150.0   60.0   33.333333333333336
150.0   60.0   0.0
200.0   60.0   0.0
150.0   90.0   0.0
150.0   60.0   16.666666666666668
200.0   60.0   0.0
200.0   90.0   0.0
150.0   90.0   0.0
200.0   90.0   16.666666666666668
150.0   60.0   16.666666666666668
150.0   90.0   16.666666666666668
200.0   90.0   16.666666666666668
150.0   90.0   0.0
150.0   60.0   16.666666666666668
200.0   90.0   16.666666666666668
200.0   60.0   16.666666666666668
200.0   60.0   0.0
150.0   60.0   16.666666666666668
200.0   90.0   16.666666666666668
200.0   60.0   0.0
150.0   90.0   0.0
150.0   60.0   16.666666666666668
200.0   60.0   16.666666666666668
150.0   90.0   16.666666666666668
150.0   60.0   33.333333333333336
200.0   60.0   16.666666666666668
200.0   90.0   16.666666666666668
150.0   90.0   16.666666666666668
200.0   90.0   33.333333333333336
150.0   60.0   33.333333333333336
150.0   90.0   33.333333333333336
200.0   90.0   33.333333333333336
150.0   90.0   16.666666666666668
150.0   60.0   33.333333333333336
200.0   90.0   33.333333333333336
200.0   60.0   33.333333333333336
200.0   60.0   16.666666666666668
150.0   60.0   33.333333333333336
200.0   90.0   33.333333333333336
200.0   60.0   16.666666666666668
150.0   90.0   16.666666666666668
150.0   60.0   33.333333333333336
200.0   60.0   33.333333333333336
150.0   90.0   33.333333333333336
150.0   60.0   50.0
200.0   60.0   33.333333333333336
200.0   90.0   33.333333333333336
150.0   90.0   33.333333333333336
200.0   90.0   50.0
150.0   60.0   50.0
150.0   90.0   50.0
200.0   90.0   50.0
150.0   90.0   33.333333333333336
150.0   60.0   50.0
200.0   90.0   50.0
200.0   60.0   50.0
200.0   60.0   33.333333333333336
150.0   60.0   50.0
200.0   90.0   50.0
200.0   60.0   33.333333333333336
150.0   90.0   33.333333333333336
150.0   90.0   0.0
200.0   90.0   0.0
150.0   120.0   0.0
150.0   90.0   16.666666666666668
200.0   90.0   0.0
200.0   120.0   0.0
150.0   120.0   0.0
200.0   120.0   16.666666666666668
150.0   90.0   16.666666666666668
150.0   120.0   16.666666666666668
200.0   120.0   16.666666666666668
150.0   120.0   0.0
150.0   90.0   16.666666666666668
200.0   120.0   16.666666666666668
200.0   90.0   16.666666666666668
200.0   90.0   0.0
150.0   90.0   16.666666666666668
200.0   120.0   16.666666666666668
200.0   90.0   0.0
150.0   120.0   0.0
150.0   90.0   16.666666666666668
200.0   90.0   16.666666666666668
150.0   120.0   16.666666666666668
150.0   90.0   33.333333333333336
200.0   90.0   16.666666666666668
200.0   120.0   16.666666666666668
150.0   120.0   16.666666666666668
200.0   120.0   33.333333333333336
150.0   90.0   33.333333333333336
150.0   120.0   33.333333333333336
200.0   120.0   33.333333333333336
150.0   120.0   16.666666666666668
150.0   90.0   33.333333333333336
200.0   120.0   33.333333333333336
200.0   90.0   33.333333333333336
200.0   90.0   16.666666666666668
150.0   90.0   33.333333333333336
200.0   120.0   33.333333333333336
200.0   90.0   16.666666666666668
150.0   120.0   16.666666666666668
150.0   90.0   33.333333333333336
200.0   90.0   33.333333333333336
150.0   120.0   33.333333333333336
150.0   90.0   50.0
200.0   90.0   33.333333333333336
200.0   120.0   33.333333333333336
150.0   120.0   33.333333333333336
200.0   120.0   50.0
150.0   90.0   50.0
150.0   120.0   50.0
200.0   120.0   50.0
150.0   120.0   33.333333333333336
150.0   90.0   50.0
200.0   120.0   50.0
200.0   90.0   50.0
200.0   90.0   33.333333333333336
150.0   90.0   50.0
200.0   120.0   50.0
200.0   90.0   33.333333333333336
150.0   120.0   33.333333333333336
150.0   120.0   0.0
200.0   120.0   0.0
150.0   150.0   0.0
150.0   120.0   16.666666666666668
200.0   120.0   0.0
200.0   150.0   0.0
150.0   150.0   0.0
200.0   150.0   16.666666666666668
150.0   120.0   16.666666666666668
150.0   150.0   16.666666666666668
200.0   150.0   16.666666666666668
150.0   150.0   0.0
150.0   120.0   16.666666666666668
200.0   150.0   16.666666666666668
200.0   120.0   16.666666666666668
200.0   120.0   0.0
150.0   120.0   16.666666666666668
200.0   150.0   16.666666666666668
200.0   120.0   0.0
150.0   150.0   0.0
150.0   120.0   16.666666666666668
200.0   120.0   16.666666666666668
150.0   150.0   16.666666666666668
150.0   120.0   33.333333333333336
200.0   120.0   16.666666666666668
200.0   150.0   16.666666666666668
150.0   150.0   16.666666666666668
200.0   150.0   33.333333333333336
150.0   120.0   33.333333333333336
150.0   150.0   33.333333333333336
200.0   150.0   33.333333333333336
150.0   150.0   16.666666666666668
150.0   120.0   33.333333333333336
200.0   150.0   33.333333333333336
200.0   120.0   33.333333333333336
200.0   120.0   16.666666666666668
150.0   120.0   33.333333333333336
200.0   150.0   33.333333333333336
200.0   120.0   16.666666666666668
150.0   150.0   16.666666666666668
150.0   120.0   33.333333333333336
200.0   120.0   33.333333333333336
150.0   150.0   33.333333333333336
150.0   120.0   50.0
200.0   120.0   33.333333333333336
200.0   150.0   33.333333333333336
150.0   150.0   33.333333333333336
200.0   150.0   50.0
150.0   120.0   50.0
150.0   150.0   50.0
200.0   150.0   50.0
150.0   150.0   33.333333333333336
150.0   120.0   50.0
200.0   150.0   50.0
200.0   120.0   50.0
200.0   120.0   33.333333333333336
150.0   120.0   50.0
200.0   150.0   50.0
200.0   120.0   33.333333333333336
150.0   150.0   33.333333333333336
200.0   0.0   0.0
250.0   0.0   0.0
200.0   30.0   0.0
200.0   0.0   16.666666666666668
250.0   0.0   0.0
250.0   30.0   0.0
200.0   30.0   0.0
250.0   30.0   16.666666666666668
200.0   0.0   16.666666666666668
200.0   30.0   16.666666666666668
250.0   30.0   16.666666666666668
200.0   30.0   0.0
200.0   0.0   16.666666666666668
250.0   30.0   16.666666666666668
250.0   0.0   16.666666666666668
250.0   0.0   0.0
200.0   0.0   16.666666666666668
250.0   30.0   16.666666666666668
250.0   0.0   0.0
200.0   30.0   0.0
200.0   0.0   16.666666666666668
250.0   0.0   16.666666666666668
200.0   30.0   16.666666666666668
200.0   0.0   33.333333333333336
250.0   0.0   16.666666666666668
250.0   30.0   16.666666666666668
200.0   30.0   16.666666666666668
250.0   30.0   33.333333333333336
200.0   0.0   33.333333333333336
200.0   30.0   33.333333333333336
250.0   30.0   33.333333333333336
200.0   30.0   16.666666666666668
200.0   0.0   33.333333333333336
250.0   30.0   33.333333333333336
250.0   0.0   33.333333333333336
250.0   0.0   16.666666666666668
200.0   0.0   33.333333333333336
250.0   30.0   33.333333333333336
250.0   0.0   16.666666666666668
200.0   30.0   16.666666666666668
200.0   0.0   33.333333333333336
250.0   0.0   33.333333333333336
200.0   30.0   33.333333333333336
200.0   0.0   50.0
250.0   0.0   33.333333333333336
250.0   30.0   33.333333333333336
200.0   30.0   33.333333333333336
250.0   30.0   50.0
200.0   0.0   50.0
200.0   30.0   50.0
250.0   30.0   50.0
200.0   30.0   33.333333333333336
200.0   0.0   50.0
250.0   30.0   50.0
250.0   0.0   50.0
250.0   0.0   33.333333333333336
200.0   0.0   50.0
250.0   30.0   50.0
250.0   0.0   33.333333333333336
200.0   30.0   33.333333333333336
200.0   30.0   0.0
250.0   30.0   0.0
200.0   60.0   0.0
200.0   30.0   16.666666666666668
250.0   30.0   0.0
250.0   60.0   0.0
200.0   60.0   0.0
250.0   60.0   16.666666666666668
200.0   30.0   16.666666666666668
200.0   60.0   16.666666666666668
250.0   60.0   16.666666666666668
200.0   60.0   0.0
200.0   30.0   16.666666666666668
250.0   60.0   16.666666666666668
250.0   30.0   16.666666666666668
250.0   30.0   0.0
200.0   30.0   16.666666666666668
250.0   60.0   16.666666666666668
250.0   30.0   0.0
200.0   60.0   0.0
200.0   30.0   16.666666666666668
250.0   30.0   16.666666666666668
200.0   60.0   16.666666666666668
200.0   30.0   33.333333333333336
250.0   30.0   16.666666666666668
250.0   60.0   16.666666666666668
200.0   60.0   16.666666666666668
250.0   60.0   33.333333333333336
200.0   30.0   33.333333333333336
200.0   60.0   33.333333333333336
250.0   60.0   33.333333333333336
200.0   60.0   16.666666666666668
200.0   30.0   33.333333333333336
250.0   60.0   33.333333333333336
250.0   30.0   33.333333333333336
250.0   30.0   16.666666666666668
200.0   30.0   33.333333333333336
250.0   60.0   33.333333333333336
250.0   30.0   16.666666666666668
200.0   60.0   16.666666666666668
200.0   30.0   33.333333333333336
250.0   30.0   33.333333333333336
200.0   60.0   33.333333333333336
200.0   30.0   50.0
250.0   30.0   33.333333333333336
250.0   60.0   33.333333333333336
200.0   60.0   33.333333333333336
250.0   60.0   50.0
200.0   30.0   50.0
200.0   60.0   50.0
250.0   60.0   50.0
200.0   60.0   33.333333333333336
200.0   30.0   50.0
250.0   60.0   50.0
250.0   30.0   50.0
250.0   30.0   33.333333333333336
200.0   30.0   50.0
250.0   60.0   50.0
250.0   30.0   33.333333333333336
200.0   60.0   33.333333333333336
200.0   60.0   0.0
250.0   60.0   0.0
200.0   90.0   0.0
200.0   60.0   16.666666666666668
250.0   60.0   0.0
250.0   90.0   0.0
200.0   90.0   0.0
250.0   90.0   16.666666666666668
200.0   60.0   16.666666666666668
200.0   90.0   16.666666666666668
250.0   90.0   16.666666666666668
200.0   90.0   0.0
200.0   60.0   16.666666666666668
250.0   90.0   16.666666666666668
250.0   60.0   16.666666666666668
250.0   60.0   0.0
200.0   60.0   16.666666666666668
250.0   90.0   16.666666666666668
250.0   60.0   0.0
200.0   90.0   0.0
200.0   60.0   16.666666666666668
250.0   60.0   16.666666666666668
200.0   90.0   16.666666666666668
200.0   60.0   33.333333333333336
250.0   60.0   16.666666666666668
250.0   90.0   16.666666666666668
200.0   90.0   16.666666666666668
250.0   90.0   33.333333333333336
200.0   60.0   33.333333333333336
200.0   90.0   33.333333333333336
250.0   90.0   33.333333333333336
200.0   90.0   16.666666666666668
200.0   60.0   33.333333333333336
250.0   90.0   33.333333333333336
250.0   60.0   33.333333333333336
250.0   60.0   16.666666666666668
200.0   60.0   33.333333333333336
250.0   90.0   33.333333333333336
250.0   60.0   16.666666666666668
200.0   90.0   16.666666666666668
200.0   60.0   33.333333333333336
250.0   60.0   33.333333333333336
200.0   90.0   33.333333333333336
200.0   60.0   50.0
250.0   60.0   33.333333333333336
250.0   90.0   33.333333333333336
200.0   90.0   33.333333333333336
250.0   90.0   50.0
200.0   60.0   50.0
200.0   90.0   50.0
250.0   90.0   50.0
200.0   90.0   33.333333333333336
200.0   60.0   50.0
250.0   90.0   50.0
250.0   60.0   50.0
250.0   60.0   33.333333333333336
200.0   60.0   50.0
250.0   90.0   50.0
250.0   60.0   33.333333333333336
200.0   90.0   33.333333333333336
200.0   90.0   0.0
250.0   90.0   0.0
200.0   120.0   0.0
200.0   90.0   16.666666666666668
250.0   90.0   0.0
250.0   120.0   0.0
200.0   120.0   0.0
250.0   120.0   16.666666666666668
200.0   90.0   16.666666666666668
200.0   120.0   16.666666666666668
250.0   120.0   16.666666666666668
200.0   120.0   0.0
200.0   90.0   16.666666666666668
250.0   120.0   16.666666666666668
250.0   90.0   16.666666666666668
250.0   90.0   0.0
200.0   90.0   16.666666666666668
250.0   120.0   16.666666666666668
250.0   90.0   0.0
200.0   120.0   0.0
200.0   90.0   16.666666666666668
250.0   90.0   16.666666666666668
200.0   120.0   16.666666666666668
200.0   90.0   33.333333333333336
250.0   90.0   16.666666666666668
250.0   120.0   16.666666666666668
200.0   120.0   16.666666666666668
250.0   120.0   33.333333333333336
200.0   90.0   33.333333333333336
200.0   120.0   33.333333333333336
250.0   120.0   33.333333333333336
200.0   120.0   16.666666666666668
200.0   90.0   33.333333333333336
250.0   120.0   33.333333333333336
250.0   90.0   33.333333333333336
250.0   90.0   16.666666666666668
200.0   90.0   33.333333333333336
250.0   120.0   33.333333333333336
250.0   90.0   16.666666666666668
200.0   120.0   16.666666666666668
200.0   90.0   33.333333333333336
250.0   90.0   33.333333333333336
200.0   120.0   33.333333333333336
200.0   90.0   50.0
250.0   90.0   33.333333333333336
250.0   120.0   33.333333333333336
200.0   120.0   33.333333333333336
250.0   120.0   50.0
200.0   90.0   50.0
200.0   120.0   50.0
250.0   120.0   50.0
200.0   120.0   33.333333333333336
200.0   90.0   50.0
250.0   120.0   50.0
250.0   90.0   50.0
250.0   90.0   33.333333333333336
200.0   90.0   50.0
250.0   120.0   50.0
250.0   90.0   33.333333333333336
200.0   120.0   33.333333333333336
200.0   120.0   0.0
250.0   120.0   0.0
200.0   150.0   0.0
200.0   120.0   16.666666666666668
250.0   120.0   0.0
250.0   150.0   0.0
200.0   150.0   0.0
250.0   150.0   16.666666666666668
200.0   120.0   16.666666666666668
200.0   150.0   16.666666666666668
250.0   150.0   16.666666666666668
200.0   150.0   0.0
200.0   120.0   16.666666666666668
250.0   150.0   16.666666666666668
250.0   120.0   16.666666666666668
250.0   120.0   0.0
200.0   120.0   16.666666666666668
250.0   150.0   16.666666666666668
250.0   120.0   0.0
200.0   150.0   0.0
200.0   120.0   16.666666666666668
250.0   120.0   16.666666666666668
200.0   150.0   16.666666666666668
200.0   120.0   33.333333333333336
250.0   120.0   16.666666666666668
250.0   150.0   16.666666666666668
200.0   150.0   16.666666666666668
250.0   150.0   33.333333333333336
200.0   120.0   33.333333333333336
200.0   150.0   33.333333333333336
250.0   150.0   33.333333333333336
200.0   150.0   16.666666666666668
200.0   120.0   33.333333333333336
250.0   150.0   33.333333333333336
250.0   120.0   33.333333333333336
250.0   120.0   16.666666666666668
200.0   120.0   33.333333333333336
250.0   150.0   33.333333333333336
250.0   120.0   16.666666666666668
200.0   150.0   16.666666666666668
200.0   120.0   33.333333333333336
250.0   120.0   33.333333333333336
200.0   150.0   33.333333333333336
200.0   120.0   50.0
250.0   120.0   33.333333333333336
250.0   150.0   33.333333333333336
200.0   150.0   33.333333333333336
250.0   150.0   50.0
200.0   120.0   50.0
200.0   150.0   50.0
250.0   150.0   50.0
200.0   150.0   33.333333333333336
200.0   120.0   50.0
250.0   150.0   50.0
250.0   120.0   50.0
250.0   120.0   33.333333333333336
200.0   120.0   50.0
250.0   150.0   50.0
250.0   120.0   33.333333333333336
200.0   150.0   33.333333333333336
250.0   0.0   0.0
300.0   0.0   0.0
250.0   30.0   0.0
250.0   0.0   16.666666666666668
300.0   0.0   0.0
300.0   30.0   0.0
250.0   30.0   0.0
300.0   30.0   16.666666666666668
250.0   0.0   16.666666666666668
250.0   30.0   16.666666666666668
300.0   30.0   16.666666666666668
250.0   30.0   0.0
250.0   0.0   16.666666666666668
300.0   30.0   16.666666666666668
300.0   0.0   16.666666666666668
300.0   0.0   0.0
250.0   0.0   16.666666666666668
300.0   30.0   16.666666666666668
300.0   0.0   0.0
250.0   30.0   0.0
250.0   0.0   16.666666666666668
300.0   0.0   16.666666666666668
250.0   30.0   16.666666666666668
250.0   0.0   33.333333333333336
300.0   0.0   16.666666666666668
300.0   30.0   16.666666666666668
250.0   30.0   16.666666666666668
300.0   30.0   33.333333333333336
250.0   0.0   33.333333333333336
250.0   30.0   33.333333333333336
300.0   30.0   33.333333333333336
250.0   30.0   16.666666666666668
250.0   0.0   33.333333333333336
300.0   30.0   33.333333333333336
300.0   0.0   33.333333333333336
300.0   0.0   16.666666666666668
250.0   0.0   33.333333333333336
300.0   30.0   33.333333333333336
300.0   0.0   16.666666666666668
250.0   30.0   16.666666666666668
250.0   0.0   33.333333333333336
300.0   0.0   33.333333333333336
250.0   30.0   33.333333333333336
250.0   0.0   50.0
300.0   0.0   33.333333333333336
300.0   30.0   33.333333333333336
250.0   30.0   33.333333333333336
300.0   30.0   50.0
250.0   0.0   50.0
250.0   30.0   50.0
300.0   30.0   50.0
250.0   30.0   33.333333333333336
250.0   0.0   50.0
300.0   30.0   50.0
300.0   0.0   50.0
300.0   0.0   33.333333333333336
250.0   0.0   50.0
300.0   30.0   50.0
300.0   0.0   33.333333333333336
250.0   30.0   33.333333333333336
250.0   30.0   0.0
300.0   30.0   0.0
250.0   60.0   0.0
250.0   30.0   16.666666666666668
300.0   30.0   0.0
300.0   60.0   0.0
250.0   60.0   0.0
300.0   60.0   16.666666666666668
250.0   30.0   16.666666666666668
250.0   60.0   16.666666666666668
300.0   60.0   16.666666666666668
250.0   60.0   0.0
250.0   30.0   16.666666666666668
300.0   60.0   16.666666666666668
300.0   30.0   16.666666666666668
300.0   30.0   0.0
250.0   30.0   16.666666666666668
300.0   60.0   16.666666666666668
300.0   30.0   0.0
250.0   60.0   0.0
250.0   30.0   16.666666666666668
300.0   30.0   16.666666666666668
250.0   60.0   16.666666666666668
250.0   30.0   33.333333333333336
300.0   30.0   16.666666666666668
300.0   60.0   16.666666666666668
250.0   60.0   16.666666666666668
300.0   60.0   33.333333333333336
250.0   30.0   33.333333333333336
250.0   60.0   33.333333333333336
300.0   60.0   33.333333333333336
250.0   60.0   16.666666666666668
250.0   30.0   33.333333333333336
300.0   60.0   33.333333333333336
300.0   30.0   33.333333333333336
300.0   30.0   16.666666666666668
250.0   30.0   33.333333333333336
300.0   60.0   33.333333333333336
300.0   30.0   16.666666666666668
250.0   60.0   16.666666666666668
250.0   30.0   33.333333333333336
300.0   30.0   33.333333333333336
250.0   60.0   33.333333333333336
250.0   30.0   50.0
300.0   30.0   33.333333333333336
300.0   60.0   33.333333333333336
250.0   60.0   33.333333333333336
300.0   60.0   50.0
250.0   30.0   50.0
250.0   60.0   50.0
300.0   60.0   50.0
250.0   60.0   33.333333333333336
250.0   30.0   50.0
300.0   60.0   50.0
300.0   30.0   50.0
300.0   30.0   33.333333333333336
250.0   30.0   50.0
300.0   60.0   50.0
300.0   30.0   33.333333333333336
250.0   60.0   33.333333333333336
250.0   60.0   0.0
300.0   60.0   0.0
250.0   90.0   0.0
250.0   60.0   16.666666666666668
300.0   60.0   0.0
300.0   90.0   0.0
250.0   90.0   0.0
300.0   90.0   16.666666666666668
250.0   60.0   16.666666666666668
250.0   90.0   16.666666666666668
300.0   90.0   16.666666666666668
250.0   90.0   0.0
250.0   60.0   16.666666666666668
300.0   90.0   16.666666666666668
300.0   60.0   16.666666666666668
300.0   60.0   0.0
250.0   60.0   16.666666666666668
300.0   90.0   16.666666666666668
300.0   60.0   0.0
250.0   90.0   0.0
250.0   60.0   16.666666666666668
300.0   60.0   16.666666666666668
250.0   90.0   16.666666666666668
250.0   60.0   33.333333333333336
300.0   60.0   16.666666666666668
300.0   90.0   16.666666666666668
250.0   90.0   16.666666666666668
300.0   90.0   33.333333333333336
250.0   60.0   33.333333333333336
250.0   90.0   33.333333333333336
300.0   90.0   33.333333333333336
250.0   90.0   16.666666666666668
250.0   60.0   33.333333333333336
300.0   90.0   33.333333333333336
300.0   60.0   33.333333333333336
300.0   60.0   16.666666666666668
250.0   60.0   33.333333333333336
300.0   90.0   33.333333333333336
300.0   60.0   16.666666666666668
250.0   90.0   16.666666666666668
250.0   60.0   33.333333333333336
300.0   60.0   33.333333333333336
250.0   90.0   33.333333333333336
250.0   60.0   50.0
300.0   60.0   33.333333333333336
300.0   90.0   33.333333333333336
250.0   90.0   33.333333333333336
300.0   90.0   50.0
250.0   60.0   50.0
250.0   90.0   50.0
300.0   90.0   50.0
250.0   90.0   33.333333333333336
250.0   60.0   50.0
300.0   90.0   50.0
300.0   60.0   50.0
300.0   60.0   33.333333333333336
250.0   60.0   50.0
300.0   90.0   50.0
300.0   60.0   33.333333333333336
250.0   90.0   33.333333333333336
250.0   90.0   0.0
300.0   90.0   0.0
250.0   120.0   0.0
250.0   90.0   16.666666666666668
300.0   90.0   0.0
300.0   120.0   0.0
250.0   120.0   0.0
300.0   120.0   16.666666666666668
250.0   90.0   16.666666666666668
250.0   120.0   16.666666666666668
300.0   120.0   16.666666666666668
250.0   120.0   0.0
250.0   90.0   16.666666666666668
300.0   120.0   16.666666666666668
300.0   90.0   16.666666666666668
300.0   90.0   0.0
250.0   90.0   16.666666666666668
300.0   120.0   16.666666666666668
300.0   90.0   0.0
250.0   120.0   0.0
250.0   90.0   16.666666666666668
300.0   90.0   16.666666666666668
250.0   120.0   16.666666666666668
250.0   90.0   33.333333333333336
300.0   90.0   16.666666666666668
300.0   120.0   16.666666666666668
250.0   120.0   16.666666666666668
300.0   120.0   33.333333333333336
250.0   90.0   33.333333333333336
250.0   120.0   33.333333333333336
300.0   120.0   33.333333333333336
250.0   120.0   16.666666666666668
250.0   90.0   33.333333333333336
300.0   120.0   33.333333333333336
300.0   90.0   33.333333333333336
300.0   90.0   16.666666666666668
250.0   90.0   33.333333333333336
300.0   120.0   33.333333333333336
300.0   90.0   16.666666666666668
250.0   120.0   16.666666666666668
250.0   90.0   33.333333333333336
300.0   90.0   33.333333333333336
250.0   120.0   33.333333333333336
250.0   90.0   50.0
300.0   90.0   33.333333333333336
300.0   120.0   33.333333333333336
250.0   120.0   33.333333333333336
300.0   120.0   50.0
250.0   90.0   50.0
250.0   120.0   50.0
300.0   120.0   50.0
250.0   120.0   33.333333333333336
250.0   90.0   50.0
300.0   120.0   50.0
300.0   90.0   50.0
300.0   90.0   33.333333333333336
250.0   90.0   50.0
300.0   120.0   50.0
300.0   90.0   33.333333333333336
250.0   120.0   33.333333333333336
250.0   120.0   0.0
300.0   120.0   0.0
250.0   150.0   0.0
250.0   120.0   16.666666666666668
300.0   120.0   0.0
300.0   150.0   0.0
250.0   150.0   0.0
300.0   150.0   16.666666666666668
250.0   120.0   16.666666666666668
250.0   150.0   16.666666666666668
300.0   150.0   16.666666666666668
250.0   150.0   0.0
250.0   120.0   16.666666666666668
300.0   150.0   16.666666666666668
300.0   120.0   16.666666666666668
300.0   120.0   0.0
250.0   120.0   16.666666666666668
300.0   150.0   16.666666666666668
300.0   120.0   0.0
250.0   150.0   0.0
250.0   120.0   16.666666666666668
300.0   120.0   16.666666666666668
250.0   150.0   16.666666666666668
250.0   120.0   33.333333333333336
300.0   120.0   16.666666666666668
300.0   150.0   16.666666666666668
250.0   150.0   16.666666666666668
300.0   150.0   33.333333333333336
250.0   120.0   33.333333333333336
250.0   150.0   33.333333333333336
300.0   150.0   33.333333333333336
250.0   150.0   16.666666666666668
250.0   120.0   33.333333333333336
300.0   150.0   33.333333333333336
300.0   120.0   33.333333333333336
300.0   120.0   16.666666666666668
250.0   120.0   33.333333333333336
300.0   150.0   33.333333333333336
300.0   120.0   16.666666666666668
250.0   150.0   16.666666666666668
250.0   120.0   33.333333333333336
300.0   120.0   33.333333333333336
250.0   150.0   33.333333333333336
250.0   120.0   50.0
300.0   120.0   33.333333333333336
300.0   150.0   33.333333333333336
250.0   150.0   33.333333333333336
300.0   150.0   50.0
250.0   120.0   50.0
250.0   150.0   50.0
300.0   150.0   50.0
250.0   150.0   33.333333333333336
250.0   120.0   50.0
300.0   150.0   50.0
300.0   120.0   50.0
300.0   120.0   33.333333333333336
250.0   120.0   50.0
300.0   150.0   50.0
300.0   120.0   33.333333333333336
250.0   150.0   33.333333333333336
300.0   0.0   0.0
350.0   0.0   0.0
300.0   30.0   0.0
300.0   0.0   16.666666666666668
350.0   0.0   0.0
350.0   30.0   0.0
300.0   30.0   0.0
350.0   30.0   16.666666666666668
300.0   0.0   16.666666666666668
300.0   30.0   16.666666666666668
350.0   30.0   16.666666666666668
300.0   30.0   0.0
300.0   0.0   16.666666666666668
350.0   30.0   16.666666666666668
350.0   0.0   16.666666666666668
350.0   0.0   0.0
300.0   0.0   16.666666666666668
350.0   30.0   16.666666666666668
350.0   0.0   0.0
300.0   30.0   0.0
300.0   0.0   16.666666666666668
350.0   0.0   16.666666666666668
300.0   30.0   16.666666666666668
300.0   0.0   33.333333333333336
350.0   0.0   16.666666666666668
350.0   30.0   16.666666666666668
300.0   30.0   16.666666666666668
350.0   30.0   33.333333333333336
300.0   0.0   33.333333333333336
300.0   30.0   33.333333333333336
350.0   30.0   33.333333333333336
300.0   30.0   16.666666666666668
300.0   0.0   33.333333333333336
350.0   30.0   33.333333333333336
350.0   0.0   33.333333333333336
350.0   0.0   16.666666666666668
300.0   0.0   33.333333333333336
350.0   30.0   33.333333333333336
350.0   0.0   16.666666666666668
300.0   30.0   16.666666666666668
300.0   0.0   33.333333333333336
350.0   0.0   33.333333333333336
300.0   30.0   33.333333333333336
300.0   0.0   50.0
350.0   0.0   33.333333333333336
350.0   30.0   33.333333333333336
300.0   30.0   33.333333333333336
350.0   30.0   50.0
300.0   0.0   50.0
300.0   30.0   50.0
350.0   30.0   50.0
300.0   30.0   33.333333333333336
300.0   0.0   50.0
350.0   30.0   50.0
350.0   0.0   50.0
350.0   0.0   33.333333333333336
300.0   0.0   50.0
350.0   30.0   50.0
350.0   0.0   33.333333333333336
300.0   30.0   33.333333333333336
300.0   30.0   0.0
350.0   30.0   0.0
300.0   60.0   0.0
300.0   30.0   16.666666666666668
350.0   30.0   0.0
350.0   60.0   0.0
300.0   60.0   0.0
350.0   60.0   16.666666666666668
300.0   30.0   16.666666666666668
300.0   60.0   16.666666666666668
350.0   60.0   16.666666666666668
300.0   60.0   0.0
300.0   30.0   16.666666666666668
350.0   60.0   16.666666666666668
350.0   30.0   16.666666666666668
350.0   30.0   0.0
300.0   30.0   16.666666666666668
350.0   60.0   16.666666666666668
350.0   30.0   0.0
300.0   60.0   0.0
300.0   30.0   16.666666666666668
350.0   30.0   16.666666666666668
300.0   60.0   16.666666666666668
300.0   30.0   33.333333333333336
350.0   30.0   16.666666666666668
350.0   60.0   16.666666666666668
300.0   60.0   16.666666666666668
350.0   60.0   33.333333333333336
300.0   30.0   33.333333333333336
300.0   60.0   33.333333333333336
350.0   60.0   33.333333333333336
300.0   60.0   16.666666666666668
300.0   30.0   33.333333333333336
350.0   60.0   33.333333333333336
350.0   30.0   33.333333333333336
350.0   30.0   16.666666666666668
300.0   30.0   33.333333333333336
350.0   60.0   33.333333333333336
350.0   30.0   16.666666666666668
300.0   60.0   16.666666666666668
300.0   30.0   33.333333333333336
350.0   30.0   33.333333333333336
300.0   60.0   33.333333333333336
300.0   30.0   50.0
350.0   30.0   33.333333333333336
350.0   60.0   33.333333333333336
300.0   60.0   33.333333333333336
350.0   60.0   50.0
300.0   30.0   50.0
300.0   60.0   50.0
350.0   60.0   50.0
300.0   60.0   33.333333333333336
300.0   30.0   50.0
350.0   60.0   50.0
350.0   30.0   50.0
350.0   30.0   33.333333333333336
300.0   30.0   50.0
350.0   60.0   50.0
350.0   30.0   33.333333333333336
300.0   60.0   33.333333333333336
300.0   60.0   0.0
350.0   60.0   0.0
300.0   90.0   0.0
300.0   60.0   16.666666666666668
350.0   60.0   0.0
350.0   90.0   0.0
300.0   90.0   0.0
350.0   90.0   16.666666666666668
300.0   60.0   16.666666666666668
300.0   90.0   16.666666666666668
350.0   90.0   16.666666666666668
300.0   90.0   0.0
300.0   60.0   16.666666666666668
350.0   90.0   16.666666666666668
350.0   60.0   16.666666666666668
350.0   60.0   0.0
300.0   60.0   16.666666666666668
350.0   90.0   16.666666666666668
350.0   60.0   0.0
300.0   90.0   0.0
300.0   60.0   16.666666666666668
350.0   60.0   16.666666666666668
300.0   90.0   16.666666666666668
300.0   60.0   33.333333333333336
350.0   60.0   16.666666666666668
350.0   90.0   16.666666666666668
300.0   90.0   16.666666666666668
350.0   90.0   33.333333333333336
300.0   60.0   33.333333333333336
300.0   90.0   33.333333333333336
350.0   90.0   33.333333333333336
300.0   90.0   16.666666666666668
300.0   60.0   33.333333333333336
350.0   90.0   33.333333333333336
350.0   60.0   33.333333333333336
350.0   60.0   16.666666666666668
300.0   60.0   33.333333333333336
350.0   90.0   33.333333333333336
350.0   60.0   16.666666666666668
300.0   90.0   16.666666666666668
300.0   60.0   33.333333333333336
350.0   60.0   33.333333333333336
300.0   90.0   33.333333333333336
300.0   60.0   50.0
350.0   60.0   33.333333333333336
350.0   90.0   33.333333333333336
300.0   90.0   33.333333333333336
350.0   90.0   50.0
300.0   60.0   50.0
300.0   90.0   50.0
350.0   90.0   50.0
300.0   90.0   33.333333333333336
300.0   60.0   50.0
350.0   90.0   50.0
350.0   60.0   50.0
350.0   60.0   33.333333333333336
300.0   60.0   50.0
350.0   90.0   50.0
350.0   60.0   33.333333333333336
300.0   90.0   33.333333333333336
300.0   90.0   0.0
350.0   90.0   0.0
300.0   120.0   0.0
300.0   90.0   16.666666666666668
350.0   90.0   0.0
350.0   120.0   0.0
300.0   120.0   0.0
350.0   120.0   16.666666666666668
300.0   90.0   16.666666666666668
300.0   120.0   16.666666666666668
350.0   120.0   16.666666666666668
300.0   120.0   0.0
300.0   90.0   16.666666666666668
350.0   120.0   16.666666666666668
350.0   90.0   16.666666666666668
350.0   90.0   0.0
300.0   90.0   16.666666666666668
350.0   120.0   16.666666666666668
350.0   90.0   0.0
300.0   120.0   0.0
300.0   90.0   16.666666666666668
350.0   90.0   16.666666666666668
300.0   120.0   16.666666666666668
300.0   90.0   33.333333333333336
350.0   90.0   16.666666666666668
350.0   120.0   16.666666666666668
300.0   120.0   16.666666666666668
350.0   120.0   33.333333333333336
300.0   90.0   33.333333333333336
300.0   120.0   33.333333333333336
350.0   120.0   33.333333333333336
300.0   120.0   16.666666666666668
300.0   90.0   33.333333333333336
350.0   120.0   33.333333333333336
350.0   90.0   33.333333333333336
350.0   90.0   16.666666666666668
300.0   90.0   33.333333333333336
350.0   120.0   33.333333333333336
350.0   90.0   16.666666666666668
300.0   120.0   16.666666666666668
300.0   90.0   33.333333333333336
350.0   90.0   33.333333333333336
300.0   120.0   33.333333333333336
300.0   90.0   50.0
350.0   90.0   33.333333333333336
350.0   120.0   33.333333333333336
300.0   120.0   33.333333333333336
350.0   120.0   50.0
300.0   90.0   50.0
300.0   120.0   50.0
350.0   120.0   50.0
300.0   120.0   33.333333333333336
300.0   90.0   50.0
350.0   120.0   50.0
350.0   90.0   50.0
350.0   90.0   33.333333333333336
300.0   90.0   50.0
350.0   120.0   50.0
350.0   90.0   33.333333333333336
300.0   120.0   33.333333333333336
300.0   120.0   0.0
350.0   120.0   0.0
300.0   150.0   0.0
300.0   120.0   16.666666666666668
350.0   120.0   0.0
350.0   150.0   0.0
300.0   150.0   0.0
350.0   150.0   16.666666666666668
300.0   120.0   16.666666666666668
300.0   150.0   16.666666666666668
350.0   150.0   16.666666666666668
300.0   150.0   0.0
300.0   120.0   16.666666666666668
350.0   150.0   16.666666666666668
350.0   120.0   16.666666666666668
350.0   120.0   0.0
300.0   120.0   16.666666666666668
350.0   150.0   16.666666666666668
350.0   120.0   0.0
300.0   150.0   0.0
300.0   120.0   16.666666666666668
350.0   120.0   16.666666666666668
300.0   150.0   16.666666666666668
300.0   120.0   33.333333333333336
350.0   120.0   16.666666666666668
350.0   150.0   16.666666666666668
300.0   150.0   16.666666666666668
350.0   150.0   33.333333333333336
300.0   120.0   33.333333333333336
300.0   150.0   33.333333333333336
350.0   150.0   33.333333333333336
300.0   150.0   16.666666666666668
300.0   120.0   33.333333333333336
350.0   150.0   33.333333333333336
350.0   120.0   33.333333333333336
350.0   120.0   16.666666666666668
300.0   120.0   33.333333333333336
350.0   150.0   33.333333333333336
350.0   120.0   16.666666666666668
300.0   150.0   16.666666666666668
300.0   120.0   33.333333333333336
350.0   120.0   33.333333333333336
300.0   150.0   33.333333333333336
300.0   120.0   50.0
350.0   120.0   33.333333333333336
350.0   150.0   33.333333333333336
300.0   150.0   33.333333333333336
350.0   150.0   50.0
300.0   120.0   50.0
300.0   150.0   50.0
350.0   150.0   50.0
300.0   150.0   33.333333333333336
300.0   120.0   50.0
350.0   150.0   50.0
350.0   120.0   50.0
350.0   120.0   33.333333333333336
300.0   120.0   50.0
350.0   150.0   50.0
350.0   120.0   33.333333333333336
300.0   150.0   33.333333333333336
350.0   0.0   0.0
400.0   0.0   0.0
350.0   30.0   0.0
350.0   0.0   16.666666666666668
400.0   0.0   0.0
400.0   30.0   0.0
350.0   30.0   0.0
400.0   30.0   16.666666666666668
350.0   0.0   16.666666666666668
350.0   30.0   16.666666666666668
400.0   30.0   16.666666666666668
350.0   30.0   0.0
350.0   0.0   16.666666666666668
400.0   30.0   16.666666666666668
400.0   0.0   16.666666666666668
400.0   0.0   0.0
350.0   0.0   16.666666666666668
400.0   30.0   16.666666666666668
400.0   0.0   0.0
350.0   30.0   0.0
350.0   0.0   16.666666666666668
400.0   0.0   16.666666666666668
350.0   30.0   16.666666666666668
350.0   0.0   33.333333333333336
400.0   0.0   16.666666666666668
400.0   30.0   16.666666666666668
350.0   30.0   16.666666666666668
400.0   30.0   33.333333333333336
350.0   0.0   33.333333333333336
350.0   30.0   33.333333333333336
400.0   30.0   33.333333333333336
350.0   30.0   16.666666666666668
350.0   0.0   33.333333333333336
400.0   30.0   33.333333333333336
400.0   0.0   33.333333333333336
400.0   0.0   16.666666666666668
350.0   0.0   33.333333333333336
400.0   30.0   33.333333333333336
400.0   0.0   16.666666666666668
350.0   30.0   16.666666666666668
350.0   0.0   33.333333333333336
400.0   0.0   33.333333333333336
350.0   30.0   33.333333333333336
350.0   0.0   50.0
400.0   0.0   33.333333333333336
400.0   30.0   33.333333333333336
350.0   30.0   33.333333333333336
400.0   30.0   50.0
350.0   0.0   50.0
350.0   30.0   50.0
400.0   30.0   50.0
350.0   30.0   33.333333333333336
350.0   0.0   50.0
400.0   30.0   50.0
400.0   0.0   50.0
400.0   0.0   33.333333333333336
350.0   0.0   50.0
400.0   30.0   50.0
400.0   0.0   33.333333333333336
350.0   30.0   33.333333333333336
350.0   30.0   0.0
400.0   30.0   0.0
350.0   60.0   0.0
350.0   30.0   16.666666666666668
400.0   30.0   0.0
400.0   60.0   0.0
350.0   60.0   0.0
400.0   60.0   16.666666666666668
350.0   30.0   16.666666666666668
350.0   60.0   16.666666666666668
400.0   60.0   16.666666666666668
350.0   60.0   0.0
350.0   30.0   16.666666666666668
400.0   60.0   16.666666666666668
400.0   30.0   16.666666666666668
400.0   30.0   0.0
350.0   30.0   16.666666666666668
400.0   60.0   16.666666666666668
400.0   30.0   0.0
350.0   60.0   0.0
350.0   30.0   16.666666666666668
400.0   30.0   16.666666666666668
350.0   60.0   16.666666666666668
350.0   30.0   33.333333333333336
400.0   30.0   16.666666666666668
400.0   60.0   16.666666666666668
350.0   60.0   16.666666666666668
400.0   60.0   33.333333333333336
350.0   30.0   33.333333333333336
350.0   60.0   33.333333333333336
400.0   60.0   33.333333333333336
350.0   60.0   16.666666666666668
350.0   30.0   33.333333333333336
400.0   60.0   33.333333333333336
400.0   30.0   33.333333333333336
400.0   30.0   16.666666666666668
350.0   30.0   33.333333333333336
400.0   60.0   33.333333333333336
400.0   30.0   16.666666666666668
350.0   60.0   16.666666666666668
350.0   30.0   33.333333333333336
400.0   30.0   33.333333333333336
350.0   60.0   33.333333333333336
350.0   30.0   50.0
400.0   30.0   33.333333333333336
400.0   60.0   33.333333333333336
350.0   60.0   33.333333333333336
400.0   60.0   50.0
350.0   30.0   50.0
350.0   60.0   50.0
400.0   60.0   50.0
350.0   60.0   33.333333333333336
350.0   30.0   50.0
400.0   60.0   50.0
400.0   30.0   50.0
400.0   30.0   33.333333333333336
350.0   30.0   50.0
400.0   60.0   50.0
400.0   30.0   33.333333333333336
350.0   60.0   33.333333333333336
350.0   60.0   0.0
400.0   60.0   0.0
350.0   90.0   0.0
350.0   60.0   16.666666666666668
400.0   60.0   0.0
400.0   90.0   0.0
350.0   90.0   0.0
400.0   90.0   16.666666666666668
350.0   60.0   16.666666666666668
350.0   90.0   16.666666666666668
400.0   90.0   16.666666666666668
350.0   90.0   0.0
350.0   60.0   16.666666666666668
400.0   90.0   16.666666666666668
400.0   60.0   16.666666666666668
400.0   60.0   0.0
350.0   60.0   16.666666666666668
400.0   90.0   16.666666666666668
400.0   60.0   0.0
350.0   90.0   0.0
350.0   60.0   16.666666666666668
400.0   60.0   16.666666666666668
350.0   90.0   16.666666666666668
350.0   60.0   33.333333333333336
400.0   60.0   16.666666666666668
400.0   90.0   16.666666666666668
350.0   90.0   16.666666666666668
400.0   90.0   33.333333333333336
350.0   60.0   33.333333333333336
350.0   90.0   33.333333333333336
400.0   90.0   33.333333333333336
350.0   90.0   16.666666666666668
350.0   60.0   33.333333333333336
400.0   90.0   33.333333333333336
400.0   60.0   33.333333333333336
400.0   60.0   16.666666666666668
350.0   60.0   33.333333333333336
400.0   90.0   33.333333333333336
400.0   60.0   16.666666666666668
350.0   90.0   16.666666666666668
350.0   60.0   33.333333333333336
400.0   60.0   33.333333333333336
350.0   90.0   33.333333333333336
350.0   60.0   50.0
400.0   60.0   33.333333333333336
400.0   90.0   33.333333333333336
350.0   90.0   33.333333333333336
400.0   90.0   50.0
350.0   60.0   50.0
350.0   90.0   50.0
400.0   90.0   50.0
350.0   90.0   33.333333333333336
350.0   60.0   50.0
400.0   90.0   50.0
400.0   60.0   50.0
400.0   60.0   33.333333333333336
350.0   60.0   50.0
400.0   90.0   50.0
400.0   60.0   33.333333333333336
350.0   90.0   33.333333333333336
350.0   90.0   0.0
400.0   90.0   0.0
350.0   120.0   0.0
350.0   90.0   16.666666666666668
400.0   90.0   0.0
400.0   120.0   0.0
350.0   120.0   0.0
400.0   120.0   16.666666666666668
350.0   90.0   16.666666666666668
350.0   120.0   16.666666666666668
400.0   120.0   16.666666666666668
350.0   120.0   0.0
350.0   90.0   16.666666666666668
400.0   120.0   16.666666666666668
400.0   90.0   16.666666666666668
400.0   90.0   0.0
350.0   90.0   16.666666666666668
400.0   120.0   16.666666666666668
400.0   90.0   0.0
350.0   120.0   0.0
350.0   90.0   16.666666666666668
400.0   90.0   16.666666666666668
350.0   120.0   16.666666666666668
350.0   90.0   33.333333333333336
400.0   90.0   16.666666666666668
400.0   120.0   16.666666666666668
350.0   120.0   16.666666666666668
400.0   120.0   33.333333333333336
350.0   90.0   33.333333333333336
350.0   120.0   33.333333333333336
400.0   120.0   33.333333333333336
350.0   120.0   16.666666666666668
350.0   90.0   33.333333333333336
400.0   120.0   33.333333333333336
400.0   90.0   33.333333333333336
400.0   90.0   16.666666666666668
350.0   90.0   33.333333333333336
400.0   120.0   33.333333333333336
400.0   90.0   16.666666666666668
350.0   120.0   16.666666666666668
350.0   90.0   33.333333333333336
400.0   90.0   33.333333333333336
350.0   120.0   33.333333333333336
350.0   90.0   50.0
400.0   90.0   33.333333333333336
400.0   120.0   33.333333333333336
350.0   120.0   33.333333333333336
400.0   120.0   50.0
350.0   90.0   50.0
350.0   120.0   50.0
400.0   120.0   50.0
350.0   120.0   33.333333333333336
350.0   90.0   50.0
400.0   120.0   50.0
400.0   90.0   50.0
400.0   90.0   33.333333333333336
350.0   90.0   50.0
400.0   120.0   50.0
400.0   90.0   33.333333333333336
350.0   120.0   33.333333333333336
350.0   120.0   0.0
400.0   120.0   0.0
350.0   150.0   0.0
350.0   120.0   16.666666666666668
400.0   120.0   0.0
400.0   150.0   0.0
350.0   150.0   0.0
400.0   150.0   16.666666666666668
350.0   120.0   16.666666666666668
350.0   150.0   16.666666666666668
400.0   150.0   16.666666666666668
350.0   150.0   0.0
350.0   120.0   16.666666666666668
400.0   150.0   16.666666666666668
400.0   120.0   16.666666666666668
400.0   120.0   0.0
350.0   120.0   16.666666666666668
400.0   150.0   16.666666666666668
400.0   120.0   0.0
350.0   150.0   0.0
350.0   120.0   16.666666666666668
400.0   120.0   16.666666666666668
350.0   150.0   16.666666666666668
350.0   120.0   33.333333333333336
400.0   120.0   16.666666666666668
400.0   150.0   16.666666666666668
350.0   150.0   16.666666666666668
400.0   150.0   33.333333333333336
350.0   120.0   33.333333333333336
350.0   150.0   33.333333333333336
400.0   150.0   33.333333333333336
350.0   150.0   16.666666666666668
350.0   120.0   33.333333333333336
400.0   150.0   33.333333333333336
400.0   120.0   33.333333333333336
400.0   120.0   16.666666666666668
350.0   120.0   33.333333333333336
400.0   150.0   33.333333333333336
400.0   120.0   16.666666666666668
350.0   150.0   16.666666666666668
350.0   120.0   33.333333333333336
400.0   120.0   33.333333333333336
350.0   150.0   33.333333333333336
350.0   120.0   50.0
400.0   120.0   33.333333333333336
400.0   150.0   33.333333333333336
350.0   150.0   33.333333333333336
400.0   150.0   50.0
350.0   120.0   50.0
350.0   150.0   50.0
400.0   150.0   50.0
350.0   150.0   33.333333333333336
350.0   120.0   50.0
400.0   150.0   50.0
400.0   120.0   50.0
400.0   120.0   33.333333333333336
350.0   120.0   50.0
400.0   150.0   50.0
400.0   120.0   33.333333333333336
350.0   150.0   33.333333333333336
400.0   0.0   0.0
450.0   0.0   0.0
400.0   30.0   0.0
400.0   0.0   16.666666666666668
450.0   0.0   0.0
450.0   30.0   0.0
400.0   30.0   0.0
450.0   30.0   16.666666666666668
400.0   0.0   16.666666666666668
400.0   30.0   16.666666666666668
450.0   30.0   16.666666666666668
400.0   30.0   0.0
400.0   0.0   16.666666666666668
450.0   30.0   16.666666666666668
450.0   0.0   16.666666666666668
450.0   0.0   0.0
400.0   0.0   16.666666666666668
450.0   30.0   16.666666666666668
450.0   0.0   0.0
400.0   30.0   0.0
400.0   0.0   16.666666666666668
450.0   0.0   16.666666666666668
400.0   30.0   16.666666666666668
400.0   0.0   33.333333333333336
450.0   0.0   16.666666666666668
450.0   30.0   16.666666666666668
400.0   30.0   16.666666666666668
450.0   30.0   33.333333333333336
400.0   0.0   33.333333333333336
400.0   30.0   33.333333333333336
450.0   30.0   33.333333333333336
400.0   30.0   16.666666666666668
400.0   0.0   33.333333333333336
450.0   30.0   33.333333333333336
450.0   0.0   33.333333333333336
450.0   0.0   16.666666666666668
400.0   0.0   33.333333333333336
450.0   30.0   33.333333333333336
450.0   0.0   16.666666666666668
400.0   30.0   16.666666666666668
400.0   0.0   33.333333333333336
450.0   0.0   33.333333333333336
400.0   30.0   33.333333333333336
400.0   0.0   50.0
450.0   0.0   33.333333333333336
450.0   30.0   33.333333333333336
400.0   30.0   33.333333333333336
450.0   30.0   50.0
400.0   0.0   50.0
400.0   30.0   50.0
450.0   30.0   50.0
400.0   30.0   33.333333333333336
400.0   0.0   50.0
450.0   30.0   50.0
450.0   0.0   50.0
450.0   0.0   33.333333333333336
400.0   0.0   50.0
450.0   30.0   50.0
450.0   0.0   33.333333333333336
400.0   30.0   33.333333333333336
400.0   30.0   0.0
450.0   30.0   0.0
400.0   60.0   0.0
400.0   30.0   16.666666666666668
450.0   30.0   0.0
450.0   60.0   0.0
400.0   60.0   0.0
450.0   60.0   16.666666666666668
400.0   30.0   16.666666666666668
400.0   60.0   16.666666666666668
450.0   60.0   16.666666666666668
400.0   60.0   0.0
400.0   30.0   16.666666666666668
450.0   60.0   16.666666666666668
450.0   30.0   16.666666666666668
450.0   30.0   0.0
400.0   30.0   16.666666666666668
450.0   60.0   16.666666666666668
450.0   30.0   0.0
400.0   60.0   0.0
400.0   30.0   16.666666666666668
450.0   30.0   16.666666666666668
400.0   60.0   16.666666666666668
400.0   30.0   33.333333333333336
450.0   30.0   16.666666666666668
450.0   60.0   16.666666666666668
400.0   60.0   16.666666666666668
450.0   60.0   33.333333333333336
400.0   30.0   33.333333333333336
400.0   60.0   33.333333333333336
450.0   60.0   33.333333333333336
400.0   60.0   16.666666666666668
400.0   30.0   33.333333333333336
450.0   60.0   33.333333333333336
450.0   30.0   33.333333333333336
450.0   30.0   16.666666666666668
400.0   30.0   33.333333333333336
450.0   60.0   33.333333333333336
450.0   30.0   16.666666666666668
400.0   60.0   16.666666666666668
400.0   30.0   33.333333333333336
450.0   30.0   33.333333333333336
400.0   60.0   33.333333333333336
400.0   30.0   50.0
450.0   30.0   33.333333333333336
450.0   60.0   33.333333333333336
400.0   60.0   33.333333333333336
450.0   60.0   50.0
400.0   30.0   50.0
400.0   60.0   50.0
450.0   60.0   50.0
400.0   60.0   33.333333333333336
400.0   30.0   50.0
450.0   60.0   50.0
450.0   30.0   50.0
450.0   30.0   33.333333333333336
400.0   30.0   50.0
450.0   60.0   50.0
450.0   30.0   33.333333333333336
400.0   60.0   33.333333333333336
400.0   60.0   0.0
450.0   60.0   0.0
400.0   90.0   0.0
400.0   60.0   16.666666666666668
450.0   60.0   0.0
450.0   90.0   0.0
400.0   90.0   0.0
450.0   90.0   16.666666666666668
400.0   60.0   16.666666666666668
400.0   90.0   16.666666666666668
450.0   90.0   16.666666666666668
400.0   90.0   0.0
400.0   60.0   16.666666666666668
450.0   90.0   16.666666666666668
450.0   60.0   16.666666666666668
450.0   60.0   0.0
400.0   60.0   16.666666666666668
450.0   90.0   16.666666666666668
450.0   60.0   0.0
400.0   90.0   0.0
400.0   60.0   16.666666666666668
450.0   60.0   16.666666666666668
400.0   90.0   16.666666666666668
400.0   60.0   33.333333333333336
450.0   60.0   16.666666666666668
450.0   90.0   16.666666666666668
400.0   90.0   16.666666666666668
450.0   90.0   33.333333333333336
400.0   60.0   33.333333333333336
400.0   90.0   33.333333333333336
450.0   90.0   33.333333333333336
400.0   90.0   16.666666666666668
400.0   60.0   33.333333333333336
450.0   90.0   33.333333333333336
450.0   60.0   33.333333333333336
450.0   60.0   16.666666666666668
400.0   60.0   33.333333333333336
450.0   90.0   33.333333333333336
450.0   60.0   16.666666666666668
400.0   90.0   16.666666666666668
400.0   60.0   33.333333333333336
450.0   60.0   33.333333333333336
400.0   90.0   33.333333333333336
400.0   60.0   50.0
450.0   60.0   33.333333333333336
450.0   90.0   33.333333333333336
400.0   90.0   33.333333333333336
450.0   90.0   50.0
400.0   60.0   50.0
400.0   90.0   50.0
450.0   90.0   50.0
400.0   90.0   33.333333333333336
400.0   60.0   50.0
450.0   90.0   50.0
450.0   60.0   50.0
450.0   60.0   33.333333333333336
400.0   60.0   50.0
450.0   90.0   50.0
450.0   60.0   33.333333333333336
400.0   90.0   33.333333333333336
400.0   90.0   0.0
450.0   90.0   0.0
400.0   120.0   0.0
400.0   90.0   16.666666666666668
450.0   90.0   0.0
450.0   120.0   0.0
400.0   120.0   0.0
450.0   120.0   16.666666666666668
400.0   90.0   16.666666666666668
400.0   120.0   16.666666666666668
450.0   120.0   16.666666666666668
400.0   120.0   0.0
400.0   90.0   16.666666666666668
450.0   120.0   16.666666666666668
450.0   90.0   16.666666666666668
450.0   90.0   0.0
400.0   90.0   16.666666666666668
450.0   120.0   16.666666666666668
450.0   90.0   0.0
400.0   120.0   0.0
400.0   90.0   16.666666666666668
450.0   90.0   16.666666666666668
400.0   120.0   16.666666666666668
400.0   90.0   33.333333333333336
450.0   90.0   16.666666666666668
450.0   120.0   16.666666666666668
400.0   120.0   16.666666666666668
450.0   120.0   33.333333333333336
400.0   90.0   33.333333333333336
400.0   120.0   33.333333333333336
450.0   120.0   33.333333333333336
400.0   120.0   16.666666666666668
400.0   90.0   33.333333333333336
450.0   120.0   33.333333333333336
450.0   90.0   33.333333333333336
450.0   90.0   16.666666666666668
400.0   90.0   33.333333333333336
450.0   120.0   33.333333333333336
450.0   90.0   16.666666666666668
400.0   120.0   16.666666666666668
400.0   90.0   33.333333333333336
450.0   90.0   33.333333333333336
400.0   120.0   33.333333333333336
400.0   90.0   50.0
450.0   90.0   33.333333333333336
450.0   120.0   33.333333333333336
400.0   120.0   33.333333333333336
450.0   120.0   50.0
400.0   90.0   50.0
400.0   120.0   50.0
450.0   120.0   50.0
400.0   120.0   33.333333333333336
400.0   90.0   50.0
450.0   120.0   50.0
450.0   90.0   50.0
450.0   90.0   33.333333333333336
400.0   90.0   50.0
450.0   120.0   50.0
450.0   90.0   33.333333333333336
400.0   120.0   33.333333333333336
400.0   120.0   0.0
450.0   120.0   0.0
400.0   150.0   0.0
400.0   120.0   16.666666666666668
450.0   120.0   0.0
450.0   150.0   0.0
400.0   150.0   0.0
450.0   150.0   16.666666666666668
400.0   120.0   16.666666666666668
400.0   150.0   16.666666666666668
450.0   150.0   16.666666666666668
400.0   150.0   0.0
400.0   120.0   16.666666666666668
450.0   150.0   16.666666666666668
450.0   120.0   16.666666666666668
450.0   120.0   0.0
400.0   120.0   16.666666666666668
450.0   150.0   16.666666666666668
450.0   120.0   0.0
400.0   150.0   0.0
400.0   120.0   16.666666666666668
450.0   120.0   16.666666666666668
400.0   150.0   16.666666666666668
400.0   120.0   33.333333333333336
450.0   120.0   16.666666666666668
450.0   150.0   16.666666666666668
400.0   150.0   16.666666666666668
450.0   150.0   33.333333333333336
400.0   120.0   33.333333333333336
400.0   150.0   33.333333333333336
450.0   150.0   33.333333333333336
400.0   150.0   16.666666666666668
400.0   120.0   33.333333333333336
450.0   150.0   33.333333333333336
450.0   120.0   33.333333333333336
450.0   120.0   16.666666666666668
400.0   120.0   33.333333333333336
450.0   150.0   33.333333333333336
450.0   120.0   16.666666666666668
400.0   150.0   16.666666666666668
400.0   120.0   33.333333333333336
450.0   120.0   33.333333333333336
400.0   150.0   33.333333333333336
400.0   120.0   50.0
450.0   120.0   33.333333333333336
450.0   150.0   33.333333333333336
400.0   150.0   33.333333333333336
450.0   150.0   50.0
400.0   120.0   50.0
400.0   150.0   50.0
450.0   150.0   50.0
400.0   150.0   33.333333333333336
400.0   120.0   50.0
450.0   150.0   50.0
450.0   120.0   50.0
450.0   120.0   33.333333333333336
400.0   120.0   50.0
450.0   150.0   50.0
450.0   120.0   33.333333333333336
400.0   150.0   33.333333333333336
450.0   0.0   0.0
500.0   0.0   0.0
450.0   30.0   0.0
450.0   0.0   16.666666666666668
500.0   0.0   0.0
500.0   30.0   0.0
450.0   30.0   0.0
500.0   30.0   16.666666666666668
450.0   0.0   16.666666666666668
450.0   30.0   16.666666666666668
500.0   30.0   16.666666666666668
450.0   30.0   0.0
450.0   0.0   16.666666666666668
500.0   30.0   16.666666666666668
500.0   0.0   16.666666666666668
500.0   0.0   0.0
450.0   0.0   16.666666666666668
500.0   30.0   16.666666666666668
500.0   0.0   0.0
450.0   30.0   0.0
450.0   0.0   16.666666666666668
500.0   0.0   16.666666666666668
450.0   30.0   16.666666666666668
450.0   0.0   33.333333333333336
500.0   0.0   16.666666666666668
500.0   30.0   16.666666666666668
450.0   30.0   16.666666666666668
500.0   30.0   33.333333333333336
450.0   0.0   33.333333333333336
450.0   30.0   33.333333333333336
500.0   30.0   33.333333333333336
450.0   30.0   16.666666666666668
450.0   0.0   33.333333333333336
500.0   30.0   33.333333333333336
500.0   0.0   33.333333333333336
500.0   0.0   16.666666666666668
450.0   0.0   33.333333333333336
500.0   30.0   33.333333333333336
500.0   0.0   16.666666666666668
450.0   30.0   16.666666666666668
450.0   0.0   33.333333333333336
500.0   0.0   33.333333333333336
450.0   30.0   33.333333333333336
450.0   0.0   50.0
500.0   0.0   33.333333333333336
500.0   30.0   33.333333333333336
450.0   30.0   33.333333333333336
500.0   30.0   50.0
450.0   0.0   50.0
450.0   30.0   50.0
500.0   30.0   50.0
450.0   30.0   33.333333333333336
450.0   0.0   50.0
500.0   30.0   50.0
500.0   0.0   50.0
500.0   0.0   33.333333333333336
450.0   0.0   50.0
500.0   30.0   50.0
500.0   0.0   33.333333333333336
450.0   30.0   33.333333333333336
450.0   30.0   0.0
500.0   30.0   0.0
450.0   60.0   0.0
450.0   30.0   16.666666666666668
500.0   30.0   0.0
500.0   60.0   0.0
450.0   60.0   0.0
500.0   60.0   16.666666666666668
450.0   30.0   16.666666666666668
450.0   60.0   16.666666666666668
500.0   60.0   16.666666666666668
450.0   60.0   0.0
450.0   30.0   16.666666666666668
500.0   60.0   16.666666666666668
500.0   30.0   16.666666666666668
500.0   30.0   0.0
450.0   30.0   16.666666666666668
500.0   60.0   16.666666666666668
500.0   30.0   0.0
450.0   60.0   0.0
450.0   30.0   16.666666666666668
500.0   30.0   16.666666666666668
450.0   60.0   16.666666666666668
450.0   30.0   33.333333333333336
500.0   30.0   16.666666666666668
500.0   60.0   16.666666666666668
450.0   60.0   16.666666666666668
500.0   60.0   33.333333333333336
450.0   30.0   33.333333333333336
450.0   60.0   33.333333333333336
500.0   60.0   33.333333333333336
450.0   60.0   16.666666666666668
450.0   30.0   33.333333333333336
500.0   60.0   33.333333333333336
500.0   30.0   33.333333333333336
500.0   30.0   16.666666666666668
450.0   30.0   33.333333333333336
500.0   60.0   33.333333333333336
500.0   30.0   16.666666666666668
450.0   60.0   16.666666666666668
450.0   30.0   33.333333333333336
500.0   30.0   33.333333333333336
450.0   60.0   33.333333333333336
450.0   30.0   50.0
500.0   30.0   33.333333333333336
500.0   60.0   33.333333333333336
450.0   60.0   33.333333333333336
500.0   60.0   50.0
450.0   30.0   50.0
450.0   60.0   50.0
500.0   60.0   50.0
450.0   60.0   33.333333333333336
450.0   30.0   50.0
500.0   60.0   50.0
500.0   30.0   50.0
500.0   30.0   33.333333333333336
450.0   30.0   50.0
500.0   60.0   50.0
500.0   30.0   33.333333333333336
450.0   60.0   33.333333333333336
450.0   60.0   0.0
500.0   60.0   0.0
450.0   90.0   0.0
450.0   60.0   16.666666666666668
500.0   60.0   0.0
500.0   90.0   0.0
450.0   90.0   0.0
500.0   90.0   16.666666666666668
450.0   60.0   16.666666666666668
450.0   90.0   16.666666666666668
500.0   90.0   16.666666666666668
450.0   90.0   0.0
450.0   60.0   16.666666666666668
500.0   90.0   16.666666666666668
500.0   60.0   16.666666666666668
500.0   60.0   0.0
450.0   60.0   16.666666666666668
500.0   90.0   16.666666666666668
500.0   60.0   0.0
450.0   90.0   0.0
450.0   60.0   16.666666666666668
500.0   60.0   16.666666666666668
450.0   90.0   16.666666666666668
450.0   60.0   33.333333333333336
500.0   60.0   16.666666666666668
500.0   90.0   16.666666666666668
450.0   90.0   16.666666666666668
500.0   90.0   33.333333333333336
450.0   60.0   33.333333333333336
450.0   90.0   33.333333333333336
500.0   90.0   33.333333333333336
450.0   90.0   16.666666666666668
450.0   60.0   33.333333333333336
500.0   90.0   33.333333333333336
500.0   60.0   33.333333333333336
500.0   60.0   16.666666666666668
450.0   60.0   33.333333333333336
500.0   90.0   33.333333333333336
500.0   60.0   16.666666666666668
450.0   90.0   16.666666666666668
450.0   60.0   33.333333333333336
500.0   60.0   33.333333333333336
450.0   90.0   33.333333333333336
450.0   60.0   50.0
500.0   60.0   33.333333333333336
500.0   90.0   33.333333333333336
450.0   90.0   33.333333333333336
500.0   90.0   50.0
450.0   60.0   50.0
450.0   90.0   50.0
500.0   90.0   50.0
450.0   90.0   33.333333333333336
450.0   60.0   50.0
500.0   90.0   50.0
500.0   60.0   50.0
500.0   60.0   33.333333333333336
450.0   60.0   50.0
500.0   90.0   50.0
500.0   60.0   33.333333333333336
450.0   90.0   33.333333333333336
450.0   90.0   0.0
500.0   90.0   0.0
450.0   120.0   0.0
450.0   90.0   16.666666666666668
500.0   90.0   0.0
500.0   120.0   0.0
450.0   120.0   0.0
500.0   120.0   16.666666666666668
450.0   90.0   16.666666666666668
450.0   120.0   16.666666666666668
500.0   120.0   16.666666666666668
450.0   120.0   0.0
450.0   90.0   16.666666666666668
500.0   120.0   16.666666666666668
500.0   90.0   16.666666666666668
500.0   90.0   0.0
450.0   90.0   16.666666666666668
500.0   120.0   16.666666666666668
500.0   90.0   0.0
450.0   120.0   0.0
450.0   90.0   16.666666666666668
500.0   90.0   16.666666666666668
450.0   120.0   16.666666666666668
450.0   90.0   33.333333333333336
500.0   90.0   16.666666666666668
500.0   120.0   16.666666666666668
450.0   120.0   16.666666666666668
500.0   120.0   33.333333333333336
450.0   90.0   33.333333333333336
450.0   120.0   33.333333333333336
500.0   120.0   33.333333333333336
450.0   120.0   16.666666666666668
450.0   90.0   33.333333333333336
500.0   120.0   33.333333333333336
500.0   90.0   33.333333333333336
500.0   90.0   16.666666666666668
450.0   90.0   33.333333333333336
500.0   120.0   33.333333333333336
500.0   90.0   16.666666666666668
450.0   120.0   16.666666666666668
450.0   90.0   33.333333333333336
500.0   90.0   33.333333333333336
450.0   120.0   33.333333333333336
450.0   90.0   50.0
500.0   90.0   33.333333333333336
500.0   120.0   33.333333333333336
450.0   120.0   33.333333333333336
500.0   120.0   50.0
450.0   90.0   50.0
450.0   120.0   50.0
500.0   120.0   50.0
450.0   120.0   33.333333333333336
450.0   90.0   50.0
500.0   120.0   50.0
500.0   90.0   50.0
500.0   90.0   33.333333333333336
450.0   90.0   50.0
500.0   120.0   50.0
500.0   90.0   33.333333333333336
450.0   120.0   33.333333333333336
450.0   120.0   0.0
500.0   120.0   0.0
450.0   150.0   0.0
450.0   120.0   16.666666666666668
500.0   120.0   0.0
500.0   150.0   0.0
450.0   150.0   0.0
500.0   150.0   16.666666666666668
450.0   120.0   16.666666666666668
450.0   150.0   16.666666666666668
500.0   150.0   16.666666666666668
450.0   150.0   0.0
450.0   120.0   16.666666666666668
500.0   150.0   16.666666666666668
500.0   120.0   16.666666666666668
500.0   120.0   0.0
450.0   120.0   16.666666666666668
500.0   150.0   16.666666666666668
500.0   120.0   0.0
450.0   150.0   0.0
450.0   120.0   16.666666666666668
500.0   120.0   16.666666666666668
450.0   150.0   16.666666666666668
450.0   120.0   33.333333333333336
500.0   120.0   16.666666666666668
500.0   150.0   16.666666666666668
450.0   150.0   16.666666666666668
500.0   150.0   33.333333333333336
450.0   120.0   33.333333333333336
450.0   150.0   33.333333333333336
500.0   150.0   33.333333333333336
450.0   150.0   16.666666666666668
450.0   120.0   33.333333333333336
500.0   150.0   33.333333333333336
500.0   120.0   33.333333333333336
500.0   120.0   16.666666666666668
450.0   120.0   33.333333333333336
500.0   150.0   33.333333333333336
500.0   120.0   16.666666666666668
450.0   150.0   16.666666666666668
450.0   120.0   33.333333333333336
500.0   120.0   33.333333333333336
450.0   150.0   33.333333333333336
450.0   120.0   50.0
500.0   120.0   33.333333333333336
500.0   150.0   33.333333333333336
450.0   150.0   33.333333333333336
500.0   150.0   50.0
450.0   120.0   50.0
450.0   150.0   50.0
500.0   150.0   50.0
450.0   150.0   33.333333333333336
450.0   120.0   50.0
500.0   150.0   50.0
500.0   120.0   50.0
500.0   120.0   33.333333333333336
450.0   120.0   50.0
500.0   150.0   50.0
500.0   120.0   33.333333333333336
450.0   150.0   33.333333333333336
             </DataArray>   
          </Points>  
          <Cells>  
             <DataArray type="Int32" Name="connectivity" format="ascii">   
0   1   2   3
4   5   6   7
8   9   10   11
12   13   14   15
16   17   18   19
20   21   22   23
24   25   26   27
28   29   30   31
32   33   34   35
36   37   38   39
40   41   42   43
44   45   46   47
48   49   50   51
52   53   54   55
56   57   58   59
60   61   62   63
64   65   66   67
68   69   70   71
72   73   74   75
76   77   78   79
80   81   82   83
84   85   86   87
88   89   90   91
92   93   94   95
96   97   98   99
100   101   102   103
104   105   106   107
108   109   110   111
112   113   114   115
116   117   118   119
120   121   122   123
124   125   126   127
128   129   130   131
132   133   134   135
136   137   138   139
140   141   142   143
144   145   146   147
148   149   150   151
152   153   154   155
156   157   158   159
160   161   162   163
164   165   166   167
168   169   170   171
172   173   174   175
176   177   178   179
180   181   182   183
184   185   186   187
188   189   190   191
192   193   194   195
196   197   198   199
200   201   202   203
204   205   206   207
208   209   210   211
212   213   214   215
216   217   218   219
220   221   222   223
224   225   226   227
228   229   230   231
232   233   234   235
236   237   238   239
240   241   242   243
244   245   246   247
248   249   250   251
252   253   254   255
256   257   258   259
260   261   262   263
264   265   266   267
268   269   270   271
272   273   274   275
276   277   278   279
280   281   282   283
284   285   286   287
288   289   290   291
292   293   294   295
296   297   298   299
300   301   302   303
304   305   306   307
308   309   310   311
312   313   314   315
316   317   318   319
320   321   322   323
324   325   326   327
328   329   330   331
332   333   334   335
336   337   338   339
340   341   342   343
344   345   346   347
348   349   350   351
352   353   354   355
356   357   358   359
360   361   362   363
364   365   366   367
368   369   370   371
372   373   374   375
376   377   378   379
380   381   382   383
384   385   386   387
388   389   390   391
392   393   394   395
396   397   398   399
400   401   402   403
404   405   406   407
408   409   410   411
412   413   414   415
416   417   418   419
420   421   422   423
424   425   426   427
428   429   430   431
432   433   434   435
436   437   438   439
440   441   442   443
444   445   446   447
448   449   450   451
452   453   454   455
456   457   458   459
460   461   462   463
464   465   466   467
468   469   470   471
472   473   474   475
476   477   478   479
480   481   482   483
484   485   486   487
488   489   490   491
492   493   494   495
496   497   498   499
500   501   502   503
504   505   506   507
508   509   510   511
512   513   514   515
516   517   518   519
520   521   522   523
524   525   526   527
528   529   530   531
532   533   534   535
536   537   538   539
540   541   542   543
544   545   546   547
548   549   550   551
552   553   554   555
556   557   558   559
560   561   562   563
564   565   566   567
568   569   570   571
572   573   574   575
576   577   578   579
580   581   582   583
584   585   586   587
588   589   590   591
592   593   594   595
596   597   598   599
600   601   602   603
604   605   606   607
608   609   610   611
612   613   614   615
616   617   618   619
620   621   622   623
624   625   626   627
628   629   630   631
632   633   634   635
636   637   638   639
640   641   642   643
644   645   646   647
648   649   650   651
652   653   654   655
656   657   658   659
660   661   662   663
664   665   666   667
668   669   670   671
672   673   674   675
676   677   678   679
680   681   682   683
684   685   686   687
688   689   690   691
692   693   694   695
696   697   698   699
700   701   702   703
704   705   706   707
708   709   710   711
712   713   714   715
716   717   718   719
720   721   722   723
724   725   726   727
728   729   730   731
732   733   734   735
736   737   738   739
740   741   742   743
744   745   746   747
748   749   750   751
752   753   754   755
756   757   758   759
760   761   762   763
764   765   766   767
768   769   770   771
772   773   774   775
776   777   778   779
780   781   782   783
784   785   786   787
788   789   790   791
792   793   794   795
796   797   798   799
800   801   802   803
804   805   806   807
808   809   810   811
812   813   814   815
816   817   818   819
820   821   822   823
824   825   826   827
828   829   830   831
832   833   834   835
836   837   838   839
840   841   842   843
844   845   846   847
848   849   850   851
852   853   854   855
856   857   858   859
860   861   862   863
864   865   866   867
868   869   870   871
872   873   874   875
876   877   878   879
880   881   882   883
884   885   886   887
888   889   890   891
892   893   894   895
896   897   898   899
900   901   902   903
904   905   906   907
908   909   910   911
912   913   914   915
916   917   918   919
920   921   922   923
924   925   926   927
928   929   930   931
932   933   934   935
936   937   938   939
940   941   942   943
944   945   946   947
948   949   950   951
952   953   954   955
956   957   958   959
960   961   962   963
964   965   966   967
968   969   970   971
972   973   974   975
976   977   978   979
980   981   982   983
984   985   986   987
988   989   990   991
992   993   994   995
996   997   998   999
1000   1001   1002   1003
1004   1005   1006   1007
1008   1009   1010   1011
1012   1013   1014   1015
1016   1017   1018   1019
1020   1021   1022   1023
1024   1025   1026   1027
1028   1029   1030   1031
1032   1033   1034   1035
1036   1037   1038   1039
1040   1041   1042   1043
1044   1045   1046   1047
1048   1049   1050   1051
1052   1053   1054   1055
1056   1057   1058   1059
1060   1061   1062   1063
1064   1065   1066   1067
1068   1069   1070   1071
1072   1073   1074   1075
1076   1077   1078   1079
1080   1081   1082   1083
1084   1085   1086   1087
1088   1089   1090   1091
1092   1093   1094   1095
1096   1097   1098   1099
1100   1101   1102   1103
1104   1105   1106   1107
1108   1109   1110   1111
1112   1113   1114   1115
1116   1117   1118   1119
1120   1121   1122   1123
1124   1125   1126   1127
1128   1129   1130   1131
1132   1133   1134   1135
1136   1137   1138   1139
1140   1141   1142   1143
1144   1145   1146   1147
1148   1149   1150   1151
1152   1153   1154   1155
1156   1157   1158   1159
1160   1161   1162   1163
1164   1165   1166   1167
1168   1169   1170   1171
1172   1173   1174   1175
1176   1177   1178   1179
1180   1181   1182   1183
1184   1185   1186   1187
1188   1189   1190   1191
1192   1193   1194   1195
1196   1197   1198   1199
1200   1201   1202   1203
1204   1205   1206   1207
1208   1209   1210   1211
1212   1213   1214   1215
1216   1217   1218   1219
1220   1221   1222   1223
1224   1225   1226   1227
1228   1229   1230   1231
1232   1233   1234   1235
1236   1237   1238   1239
1240   1241   1242   1243
1244   1245   1246   1247
1248   1249   1250   1251
1252   1253   1254   1255
1256   1257   1258   1259
1260   1261   1262   1263
1264   1265   1266   1267
1268   1269   1270   1271
1272   1273   1274   1275
1276   1277   1278   1279
1280   1281   1282   1283
1284   1285   1286   1287
1288   1289   1290   1291
1292   1293   1294   1295
1296   1297   1298   1299
1300   1301   1302   1303
1304   1305   1306   1307
1308   1309   1310   1311
1312   1313   1314   1315
1316   1317   1318   1319
1320   1321   1322   1323
1324   1325   1326   1327
1328   1329   1330   1331
1332   1333   1334   1335
1336   1337   1338   1339
1340   1341   1342   1343
1344   1345   1346   1347
1348   1349   1350   1351
1352   1353   1354   1355
1356   1357   1358   1359
1360   1361   1362   1363
1364   1365   1366   1367
1368   1369   1370   1371
1372   1373   1374   1375
1376   1377   1378   1379
1380   1381   1382   1383
1384   1385   1386   1387
1388   1389   1390   1391
1392   1393   1394   1395
1396   1397   1398   1399
1400   1401   1402   1403
1404   1405   1406   1407
1408   1409   1410   1411
1412   1413   1414   1415
1416   1417   1418   1419
1420   1421   1422   1423
1424   1425   1426   1427
1428   1429   1430   1431
1432   1433   1434   1435
1436   1437   1438   1439
1440   1441   1442   1443
1444   1445   1446   1447
1448   1449   1450   1451
1452   1453   1454   1455
1456   1457   1458   1459
1460   1461   1462   1463
1464   1465   1466   1467
1468   1469   1470   1471
1472   1473   1474   1475
1476   1477   1478   1479
1480   1481   1482   1483
1484   1485   1486   1487
1488   1489   1490   1491
1492   1493   1494   1495
1496   1497   1498   1499
1500   1501   1502   1503
1504   1505   1506   1507
1508   1509   1510   1511
1512   1513   1514   1515
1516   1517   1518   1519
1520   1521   1522   1523
1524   1525   1526   1527
1528   1529   1530   1531
1532   1533   1534   1535
1536   1537   1538   1539
1540   1541   1542   1543
1544   1545   1546   1547
1548   1549   1550   1551
1552   1553   1554   1555
1556   1557   1558   1559
1560   1561   1562   1563
1564   1565   1566   1567
1568   1569   1570   1571
1572   1573   1574   1575
1576   1577   1578   1579
1580   1581   1582   1583
1584   1585   1586   1587
1588   1589   1590   1591
1592   1593   1594   1595
1596   1597   1598   1599
1600   1601   1602   1603
1604   1605   1606   1607
1608   1609   1610   1611
1612   1613   1614   1615
1616   1617   1618   1619
1620   1621   1622   1623
1624   1625   1626   1627
1628   1629   1630   1631
1632   1633   1634   1635
1636   1637   1638   1639
1640   1641   1642   1643
1644   1645   1646   1647
1648   1649   1650   1651
1652   1653   1654   1655
1656   1657   1658   1659
1660   1661   1662   1663
1664   1665   1666   1667
1668   1669   1670   1671
1672   1673   1674   1675
1676   1677   1678   1679
1680   1681   1682   1683
1684   1685   1686   1687
1688   1689   1690   1691
1692   1693   1694   1695
1696   1697   1698   1699
1700   1701   1702   1703
1704   1705   1706   1707
1708   1709   1710   1711
1712   1713   1714   1715
1716   1717   1718   1719
1720   1721   1722   1723
1724   1725   1726   1727
1728   1729   1730   1731
1732   1733   1734   1735
1736   1737   1738   1739
1740   1741   1742   1743
1744   1745   1746   1747
1748   1749   1750   1751
1752   1753   1754   1755
1756   1757   1758   1759
1760   1761   1762   1763
1764   1765   1766   1767
1768   1769   1770   1771
1772   1773   1774   1775
1776   1777   1778   1779
1780   1781   1782   1783
1784   1785   1786   1787
1788   1789   1790   1791
1792   1793   1794   1795
1796   1797   1798   1799
1800   1801   1802   1803
1804   1805   1806   1807
1808   1809   1810   1811
1812   1813   1814   1815
1816   1817   1818   1819
1820   1821   1822   1823
1824   1825   1826   1827
1828   1829   1830   1831
1832   1833   1834   1835
1836   1837   1838   1839
1840   1841   1842   1843
1844   1845   1846   1847
1848   1849   1850   1851
1852   1853   1854   1855
1856   1857   1858   1859
1860   1861   1862   1863
1864   1865   1866   1867
1868   1869   1870   1871
1872   1873   1874   1875
1876   1877   1878   1879
1880   1881   1882   1883
1884   1885   1886   1887
1888   1889   1890   1891
1892   1893   1894   1895
1896   1897   1898   1899
1900   1901   1902   1903
1904   1905   1906   1907
1908   1909   1910   1911
1912   1913   1914   1915
1916   1917   1918   1919
1920   1921   1922   1923
1924   1925   1926   1927
1928   1929   1930   1931
1932   1933   1934   1935
1936   1937   1938   1939
1940   1941   1942   1943
1944   1945   1946   1947
1948   1949   1950   1951
1952   1953   1954   1955
1956   1957   1958   1959
1960   1961   1962   1963
1964   1965   1966   1967
1968   1969   1970   1971
1972   1973   1974   1975
1976   1977   1978   1979
1980   1981   1982   1983
1984   1985   1986   1987
1988   1989   1990   1991
1992   1993   1994   1995
1996   1997   1998   1999
2000   2001   2002   2003
2004   2005   2006   2007
2008   2009   2010   2011
2012   2013   2014   2015
2016   2017   2018   2019
2020   2021   2022   2023
2024   2025   2026   2027
2028   2029   2030   2031
2032   2033   2034   2035
2036   2037   2038   2039
2040   2041   2042   2043
2044   2045   2046   2047
2048   2049   2050   2051
2052   2053   2054   2055
2056   2057   2058   2059
2060   2061   2062   2063
2064   2065   2066   2067
2068   2069   2070   2071
2072   2073   2074   2075
2076   2077   2078   2079
2080   2081   2082   2083
2084   2085   2086   2087
2088   2089   2090   2091
2092   2093   2094   2095
2096   2097   2098   2099
2100   2101   2102   2103
2104   2105   2106   2107
2108   2109   2110   2111
2112   2113   2114   2115
2116   2117   2118   2119
2120   2121   2122   2123
2124   2125   2126   2127
2128   2129   2130   2131
2132   2133   2134   2135
2136   2137   2138   2139
2140   2141   2142   2143
2144   2145   2146   2147
2148   2149   2150   2151
2152   2153   2154   2155
2156   2157   2158   2159
2160   2161   2162   2163
2164   2165   2166   2167
2168   2169   2170   2171
2172   2173   2174   2175
2176   2177   2178   2179
2180   2181   2182   2183
2184   2185   2186   2187
2188   2189   2190   2191
2192   2193   2194   2195
2196   2197   2198   2199
2200   2201   2202   2203
2204   2205   2206   2207
2208   2209   2210   2211
2212   2213   2214   2215
2216   2217   2218   2219
2220   2221   2222   2223
2224   2225   2226   2227
2228   2229   2230   2231
2232   2233   2234   2235
2236   2237   2238   2239
2240   2241   2242   2243
2244   2245   2246   2247
2248   2249   2250   2251
2252   2253   2254   2255
2256   2257   2258   2259
2260   2261   2262   2263
2264   2265   2266   2267
2268   2269   2270   2271
2272   2273   2274   2275
2276   2277   2278   2279
2280   2281   2282   2283
2284   2285   2286   2287
2288   2289   2290   2291
2292   2293   2294   2295
2296   2297   2298   2299
2300   2301   2302   2303
2304   2305   2306   2307
2308   2309   2310   2311
2312   2313   2314   2315
2316   2317   2318   2319
2320   2321   2322   2323
2324   2325   2326   2327
2328   2329   2330   2331
2332   2333   2334   2335
2336   2337   2338   2339
2340   2341   2342   2343
2344   2345   2346   2347
2348   2349   2350   2351
2352   2353   2354   2355
2356   2357   2358   2359
2360   2361   2362   2363
2364   2365   2366   2367
2368   2369   2370   2371
2372   2373   2374   2375
2376   2377   2378   2379
2380   2381   2382   2383
2384   2385   2386   2387
2388   2389   2390   2391
2392   2393   2394   2395
2396   2397   2398   2399
2400   2401   2402   2403
2404   2405   2406   2407
2408   2409   2410   2411
2412   2413   2414   2415
2416   2417   2418   2419
2420   2421   2422   2423
2424   2425   2426   2427
2428   2429   2430   2431
2432   2433   2434   2435
2436   2437   2438   2439
2440   2441   2442   2443
2444   2445   2446   2447
2448   2449   2450   2451
2452   2453   2454   2455
2456   2457   2458   2459
2460   2461   2462   2463
2464   2465   2466   2467
2468   2469   2470   2471
2472   2473   2474   2475
2476   2477   2478   2479
2480   2481   2482   2483
2484   2485   2486   2487
2488   2489   2490   2491
2492   2493   2494   2495
2496   2497   2498   2499
2500   2501   2502   2503
2504   2505   2506   2507
2508   2509   2510   2511
2512   2513   2514   2515
2516   2517   2518   2519
2520   2521   2522   2523
2524   2525   2526   2527
2528   2529   2530   2531
2532   2533   2534   2535
2536   2537   2538   2539
2540   2541   2542   2543
2544   2545   2546   2547
2548   2549   2550   2551
2552   2553   2554   2555
2556   2557   2558   2559
2560   2561   2562   2563
2564   2565   2566   2567
2568   2569   2570   2571
2572   2573   2574   2575
2576   2577   2578   2579
2580   2581   2582   2583
2584   2585   2586   2587
2588   2589   2590   2591
2592   2593   2594   2595
2596   2597   2598   2599
2600   2601   2602   2603
2604   2605   2606   2607
2608   2609   2610   2611
2612   2613   2614   2615
2616   2617   2618   2619
2620   2621   2622   2623
2624   2625   2626   2627
2628   2629   2630   2631
2632   2633   2634   2635
2636   2637   2638   2639
2640   2641   2642   2643
2644   2645   2646   2647
2648   2649   2650   2651
2652   2653   2654   2655
2656   2657   2658   2659
2660   2661   2662   2663
2664   2665   2666   2667
2668   2669   2670   2671
2672   2673   2674   2675
2676   2677   2678   2679
2680   2681   2682   2683
2684   2685   2686   2687
2688   2689   2690   2691
2692   2693   2694   2695
2696   2697   2698   2699
2700   2701   2702   2703
2704   2705   2706   2707
2708   2709   2710   2711
2712   2713   2714   2715
2716   2717   2718   2719
2720   2721   2722   2723
2724   2725   2726   2727
2728   2729   2730   2731
2732   2733   2734   2735
2736   2737   2738   2739
2740   2741   2742   2743
2744   2745   2746   2747
2748   2749   2750   2751
2752   2753   2754   2755
2756   2757   2758   2759
2760   2761   2762   2763
2764   2765   2766   2767
2768   2769   2770   2771
2772   2773   2774   2775
2776   2777   2778   2779
2780   2781   2782   2783
2784   2785   2786   2787
2788   2789   2790   2791
2792   2793   2794   2795
2796   2797   2798   2799
2800   2801   2802   2803
2804   2805   2806   2807
2808   2809   2810   2811
2812   2813   2814   2815
2816   2817   2818   2819
2820   2821   2822   2823
2824   2825   2826   2827
2828   2829   2830   2831
2832   2833   2834   2835
2836   2837   2838   2839
2840   2841   2842   2843
2844   2845   2846   2847
2848   2849   2850   2851
2852   2853   2854   2855
2856   2857   2858   2859
2860   2861   2862   2863
2864   2865   2866   2867
2868   2869   2870   2871
2872   2873   2874   2875
2876   2877   2878   2879
2880   2881   2882   2883
2884   2885   2886   2887
2888   2889   2890   2891
2892   2893   2894   2895
2896   2897   2898   2899
2900   2901   2902   2903
2904   2905   2906   2907
2908   2909   2910   2911
2912   2913   2914   2915
2916   2917   2918   2919
2920   2921   2922   2923
2924   2925   2926   2927
2928   2929   2930   2931
2932   2933   2934   2935
2936   2937   2938   2939
2940   2941   2942   2943
2944   2945   2946   2947
2948   2949   2950   2951
2952   2953   2954   2955
2956   2957   2958   2959
2960   2961   2962   2963
2964   2965   2966   2967
2968   2969   2970   2971
2972   2973   2974   2975
2976   2977   2978   2979
2980   2981   2982   2983
2984   2985   2986   2987
2988   2989   2990   2991
2992   2993   2994   2995
2996   2997   2998   2999
3000   3001   3002   3003
3004   3005   3006   3007
3008   3009   3010   3011
3012   3013   3014   3015
3016   3017   3018   3019
3020   3021   3022   3023
3024   3025   3026   3027
3028   3029   3030   3031
3032   3033   3034   3035
3036   3037   3038   3039
3040   3041   3042   3043
3044   3045   3046   3047
3048   3049   3050   3051
3052   3053   3054   3055
3056   3057   3058   3059
3060   3061   3062   3063
3064   3065   3066   3067
3068   3069   3070   3071
3072   3073   3074   3075
3076   3077   3078   3079
3080   3081   3082   3083
3084   3085   3086   3087
3088   3089   3090   3091
3092   3093   3094   3095
3096   3097   3098   3099
3100   3101   3102   3103
3104   3105   3106   3107
3108   3109   3110   3111
3112   3113   3114   3115
3116   3117   3118   3119
3120   3121   3122   3123
3124   3125   3126   3127
3128   3129   3130   3131
3132   3133   3134   3135
3136   3137   3138   3139
3140   3141   3142   3143
3144   3145   3146   3147
3148   3149   3150   3151
3152   3153   3154   3155
3156   3157   3158   3159
3160   3161   3162   3163
3164   3165   3166   3167
3168   3169   3170   3171
3172   3173   3174   3175
3176   3177   3178   3179
3180   3181   3182   3183
3184   3185   3186   3187
3188   3189   3190   3191
3192   3193   3194   3195
3196   3197   3198   3199
3200   3201   3202   3203
3204   3205   3206   3207
3208   3209   3210   3211
3212   3213   3214   3215
3216   3217   3218   3219
3220   3221   3222   3223
3224   3225   3226   3227
3228   3229   3230   3231
3232   3233   3234   3235
3236   3237   3238   3239
3240   3241   3242   3243
3244   3245   3246   3247
3248   3249   3250   3251
3252   3253   3254   3255
3256   3257   3258   3259
3260   3261   3262   3263
3264   3265   3266   3267
3268   3269   3270   3271
3272   3273   3274   3275
3276   3277   3278   3279
3280   3281   3282   3283
3284   3285   3286   3287
3288   3289   3290   3291
3292   3293   3294   3295
3296   3297   3298   3299
3300   3301   3302   3303
3304   3305   3306   3307
3308   3309   3310   3311
3312   3313   3314   3315
3316   3317   3318   3319
3320   3321   3322   3323
3324   3325   3326   3327
3328   3329   3330   3331
3332   3333   3334   3335
3336   3337   3338   3339
3340   3341   3342   3343
3344   3345   3346   3347
3348   3349   3350   3351
3352   3353   3354   3355
3356   3357   3358   3359
3360   3361   3362   3363
3364   3365   3366   3367
3368   3369   3370   3371
3372   3373   3374   3375
3376   3377   3378   3379
3380   3381   3382   3383
3384   3385   3386   3387
3388   3389   3390   3391
3392   3393   3394   3395
3396   3397   3398   3399
3400   3401   3402   3403
3404   3405   3406   3407
3408   3409   3410   3411
3412   3413   3414   3415
3416   3417   3418   3419
3420   3421   3422   3423
3424   3425   3426   3427
3428   3429   3430   3431
3432   3433   3434   3435
3436   3437   3438   3439
3440   3441   3442   3443
3444   3445   3446   3447
3448   3449   3450   3451
3452   3453   3454   3455
3456   3457   3458   3459
3460   3461   3462   3463
3464   3465   3466   3467
3468   3469   3470   3471
3472   3473   3474   3475
3476   3477   3478   3479
3480   3481   3482   3483
3484   3485   3486   3487
3488   3489   3490   3491
3492   3493   3494   3495
3496   3497   3498   3499
3500   3501   3502   3503
3504   3505   3506   3507
3508   3509   3510   3511
3512   3513   3514   3515
3516   3517   3518   3519
3520   3521   3522   3523
3524   3525   3526   3527
3528   3529   3530   3531
3532   3533   3534   3535
3536   3537   3538   3539
3540   3541   3542   3543
3544   3545   3546   3547
3548   3549   3550   3551
3552   3553   3554   3555
3556   3557   3558   3559
3560   3561   3562   3563
3564   3565   3566   3567
3568   3569   3570   3571
3572   3573   3574   3575
3576   3577   3578   3579
3580   3581   3582   3583
3584   3585   3586   3587
3588   3589   3590   3591
3592   3593   3594   3595
3596   3597   3598   3599
3600   3601   3602   3603
3604   3605   3606   3607
3608   3609   3610   3611
3612   3613   3614   3615
3616   3617   3618   3619
3620   3621   3622   3623
3624   3625   3626   3627
3628   3629   3630   3631
3632   3633   3634   3635
3636   3637   3638   3639
3640   3641   3642   3643
3644   3645   3646   3647
3648   3649   3650   3651
3652   3653   3654   3655
3656   3657   3658   3659
3660   3661   3662   3663
3664   3665   3666   3667
3668   3669   3670   3671
3672   3673   3674   3675
3676   3677   3678   3679
3680   3681   3682   3683
3684   3685   3686   3687
3688   3689   3690   3691
3692   3693   3694   3695
3696   3697   3698   3699
3700   3701   3702   3703
3704   3705   3706   3707
3708   3709   3710   3711
3712   3713   3714   3715
3716   3717   3718   3719
3720   3721   3722   3723
3724   3725   3726   3727
3728   3729   3730   3731
3732   3733   3734   3735
3736   3737   3738   3739
3740   3741   3742   3743
3744   3745   3746   3747
3748   3749   3750   3751
3752   3753   3754   3755
3756   3757   3758   3759
3760   3761   3762   3763
3764   3765   3766   3767
3768   3769   3770   3771
3772   3773   3774   3775
3776   3777   3778   3779
3780   3781   3782   3783
3784   3785   3786   3787
3788   3789   3790   3791
3792   3793   3794   3795
3796   3797   3798   3799
3800   3801   3802   3803
3804   3805   3806   3807
3808   3809   3810   3811
3812   3813   3814   3815
3816   3817   3818   3819
3820   3821   3822   3823
3824   3825   3826   3827
3828   3829   3830   3831
3832   3833   3834   3835
3836   3837   3838   3839
3840   3841   3842   3843
3844   3845   3846   3847
3848   3849   3850   3851
3852   3853   3854   3855
3856   3857   3858   3859
3860   3861   3862   3863
3864   3865   3866   3867
3868   3869   3870   3871
3872   3873   3874   3875
3876   3877   3878   3879
3880   3881   3882   3883
3884   3885   3886   3887
3888   3889   3890   3891
3892   3893   3894   3895
3896   3897   3898   3899
3900   3901   3902   3903
3904   3905   3906   3907
3908   3909   3910   3911
3912   3913   3914   3915
3916   3917   3918   3919
3920   3921   3922   3923
3924   3925   3926   3927
3928   3929   3930   3931
3932   3933   3934   3935
3936   3937   3938   3939
3940   3941   3942   3943
3944   3945   3946   3947
3948   3949   3950   3951
3952   3953   3954   3955
3956   3957   3958   3959
3960   3961   3962   3963
3964   3965   3966   3967
3968   3969   3970   3971
3972   3973   3974   3975
3976   3977   3978   3979
3980   3981   3982   3983
3984   3985   3986   3987
3988   3989   3990   3991
3992   3993   3994   3995
3996   3997   3998   3999
4000   4001   4002   4003
4004   4005   4006   4007
4008   4009   4010   4011
4012   4013   4014   4015
4016   4017   4018   4019
4020   4021   4022   4023
4024   4025   4026   4027
4028   4029   4030   4031
4032   4033   4034   4035
4036   4037   4038   4039
4040   4041   4042   4043
4044   4045   4046   4047
4048   4049   4050   4051
4052   4053   4054   4055
4056   4057   4058   4059
4060   4061   4062   4063
4064   4065   4066   4067
4068   4069   4070   4071
4072   4073   4074   4075
4076   4077   4078   4079
4080   4081   4082   4083
4084   4085   4086   4087
4088   4089   4090   4091
4092   4093   4094   4095
4096   4097   4098   4099
4100   4101   4102   4103
4104   4105   4106   4107
4108   4109   4110   4111
4112   4113   4114   4115
4116   4117   4118   4119
4120   4121   4122   4123
4124   4125   4126   4127
4128   4129   4130   4131
4132   4133   4134   4135
4136   4137   4138   4139
4140   4141   4142   4143
4144   4145   4146   4147
4148   4149   4150   4151
4152   4153   4154   4155
4156   4157   4158   4159
4160   4161   4162   4163
4164   4165   4166   4167
4168   4169   4170   4171
4172   4173   4174   4175
4176   4177   4178   4179
4180   4181   4182   4183
4184   4185   4186   4187
4188   4189   4190   4191
4192   4193   4194   4195
4196   4197   4198   4199
4200   4201   4202   4203
4204   4205   4206   4207
4208   4209   4210   4211
4212   4213   4214   4215
4216   4217   4218   4219
4220   4221   4222   4223
4224   4225   4226   4227
4228   4229   4230   4231
4232   4233   4234   4235
4236   4237   4238   4239
4240   4241   4242   4243
4244   4245   4246   4247
4248   4249   4250   4251
4252   4253   4254   4255
4256   4257   4258   4259
4260   4261   4262   4263
4264   4265   4266   4267
4268   4269   4270   4271
4272   4273   4274   4275
4276   4277   4278   4279
4280   4281   4282   4283
4284   4285   4286   4287
4288   4289   4290   4291
4292   4293   4294   4295
4296   4297   4298   4299
4300   4301   4302   4303
4304   4305   4306   4307
4308   4309   4310   4311
4312   4313   4314   4315
4316   4317   4318   4319
4320   4321   4322   4323
4324   4325   4326   4327
4328   4329   4330   4331
4332   4333   4334   4335
4336   4337   4338   4339
4340   4341   4342   4343
4344   4345   4346   4347
4348   4349   4350   4351
4352   4353   4354   4355
4356   4357   4358   4359
4360   4361   4362   4363
4364   4365   4366   4367
4368   4369   4370   4371
4372   4373   4374   4375
4376   4377   4378   4379
4380   4381   4382   4383
4384   4385   4386   4387
4388   4389   4390   4391
4392   4393   4394   4395
4396   4397   4398   4399
4400   4401   4402   4403
4404   4405   4406   4407
4408   4409   4410   4411
4412   4413   4414   4415
4416   4417   4418   4419
4420   4421   4422   4423
4424   4425   4426   4427
4428   4429   4430   4431
4432   4433   4434   4435
4436   4437   4438   4439
4440   4441   4442   4443
4444   4445   4446   4447
4448   4449   4450   4451
4452   4453   4454   4455
4456   4457   4458   4459
4460   4461   4462   4463
4464   4465   4466   4467
4468   4469   4470   4471
4472   4473   4474   4475
4476   4477   4478   4479
4480   4481   4482   4483
4484   4485   4486   4487
4488   4489   4490   4491
4492   4493   4494   4495
4496   4497   4498   4499
4500   4501   4502   4503
4504   4505   4506   4507
4508   4509   4510   4511
4512   4513   4514   4515
4516   4517   4518   4519
4520   4521   4522   4523
4524   4525   4526   4527
4528   4529   4530   4531
4532   4533   4534   4535
4536   4537   4538   4539
4540   4541   4542   4543
4544   4545   4546   4547
4548   4549   4550   4551
4552   4553   4554   4555
4556   4557   4558   4559
4560   4561   4562   4563
4564   4565   4566   4567
4568   4569   4570   4571
4572   4573   4574   4575
4576   4577   4578   4579
4580   4581   4582   4583
4584   4585   4586   4587
4588   4589   4590   4591
4592   4593   4594   4595
4596   4597   4598   4599
4600   4601   4602   4603
4604   4605   4606   4607
4608   4609   4610   4611
4612   4613   4614   4615
4616   4617   4618   4619
4620   4621   4622   4623
4624   4625   4626   4627
4628   4629   4630   4631
4632   4633   4634   4635
4636   4637   4638   4639
4640   4641   4642   4643
4644   4645   4646   4647
4648   4649   4650   4651
4652   4653   4654   4655
4656   4657   4658   4659
4660   4661   4662   4663
4664   4665   4666   4667
4668   4669   4670   4671
4672   4673   4674   4675
4676   4677   4678   4679
4680   4681   4682   4683
4684   4685   4686   4687
4688   4689   4690   4691
4692   4693   4694   4695
4696   4697   4698   4699
4700   4701   4702   4703
4704   4705   4706   4707
4708   4709   4710   4711
4712   4713   4714   4715
4716   4717   4718   4719
4720   4721   4722   4723
4724   4725   4726   4727
4728   4729   4730   4731
4732   4733   4734   4735
4736   4737   4738   4739
4740   4741   4742   4743
4744   4745   4746   4747
4748   4749   4750   4751
4752   4753   4754   4755
4756   4757   4758   4759
4760   4761   4762   4763
4764   4765   4766   4767
4768   4769   4770   4771
4772   4773   4774   4775
4776   4777   4778   4779
4780   4781   4782   4783
4784   4785   4786   4787
4788   4789   4790   4791
4792   4793   4794   4795
4796   4797   4798   4799
4800   4801   4802   4803
4804   4805   4806   4807
4808   4809   4810   4811
4812   4813   4814   4815
4816   4817   4818   4819
4820   4821   4822   4823
4824   4825   4826   4827
4828   4829   4830   4831
4832   4833   4834   4835
4836   4837   4838   4839
4840   4841   4842   4843
4844   4845   4846   4847
4848   4849   4850   4851
4852   4853   4854   4855
4856   4857   4858   4859
4860   4861   4862   4863
4864   4865   4866   4867
4868   4869   4870   4871
4872   4873   4874   4875
4876   4877   4878   4879
4880   4881   4882   4883
4884   4885   4886   4887
4888   4889   4890   4891
4892   4893   4894   4895
4896   4897   4898   4899
4900   4901   4902   4903
4904   4905   4906   4907
4908   4909   4910   4911
4912   4913   4914   4915
4916   4917   4918   4919
4920   4921   4922   4923
4924   4925   4926   4927
4928   4929   4930   4931
4932   4933   4934   4935
4936   4937   4938   4939
4940   4941   4942   4943
4944   4945   4946   4947
4948   4949   4950   4951
4952   4953   4954   4955
4956   4957   4958   4959
4960   4961   4962   4963
4964   4965   4966   4967
4968   4969   4970   4971
4972   4973   4974   4975
4976   4977   4978   4979
4980   4981   4982   4983
4984   4985   4986   4987
4988   4989   4990   4991
4992   4993   4994   4995
4996   4997   4998   4999
5000   5001   5002   5003
5004   5005   5006   5007
5008   5009   5010   5011
5012   5013   5014   5015
5016   5017   5018   5019
5020   5021   5022   5023
5024   5025   5026   5027
5028   5029   5030   5031
5032   5033   5034   5035
5036   5037   5038   5039
5040   5041   5042   5043
5044   5045   5046   5047
5048   5049   5050   5051
5052   5053   5054   5055
5056   5057   5058   5059
5060   5061   5062   5063
5064   5065   5066   5067
5068   5069   5070   5071
5072   5073   5074   5075
5076   5077   5078   5079
5080   5081   5082   5083
5084   5085   5086   5087
5088   5089   5090   5091
5092   5093   5094   5095
5096   5097   5098   5099
5100   5101   5102   5103
5104   5105   5106   5107
5108   5109   5110   5111
5112   5113   5114   5115
5116   5117   5118   5119
5120   5121   5122   5123
5124   5125   5126   5127
5128   5129   5130   5131
5132   5133   5134   5135
5136   5137   5138   5139
5140   5141   5142   5143
5144   5145   5146   5147
5148   5149   5150   5151
5152   5153   5154   5155
5156   5157   5158   5159
5160   5161   5162   5163
5164   5165   5166   5167
5168   5169   5170   5171
5172   5173   5174   5175
5176   5177   5178   5179
5180   5181   5182   5183
5184   5185   5186   5187
5188   5189   5190   5191
5192   5193   5194   5195
5196   5197   5198   5199
5200   5201   5202   5203
5204   5205   5206   5207
5208   5209   5210   5211
5212   5213   5214   5215
5216   5217   5218   5219
5220   5221   5222   5223
5224   5225   5226   5227
5228   5229   5230   5231
5232   5233   5234   5235
5236   5237   5238   5239
5240   5241   5242   5243
5244   5245   5246   5247
5248   5249   5250   5251
5252   5253   5254   5255
5256   5257   5258   5259
5260   5261   5262   5263
5264   5265   5266   5267
5268   5269   5270   5271
5272   5273   5274   5275
5276   5277   5278   5279
5280   5281   5282   5283
5284   5285   5286   5287
5288   5289   5290   5291
5292   5293   5294   5295
5296   5297   5298   5299
5300   5301   5302   5303
5304   5305   5306   5307
5308   5309   5310   5311
5312   5313   5314   5315
5316   5317   5318   5319
5320   5321   5322   5323
5324   5325   5326   5327
5328   5329   5330   5331
5332   5333   5334   5335
5336   5337   5338   5339
5340   5341   5342   5343
5344   5345   5346   5347
5348   5349   5350   5351
5352   5353   5354   5355
5356   5357   5358   5359
5360   5361   5362   5363
5364   5365   5366   5367
5368   5369   5370   5371
5372   5373   5374   5375
5376   5377   5378   5379
5380   5381   5382   5383
5384   5385   5386   5387
5388   5389   5390   5391
5392   5393   5394   5395
5396   5397   5398   5399
5400   5401   5402   5403
5404   5405   5406   5407
5408   5409   5410   5411
5412   5413   5414   5415
5416   5417   5418   5419
5420   5421   5422   5423
5424   5425   5426   5427
5428   5429   5430   5431
5432   5433   5434   5435
5436   5437   5438   5439
5440   5441   5442   5443
5444   5445   5446   5447
5448   5449   5450   5451
5452   5453   5454   5455
5456   5457   5458   5459
5460   5461   5462   5463
5464   5465   5466   5467
5468   5469   5470   5471
5472   5473   5474   5475
5476   5477   5478   5479
5480   5481   5482   5483
5484   5485   5486   5487
5488   5489   5490   5491
5492   5493   5494   5495
5496   5497   5498   5499
5500   5501   5502   5503
5504   5505   5506   5507
5508   5509   5510   5511
5512   5513   5514   5515
5516   5517   5518   5519
5520   5521   5522   5523
5524   5525   5526   5527
5528   5529   5530   5531
5532   5533   5534   5535
5536   5537   5538   5539
5540   5541   5542   5543
5544   5545   5546   5547
5548   5549   5550   5551
5552   5553   5554   5555
5556   5557   5558   5559
5560   5561   5562   5563
5564   5565   5566   5567
5568   5569   5570   5571
5572   5573   5574   5575
5576   5577   5578   5579
5580   5581   5582   5583
5584   5585   5586   5587
5588   5589   5590   5591
5592   5593   5594   5595
5596   5597   5598   5599
5600   5601   5602   5603
5604   5605   5606   5607
5608   5609   5610   5611
5612   5613   5614   5615
5616   5617   5618   5619
5620   5621   5622   5623
5624   5625   5626   5627
5628   5629   5630   5631
5632   5633   5634   5635
5636   5637   5638   5639
5640   5641   5642   5643
5644   5645   5646   5647
5648   5649   5650   5651
5652   5653   5654   5655
5656   5657   5658   5659
5660   5661   5662   5663
5664   5665   5666   5667
5668   5669   5670   5671
5672   5673   5674   5675
5676   5677   5678   5679
5680   5681   5682   5683
5684   5685   5686   5687
5688   5689   5690   5691
5692   5693   5694   5695
5696   5697   5698   5699
5700   5701   5702   5703
5704   5705   5706   5707
5708   5709   5710   5711
5712   5713   5714   5715
5716   5717   5718   5719
5720   5721   5722   5723
5724   5725   5726   5727
5728   5729   5730   5731
5732   5733   5734   5735
5736   5737   5738   5739
5740   5741   5742   5743
5744   5745   5746   5747
5748   5749   5750   5751
5752   5753   5754   5755
5756   5757   5758   5759
5760   5761   5762   5763
5764   5765   5766   5767
5768   5769   5770   5771
5772   5773   5774   5775
5776   5777   5778   5779
5780   5781   5782   5783
5784   5785   5786   5787
5788   5789   5790   5791
5792   5793   5794   5795
5796   5797   5798   5799
5800   5801   5802   5803
5804   5805   5806   5807
5808   5809   5810   5811
5812   5813   5814   5815
5816   5817   5818   5819
5820   5821   5822   5823
5824   5825   5826   5827
5828   5829   5830   5831
5832   5833   5834   5835
5836   5837   5838   5839
5840   5841   5842   5843
5844   5845   5846   5847
5848   5849   5850   5851
5852   5853   5854   5855
5856   5857   5858   5859
5860   5861   5862   5863
5864   5865   5866   5867
5868   5869   5870   5871
5872   5873   5874   5875
5876   5877   5878   5879
5880   5881   5882   5883
5884   5885   5886   5887
5888   5889   5890   5891
5892   5893   5894   5895
5896   5897   5898   5899
5900   5901   5902   5903
5904   5905   5906   5907
5908   5909   5910   5911
5912   5913   5914   5915
5916   5917   5918   5919
5920   5921   5922   5923
5924   5925   5926   5927
5928   5929   5930   5931
5932   5933   5934   5935
5936   5937   5938   5939
5940   5941   5942   5943
5944   5945   5946   5947
5948   5949   5950   5951
5952   5953   5954   5955
5956   5957   5958   5959
5960   5961   5962   5963
5964   5965   5966   5967
5968   5969   5970   5971
5972   5973   5974   5975
5976   5977   5978   5979
5980   5981   5982   5983
5984   5985   5986   5987
5988   5989   5990   5991
5992   5993   5994   5995
5996   5997   5998   5999
              </DataArray>   
              <DataArray type="Int32" Name="offsets" format="ascii">   
4
8
12
16
20
24
28
32
36
40
44
48
52
56
60
64
68
72
76
80
84
88
92
96
100
104
108
112
116
120
124
128
132
136
140
144
148
152
156
160
164
168
172
176
180
184
188
192
196
200
204
208
212
216
220
224
228
232
236
240
244
248
252
256
260
264
268
272
276
280
284
288
292
296
300
304
308
312
316
320
324
328
332
336
340
344
348
352
356
360
364
368
372
376
380
384
388
392
396
400
404
408
412
416
420
424
428
432
436
440
444
448
452
456
460
464
468
472
476
480
484
488
492
496
500
504
508
512
516
520
524
528
532
536
540
544
548
552
556
560
564
568
572
576
580
584
588
592
596
600
604
608
612
616
620
624
628
632
636
640
644
648
652
656
660
664
668
672
676
680
684
688
692
696
700
704
708
712
716
720
724
728
732
736
740
744
748
752
756
760
764
768
772
776
780
784
788
792
796
800
804
808
812
816
820
824
828
832
836
840
844
848
852
856
860
864
868
872
876
880
884
888
892
896
900
904
908
912
916
920
924
928
932
936
940
944
948
952
956
960
964
968
972
976
980
984
988
992
996
1000
1004
1008
1012
1016
1020
1024
1028
1032
1036
1040
1044
1048
1052
1056
1060
1064
1068
1072
1076
1080
1084
1088
1092
1096
1100
1104
1108
1112
1116
1120
1124
1128
1132
1136
1140
1144
1148
1152
1156
1160
1164
1168
1172
1176
1180
1184
1188
1192
1196
1200
1204
1208
1212
1216
1220
1224
1228
1232
1236
1240
1244
1248
1252
1256
1260
1264
1268
1272
1276
1280
1284
1288
1292
1296
1300
1304
1308
1312
1316
1320
1324
1328
1332
1336
1340
1344
1348
1352
1356
1360
1364
1368
1372
1376
1380
1384
1388
1392
1396
1400
1404
1408
1412
1416
1420
1424
1428
1432
1436
1440
1444
1448
1452
1456
1460
1464
1468
1472
1476
1480
1484
1488
1492
1496
1500
1504
1508
1512
1516
1520
1524
1528
1532
1536
1540
1544
1548
1552
1556
1560
1564
1568
1572
1576
1580
1584
1588
1592
1596
1600
1604
1608
1612
1616
1620
1624
1628
1632
1636
1640
1644
1648
1652
1656
1660
1664
1668
1672
1676
1680
1684
1688
1692
1696
1700
1704
1708
1712
1716
1720
1724
1728
1732
1736
1740
1744
1748
1752
1756
1760
1764
1768
1772
1776
1780
1784
1788
1792
1796
1800
1804
1808
1812
1816
1820
1824
1828
1832
1836
1840
1844
1848
1852
1856
1860
1864
1868
1872
1876
1880
1884
1888
1892
1896
1900
1904
1908
1912
1916
1920
1924
1928
1932
1936
1940
1944
1948
1952
1956
1960
1964
1968
1972
1976
1980
1984
1988
1992
1996
2000
2004
2008
2012
2016
2020
2024
2028
2032
2036
2040
2044
2048
2052
2056
2060
2064
2068
2072
2076
2080
2084
2088
2092
2096
2100
2104
2108
2112
2116
2120
2124
2128
2132
2136
2140
2144
2148
2152
2156
2160
2164
2168
2172
2176
2180
2184
2188
2192
2196
2200
2204
2208
2212
2216
2220
2224
2228
2232
2236
2240
2244
2248
2252
2256
2260
2264
2268
2272
2276
2280
2284
2288
2292
2296
2300
2304
2308
2312
2316
2320
2324
2328
2332
2336
2340
2344
2348
2352
2356
2360
2364
2368
2372
2376
2380
2384
2388
2392
2396
2400
2404
2408
2412
2416
2420
2424
2428
2432
2436
2440
2444
2448
2452
2456
2460
2464
2468
2472
2476
2480
2484
2488
2492
2496
2500
2504
2508
2512
2516
2520
2524
2528
2532
2536
2540
2544
2548
2552
2556
2560
2564
2568
2572
2576
2580
2584
2588
2592
2596
2600
2604
2608
2612
2616
2620
2624
2628
2632
2636
2640
2644
2648
2652
2656
2660
2664
2668
2672
2676
2680
2684
2688
2692
2696
2700
2704
2708
2712
2716
2720
2724
2728
2732
2736
2740
2744
2748
2752
2756
2760
2764
2768
2772
2776
2780
2784
2788
2792
2796
2800
2804
2808
2812
2816
2820
2824
2828
2832
2836
2840
2844
2848
2852
2856
2860
2864
2868
2872
2876
2880
2884
2888
2892
2896
2900
2904
2908
2912
2916
2920
2924
2928
2932
2936
2940
2944
2948
2952
2956
2960
2964
2968
2972
2976
2980
2984
2988
2992
2996
3000
3004
3008
3012
3016
3020
3024
3028
3032
3036
3040
3044
3048
3052
3056
3060
3064
3068
3072
3076
3080
3084
3088
3092
3096
3100
3104
3108
3112
3116
3120
3124
3128
3132
3136
3140
3144
3148
3152
3156
3160
3164
3168
3172
3176
3180
3184
3188
3192
3196
3200
3204
3208
3212
3216
3220
3224
3228
3232
3236
3240
3244
3248
3252
3256
3260
3264
3268
3272
3276
3280
3284
3288
3292
3296
3300
3304
3308
3312
3316
3320
3324
3328
3332
3336
3340
3344
3348
3352
3356
3360
3364
3368
3372
3376
3380
3384
3388
3392
3396
3400
3404
3408
3412
3416
3420
3424
3428
3432
3436
3440
3444
3448
3452
3456
3460
3464
3468
3472
3476
3480
3484
3488
3492
3496
3500
3504
3508
3512
3516
3520
3524
3528
3532
3536
3540
3544
3548
3552
3556
3560
3564
3568
3572
3576
3580
3584
3588
3592
3596
3600
3604
3608
3612
3616
3620
3624
3628
3632
3636
3640
3644
3648
3652
3656
3660
3664
3668
3672
3676
3680
3684
3688
3692
3696
3700
3704
3708
3712
3716
3720
3724
3728
3732
3736
3740
3744
3748
3752
3756
3760
3764
3768
3772
3776
3780
3784
3788
3792
3796
3800
3804
3808
3812
3816
3820
3824
3828
3832
3836
3840
3844
3848
3852
3856
3860
3864
3868
3872
3876
3880
3884
3888
3892
3896
3900
3904
3908
3912
3916
3920
3924
3928
3932
3936
3940
3944
3948
3952
3956
3960
3964
3968
3972
3976
3980
3984
3988
3992
3996
4000
4004
4008
4012
4016
4020
4024
4028
4032
4036
4040
4044
4048
4052
4056
4060
4064
4068
4072
4076
4080
4084
4088
4092
4096
4100
4104
4108
4112
4116
4120
4124
4128
4132
4136
4140
4144
4148
4152
4156
4160
4164
4168
4172
4176
4180
4184
4188
4192
4196
4200
4204
4208
4212
4216
4220
4224
4228
4232
4236
4240
4244
4248
4252
4256
4260
4264
4268
4272
4276
4280
4284
4288
4292
4296
4300
4304
4308
4312
4316
4320
4324
4328
4332
4336
4340
4344
4348
4352
4356
4360
4364
4368
4372
4376
4380
4384
4388
4392
4396
4400
4404
4408
4412
4416
4420
4424
4428
4432
4436
4440
4444
4448
4452
4456
4460
4464
4468
4472
4476
4480
4484
4488
4492
4496
4500
4504
4508
4512
4516
4520
4524
4528
4532
4536
4540
4544
4548
4552
4556
4560
4564
4568
4572
4576
4580
4584
4588
4592
4596
4600
4604
4608
4612
4616
4620
4624
4628
4632
4636
4640
4644
4648
4652
4656
4660
4664
4668
4672
4676
4680
4684
4688
4692
4696
4700
4704
4708
4712
4716
4720
4724
4728
4732
4736
4740
4744
4748
4752
4756
4760
4764
4768
4772
4776
4780
4784
4788
4792
4796
4800
4804
4808
4812
4816
4820
4824
4828
4832
4836
4840
4844
4848
4852
4856
4860
4864
4868
4872
4876
4880
4884
4888
4892
4896
4900
4904
4908
4912
4916
4920
4924
4928
4932
4936
4940
4944
4948
4952
4956
4960
4964
4968
4972
4976
4980
4984
4988
4992
4996
5000
5004
5008
5012
5016
5020
5024
5028
5032
5036
5040
5044
5048
5052
5056
5060
5064
5068
5072
5076
5080
5084
5088
5092
5096
5100
5104
5108
5112
5116
5120
5124
5128
5132
5136
5140
5144
5148
5152
5156
5160
5164
5168
5172
5176
5180
5184
5188
5192
5196
5200
5204
5208
5212
5216
5220
5224
5228
5232
5236
5240
5244
5248
5252
5256
5260
5264
5268
5272
5276
5280
5284
5288
5292
5296
5300
5304
5308
5312
5316
5320
5324
5328
5332
5336
5340
5344
5348
5352
5356
5360
5364
5368
5372
5376
5380
5384
5388
5392
5396
5400
5404
5408
5412
5416
5420
5424
5428
5432
5436
5440
5444
5448
5452
5456
5460
5464
5468
5472
5476
5480
5484
5488
5492
5496
5500
5504
5508
5512
5516
5520
5524
5528
5532
5536
5540
5544
5548
5552
5556
5560
5564
5568
5572
5576
5580
5584
5588
5592
5596
5600
5604
5608
5612
5616
5620
5624
5628
5632
5636
5640
5644
5648
5652
5656
5660
5664
5668
5672
5676
5680
5684
5688
5692
5696
5700
5704
5708
5712
5716
5720
5724
5728
5732
5736
5740
5744
5748
5752
5756
5760
5764
5768
5772
5776
5780
5784
5788
5792
5796
5800
5804
5808
5812
5816
5820
5824
5828
5832
5836
5840
5844
5848
5852
5856
5860
5864
5868
5872
5876
5880
5884
5888
5892
5896
5900
5904
5908
5912
5916
5920
5924
5928
5932
5936
5940
5944
5948
5952
5956
5960
5964
5968
5972
5976
5980
5984
5988
5992
5996
6000
              </DataArray>   
              <DataArray type="UInt8" Name="types" format="ascii">   
10
10
10
10
10
10
10
10
10
10
10
10
10
10
10
10
10
10
10
10
10
10
10
10
10
10
10
10
10
10
10
10
10
10
10
10
10
10
10
10
10
10
10
10
10
10
10
10
10
10
10
10
10
10
10
10
10
10
10
10
10
10
10
10
10
10
10
10
10
10
10
10
10
10
10
10
10
10
10
10
10
10
10
10
10
10
10
10
10
10
10
10
10
10
10
10
10
10
10
10
10
10
10
10
10
10
10
10
10
10
10
10
10
10
10
10
10
10
10
10
10
10
10
10
10
10
10
10
10
10
10
10
10
10
10
10
10
10
10
10
10
10
10
10
10
10
10
10
10
10
10
10
10
10
10
10
10
10
10
10
10
10
10
10
10
10
10
10
10
10
10
10
10
10
10
10
10
10
10
10
10
10
10
10
10
10
10
10
10
10
10
10
10
10
10
10
10
10
10
10
10
10
10
10
10
10
10
10
10
10
10
10
10
10
10
10
10
10
10
10
10
10
10
10
10
10
10
10
10
10
10
10
10
10
10
10
10
10
10
10
10
10
10
10
10
10
10
10
10
10
10
10
10
10
10
10
10
10
10
10
10
10
10
10
10
10
10
10
10
10
10
10
10
10
10
10
10
10
10
10
10
10
10
10
10
10
10
10
10
10
10
10
10
10
10
10
10
10
10
10
10
10
10
10
10
10
10
10
10
10
10
10
10
10
10
10
10
10
10
10
10
10
10
10
10
10
10
10
10
10
10
10
10
10
10
10
10
10
10
10
10
10
10
10
10
10
10
10
10
10
10
10
10
10
10
10
10
10
10
10
10
10
10
10
10
10
10
10
10
10
10
10
10
10
10
10
10
10
10
10
10
10
10
10
10
10
10
10
10
10
10
10
10
10
10
10
10
10
10
10
10
10
10
10
10
10
10
10
10
10
10
10
10
10
10
10
10
10
10
10
10
10
10
10
10
10
10
10
10
10
10
10
10
10
10
10
10
10
10
10
10
10
10
10
10
10
10
10
10
10
10
10
10
10
10
10
10
10
10
10
10
10
10
10
10
10
10
10
10
10
10
10
10
10
10
10
10
10
10
10
10
10
10
10
10
10
10
10
10
10
10
10
10
10
10
10
10
10
10
10
10
10
10
10
10
10
10
10
10
10
10
10
10
10
10
10
10
10
10
10
10
10
10
10
10
10
10
10
10
10
10
10
10
10
10
10
10
10
10
10
10
10
10
10
10
10
10
10
10
10
10
10
10
10
10
10
10
10
10
10
10
10
10
10
10
10
10
10
10
10
10
10
10
10
10
10
10
10
10
10
10
10
10
10
10
10
10
10
10
10
10
10
10
10
10
10
10
10
10
10
10
10
10
10
10
10
10
10
10
10
10
10
10
10
10
10
10
10
10
10
10
10
10
10
10
10
10
10
10
10
10
10
10
10
10
10
10
10
10
10
10
10
10
10
10
10
10
10
10
10
10
10
10
10
10
10
10
10
10
10
10
10
10
10
10
10
10
10
10
10
10
10
10
10
10
10
10
10
10
10
10
10
10
10
10
10
10
10
10
10
10
10
10
10
10
10
10
10
10
10
10
10
10
10
10
10
10
10
10
10
10
10
10
10
10
10
10
10
10
10
10
10
10
10
10
10
10
10
10
10
10
10
10
10
10
10
10
10
10
10
10
10
10
10
10
10
10
10
10
10
10
10
10
10
10
10
10
10
10
10
10
10
10
10
10
10
10
10
10
10
10
10
10
10
10
10
10
10
10
10
10
10
10
10
10
10
10
10
10
10
10
10
10
10
10
10
10
10
10
10
10
10
10
10
10
10
10
10
10
10
10
10
10
10
10
10
10
10
10
10
10
10
10
10
10
10
10
10
10
10
10
10
10
10
10
10
10
10
10
10
10
10
10
10
10
10
10
10
10
10
10
10
10
10
10
10
10
10
10
10
10
10
10
10
10
10
10
10
10
10
10
10
10
10
10
10
10
10
10
10
10
10
10
10
10
10
10
10
10
10
10
10
10
10
10
10
10
10
10
10
10
10
10
10
10
10
10
10
10
10
10
10
10
10
10
10
10
10
10
10
10
10
10
10
10
10
10
10
10
10
10
10
10
10
10
10
10
10
10
10
10
10
10
10
10
10
10
10
10
10
10
10
10
10
10
10
10
10
10
10
10
10
10
10
10
10
10
10
10
10
10
10
10
10
10
10
10
10
10
10
10
10
10
10
10
10
10
10
10
10
10
10
10
10
10
10
10
10
10
10
10
10
10
10
10
10
10
10
10
10
10
10
10
10
10
10
10
10
10
10
10
10
10
10
10
10
10
10
10
10
10
10
10
10
10
10
10
10
10
10
10
10
10
10
10
10
10
10
10
10
10
10
10
10
10
10
10
10
10
10
10
10
10
10
10
10
10
10
10
10
10
10
10
10
10
10
10
10
10
10
10
10
10
10
10
10
10
10
10
10
10
10
10
10
10
10
10
10
10
10
10
10
10
10
10
10
10
10
10
10
10
10
10
10
10
10
10
10
10
10
10
10
10
10
10
10
10
10
10
10
10
10
10
10
10
10
10
10
10
10
10
10
10
10
10
10
10
10
10
10
10
10
10
10
10
10
10
10
10
10
10
10
10
10
10
10
10
10
10
10
10
10
10
10
10
10
10
10
10
10
10
10
10
10
10
10
10
10
10
10
10
10
10
10
10
10
10
10
10
10
10
10
10
10
10
10
10
10
10
10
10
10
10
10
10
10
10
10
10
10
10
10
10
10
10
10
10
10
10
10
10
10
10
10
10
10
10
10
10
10
10
10
10
10
10
10
10
10
10
10
10
10
10
10
10
10
10
10
10
10
10
10
10
10
10
10
10
10
10
10
10
10
10
10
10
10
10
10
10
10
10
10
10
10
10
10
10
10
10
10
10
10
10
10
10
10
10
10
10
10
10
10
10
10
10
10
10
10
10
10
10
10
10
10
10
10
10
10
10
10
10
10
10
10
10
10
10
10
10
10
10
10
10
10
10
10
10
10
10
10
10
10
10
10
10
10
10
10
10
10
10
10
10
10
10
10
10
10
10
10
10
10
10
10
10
10
10
10
10
10
10
10
10
10
10
10
10
10
10
10
10
10
10
10
10
10
10
10
10
10
10
10
10
10
10
10
10
10
10
10
10
10
10
10
10
10
10
10
10
10
10
10
10
10
10
10
10
10
10
10
10
10
10
10
10
10
10
10
10
10
10
10
10
10
10
10
10
10
10
10
10
10
10
10
10
10
10
10
10
10
10
10
10
10
10
10
10
10
10
10
10
10
10
10
10
10
10
10
10
10
10
10
10
10
10
10
10
10
10
10
10
10
10
10
10
10
10
10
10
10
10
10
10
10
10
10
10
10
10
10
              </DataArray>   
          </Cells>  
          <PointData>  
             <DataArray type="Float64" NumberOfComponents="3" Name="Strains" format="ascii">   
-0.0001131490874265272   0.0   -7.42083599402576e-05
-0.0001131490874265272   0.0   -7.42083599402576e-05
-0.0001131490874265272   0.0   -7.42083599402576e-05
-0.0001131490874265272   0.0   -7.42083599402576e-05
-7.200405950255228e-05   1.2541594093521015e-05   1.8916430558130523e-06
-7.200405950255228e-05   1.2541594093521015e-05   1.8916430558130523e-06
-7.200405950255228e-05   1.2541594093521015e-05   1.8916430558130523e-06
-7.200405950255228e-05   1.2541594093521015e-05   1.8916430558130523e-06
-7.058378904986647e-05   0.0   -7.00312578678065e-05
-7.058378904986647e-05   0.0   -7.00312578678065e-05
-7.058378904986647e-05   0.0   -7.00312578678065e-05
-7.058378904986647e-05   0.0   -7.00312578678065e-05
-0.00011842049591123621   1.5047285845797072e-05   6.682153936651174e-07
-0.00011842049591123621   1.5047285845797072e-05   6.682153936651174e-07
-0.00011842049591123621   1.5047285845797072e-05   6.682153936651174e-07
-0.00011842049591123621   1.5047285845797072e-05   6.682153936651174e-07
-9.186643823819667e-05   3.4809183937092403e-06   -3.6648726923481355e-05
-9.186643823819667e-05   3.4809183937092403e-06   -3.6648726923481355e-05
-9.186643823819667e-05   3.4809183937092403e-06   -3.6648726923481355e-05
-9.186643823819667e-05   3.4809183937092403e-06   -3.6648726923481355e-05
-0.00011842049591123641   0.0   -7.905962937528476e-05
-0.00011842049591123641   0.0   -7.905962937528476e-05
-0.00011842049591123641   0.0   -7.905962937528476e-05
-0.00011842049591123641   0.0   -7.905962937528476e-05
-7.058378904986647e-05   1.5047285845797099e-05   9.69658690114339e-06
-7.058378904986647e-05   1.5047285845797099e-05   9.69658690114339e-06
-7.058378904986647e-05   1.5047285845797099e-05   9.69658690114339e-06
-7.058378904986647e-05   1.5047285845797099e-05   9.69658690114339e-06
-7.078688856273894e-05   0.0   -7.17464646061416e-05
-7.078688856273894e-05   0.0   -7.17464646061416e-05
-7.078688856273894e-05   0.0   -7.17464646061416e-05
-7.078688856273894e-05   0.0   -7.17464646061416e-05
-0.00012212440946167346   1.612000872944119e-05   4.144064987751542e-06
-0.00012212440946167346   1.612000872944119e-05   4.144064987751542e-06
-0.00012212440946167346   1.612000872944119e-05   4.144064987751542e-06
-0.00012212440946167346   1.612000872944119e-05   4.144064987751542e-06
-9.460369223698751e-05   6.094303974285961e-06   -3.5708374200298546e-05
-9.460369223698751e-05   6.094303974285961e-06   -3.5708374200298546e-05
-9.460369223698751e-05   6.094303974285961e-06   -3.5708374200298546e-05
-9.460369223698751e-05   6.094303974285961e-06   -3.5708374200298546e-05
-0.00012212440946167367   0.0   -8.141846984380633e-05
-0.00012212440946167367   0.0   -8.141846984380633e-05
-0.00012212440946167367   0.0   -8.141846984380633e-05
-0.00012212440946167367   0.0   -8.141846984380633e-05
-7.078688856273894e-05   1.6120008729441217e-05   1.3816070225416293e-05
-7.078688856273894e-05   1.6120008729441217e-05   1.3816070225416293e-05
-7.078688856273894e-05   1.6120008729441217e-05   1.3816070225416293e-05
-7.078688856273894e-05   1.6120008729441217e-05   1.3816070225416293e-05
-7.07542364504923e-05   0.0   -7.218656714888553e-05
-7.07542364504923e-05   0.0   -7.218656714888553e-05
-7.07542364504923e-05   0.0   -7.218656714888553e-05
-7.07542364504923e-05   0.0   -7.218656714888553e-05
-0.00013009964965978685   1.8361214076088788e-05   1.5705726420952443e-05
-0.00013009964965978685   1.8361214076088788e-05   1.5705726420952443e-05
-0.00013009964965978685   1.8361214076088788e-05   1.5705726420952443e-05
-0.00013009964965978685   1.8361214076088788e-05   1.5705726420952443e-05
-9.643932295608282e-05   7.693252245767326e-06   -3.399404098702802e-05
-9.643932295608282e-05   7.693252245767326e-06   -3.399404098702802e-05
-9.643932295608282e-05   7.693252245767326e-06   -3.399404098702802e-05
-9.643932295608282e-05   7.693252245767326e-06   -3.399404098702802e-05
-7.200405950255242e-05   0.0   -6.668340348414498e-05
-7.200405950255242e-05   0.0   -6.668340348414498e-05
-7.200405950255242e-05   0.0   -6.668340348414498e-05
-7.200405950255242e-05   0.0   -6.668340348414498e-05
-3.278636524706668e-05   4.601084256259202e-06   1.4400708287533846e-06
-3.278636524706668e-05   4.601084256259202e-06   1.4400708287533846e-06
-3.278636524706668e-05   4.601084256259202e-06   1.4400708287533846e-06
-3.278636524706668e-05   4.601084256259202e-06   1.4400708287533846e-06
-3.153740051551573e-05   0.0   -6.610229958983178e-05
-3.153740051551573e-05   0.0   -6.610229958983178e-05
-3.153740051551573e-05   0.0   -6.610229958983178e-05
-3.153740051551573e-05   0.0   -6.610229958983178e-05
-7.058378904986647e-05   6.548263796624524e-06   -4.95394364388862e-06
-7.058378904986647e-05   6.548263796624524e-06   -4.95394364388862e-06
-7.058378904986647e-05   6.548263796624524e-06   -4.95394364388862e-06
-7.058378904986647e-05   6.548263796624524e-06   -4.95394364388862e-06
-5.177073000903398e-05   4.842532452609949e-07   -3.267063571445773e-05
-5.177073000903398e-05   4.842532452609949e-07   -3.267063571445773e-05
-5.177073000903398e-05   4.842532452609949e-07   -3.267063571445773e-05
-5.177073000903398e-05   4.842532452609949e-07   -3.267063571445773e-05
-7.058378904986642e-05   0.0   -7.003125786780645e-05
-7.058378904986642e-05   0.0   -7.003125786780645e-05
-7.058378904986642e-05   0.0   -7.003125786780645e-05
-7.058378904986642e-05   0.0   -7.003125786780645e-05
-3.153740051551573e-05   6.548263796624524e-06   -1.0249853659139e-06
-3.153740051551573e-05   6.548263796624524e-06   -1.0249853659139e-06
-3.153740051551573e-05   6.548263796624524e-06   -1.0249853659139e-06
-3.153740051551573e-05   6.548263796624524e-06   -1.0249853659139e-06
-3.083759521899703e-05   0.0   -6.693289741484194e-05
-3.083759521899703e-05   0.0   -6.693289741484194e-05
-3.083759521899703e-05   0.0   -6.693289741484194e-05
-3.083759521899703e-05   0.0   -6.693289741484194e-05
-7.078688856273894e-05   8.022611985499426e-06   -5.1643090332384185e-06
-7.078688856273894e-05   8.022611985499426e-06   -5.1643090332384185e-06
-7.078688856273894e-05   8.022611985499426e-06   -5.1643090332384185e-06
-7.078688856273894e-05   8.022611985499426e-06   -5.1643090332384185e-06
-5.071069213443165e-05   2.5819670441371316e-06   -3.5360249448932905e-05
-5.071069213443165e-05   2.5819670441371316e-06   -3.5360249448932905e-05
-5.071069213443165e-05   2.5819670441371316e-06   -3.5360249448932905e-05
-5.071069213443165e-05   2.5819670441371316e-06   -3.5360249448932905e-05
-7.078688856273894e-05   0.0   -7.17464646061416e-05
-7.078688856273894e-05   0.0   -7.17464646061416e-05
-7.078688856273894e-05   0.0   -7.17464646061416e-05
-7.078688856273894e-05   0.0   -7.17464646061416e-05
-3.083759521899703e-05   8.022611985499426e-06   -3.507418419387712e-07
-3.083759521899703e-05   8.022611985499426e-06   -3.507418419387712e-07
-3.083759521899703e-05   8.022611985499426e-06   -3.507418419387712e-07
-3.083759521899703e-05   8.022611985499426e-06   -3.507418419387712e-07
-3.020103518915375e-05   0.0   -6.658599500318335e-05
-3.020103518915375e-05   0.0   -6.658599500318335e-05
-3.020103518915375e-05   0.0   -6.658599500318335e-05
-3.020103518915375e-05   0.0   -6.658599500318335e-05
-7.075423645049213e-05   9.334286909503523e-06   -4.597898379987911e-06
-7.075423645049213e-05   9.334286909503523e-06   -4.597898379987911e-06
-7.075423645049213e-05   9.334286909503523e-06   -4.597898379987911e-06
-7.075423645049213e-05   9.334286909503523e-06   -4.597898379987911e-06
-5.0493961875946323e-05   4.3003913357985e-06   -3.534468532667481e-05
-5.0493961875946323e-05   4.3003913357985e-06   -3.534468532667481e-05
-5.0493961875946323e-05   4.3003913357985e-06   -3.534468532667481e-05
-5.0493961875946323e-05   4.3003913357985e-06   -3.534468532667481e-05
-3.278636524706674e-05   0.0   -6.392275293038945e-05
-3.278636524706674e-05   0.0   -6.392275293038945e-05
-3.278636524706674e-05   0.0   -6.392275293038945e-05
-3.278636524706674e-05   0.0   -6.392275293038945e-05
4.2704419067784826e-06   -5.88472476917767e-07   -2.514491160131348e-06
4.2704419067784826e-06   -5.88472476917767e-07   -2.514491160131348e-06
4.2704419067784826e-06   -5.88472476917767e-07   -2.514491160131348e-06
4.2704419067784826e-06   -5.88472476917767e-07   -2.514491160131348e-06
5.065780927414694e-06   0.0   -6.540601310509079e-05
5.065780927414694e-06   0.0   -6.540601310509079e-05
5.065780927414694e-06   0.0   -6.540601310509079e-05
5.065780927414694e-06   0.0   -6.540601310509079e-05
-3.153740051551568e-05   1.160477474567963e-06   -5.0969971849477134e-06
-3.153740051551568e-05   1.160477474567963e-06   -5.0969971849477134e-06
-3.153740051551568e-05   1.160477474567963e-06   -5.0969971849477134e-06
-3.153740051551568e-05   1.160477474567963e-06   -5.0969971849477134e-06
-1.3860292159825967e-05   -1.2360501455846245e-06   -3.3120927872338894e-05
-1.3860292159825967e-05   -1.2360501455846245e-06   -3.3120927872338894e-05
-1.3860292159825967e-05   -1.2360501455846245e-06   -3.3120927872338894e-05
-1.3860292159825967e-05   -1.2360501455846245e-06   -3.3120927872338894e-05
-3.153740051551573e-05   0.0   -6.610229958983178e-05
-3.153740051551573e-05   0.0   -6.610229958983178e-05
-3.153740051551573e-05   0.0   -6.610229958983178e-05
-3.153740051551573e-05   0.0   -6.610229958983178e-05
5.065780927414702e-06   1.160477474567963e-06   -4.400710700206932e-06
5.065780927414702e-06   1.160477474567963e-06   -4.400710700206932e-06
5.065780927414702e-06   1.160477474567963e-06   -4.400710700206932e-06
5.065780927414702e-06   1.160477474567963e-06   -4.400710700206932e-06
5.692978815543925e-06   0.0   -6.531275023970989e-05
5.692978815543925e-06   0.0   -6.531275023970989e-05
5.692978815543925e-06   0.0   -6.531275023970989e-05
5.692978815543925e-06   0.0   -6.531275023970989e-05
-3.0837595218996923e-05   2.7002452918865725e-06   -6.04860735727366e-06
-3.0837595218996923e-05   2.7002452918865725e-06   -6.04860735727366e-06
-3.0837595218996923e-05   2.7002452918865725e-06   -6.04860735727366e-06
-3.0837595218996923e-05   2.7002452918865725e-06   -6.04860735727366e-06
-1.2922210849985876e-05   6.579577917681557e-07   -3.468220880555442e-05
-1.2922210849985876e-05   6.579577917681557e-07   -3.468220880555442e-05
-1.2922210849985876e-05   6.579577917681557e-07   -3.468220880555442e-05
-1.2922210849985876e-05   6.579577917681557e-07   -3.468220880555442e-05
-3.083759521899703e-05   0.0   -6.693289741484194e-05
-3.083759521899703e-05   0.0   -6.693289741484194e-05
-3.083759521899703e-05   0.0   -6.693289741484194e-05
-3.083759521899703e-05   0.0   -6.693289741484194e-05
5.692978815543935e-06   2.7002452918865725e-06   -4.4284601821417304e-06
5.692978815543935e-06   2.7002452918865725e-06   -4.4284601821417304e-06
5.692978815543935e-06   2.7002452918865725e-06   -4.4284601821417304e-06
5.692978815543935e-06   2.7002452918865725e-06   -4.4284601821417304e-06
6.538217918130136e-06   0.0   -6.38956375440236e-05
6.538217918130136e-06   0.0   -6.38956375440236e-05
6.538217918130136e-06   0.0   -6.38956375440236e-05
6.538217918130136e-06   0.0   -6.38956375440236e-05
-3.0201035189153672e-05   4.4839290985994925e-06   -5.353906491043532e-06
-3.0201035189153672e-05   4.4839290985994925e-06   -5.353906491043532e-06
-3.0201035189153672e-05   4.4839290985994925e-06   -5.353906491043532e-06
-3.0201035189153672e-05   4.4839290985994925e-06   -5.353906491043532e-06
-1.2149688650433421e-05   2.531049892348533e-06   -3.4267756531826757e-05
-1.2149688650433421e-05   2.531049892348533e-06   -3.4267756531826757e-05
-1.2149688650433421e-05   2.531049892348533e-06   -3.4267756531826757e-05
-1.2149688650433421e-05   2.531049892348533e-06   -3.4267756531826757e-05
4.27044190677849e-06   0.0   -6.427583641654012e-05
4.27044190677849e-06   0.0   -6.427583641654012e-05
4.27044190677849e-06   0.0   -6.427583641654012e-05
4.27044190677849e-06   0.0   -6.427583641654012e-05
4.4491607614360354e-05   -5.218389841634644e-06   -3.7159414221775195e-07
4.4491607614360354e-05   -5.218389841634644e-06   -3.7159414221775195e-07
4.4491607614360354e-05   -5.218389841634644e-06   -3.7159414221775195e-07
4.4491607614360354e-05   -5.218389841634644e-06   -3.7159414221775195e-07
4.4564965298916574e-05   0.0   -6.776708171273706e-05
4.4564965298916574e-05   0.0   -6.776708171273706e-05
4.4564965298916574e-05   0.0   -6.776708171273706e-05
4.4564965298916574e-05   0.0   -6.776708171273706e-05
5.0657809274147105e-06   -3.935114346076751e-06   4.2596084741208384e-07
5.0657809274147105e-06   -3.935114346076751e-06   4.2596084741208384e-07
5.0657809274147105e-06   -3.935114346076751e-06   4.2596084741208384e-07
5.0657809274147105e-06   -3.935114346076751e-06   4.2596084741208384e-07
2.441770360284753e-05   -2.9093710801641166e-06   -3.244268957119016e-05
2.441770360284753e-05   -2.9093710801641166e-06   -3.244268957119016e-05
2.441770360284753e-05   -2.9093710801641166e-06   -3.244268957119016e-05
2.441770360284753e-05   -2.9093710801641166e-06   -3.244268957119016e-05
5.0657809274147105e-06   0.0   -6.5406013105091e-05
5.0657809274147105e-06   0.0   -6.5406013105091e-05
5.0657809274147105e-06   0.0   -6.5406013105091e-05
5.0657809274147105e-06   0.0   -6.5406013105091e-05
4.4564965298916574e-05   -3.935114346076751e-06   -1.9351077602339646e-06
4.4564965298916574e-05   -3.935114346076751e-06   -1.9351077602339646e-06
4.4564965298916574e-05   -3.935114346076751e-06   -1.9351077602339646e-06
4.4564965298916574e-05   -3.935114346076751e-06   -1.9351077602339646e-06
4.4369139708315204e-05   0.0   -6.679935213655893e-05
4.4369139708315204e-05   0.0   -6.679935213655893e-05
4.4369139708315204e-05   0.0   -6.679935213655893e-05
4.4369139708315204e-05   0.0   -6.679935213655893e-05
5.692978815543935e-06   -2.4776698280815475e-06   -8.524820850912356e-07
5.692978815543935e-06   -2.4776698280815475e-06   -8.524820850912356e-07
5.692978815543935e-06   -2.4776698280815475e-06   -8.524820850912356e-07
5.692978815543935e-06   -2.4776698280815475e-06   -8.524820850912356e-07
2.4717460317864955e-05   -1.1611158595565996e-06   -3.3349883636741207e-05
2.4717460317864955e-05   -1.1611158595565996e-06   -3.3349883636741207e-05
2.4717460317864955e-05   -1.1611158595565996e-06   -3.3349883636741207e-05
2.4717460317864955e-05   -1.1611158595565996e-06   -3.3349883636741207e-05
5.69297881554393e-06   0.0   -6.531275023970994e-05
5.69297881554393e-06   0.0   -6.531275023970994e-05
5.69297881554393e-06   0.0   -6.531275023970994e-05
5.69297881554393e-06   0.0   -6.531275023970994e-05
4.4369139708315204e-05   -2.4776698280815475e-06   -2.339083981940169e-06
4.4369139708315204e-05   -2.4776698280815475e-06   -2.339083981940169e-06
4.4369139708315204e-05   -2.4776698280815475e-06   -2.339083981940169e-06
4.4369139708315204e-05   -2.4776698280815475e-06   -2.339083981940169e-06
4.5223670239235e-05   0.0   -6.420697006959936e-05
4.5223670239235e-05   0.0   -6.420697006959936e-05
4.5223670239235e-05   0.0   -6.420697006959936e-05
4.5223670239235e-05   0.0   -6.420697006959936e-05
6.538217918130147e-06   -5.188875426261015e-07   5.801163244843784e-07
6.538217918130147e-06   -5.188875426261015e-07   5.801163244843784e-07
6.538217918130147e-06   -5.188875426261015e-07   5.801163244843784e-07
6.538217918130147e-06   -5.188875426261015e-07   5.801163244843784e-07
2.5458324527389448e-05   9.214834750922028e-07   -3.181761730157874e-05
2.5458324527389448e-05   9.214834750922028e-07   -3.181761730157874e-05
2.5458324527389448e-05   9.214834750922028e-07   -3.181761730157874e-05
2.5458324527389448e-05   9.214834750922028e-07   -3.181761730157874e-05
4.4491607614360354e-05   0.0   -6.740687032152089e-05
4.4491607614360354e-05   0.0   -6.740687032152089e-05
4.4491607614360354e-05   0.0   -6.740687032152089e-05
4.4491607614360354e-05   0.0   -6.740687032152089e-05
0.00010041572391739348   -1.322472195996785e-05   1.7865157007554167e-05
0.00010041572391739348   -1.322472195996785e-05   1.7865157007554167e-05
0.00010041572391739348   -1.322472195996785e-05   1.7865157007554167e-05
0.00010041572391739348   -1.322472195996785e-05   1.7865157007554167e-05
9.429909323384904e-05   0.0   -7.452018616349013e-05
9.429909323384904e-05   0.0   -7.452018616349013e-05
9.429909323384904e-05   0.0   -7.452018616349013e-05
9.429909323384904e-05   0.0   -7.452018616349013e-05
4.4564965298916574e-05   -1.1255174084588446e-05   1.512313151215037e-05
4.4564965298916574e-05   -1.1255174084588446e-05   1.512313151215037e-05
4.4564965298916574e-05   -1.1255174084588446e-05   1.512313151215037e-05
4.4564965298916574e-05   -1.1255174084588446e-05   1.512313151215037e-05
6.93953504241047e-05   -5.927763201641031e-06   -2.9457290226264902e-05
6.93953504241047e-05   -5.927763201641031e-06   -2.9457290226264902e-05
6.93953504241047e-05   -5.927763201641031e-06   -2.9457290226264902e-05
6.93953504241047e-05   -5.927763201641031e-06   -2.9457290226264902e-05
4.456496529891654e-05   0.0   -6.776708171273699e-05
4.456496529891654e-05   0.0   -6.776708171273699e-05
4.456496529891654e-05   0.0   -6.776708171273699e-05
4.456496529891654e-05   0.0   -6.776708171273699e-05
9.429909323384871e-05   -1.125517408458842e-05   8.370027061397234e-06
9.429909323384871e-05   -1.125517408458842e-05   8.370027061397234e-06
9.429909323384871e-05   -1.125517408458842e-05   8.370027061397234e-06
9.429909323384871e-05   -1.125517408458842e-05   8.370027061397234e-06
9.147622973433571e-05   0.0   -7.297081633630536e-05
9.147622973433571e-05   0.0   -7.297081633630536e-05
9.147622973433571e-05   0.0   -7.297081633630536e-05
9.147622973433571e-05   0.0   -7.297081633630536e-05
4.4369139708315204e-05   -1.0285773666244053e-05   1.1712464573475242e-05
4.4369139708315204e-05   -1.0285773666244053e-05   1.1712464573475242e-05
4.4369139708315204e-05   -1.0285773666244053e-05   1.1712464573475242e-05
4.4369139708315204e-05   -1.0285773666244053e-05   1.1712464573475242e-05
6.80205975166261e-05   -4.336445519640264e-06   -3.127622866167187e-05
6.80205975166261e-05   -4.336445519640264e-06   -3.127622866167187e-05
6.80205975166261e-05   -4.336445519640264e-06   -3.127622866167187e-05
6.80205975166261e-05   -4.336445519640264e-06   -3.127622866167187e-05
4.4369139708315204e-05   0.0   -6.679935213655893e-05
4.4369139708315204e-05   0.0   -6.679935213655893e-05
4.4369139708315204e-05   0.0   -6.679935213655893e-05
4.4369139708315204e-05   0.0   -6.679935213655893e-05
9.14762297343354e-05   -1.0285773666244026e-05   5.541000373728792e-06
9.14762297343354e-05   -1.0285773666244026e-05   5.541000373728792e-06
9.14762297343354e-05   -1.0285773666244026e-05   5.541000373728792e-06
9.14762297343354e-05   -1.0285773666244026e-05   5.541000373728792e-06
8.727724697417493e-05   0.0   -6.900572477574357e-05
8.727724697417493e-05   0.0   -6.900572477574357e-05
8.727724697417493e-05   0.0   -6.900572477574357e-05
8.727724697417493e-05   0.0   -6.900572477574357e-05
4.5223670239235e-05   -7.997924510240524e-06   5.882324488634119e-06
4.5223670239235e-05   -7.997924510240524e-06   5.882324488634119e-06
4.5223670239235e-05   -7.997924510240524e-06   5.882324488634119e-06
4.5223670239235e-05   -7.997924510240524e-06   5.882324488634119e-06
6.582319334124515e-05   -1.8386438659872921e-06   -3.214578240126804e-05
6.582319334124515e-05   -1.8386438659872921e-06   -3.214578240126804e-05
6.582319334124515e-05   -1.8386438659872921e-06   -3.214578240126804e-05
6.582319334124515e-05   -1.8386438659872921e-06   -3.214578240126804e-05
-9.821110394649272e-05   1.2541594093521015e-05   -6.440486402495055e-05
-9.821110394649272e-05   1.2541594093521015e-05   -6.440486402495055e-05
-9.821110394649272e-05   1.2541594093521015e-05   -6.440486402495055e-05
-9.821110394649272e-05   1.2541594093521015e-05   -6.440486402495055e-05
-6.289997666028124e-05   1.1280752619664412e-05   -6.309490098911971e-06
-6.289997666028124e-05   1.1280752619664412e-05   -6.309490098911971e-06
-6.289997666028124e-05   1.1280752619664412e-05   -6.309490098911971e-06
-6.289997666028124e-05   1.1280752619664412e-05   -6.309490098911971e-06
-6.448498037412586e-05   1.5047285845797058e-05   -5.408648522265395e-05
-6.448498037412586e-05   1.5047285845797058e-05   -5.408648522265395e-05
-6.448498037412586e-05   1.5047285845797058e-05   -5.408648522265395e-05
-6.448498037412586e-05   1.5047285845797058e-05   -5.408648522265395e-05
-9.927930442257578e-05   1.353736351716021e-05   4.810008255278137e-06
-9.927930442257578e-05   1.353736351716021e-05   4.810008255278137e-06
-9.927930442257578e-05   1.353736351716021e-05   4.810008255278137e-06
-9.927930442257578e-05   1.353736351716021e-05   4.810008255278137e-06
-7.800220269161186e-05   1.309909044741291e-05   -3.038886412114715e-05
-7.800220269161186e-05   1.309909044741291e-05   -3.038886412114715e-05
-7.800220269161186e-05   1.309909044741291e-05   -3.038886412114715e-05
-7.800220269161186e-05   1.309909044741291e-05   -3.038886412114715e-05
-9.927930442257578e-05   1.5047285845797058e-05   -5.3180531825471834e-05
-9.927930442257578e-05   1.5047285845797058e-05   -5.3180531825471834e-05
-9.927930442257578e-05   1.5047285845797058e-05   -5.3180531825471834e-05
-9.927930442257578e-05   1.5047285845797058e-05   -5.3180531825471834e-05
-6.44849803741261e-05   1.3537363517160264e-05   3.904054858096061e-06
-6.44849803741261e-05   1.3537363517160264e-05   3.904054858096061e-06
-6.44849803741261e-05   1.3537363517160264e-05   3.904054858096061e-06
-6.44849803741261e-05   1.3537363517160264e-05   3.904054858096061e-06
-6.481959001863413e-05   1.612000872944119e-05   -4.862448330677371e-05
-6.481959001863413e-05   1.612000872944119e-05   -4.862448330677371e-05
-6.481959001863413e-05   1.612000872944119e-05   -4.862448330677371e-05
-6.481959001863413e-05   1.612000872944119e-05   -4.862448330677371e-05
-9.998236125267584e-05   1.4555752544896812e-05   1.0918689127355338e-05
-9.998236125267584e-05   1.4555752544896812e-05   1.0918689127355338e-05
-9.998236125267584e-05   1.4555752544896812e-05   1.0918689127355338e-05
-9.998236125267584e-05   1.4555752544896812e-05   1.0918689127355338e-05
-8.02990402018227e-05   1.4518112667694278e-05   -2.1864262031078062e-05
-8.02990402018227e-05   1.4518112667694278e-05   -2.1864262031078062e-05
-8.02990402018227e-05   1.4518112667694278e-05   -2.1864262031078062e-05
-8.02990402018227e-05   1.4518112667694278e-05   -2.1864262031078062e-05
-9.998236125267565e-05   1.612000872944119e-05   -4.768592959604714e-05
-9.998236125267565e-05   1.612000872944119e-05   -4.768592959604714e-05
-9.998236125267565e-05   1.612000872944119e-05   -4.768592959604714e-05
-9.998236125267565e-05   1.612000872944119e-05   -4.768592959604714e-05
-6.481959001863423e-05   1.4555752544896812e-05   9.980135416628712e-06
-6.481959001863423e-05   1.4555752544896812e-05   9.980135416628712e-06
-6.481959001863423e-05   1.4555752544896812e-05   9.980135416628712e-06
-6.481959001863423e-05   1.4555752544896812e-05   9.980135416628712e-06
-6.445420210939448e-05   1.8361214076088747e-05   -3.59205727322504e-05
-6.445420210939448e-05   1.8361214076088747e-05   -3.59205727322504e-05
-6.445420210939448e-05   1.8361214076088747e-05   -3.59205727322504e-05
-6.445420210939448e-05   1.8361214076088747e-05   -3.59205727322504e-05
-9.721622990067558e-05   1.5364416988321067e-05   2.0480885172545038e-05
-9.721622990067558e-05   1.5364416988321067e-05   2.0480885172545038e-05
-9.721622990067558e-05   1.5364416988321067e-05   2.0480885172545038e-05
-9.721622990067558e-05   1.5364416988321067e-05   2.0480885172545038e-05
-7.821433552585518e-05   1.5923002802651113e-05   -1.1524090274086878e-05
-7.821433552585518e-05   1.5923002802651113e-05   -1.1524090274086878e-05
-7.821433552585518e-05   1.5923002802651113e-05   -1.1524090274086878e-05
-7.821433552585518e-05   1.5923002802651113e-05   -1.1524090274086878e-05
-6.289997666028124e-05   4.601084256259188e-06   -6.837359169007965e-05
-6.289997666028124e-05   4.601084256259188e-06   -6.837359169007965e-05
-6.289997666028124e-05   4.601084256259188e-06   -6.837359169007965e-05
-6.289997666028124e-05   4.601084256259188e-06   -6.837359169007965e-05
-2.9799446833379254e-05   5.24903538384313e-06   -1.2817271302025919e-05
-2.9799446833379254e-05   5.24903538384313e-06   -1.2817271302025919e-05
-2.9799446833379254e-05   5.24903538384313e-06   -1.2817271302025919e-05
-2.9799446833379254e-05   5.24903538384313e-06   -1.2817271302025919e-05
-3.0513983573262134e-05   6.548263796624511e-06   -6.827146295422244e-05
-3.0513983573262134e-05   6.548263796624511e-06   -6.827146295422244e-05
-3.0513983573262134e-05   6.548263796624511e-06   -6.827146295422244e-05
-3.0513983573262134e-05   6.548263796624511e-06   -6.827146295422244e-05
-6.448498037412586e-05   7.324185152397062e-06   -1.2118687766246171e-05
-6.448498037412586e-05   7.324185152397062e-06   -1.2118687766246171e-05
-6.448498037412586e-05   7.324185152397062e-06   -1.2118687766246171e-05
-6.448498037412586e-05   7.324185152397062e-06   -1.2118687766246171e-05
-4.6792632977339226e-05   5.897705919010273e-06   -4.075004588752559e-05
-4.6792632977339226e-05   5.897705919010273e-06   -4.075004588752559e-05
-4.6792632977339226e-05   5.897705919010273e-06   -4.075004588752559e-05
-4.6792632977339226e-05   5.897705919010273e-06   -4.075004588752559e-05
-6.448498037412582e-05   6.548263796624511e-06   -6.873701576768583e-05
-6.448498037412582e-05   6.548263796624511e-06   -6.873701576768583e-05
-6.448498037412582e-05   6.548263796624511e-06   -6.873701576768583e-05
-6.448498037412582e-05   6.548263796624511e-06   -6.873701576768583e-05
-3.0513983573262188e-05   7.324185152397062e-06   -1.1653134952782691e-05
-3.0513983573262188e-05   7.324185152397062e-06   -1.1653134952782691e-05
-3.0513983573262188e-05   7.324185152397062e-06   -1.1653134952782691e-05
-3.0513983573262188e-05   7.324185152397062e-06   -1.1653134952782691e-05
-3.074082125040573e-05   8.022611985499399e-06   -6.699347834016509e-05
-3.074082125040573e-05   8.022611985499399e-06   -6.699347834016509e-05
-3.074082125040573e-05   8.022611985499399e-06   -6.699347834016509e-05
-3.074082125040573e-05   8.022611985499399e-06   -6.699347834016509e-05
-6.481959001863413e-05   9.04158569427167e-06   -1.0806914618381172e-05
-6.481959001863413e-05   9.04158569427167e-06   -1.0806914618381172e-05
-6.481959001863413e-05   9.04158569427167e-06   -1.0806914618381172e-05
-6.481959001863413e-05   9.04158569427167e-06   -1.0806914618381172e-05
-4.7161448407570276e-05   7.48435128984171e-06   -3.9302809994162764e-05
-4.7161448407570276e-05   7.48435128984171e-06   -3.9302809994162764e-05
-4.7161448407570276e-05   7.48435128984171e-06   -3.9302809994162764e-05
-4.7161448407570276e-05   7.48435128984171e-06   -3.9302809994162764e-05
-6.481959001863413e-05   8.022611985499399e-06   -6.760486256542845e-05
-6.481959001863413e-05   8.022611985499399e-06   -6.760486256542845e-05
-6.481959001863413e-05   8.022611985499399e-06   -6.760486256542845e-05
-6.481959001863413e-05   8.022611985499399e-06   -6.760486256542845e-05
-3.074082125040582e-05   9.041585694271725e-06   -1.0195530393117823e-05
-3.074082125040582e-05   9.041585694271725e-06   -1.0195530393117823e-05
-3.074082125040582e-05   9.041585694271725e-06   -1.0195530393117823e-05
-3.074082125040582e-05   9.041585694271725e-06   -1.0195530393117823e-05
-3.066899662256729e-05   9.334286909503509e-06   -6.630797172777153e-05
-3.066899662256729e-05   9.334286909503509e-06   -6.630797172777153e-05
-3.066899662256729e-05   9.334286909503509e-06   -6.630797172777153e-05
-3.066899662256729e-05   9.334286909503509e-06   -6.630797172777153e-05
-6.445420210939441e-05   1.0889210661290804e-05   -1.0932250167465393e-05
-6.445420210939441e-05   1.0889210661290804e-05   -1.0932250167465393e-05
-6.445420210939441e-05   1.0889210661290804e-05   -1.0932250167465393e-05
-6.445420210939441e-05   1.0889210661290804e-05   -1.0932250167465393e-05
-4.744233936180245e-05   8.920430815553468e-06   -3.810408683934316e-05
-4.744233936180245e-05   8.920430815553468e-06   -3.810408683934316e-05
-4.744233936180245e-05   8.920430815553468e-06   -3.810408683934316e-05
-4.744233936180245e-05   8.920430815553468e-06   -3.810408683934316e-05
-2.97994468333792e-05   -5.88472476917767e-07   -7.158629951626336e-05
-2.97994468333792e-05   -5.88472476917767e-07   -7.158629951626336e-05
-2.97994468333792e-05   -5.88472476917767e-07   -7.158629951626336e-05
-2.97994468333792e-05   -5.88472476917767e-07   -7.158629951626336e-05
2.8839835524906865e-06   -1.557318339858284e-07   -1.6854271154054368e-05
2.8839835524906865e-06   -1.557318339858284e-07   -1.6854271154054368e-05
2.8839835524906865e-06   -1.557318339858284e-07   -1.6854271154054368e-05
2.8839835524906865e-06   -1.557318339858284e-07   -1.6854271154054368e-05
2.746491701068652e-06   1.160477474567963e-06   -7.198610194094936e-05
2.746491701068652e-06   1.160477474567963e-06   -7.198610194094936e-05
2.746491701068652e-06   1.160477474567963e-06   -7.198610194094936e-05
2.746491701068652e-06   1.160477474567963e-06   -7.198610194094936e-05
-3.0513983573262134e-05   1.7560988617462648e-06   -1.6909349316038128e-05
-3.0513983573262134e-05   1.7560988617462648e-06   -1.6909349316038128e-05
-3.0513983573262134e-05   1.7560988617462648e-06   -1.6909349316038128e-05
-3.0513983573262134e-05   1.7560988617462648e-06   -1.6909349316038128e-05
-1.375329042161267e-05   5.828695211906746e-07   -4.413990029778736e-05
-1.375329042161267e-05   5.828695211906746e-07   -4.413990029778736e-05
-1.375329042161267e-05   5.828695211906746e-07   -4.413990029778736e-05
-1.375329042161267e-05   5.828695211906746e-07   -4.413990029778736e-05
-3.0513983573262134e-05   1.160477474567963e-06   -7.234347477325621e-05
-3.0513983573262134e-05   1.160477474567963e-06   -7.234347477325621e-05
-3.0513983573262134e-05   1.160477474567963e-06   -7.234347477325621e-05
-3.0513983573262134e-05   1.160477474567963e-06   -7.234347477325621e-05
2.746491701068652e-06   1.7560988617462106e-06   -1.6551976483731166e-05
2.746491701068652e-06   1.7560988617462106e-06   -1.6551976483731166e-05
2.746491701068652e-06   1.7560988617462106e-06   -1.6551976483731166e-05
2.746491701068652e-06   1.7560988617462106e-06   -1.6551976483731166e-05
2.5601755222340195e-06   2.7002452918865725e-06   -7.213708275452967e-05
2.5601755222340195e-06   2.7002452918865725e-06   -7.213708275452967e-05
2.5601755222340195e-06   2.7002452918865725e-06   -7.213708275452967e-05
2.5601755222340195e-06   2.7002452918865725e-06   -7.213708275452967e-05
-3.074082125040573e-05   3.6240137935036974e-06   -1.718968256776712e-05
-3.074082125040573e-05   3.6240137935036974e-06   -1.718968256776712e-05
-3.074082125040573e-05   3.6240137935036974e-06   -1.718968256776712e-05
-3.074082125040573e-05   3.6240137935036974e-06   -1.718968256776712e-05
-1.4013207729708797e-05   2.2031983549293164e-06   -4.421654917245053e-05
-1.4013207729708797e-05   2.2031983549293164e-06   -4.421654917245053e-05
-1.4013207729708797e-05   2.2031983549293164e-06   -4.421654917245053e-05
-1.4013207729708797e-05   2.2031983549293164e-06   -4.421654917245053e-05
-3.074082125040573e-05   2.7002452918865725e-06   -7.269134385549994e-05
-3.074082125040573e-05   2.7002452918865725e-06   -7.269134385549994e-05
-3.074082125040573e-05   2.7002452918865725e-06   -7.269134385549994e-05
-3.074082125040573e-05   2.7002452918865725e-06   -7.269134385549994e-05
2.5601755222340238e-06   3.6240137935036974e-06   -1.6635421466796853e-05
2.5601755222340238e-06   3.6240137935036974e-06   -1.6635421466796853e-05
2.5601755222340238e-06   3.6240137935036974e-06   -1.6635421466796853e-05
2.5601755222340238e-06   3.6240137935036974e-06   -1.6635421466796853e-05
2.1883482536866476e-06   4.483929098599506e-06   -7.201272912972624e-05
2.1883482536866476e-06   4.483929098599506e-06   -7.201272912972624e-05
2.1883482536866476e-06   4.483929098599506e-06   -7.201272912972624e-05
2.1883482536866476e-06   4.483929098599506e-06   -7.201272912972624e-05
-3.066899662256731e-05   5.5703005232713505e-06   -1.7902310524106136e-05
-3.066899662256731e-05   5.5703005232713505e-06   -1.7902310524106136e-05
-3.066899662256731e-05   5.5703005232713505e-06   -1.7902310524106136e-05
-3.066899662256731e-05   5.5703005232713505e-06   -1.7902310524106136e-05
-1.4171896961988062e-05   3.867767421244833e-06   -4.4375956763855575e-05
-1.4171896961988062e-05   3.867767421244833e-06   -4.4375956763855575e-05
-1.4171896961988062e-05   3.867767421244833e-06   -4.4375956763855575e-05
-1.4171896961988062e-05   3.867767421244833e-06   -4.4375956763855575e-05
2.8839835524906865e-06   -5.218389841634617e-06   -6.605272420760984e-05
2.8839835524906865e-06   -5.218389841634617e-06   -6.605272420760984e-05
2.8839835524906865e-06   -5.218389841634617e-06   -6.605272420760984e-05
2.8839835524906865e-06   -5.218389841634617e-06   -6.605272420760984e-05
3.656488196224909e-05   -5.365230071808244e-06   -1.0005997662783302e-05
3.656488196224909e-05   -5.365230071808244e-06   -1.0005997662783302e-05
3.656488196224909e-05   -5.365230071808244e-06   -1.0005997662783302e-05
3.656488196224909e-05   -5.365230071808244e-06   -1.0005997662783302e-05
3.686095669203332e-05   -3.935114346076724e-06   -6.69754847116556e-05
3.686095669203332e-05   -3.935114346076724e-06   -6.69754847116556e-05
3.686095669203332e-05   -3.935114346076724e-06   -6.69754847116556e-05
3.686095669203332e-05   -3.935114346076724e-06   -6.69754847116556e-05
2.746491701068652e-06   -3.6285382099525572e-06   -1.030198874172217e-05
2.746491701068652e-06   -3.6285382099525572e-06   -1.030198874172217e-05
2.746491701068652e-06   -3.6285382099525572e-06   -1.030198874172217e-05
2.746491701068652e-06   -3.6285382099525572e-06   -1.030198874172217e-05
1.951147945422204e-05   -4.3429673248939935e-06   -3.7814977528013085e-05
1.951147945422204e-05   -4.3429673248939935e-06   -3.7814977528013085e-05
1.951147945422204e-05   -4.3429673248939935e-06   -3.7814977528013085e-05
1.951147945422204e-05   -4.3429673248939935e-06   -3.7814977528013085e-05
2.746491701068647e-06   -3.935114346076738e-06   -6.715943039333021e-05
2.746491701068647e-06   -3.935114346076738e-06   -6.715943039333021e-05
2.746491701068647e-06   -3.935114346076738e-06   -6.715943039333021e-05
2.746491701068647e-06   -3.935114346076738e-06   -6.715943039333021e-05
3.68609566920334e-05   -3.6285382099525572e-06   -1.0118043060047648e-05
3.68609566920334e-05   -3.6285382099525572e-06   -1.0118043060047648e-05
3.68609566920334e-05   -3.6285382099525572e-06   -1.0118043060047648e-05
3.68609566920334e-05   -3.6285382099525572e-06   -1.0118043060047648e-05
3.667491104478421e-05   -2.477669828081534e-06   -6.82307720906612e-05
3.667491104478421e-05   -2.477669828081534e-06   -6.82307720906612e-05
3.667491104478421e-05   -2.477669828081534e-06   -6.82307720906612e-05
3.667491104478421e-05   -2.477669828081534e-06   -6.82307720906612e-05
2.5601755222340195e-06   -1.927115550051715e-06   -1.1703212119895474e-05
2.5601755222340195e-06   -1.927115550051715e-06   -1.1703212119895474e-05
2.5601755222340195e-06   -1.927115550051715e-06   -1.1703212119895474e-05
2.5601755222340195e-06   -1.927115550051715e-06   -1.1703212119895474e-05
1.929918963356117e-05   -2.956088669951349e-06   -3.898418510016753e-05
1.929918963356117e-05   -2.956088669951349e-06   -3.898418510016753e-05
1.929918963356117e-05   -2.956088669951349e-06   -3.898418510016753e-05
1.929918963356117e-05   -2.956088669951349e-06   -3.898418510016753e-05
2.560175522234018e-06   -2.4776698280815475e-06   -6.856110465747906e-05
2.560175522234018e-06   -2.4776698280815475e-06   -6.856110465747906e-05
2.560175522234018e-06   -2.4776698280815475e-06   -6.856110465747906e-05
2.560175522234018e-06   -2.4776698280815475e-06   -6.856110465747906e-05
3.6674911044784347e-05   -1.9271155500517694e-06   -1.1372879553077613e-05
3.6674911044784347e-05   -1.9271155500517694e-06   -1.1372879553077613e-05
3.6674911044784347e-05   -1.9271155500517694e-06   -1.1372879553077613e-05
3.6674911044784347e-05   -1.9271155500517694e-06   -1.1372879553077613e-05
3.559951217200475e-05   -5.188875426261015e-07   -6.835114516966708e-05
3.559951217200475e-05   -5.188875426261015e-07   -6.835114516966708e-05
3.559951217200475e-05   -5.188875426261015e-07   -6.835114516966708e-05
3.559951217200475e-05   -5.188875426261015e-07   -6.835114516966708e-05
2.1883482536866476e-06   1.7764346352521507e-07   -1.3083790576161173e-05
2.1883482536866476e-06   1.7764346352521507e-07   -1.3083790576161173e-05
2.1883482536866476e-06   1.7764346352521507e-07   -1.3083790576161173e-05
2.1883482536866476e-06   1.7764346352521507e-07   -1.3083790576161173e-05
1.908448956128621e-05   -1.3362172070849755e-06   -4.033570968646089e-05
1.908448956128621e-05   -1.3362172070849755e-06   -4.033570968646089e-05
1.908448956128621e-05   -1.3362172070849755e-06   -4.033570968646089e-05
1.908448956128621e-05   -1.3362172070849755e-06   -4.033570968646089e-05
3.656488196224909e-05   -1.322472195996785e-05   -3.9969244019961406e-05
3.656488196224909e-05   -1.322472195996785e-05   -3.9969244019961406e-05
3.656488196224909e-05   -1.322472195996785e-05   -3.9969244019961406e-05
3.656488196224909e-05   -1.322472195996785e-05   -3.9969244019961406e-05
6.981223153429547e-05   -9.974276473019713e-06   1.7393272558951308e-05
6.981223153429547e-05   -9.974276473019713e-06   1.7393272558951308e-05
6.981223153429547e-05   -9.974276473019713e-06   1.7393272558951308e-05
6.981223153429547e-05   -9.974276473019713e-06   1.7393272558951308e-05
7.245770783221763e-05   -1.1255174084588433e-05   -4.8594609401789484e-05
7.245770783221763e-05   -1.1255174084588433e-05   -4.8594609401789484e-05
7.245770783221763e-05   -1.1255174084588433e-05   -4.8594609401789484e-05
7.245770783221763e-05   -1.1255174084588433e-05   -4.8594609401789484e-05
3.686095669203345e-05   -9.050780688785024e-06   9.410673127702239e-06
3.686095669203345e-05   -9.050780688785024e-06   9.410673127702239e-06
3.686095669203345e-05   -9.050780688785024e-06   9.410673127702239e-06
3.686095669203345e-05   -9.050780688785024e-06   9.410673127702239e-06
5.141630071318289e-05   -1.083054644032794e-05   -1.3780374123287817e-05
5.141630071318289e-05   -1.083054644032794e-05   -1.3780374123287817e-05
5.141630071318289e-05   -1.083054644032794e-05   -1.3780374123287817e-05
5.141630071318289e-05   -1.083054644032794e-05   -1.3780374123287817e-05
3.686095669203336e-05   -1.1255174084588433e-05   -4.991724543927134e-05
3.686095669203336e-05   -1.1255174084588433e-05   -4.991724543927134e-05
3.686095669203336e-05   -1.1255174084588433e-05   -4.991724543927134e-05
3.686095669203336e-05   -1.1255174084588433e-05   -4.991724543927134e-05
7.245770783221763e-05   -9.050780688785024e-06   1.0733309165184305e-05
7.245770783221763e-05   -9.050780688785024e-06   1.0733309165184305e-05
7.245770783221763e-05   -9.050780688785024e-06   1.0733309165184305e-05
7.245770783221763e-05   -9.050780688785024e-06   1.0733309165184305e-05
7.217913781400756e-05   -1.0285773666244053e-05   -5.2850717537799845e-05
7.217913781400756e-05   -1.0285773666244053e-05   -5.2850717537799845e-05
7.217913781400756e-05   -1.0285773666244053e-05   -5.2850717537799845e-05
7.217913781400756e-05   -1.0285773666244053e-05   -5.2850717537799845e-05
3.6674911044784347e-05   -8.07159700383375e-06   4.99448774679258e-06
3.6674911044784347e-05   -8.07159700383375e-06   4.99448774679258e-06
3.6674911044784347e-05   -8.07159700383375e-06   4.99448774679258e-06
3.6674911044784347e-05   -8.07159700383375e-06   4.99448774679258e-06
5.320652829856446e-05   -9.566370195145395e-06   -2.166134376138727e-05
5.320652829856446e-05   -9.566370195145395e-06   -2.166134376138727e-05
5.320652829856446e-05   -9.566370195145395e-06   -2.166134376138727e-05
5.320652829856446e-05   -9.566370195145395e-06   -2.166134376138727e-05
3.6674911044784286e-05   -1.0285773666244026e-05   -5.417922353524596e-05
3.6674911044784286e-05   -1.0285773666244026e-05   -5.417922353524596e-05
3.6674911044784286e-05   -1.0285773666244026e-05   -5.417922353524596e-05
3.6674911044784286e-05   -1.0285773666244026e-05   -5.417922353524596e-05
7.217913781400756e-05   -8.07159700383375e-06   6.322993744238765e-06
7.217913781400756e-05   -8.07159700383375e-06   6.322993744238765e-06
7.217913781400756e-05   -8.07159700383375e-06   6.322993744238765e-06
7.217913781400756e-05   -8.07159700383375e-06   6.322993744238765e-06
7.17341055468564e-05   -7.997924510240524e-06   -6.151739202049148e-05
7.17341055468564e-05   -7.997924510240524e-06   -6.151739202049148e-05
7.17341055468564e-05   -7.997924510240524e-06   -6.151739202049148e-05
7.17341055468564e-05   -7.997924510240524e-06   -6.151739202049148e-05
3.5599512172004876e-05   -5.964237077823043e-06   -2.5132821885228145e-06
3.5599512172004876e-05   -5.964237077823043e-06   -2.5132821885228145e-06
3.5599512172004876e-05   -5.964237077823043e-06   -2.5132821885228145e-06
3.5599512172004876e-05   -5.964237077823043e-06   -2.5132821885228145e-06
5.167775165028016e-05   -8.238221032779548e-06   -2.794595761267433e-05
5.167775165028016e-05   -8.238221032779548e-06   -2.794595761267433e-05
5.167775165028016e-05   -8.238221032779548e-06   -2.794595761267433e-05
5.167775165028016e-05   -8.238221032779548e-06   -2.794595761267433e-05
-7.82654551821165e-05   1.1280752619664412e-05   -5.399812953074128e-05
-7.82654551821165e-05   1.1280752619664412e-05   -5.399812953074128e-05
-7.82654551821165e-05   1.1280752619664412e-05   -5.399812953074128e-05
-7.82654551821165e-05   1.1280752619664412e-05   -5.399812953074128e-05
-5.130257078719605e-05   8.622344288885934e-06   -1.0655033871007628e-05
-5.130257078719605e-05   8.622344288885934e-06   -1.0655033871007628e-05
-5.130257078719605e-05   8.622344288885934e-06   -1.0655033871007628e-05
-5.130257078719605e-05   8.622344288885934e-06   -1.0655033871007628e-05
-5.15522622547942e-05   1.353736351716021e-05   -4.483337807294598e-05
-5.15522622547942e-05   1.353736351716021e-05   -4.483337807294598e-05
-5.15522622547942e-05   1.353736351716021e-05   -4.483337807294598e-05
-5.15522622547942e-05   1.353736351716021e-05   -4.483337807294598e-05
-7.708443034389615e-05   1.0429097408658022e-05   -4.148049260080215e-07
-7.708443034389615e-05   1.0429097408658022e-05   -4.148049260080215e-07
-7.708443034389615e-05   1.0429097408658022e-05   -4.148049260080215e-07
-7.708443034389615e-05   1.0429097408658022e-05   -4.148049260080215e-07
-6.182142086863865e-05   1.1470134700417457e-05   -2.6477776426492934e-05
-6.182142086863865e-05   1.1470134700417457e-05   -2.6477776426492934e-05
-6.182142086863865e-05   1.1470134700417457e-05   -2.6477776426492934e-05
-6.182142086863865e-05   1.1470134700417457e-05   -2.6477776426492934e-05
-7.708443034389615e-05   1.353736351716021e-05   -4.296841840784461e-05
-7.708443034389615e-05   1.353736351716021e-05   -4.296841840784461e-05
-7.708443034389615e-05   1.353736351716021e-05   -4.296841840784461e-05
-7.708443034389615e-05   1.353736351716021e-05   -4.296841840784461e-05
-5.15522622547942e-05   1.0429097408658022e-05   -2.279764591109145e-06
-5.15522622547942e-05   1.0429097408658022e-05   -2.279764591109145e-06
-5.15522622547942e-05   1.0429097408658022e-05   -2.279764591109145e-06
-5.15522622547942e-05   1.0429097408658022e-05   -2.279764591109145e-06
-5.150182028868948e-05   1.4555752544896812e-05   -3.8354464944543145e-05
-5.150182028868948e-05   1.4555752544896812e-05   -3.8354464944543145e-05
-5.150182028868948e-05   1.4555752544896812e-05   -3.8354464944543145e-05
-5.150182028868948e-05   1.4555752544896812e-05   -3.8354464944543145e-05
-7.59323178299662e-05   1.1222658166197943e-05   4.362887584803991e-06
-7.59323178299662e-05   1.1222658166197943e-05   4.362887584803991e-06
-7.59323178299662e-05   1.1222658166197943e-05   4.362887584803991e-06
-7.59323178299662e-05   1.1222658166197943e-05   4.362887584803991e-06
-6.23584947047146e-05   1.2517545329396198e-05   -1.9037083255200383e-05
-6.23584947047146e-05   1.2517545329396198e-05   -1.9037083255200383e-05
-6.23584947047146e-05   1.2517545329396198e-05   -1.9037083255200383e-05
-6.23584947047146e-05   1.2517545329396198e-05   -1.9037083255200383e-05
-7.59323178299662e-05   1.4555752544896812e-05   -3.635460831732381e-05
-7.59323178299662e-05   1.4555752544896812e-05   -3.635460831732381e-05
-7.59323178299662e-05   1.4555752544896812e-05   -3.635460831732381e-05
-7.59323178299662e-05   1.4555752544896812e-05   -3.635460831732381e-05
-5.150182028868956e-05   1.1222658166197943e-05   2.363030957584902e-06
-5.150182028868956e-05   1.1222658166197943e-05   2.363030957584902e-06
-5.150182028868956e-05   1.1222658166197943e-05   2.363030957584902e-06
-5.150182028868956e-05   1.1222658166197943e-05   2.363030957584902e-06
-5.155562520219934e-05   1.5364416988321067e-05   -2.9279793029595878e-05
-5.155562520219934e-05   1.5364416988321067e-05   -2.9279793029595878e-05
-5.155562520219934e-05   1.5364416988321067e-05   -2.9279793029595878e-05
-5.155562520219934e-05   1.5364416988321067e-05   -2.9279793029595878e-05
-7.442658239939186e-05   1.2002940581801245e-05   1.0855354809636577e-05
-7.442658239939186e-05   1.2002940581801245e-05   1.0855354809636577e-05
-7.442658239939186e-05   1.2002940581801245e-05   1.0855354809636577e-05
-7.442658239939186e-05   1.2002940581801245e-05   1.0855354809636577e-05
-6.094039708228305e-05   1.306805741249444e-05   -1.226069081729323e-05
-6.094039708228305e-05   1.306805741249444e-05   -1.226069081729323e-05
-6.094039708228305e-05   1.306805741249444e-05   -1.226069081729323e-05
-6.094039708228305e-05   1.306805741249444e-05   -1.226069081729323e-05
-5.130257078719605e-05   5.24903538384313e-06   -6.248972640887269e-05
-5.130257078719605e-05   5.24903538384313e-06   -6.248972640887269e-05
-5.130257078719605e-05   5.24903538384313e-06   -6.248972640887269e-05
-5.130257078719605e-05   5.24903538384313e-06   -6.248972640887269e-05
-2.6102923083281486e-05   4.298344588742433e-06   -2.106072804607545e-05
-2.6102923083281486e-05   4.298344588742433e-06   -2.106072804607545e-05
-2.6102923083281486e-05   4.298344588742433e-06   -2.106072804607545e-05
-2.6102923083281486e-05   4.298344588742433e-06   -2.106072804607545e-05
-2.6421410372854767e-05   7.324185152397062e-06   -6.160559918237738e-05
-2.6421410372854767e-05   7.324185152397062e-06   -6.160559918237738e-05
-2.6421410372854767e-05   7.324185152397062e-06   -6.160559918237738e-05
-2.6421410372854767e-05   7.324185152397062e-06   -6.160559918237738e-05
-5.155226225479412e-05   6.075054343914919e-06   -1.8971367560722478e-05
-5.155226225479412e-05   6.075054343914919e-06   -1.8971367560722478e-05
-5.155226225479412e-05   6.075054343914919e-06   -1.8971367560722478e-05
-5.155226225479412e-05   6.075054343914919e-06   -1.8971367560722478e-05
-3.851240995361201e-05   6.052325661273436e-06   -4.069081751977444e-05
-3.851240995361201e-05   6.052325661273436e-06   -4.069081751977444e-05
-3.851240995361201e-05   6.052325661273436e-06   -4.069081751977444e-05
-3.851240995361201e-05   6.052325661273436e-06   -4.069081751977444e-05
-5.1552262254794145e-05   7.324185152397062e-06   -6.085612069728794e-05
-5.1552262254794145e-05   7.324185152397062e-06   -6.085612069728794e-05
-5.1552262254794145e-05   7.324185152397062e-06   -6.085612069728794e-05
-5.1552262254794145e-05   7.324185152397062e-06   -6.085612069728794e-05
-2.6421410372854808e-05   6.075054343915027e-06   -1.9720846045811616e-05
-2.6421410372854808e-05   6.075054343915027e-06   -1.9720846045811616e-05
-2.6421410372854808e-05   6.075054343915027e-06   -1.9720846045811616e-05
-2.6421410372854808e-05   6.075054343915027e-06   -1.9720846045811616e-05
-2.662844238238813e-05   9.04158569427167e-06   -5.9974547157452666e-05
-2.662844238238813e-05   9.04158569427167e-06   -5.9974547157452666e-05
-2.662844238238813e-05   9.04158569427167e-06   -5.9974547157452666e-05
-2.662844238238813e-05   9.04158569427167e-06   -5.9974547157452666e-05
-5.150182028868948e-05   7.653198731105509e-06   -1.7685885135717682e-05
-5.150182028868948e-05   7.653198731105509e-06   -1.7685885135717682e-05
-5.150182028868948e-05   7.653198731105509e-06   -1.7685885135717682e-05
-5.150182028868948e-05   7.653198731105509e-06   -1.7685885135717682e-05
-3.858501393021324e-05   7.513812294370013e-06   -3.913026387113603e-05
-3.858501393021324e-05   7.513812294370013e-06   -3.913026387113603e-05
-3.858501393021324e-05   7.513812294370013e-06   -3.913026387113603e-05
-3.858501393021324e-05   7.513812294370013e-06   -3.913026387113603e-05
-5.150182028868948e-05   9.041585694271725e-06   -5.9141514979553055e-05
-5.150182028868948e-05   9.041585694271725e-06   -5.9141514979553055e-05
-5.150182028868948e-05   9.041585694271725e-06   -5.9141514979553055e-05
-5.150182028868948e-05   9.041585694271725e-06   -5.9141514979553055e-05
-2.662844238238824e-05   7.653198731105617e-06   -1.851891731361715e-05
-2.662844238238824e-05   7.653198731105617e-06   -1.851891731361715e-05
-2.662844238238824e-05   7.653198731105617e-06   -1.851891731361715e-05
-2.662844238238824e-05   7.653198731105617e-06   -1.851891731361715e-05
-2.6895802229771043e-05   1.0889210661290858e-05   -5.982940555352838e-05
-2.6895802229771043e-05   1.0889210661290858e-05   -5.982940555352838e-05
-2.6895802229771043e-05   1.0889210661290858e-05   -5.982940555352838e-05
-2.6895802229771043e-05   1.0889210661290858e-05   -5.982940555352838e-05
-5.155562520219929e-05   9.331618266986445e-06   -1.7795145162898603e-05
-5.155562520219929e-05   9.331618266986445e-06   -1.7795145162898603e-05
-5.155562520219929e-05   9.331618266986445e-06   -1.7795145162898603e-05
-5.155562520219929e-05   9.331618266986445e-06   -1.7795145162898603e-05
-3.9043638941132504e-05   8.961121815864075e-06   -3.842615772733606e-05
-3.9043638941132504e-05   8.961121815864075e-06   -3.842615772733606e-05
-3.9043638941132504e-05   8.961121815864075e-06   -3.842615772733606e-05
-3.9043638941132504e-05   8.961121815864075e-06   -3.842615772733606e-05
-2.6102923083281445e-05   -1.5573183398588262e-07   -6.73567851237207e-05
-2.6102923083281445e-05   -1.5573183398588262e-07   -6.73567851237207e-05
-2.6102923083281445e-05   -1.5573183398588262e-07   -6.73567851237207e-05
-2.6102923083281445e-05   -1.5573183398588262e-07   -6.73567851237207e-05
-1.1867302623486081e-06   2.286439395314836e-07   -2.5599171624722257e-05
-1.1867302623486081e-06   2.286439395314836e-07   -2.5599171624722257e-05
-1.1867302623486081e-06   2.286439395314836e-07   -2.5599171624722257e-05
-1.1867302623486081e-06   2.286439395314836e-07   -2.5599171624722257e-05
-1.442456898989295e-06   1.7560988617462648e-06   -6.672911045426766e-05
-1.442456898989295e-06   1.7560988617462648e-06   -6.672911045426766e-05
-1.442456898989295e-06   1.7560988617462648e-06   -6.672911045426766e-05
-1.442456898989295e-06   1.7560988617462648e-06   -6.672911045426766e-05
-2.6421410372854767e-05   1.9772706806880534e-06   -2.5230224422523724e-05
-2.6421410372854767e-05   1.9772706806880534e-06   -2.5230224422523724e-05
-2.6421410372854767e-05   1.9772706806880534e-06   -2.5230224422523724e-05
-2.6421410372854767e-05   1.9772706806880534e-06   -2.5230224422523724e-05
-1.3710980402362317e-05   1.1518302140546923e-06   -4.591901009336448e-05
-1.3710980402362317e-05   1.1518302140546923e-06   -4.591901009336448e-05
-1.3710980402362317e-05   1.1518302140546923e-06   -4.591901009336448e-05
-1.3710980402362317e-05   1.1518302140546923e-06   -4.591901009336448e-05
-2.6421410372854767e-05   1.7560988617462648e-06   -6.686181354563283e-05
-2.6421410372854767e-05   1.7560988617462648e-06   -6.686181354563283e-05
-2.6421410372854767e-05   1.7560988617462648e-06   -6.686181354563283e-05
-2.6421410372854767e-05   1.7560988617462648e-06   -6.686181354563283e-05
-1.4424568989892975e-06   1.9772706806880534e-06   -2.509752133115852e-05
-1.4424568989892975e-06   1.9772706806880534e-06   -2.509752133115852e-05
-1.4424568989892975e-06   1.9772706806880534e-06   -2.509752133115852e-05
-1.4424568989892975e-06   1.9772706806880534e-06   -2.509752133115852e-05
-1.6277450060100802e-06   3.6240137935036974e-06   -6.691071348125676e-05
-1.6277450060100802e-06   3.6240137935036974e-06   -6.691071348125676e-05
-1.6277450060100802e-06   3.6240137935036974e-06   -6.691071348125676e-05
-1.6277450060100802e-06   3.6240137935036974e-06   -6.691071348125676e-05
-2.6628442382388198e-05   3.7206568782457245e-06   -2.5300870371472043e-05
-2.6628442382388198e-05   3.7206568782457245e-06   -2.5300870371472043e-05
-2.6628442382388198e-05   3.7206568782457245e-06   -2.5300870371472043e-05
-2.6628442382388198e-05   3.7206568782457245e-06   -2.5300870371472043e-05
-1.4040620644472687e-05   2.6938701452726855e-06   -4.566450122821367e-05
-1.4040620644472687e-05   2.6938701452726855e-06   -4.566450122821367e-05
-1.4040620644472687e-05   2.6938701452726855e-06   -4.566450122821367e-05
-1.4040620644472687e-05   2.6938701452726855e-06   -4.566450122821367e-05
-2.6628442382388198e-05   3.6240137935036974e-06   -6.696869933210203e-05
-2.6628442382388198e-05   3.6240137935036974e-06   -6.696869933210203e-05
-2.6628442382388198e-05   3.6240137935036974e-06   -6.696869933210203e-05
-2.6628442382388198e-05   3.6240137935036974e-06   -6.696869933210203e-05
-1.627745006010082e-06   3.7206568782457245e-06   -2.5242884520626583e-05
-1.627745006010082e-06   3.7206568782457245e-06   -2.5242884520626583e-05
-1.627745006010082e-06   3.7206568782457245e-06   -2.5242884520626583e-05
-1.627745006010082e-06   3.7206568782457245e-06   -2.5242884520626583e-05
-1.9180446636113198e-06   5.5703005232713505e-06   -6.777183888651223e-05
-1.9180446636113198e-06   5.5703005232713505e-06   -6.777183888651223e-05
-1.9180446636113198e-06   5.5703005232713505e-06   -6.777183888651223e-05
-1.9180446636113198e-06   5.5703005232713505e-06   -6.777183888651223e-05
-2.6895802229771016e-05   5.504602647819919e-06   -2.6102824217642096e-05
-2.6895802229771016e-05   5.504602647819919e-06   -2.6102824217642096e-05
-2.6895802229771016e-05   5.504602647819919e-06   -2.6102824217642096e-05
-2.6895802229771016e-05   5.504602647819919e-06   -2.6102824217642096e-05
-1.439072993482117e-05   4.254225340327646e-06   -4.6194384991396115e-05
-1.439072993482117e-05   4.254225340327646e-06   -4.6194384991396115e-05
-1.439072993482117e-05   4.254225340327646e-06   -4.6194384991396115e-05
-1.439072993482117e-05   4.254225340327646e-06   -4.6194384991396115e-05
-1.1867302623486107e-06   -5.365230071808244e-06   -6.018978203023507e-05
-1.1867302623486107e-06   -5.365230071808244e-06   -6.018978203023507e-05
-1.1867302623486107e-06   -5.365230071808244e-06   -6.018978203023507e-05
-1.1867302623486107e-06   -5.365230071808244e-06   -6.018978203023507e-05
2.3605952497735377e-05   -3.5992325336585244e-06   -1.7809045573872074e-05
2.3605952497735377e-05   -3.5992325336585244e-06   -1.7809045573872074e-05
2.3605952497735377e-05   -3.5992325336585244e-06   -1.7809045573872074e-05
2.3605952497735377e-05   -3.5992325336585244e-06   -1.7809045573872074e-05
2.3586399394160025e-05   -3.6285382099525572e-06   -5.950007143318739e-05
2.3586399394160025e-05   -3.6285382099525572e-06   -5.950007143318739e-05
2.3586399394160025e-05   -3.6285382099525572e-06   -5.950007143318739e-05
2.3586399394160025e-05   -3.6285382099525572e-06   -5.950007143318739e-05
-1.4424568989892975e-06   -1.9967860781667374e-06   -1.8764362223676657e-05
-1.4424568989892975e-06   -1.9967860781667374e-06   -1.8764362223676657e-05
-1.4424568989892975e-06   -1.9967860781667374e-06   -1.8764362223676657e-05
-1.4424568989892975e-06   -1.9967860781667374e-06   -1.8764362223676657e-05
1.1055627188468858e-05   -3.5215492615716998e-06   -3.867964445939733e-05
1.1055627188468858e-05   -3.5215492615716998e-06   -3.867964445939733e-05
1.1055627188468858e-05   -3.5215492615716998e-06   -3.867964445939733e-05
1.1055627188468858e-05   -3.5215492615716998e-06   -3.867964445939733e-05
-1.4424568989892975e-06   -3.6285382099525572e-06   -6.047912271225881e-05
-1.4424568989892975e-06   -3.6285382099525572e-06   -6.047912271225881e-05
-1.4424568989892975e-06   -3.6285382099525572e-06   -6.047912271225881e-05
-1.4424568989892975e-06   -3.6285382099525572e-06   -6.047912271225881e-05
2.3586399394160025e-05   -1.9967860781668458e-06   -1.778531094460506e-05
2.3586399394160025e-05   -1.9967860781668458e-06   -1.778531094460506e-05
2.3586399394160025e-05   -1.9967860781668458e-06   -1.778531094460506e-05
2.3586399394160025e-05   -1.9967860781668458e-06   -1.778531094460506e-05
2.369585691939018e-05   -1.9271155500517694e-06   -6.107534153360818e-05
2.369585691939018e-05   -1.9271155500517694e-06   -6.107534153360818e-05
2.369585691939018e-05   -1.9271155500517694e-06   -6.107534153360818e-05
2.369585691939018e-05   -1.9271155500517694e-06   -6.107534153360818e-05
-1.6277450060100853e-06   -4.21844548806013e-07   -1.97725009253554e-05
-1.6277450060100853e-06   -4.21844548806013e-07   -1.97725009253554e-05
-1.6277450060100853e-06   -4.21844548806013e-07   -1.97725009253554e-05
-1.6277450060100853e-06   -4.21844548806013e-07   -1.97725009253554e-05
1.0715323536627876e-05   -2.131963471202502e-06   -3.931821047631374e-05
1.0715323536627876e-05   -2.131963471202502e-06   -3.931821047631374e-05
1.0715323536627876e-05   -2.131963471202502e-06   -3.931821047631374e-05
1.0715323536627876e-05   -2.131963471202502e-06   -3.931821047631374e-05
-1.627745006010081e-06   -1.9271155500517694e-06   -6.197850413435538e-05
-1.627745006010081e-06   -1.9271155500517694e-06   -6.197850413435538e-05
-1.627745006010081e-06   -1.9271155500517694e-06   -6.197850413435538e-05
-1.627745006010081e-06   -1.9271155500517694e-06   -6.197850413435538e-05
2.369585691939018e-05   -4.21844548806013e-07   -1.8869338324607613e-05
2.369585691939018e-05   -4.21844548806013e-07   -1.8869338324607613e-05
2.369585691939018e-05   -4.21844548806013e-07   -1.8869338324607613e-05
2.369585691939018e-05   -4.21844548806013e-07   -1.8869338324607613e-05
2.3512291941240254e-05   1.7764346352521507e-07   -6.285974727198836e-05
2.3512291941240254e-05   1.7764346352521507e-07   -6.285974727198836e-05
2.3512291941240254e-05   1.7764346352521507e-07   -6.285974727198836e-05
2.3512291941240254e-05   1.7764346352521507e-07   -6.285974727198836e-05
-1.918044663611323e-06   1.4199676658288758e-06   -2.1221247451951388e-05
-1.918044663611323e-06   1.4199676658288758e-06   -2.1221247451951388e-05
-1.918044663611323e-06   1.4199676658288758e-06   -2.1221247451951388e-05
-1.918044663611323e-06   1.4199676658288758e-06   -2.1221247451951388e-05
1.0595133379665781e-05   -6.448273025422844e-07   -4.0837667209723535e-05
1.0595133379665781e-05   -6.448273025422844e-07   -4.0837667209723535e-05
1.0595133379665781e-05   -6.448273025422844e-07   -4.0837667209723535e-05
1.0595133379665781e-05   -6.448273025422844e-07   -4.0837667209723535e-05
2.3605952497735323e-05   -9.974276473019713e-06   -3.368118057777957e-05
2.3605952497735323e-05   -9.974276473019713e-06   -3.368118057777957e-05
2.3605952497735323e-05   -9.974276473019713e-06   -3.368118057777957e-05
2.3605952497735323e-05   -9.974276473019713e-06   -3.368118057777957e-05
4.682968574799007e-05   -6.530256369499123e-06   7.0914535680908315e-06
4.682968574799007e-05   -6.530256369499123e-06   7.0914535680908315e-06
4.682968574799007e-05   -6.530256369499123e-06   7.0914535680908315e-06
4.682968574799007e-05   -6.530256369499123e-06   7.0914535680908315e-06
4.8403918087695444e-05   -9.050780688785024e-06   -3.790534789500214e-05
4.8403918087695444e-05   -9.050780688785024e-06   -3.790534789500214e-05
4.8403918087695444e-05   -9.050780688785024e-06   -3.790534789500214e-05
4.8403918087695444e-05   -9.050780688785024e-06   -3.790534789500214e-05
2.3586399394159984e-05   -5.6074351047263665e-06   1.3911759104552298e-06
2.3586399394159984e-05   -5.6074351047263665e-06   1.3911759104552298e-06
2.3586399394159984e-05   -5.6074351047263665e-06   1.3911759104552298e-06
2.3586399394159984e-05   -5.6074351047263665e-06   1.3911759104552298e-06
3.408464189273379e-05   -7.69851967863909e-06   -1.4851244176153605e-05
3.408464189273379e-05   -7.69851967863909e-06   -1.4851244176153605e-05
3.408464189273379e-05   -7.69851967863909e-06   -1.4851244176153605e-05
3.408464189273379e-05   -7.69851967863909e-06   -1.4851244176153605e-05
2.3586399394159957e-05   -9.050780688785078e-06   -3.997135524543718e-05
2.3586399394159957e-05   -9.050780688785078e-06   -3.997135524543718e-05
2.3586399394159957e-05   -9.050780688785078e-06   -3.997135524543718e-05
2.3586399394159957e-05   -9.050780688785078e-06   -3.997135524543718e-05
4.8403918087695444e-05   -5.6074351047263665e-06   3.4571832608905166e-06
4.8403918087695444e-05   -5.6074351047263665e-06   3.4571832608905166e-06
4.8403918087695444e-05   -5.6074351047263665e-06   3.4571832608905166e-06
4.8403918087695444e-05   -5.6074351047263665e-06   3.4571832608905166e-06
4.961304675757248e-05   -8.07159700383375e-06   -4.275420049307122e-05
4.961304675757248e-05   -8.07159700383375e-06   -4.275420049307122e-05
4.961304675757248e-05   -8.07159700383375e-06   -4.275420049307122e-05
4.961304675757248e-05   -8.07159700383375e-06   -4.275420049307122e-05
2.3695856919390084e-05   -4.815307436056024e-06   -1.5126578367674083e-06
2.3695856919390084e-05   -4.815307436056024e-06   -1.5126578367674083e-06
2.3695856919390084e-05   -4.815307436056024e-06   -1.5126578367674083e-06
2.3695856919390084e-05   -4.815307436056024e-06   -1.5126578367674083e-06
3.52399419359297e-05   -7.1030567195138e-06   -1.938014996092521e-05
3.52399419359297e-05   -7.1030567195138e-06   -1.938014996092521e-05
3.52399419359297e-05   -7.1030567195138e-06   -1.938014996092521e-05
3.52399419359297e-05   -7.1030567195138e-06   -1.938014996092521e-05
2.3695856919390124e-05   -8.07159700383375e-06   -4.4707974233737876e-05
2.3695856919390124e-05   -8.07159700383375e-06   -4.4707974233737876e-05
2.3695856919390124e-05   -8.07159700383375e-06   -4.4707974233737876e-05
2.3695856919390124e-05   -8.07159700383375e-06   -4.4707974233737876e-05
4.9613046757572424e-05   -4.815307436056024e-06   4.4111590389954696e-07
4.9613046757572424e-05   -4.815307436056024e-06   4.4111590389954696e-07
4.9613046757572424e-05   -4.815307436056024e-06   4.4111590389954696e-07
4.9613046757572424e-05   -4.815307436056024e-06   4.4111590389954696e-07
5.0900817485761285e-05   -5.964237077823043e-06   -5.1002212340719034e-05
5.0900817485761285e-05   -5.964237077823043e-06   -5.1002212340719034e-05
5.0900817485761285e-05   -5.964237077823043e-06   -5.1002212340719034e-05
5.0900817485761285e-05   -5.964237077823043e-06   -5.1002212340719034e-05
2.3512291941240172e-05   -3.122661832287042e-06   -7.0596149138390195e-06
2.3512291941240172e-05   -3.122661832287042e-06   -7.0596149138390195e-06
2.3512291941240172e-05   -3.122661832287042e-06   -7.0596149138390195e-06
2.3512291941240172e-05   -3.122661832287042e-06   -7.0596149138390195e-06
3.508676385984964e-05   -6.1198561779623084e-06   -2.455208483744949e-05
3.508676385984964e-05   -6.1198561779623084e-06   -2.455208483744949e-05
3.508676385984964e-05   -6.1198561779623084e-06   -2.455208483744949e-05
3.508676385984964e-05   -6.1198561779623084e-06   -2.455208483744949e-05
-5.6267742092069796e-05   8.622344288885934e-06   -4.279204856122025e-05
-5.6267742092069796e-05   8.622344288885934e-06   -4.279204856122025e-05
-5.6267742092069796e-05   8.622344288885934e-06   -4.279204856122025e-05
-5.6267742092069796e-05   8.622344288885934e-06   -4.279204856122025e-05
-3.830313731954438e-05   5.487372105998992e-06   -1.4732023916743329e-05
-3.830313731954438e-05   5.487372105998992e-06   -1.4732023916743329e-05
-3.830313731954438e-05   5.487372105998992e-06   -1.4732023916743329e-05
-3.830313731954438e-05   5.487372105998992e-06   -1.4732023916743329e-05
-3.816389699205639e-05   1.0429097408658022e-05   -3.635315104316434e-05
-3.816389699205639e-05   1.0429097408658022e-05   -3.635315104316434e-05
-3.816389699205639e-05   1.0429097408658022e-05   -3.635315104316434e-05
-3.816389699205639e-05   1.0429097408658022e-05   -3.635315104316434e-05
-5.4587028981991e-05   6.983422728755765e-06   -6.913859585331835e-06
-5.4587028981991e-05   6.983422728755765e-06   -6.913859585331835e-06
-5.4587028981991e-05   6.983422728755765e-06   -6.913859585331835e-06
-5.4587028981991e-05   6.983422728755765e-06   -6.913859585331835e-06
-4.484373984515556e-05   8.302358511297651e-06   -2.3944036282916206e-05
-4.484373984515556e-05   8.302358511297651e-06   -2.3944036282916206e-05
-4.484373984515556e-05   8.302358511297651e-06   -2.3944036282916206e-05
-4.484373984515556e-05   8.302358511297651e-06   -2.3944036282916206e-05
-5.4587028981991e-05   1.0429097408658022e-05   -3.4285746235222976e-05
-5.4587028981991e-05   1.0429097408658022e-05   -3.4285746235222976e-05
-5.4587028981991e-05   1.0429097408658022e-05   -3.4285746235222976e-05
-5.4587028981991e-05   1.0429097408658022e-05   -3.4285746235222976e-05
-3.816389699205647e-05   6.9834227287555485e-06   -8.981264393273348e-06
-3.816389699205647e-05   6.9834227287555485e-06   -8.981264393273348e-06
-3.816389699205647e-05   6.9834227287555485e-06   -8.981264393273348e-06
-3.816389699205647e-05   6.9834227287555485e-06   -8.981264393273348e-06
-3.787459588771493e-05   1.1222658166197943e-05   -3.1699638739719695e-05
-3.787459588771493e-05   1.1222658166197943e-05   -3.1699638739719695e-05
-3.787459588771493e-05   1.1222658166197943e-05   -3.1699638739719695e-05
-3.787459588771493e-05   1.1222658166197943e-05   -3.1699638739719695e-05
-5.333026567549135e-05   7.680180609695962e-06   -3.814702559524542e-06
-5.333026567549135e-05   7.680180609695962e-06   -3.814702559524542e-06
-5.333026567549135e-05   7.680180609695962e-06   -3.814702559524542e-06
-5.333026567549135e-05   7.680180609695962e-06   -3.814702559524542e-06
-4.4847017097187435e-05   9.13709142905388e-06   -1.8827596681645947e-05
-4.4847017097187435e-05   9.13709142905388e-06   -1.8827596681645947e-05
-4.4847017097187435e-05   9.13709142905388e-06   -1.8827596681645947e-05
-4.4847017097187435e-05   9.13709142905388e-06   -1.8827596681645947e-05
-5.333026567549135e-05   1.1222658166197943e-05   -2.957415220581841e-05
-5.333026567549135e-05   1.1222658166197943e-05   -2.957415220581841e-05
-5.333026567549135e-05   1.1222658166197943e-05   -2.957415220581841e-05
-5.333026567549135e-05   1.1222658166197943e-05   -2.957415220581841e-05
-3.787459588771498e-05   7.680180609695962e-06   -5.940189093425487e-06
-3.787459588771498e-05   7.680180609695962e-06   -5.940189093425487e-06
-3.787459588771498e-05   7.680180609695962e-06   -5.940189093425487e-06
-3.787459588771498e-05   7.680180609695962e-06   -5.940189093425487e-06
-3.775853629821215e-05   1.2002940581801245e-05   -2.5256885592073825e-05
-3.775853629821215e-05   1.2002940581801245e-05   -2.5256885592073825e-05
-3.775853629821215e-05   1.2002940581801245e-05   -2.5256885592073825e-05
-3.775853629821215e-05   1.2002940581801245e-05   -2.5256885592073825e-05
-5.16854476463797e-05   8.555894970977253e-06   2.2860688033234967e-08
-5.16854476463797e-05   8.555894970977253e-06   2.2860688033234967e-08
-5.16854476463797e-05   8.555894970977253e-06   2.2860688033234967e-08
-5.16854476463797e-05   8.555894970977253e-06   2.2860688033234967e-08
-4.352059672509421e-05   9.588843047238075e-06   -1.4204993026532505e-05
-4.352059672509421e-05   9.588843047238075e-06   -1.4204993026532505e-05
-4.352059672509421e-05   9.588843047238075e-06   -1.4204993026532505e-05
-4.352059672509421e-05   9.588843047238075e-06   -1.4204993026532505e-05
-3.830313731954433e-05   4.298344588742433e-06   -5.45083115689598e-05
-3.830313731954433e-05   4.298344588742433e-06   -5.45083115689598e-05
-3.830313731954433e-05   4.298344588742433e-06   -5.45083115689598e-05
-3.830313731954433e-05   4.298344588742433e-06   -5.45083115689598e-05
-2.2022801603872568e-05   2.8354753369066316e-06   -2.82521402606084e-05
-2.2022801603872568e-05   2.8354753369066316e-06   -2.82521402606084e-05
-2.2022801603872568e-05   2.8354753369066316e-06   -2.82521402606084e-05
-2.2022801603872568e-05   2.8354753369066316e-06   -2.82521402606084e-05
-2.2033408865110033e-05   6.075054343914919e-06   -5.4040967347609775e-05
-2.2033408865110033e-05   6.075054343914919e-06   -5.4040967347609775e-05
-2.2033408865110033e-05   6.075054343914919e-06   -5.4040967347609775e-05
-2.2033408865110033e-05   6.075054343914919e-06   -5.4040967347609775e-05
-3.816389699205639e-05   4.414698785861317e-06   -2.6160607134533464e-05
-3.816389699205639e-05   4.414698785861317e-06   -2.6160607134533464e-05
-3.816389699205639e-05   4.414698785861317e-06   -2.6160607134533464e-05
-3.816389699205639e-05   4.414698785861317e-06   -2.6160607134533464e-05
-2.985309037690141e-05   4.700645441270911e-06   -4.018351948637111e-05
-2.985309037690141e-05   4.700645441270911e-06   -4.018351948637111e-05
-2.985309037690141e-05   4.700645441270911e-06   -4.018351948637111e-05
-2.985309037690141e-05   4.700645441270911e-06   -4.018351948637111e-05
-3.816389699205636e-05   6.075054343914919e-06   -5.3044754012777267e-05
-3.816389699205636e-05   6.075054343914919e-06   -5.3044754012777267e-05
-3.816389699205636e-05   6.075054343914919e-06   -5.3044754012777267e-05
-3.816389699205636e-05   6.075054343914919e-06   -5.3044754012777267e-05
-2.2033408865110033e-05   4.414698785861317e-06   -2.715682046936573e-05
-2.2033408865110033e-05   4.414698785861317e-06   -2.715682046936573e-05
-2.2033408865110033e-05   4.414698785861317e-06   -2.715682046936573e-05
-2.2033408865110033e-05   4.414698785861317e-06   -2.715682046936573e-05
-2.2016961130293152e-05   7.653198731105509e-06   -5.28296366670818e-05
-2.2016961130293152e-05   7.653198731105509e-06   -5.28296366670818e-05
-2.2016961130293152e-05   7.653198731105509e-06   -5.28296366670818e-05
-2.2016961130293152e-05   7.653198731105509e-06   -5.28296366670818e-05
-3.787459588771493e-05   5.85139567433929e-06   -2.5319163570652458e-05
-3.787459588771493e-05   5.85139567433929e-06   -2.5319163570652458e-05
-3.787459588771493e-05   5.85139567433929e-06   -2.5319163570652458e-05
-3.787459588771493e-05   5.85139567433929e-06   -2.5319163570652458e-05
-2.9713827660615884e-05   5.997275990704239e-06   -3.900797213896948e-05
-2.9713827660615884e-05   5.997275990704239e-06   -3.900797213896948e-05
-2.9713827660615884e-05   5.997275990704239e-06   -3.900797213896948e-05
-2.9713827660615884e-05   5.997275990704239e-06   -3.900797213896948e-05
-3.787459588771493e-05   7.653198731105509e-06   -5.174855483302198e-05
-3.787459588771493e-05   7.653198731105509e-06   -5.174855483302198e-05
-3.787459588771493e-05   7.653198731105509e-06   -5.174855483302198e-05
-3.787459588771493e-05   7.653198731105509e-06   -5.174855483302198e-05
-2.2016961130293193e-05   5.851395674339073e-06   -2.6400245404712113e-05
-2.2016961130293193e-05   5.851395674339073e-06   -2.6400245404712113e-05
-2.2016961130293193e-05   5.851395674339073e-06   -2.6400245404712113e-05
-2.2016961130293193e-05   5.851395674339073e-06   -2.6400245404712113e-05
-2.2034342421070786e-05   9.331618266986445e-06   -5.304247495509587e-05
-2.2034342421070786e-05   9.331618266986445e-06   -5.304247495509587e-05
-2.2034342421070786e-05   9.331618266986445e-06   -5.304247495509587e-05
-2.2034342421070786e-05   9.331618266986445e-06   -5.304247495509587e-05
-3.775853629821218e-05   7.411659542988502e-06   -2.5683509925461317e-05
-3.775853629821218e-05   7.411659542988502e-06   -2.5683509925461317e-05
-3.775853629821218e-05   7.411659542988502e-06   -2.5683509925461317e-05
-3.775853629821218e-05   7.411659542988502e-06   -2.5683509925461317e-05
-2.9906074303231578e-05   7.279711588536585e-06   -3.869177781109113e-05
-2.9906074303231578e-05   7.279711588536585e-06   -3.869177781109113e-05
-2.9906074303231578e-05   7.279711588536585e-06   -3.869177781109113e-05
-2.9906074303231578e-05   7.279711588536585e-06   -3.869177781109113e-05
-2.2022801603872514e-05   2.286439395314836e-07   -6.0155102162818565e-05
-2.2022801603872514e-05   2.286439395314836e-07   -6.0155102162818565e-05
-2.2022801603872514e-05   2.286439395314836e-07   -6.0155102162818565e-05
-2.2022801603872514e-05   2.286439395314836e-07   -6.0155102162818565e-05
-5.970072376459251e-06   4.872264107644558e-07   -3.3245403967723365e-05
-5.970072376459251e-06   4.872264107644558e-07   -3.3245403967723365e-05
-5.970072376459251e-06   4.872264107644558e-07   -3.3245403967723365e-05
-5.970072376459251e-06   4.872264107644558e-07   -3.3245403967723365e-05
-5.98125399577989e-06   1.9772706806880534e-06   -5.94918791184916e-05
-5.98125399577989e-06   1.9772706806880534e-06   -5.94918791184916e-05
-5.98125399577989e-06   1.9772706806880534e-06   -5.94918791184916e-05
-5.98125399577989e-06   1.9772706806880534e-06   -5.94918791184916e-05
-2.2033408865109992e-05   2.0747150237382644e-06   -3.2796754275438226e-05
-2.2033408865109992e-05   2.0747150237382644e-06   -3.2796754275438226e-05
-2.2033408865109992e-05   2.0747150237382644e-06   -3.2796754275438226e-05
-2.2033408865109992e-05   2.0747150237382644e-06   -3.2796754275438226e-05
-1.390893788458683e-05   1.3970600824951725e-06   -4.593094627823092e-05
-1.390893788458683e-05   1.3970600824951725e-06   -4.593094627823092e-05
-1.390893788458683e-05   1.3970600824951725e-06   -4.593094627823092e-05
-1.390893788458683e-05   1.3970600824951725e-06   -4.593094627823092e-05
-2.2033408865109992e-05   1.9772706806880534e-06   -5.955034572432174e-05
-2.2033408865109992e-05   1.9772706806880534e-06   -5.955034572432174e-05
-2.2033408865109992e-05   1.9772706806880534e-06   -5.955034572432174e-05
-2.2033408865109992e-05   1.9772706806880534e-06   -5.955034572432174e-05
-5.98125399577989e-06   2.0747150237382644e-06   -3.2738287669608116e-05
-5.98125399577989e-06   2.0747150237382644e-06   -3.2738287669608116e-05
-5.98125399577989e-06   2.0747150237382644e-06   -3.2738287669608116e-05
-5.98125399577989e-06   2.0747150237382644e-06   -3.2738287669608116e-05
-5.96000495991196e-06   3.7206568782457245e-06   -5.964361955096832e-05
-5.96000495991196e-06   3.7206568782457245e-06   -5.964361955096832e-05
-5.96000495991196e-06   3.7206568782457245e-06   -5.964361955096832e-05
-5.96000495991196e-06   3.7206568782457245e-06   -5.964361955096832e-05
-2.2016961130293152e-05   3.6672738348590347e-06   -3.284999610763447e-05
-2.2016961130293152e-05   3.6672738348590347e-06   -3.284999610763447e-05
-2.2016961130293152e-05   3.6672738348590347e-06   -3.284999610763447e-05
-2.2016961130293152e-05   3.6672738348590347e-06   -3.284999610763447e-05
-1.400187791629492e-05   2.7855994899944787e-06   -4.5679463524046126e-05
-1.400187791629492e-05   2.7855994899944787e-06   -4.5679463524046126e-05
-1.400187791629492e-05   2.7855994899944787e-06   -4.5679463524046126e-05
-1.400187791629492e-05   2.7855994899944787e-06   -4.5679463524046126e-05
-2.2016961130293152e-05   3.7206568782457245e-06   -5.9611589724936414e-05
-2.2016961130293152e-05   3.7206568782457245e-06   -5.9611589724936414e-05
-2.2016961130293152e-05   3.7206568782457245e-06   -5.9611589724936414e-05
-2.2016961130293152e-05   3.7206568782457245e-06   -5.9611589724936414e-05
-5.960004959911971e-06   3.6672738348590347e-06   -3.288202593366632e-05
-5.960004959911971e-06   3.6672738348590347e-06   -3.288202593366632e-05
-5.960004959911971e-06   3.6672738348590347e-06   -3.288202593366632e-05
-5.960004959911971e-06   3.6672738348590347e-06   -3.288202593366632e-05
-5.969300476007826e-06   5.504602647819919e-06   -6.0545753886320514e-05
-5.969300476007826e-06   5.504602647819919e-06   -6.0545753886320514e-05
-5.969300476007826e-06   5.504602647819919e-06   -6.0545753886320514e-05
-5.969300476007826e-06   5.504602647819919e-06   -6.0545753886320514e-05
-2.2034342421070773e-05   5.287677126046943e-06   -3.3640528664818285e-05
-2.2034342421070773e-05   5.287677126046943e-06   -3.3640528664818285e-05
-2.2034342421070773e-05   5.287677126046943e-06   -3.3640528664818285e-05
-2.2034342421070773e-05   5.287677126046943e-06   -3.3640528664818285e-05
-1.4122087120081106e-05   4.192371620020106e-06   -4.617043752951826e-05
-1.4122087120081106e-05   4.192371620020106e-06   -4.617043752951826e-05
-1.4122087120081106e-05   4.192371620020106e-06   -4.617043752951826e-05
-1.4122087120081106e-05   4.192371620020106e-06   -4.617043752951826e-05
-5.97007237645924e-06   -3.5992325336585244e-06   -5.326942515211826e-05
-5.97007237645924e-06   -3.5992325336585244e-06   -5.326942515211826e-05
-5.97007237645924e-06   -3.5992325336585244e-06   -5.326942515211826e-05
-5.97007237645924e-06   -3.5992325336585244e-06   -5.326942515211826e-05
9.851123837273672e-06   -1.6606173492094128e-06   -2.5737595685227342e-05
9.851123837273672e-06   -1.6606173492094128e-06   -2.5737595685227342e-05
9.851123837273672e-06   -1.6606173492094128e-06   -2.5737595685227342e-05
9.851123837273672e-06   -1.6606173492094128e-06   -2.5737595685227342e-05
9.980377862207895e-06   -1.9967860781667374e-06   -5.206005113114954e-05
9.980377862207895e-06   -1.9967860781667374e-06   -5.206005113114954e-05
9.980377862207895e-06   -1.9967860781667374e-06   -5.206005113114954e-05
9.980377862207895e-06   -1.9967860781667374e-06   -5.206005113114954e-05
-5.98125399577989e-06   -1.65671278400158e-07   -2.6556000247696613e-05
-5.98125399577989e-06   -1.65671278400158e-07   -2.6556000247696613e-05
-5.98125399577989e-06   -1.65671278400158e-07   -2.6556000247696613e-05
-5.98125399577989e-06   -1.65671278400158e-07   -2.6556000247696613e-05
1.979032131970187e-06   -1.7176403692603691e-06   -3.8891962339430546e-05
1.979032131970187e-06   -1.7176403692603691e-06   -3.8891962339430546e-05
1.979032131970187e-06   -1.7176403692603691e-06   -3.8891962339430546e-05
1.979032131970187e-06   -1.7176403692603691e-06   -3.8891962339430546e-05
-5.98125399577989e-06   -1.9967860781667374e-06   -5.315872001100956e-05
-5.98125399577989e-06   -1.9967860781667374e-06   -5.315872001100956e-05
-5.98125399577989e-06   -1.9967860781667374e-06   -5.315872001100956e-05
-5.98125399577989e-06   -1.9967860781667374e-06   -5.315872001100956e-05
9.980377862207923e-06   -1.65671278400158e-07   -2.5457331367836704e-05
9.980377862207923e-06   -1.65671278400158e-07   -2.5457331367836704e-05
9.980377862207923e-06   -1.65671278400158e-07   -2.5457331367836704e-05
9.980377862207923e-06   -1.65671278400158e-07   -2.5457331367836704e-05
1.0284494095122074e-05   -4.21844548806013e-07   -5.3156445634808085e-05
1.0284494095122074e-05   -4.21844548806013e-07   -5.3156445634808085e-05
1.0284494095122074e-05   -4.21844548806013e-07   -5.3156445634808085e-05
1.0284494095122074e-05   -4.21844548806013e-07   -5.3156445634808085e-05
-5.960004959911971e-06   1.2728059860084816e-06   -2.7099070863973407e-05
-5.960004959911971e-06   1.2728059860084816e-06   -2.7099070863973407e-05
-5.960004959911971e-06   1.2728059860084816e-06   -2.7099070863973407e-05
-5.960004959911971e-06   1.2728059860084816e-06   -2.7099070863973407e-05
1.8876163922240297e-06   -4.740765070765894e-07   -3.913031028834901e-05
1.8876163922240297e-06   -4.740765070765894e-07   -3.913031028834901e-05
1.8876163922240297e-06   -4.740765070765894e-07   -3.913031028834901e-05
1.8876163922240297e-06   -4.740765070765894e-07   -3.913031028834901e-05
-5.960004959911966e-06   -4.21844548806013e-07   -5.417323595569679e-05
-5.960004959911966e-06   -4.21844548806013e-07   -5.417323595569679e-05
-5.960004959911966e-06   -4.21844548806013e-07   -5.417323595569679e-05
-5.960004959911966e-06   -4.21844548806013e-07   -5.417323595569679e-05
1.0284494095122101e-05   1.2728059860086984e-06   -2.608228054308461e-05
1.0284494095122101e-05   1.2728059860086984e-06   -2.608228054308461e-05
1.0284494095122101e-05   1.2728059860086984e-06   -2.608228054308461e-05
1.0284494095122101e-05   1.2728059860086984e-06   -2.608228054308461e-05
1.0433203193332589e-05   1.4199676658289842e-06   -5.472364511018989e-05
1.0433203193332589e-05   1.4199676658289842e-06   -5.472364511018989e-05
1.0433203193332589e-05   1.4199676658289842e-06   -5.472364511018989e-05
1.0433203193332589e-05   1.4199676658289842e-06   -5.472364511018989e-05
-5.969300476007816e-06   2.921823141110308e-06   -2.8287252279791237e-05
-5.969300476007816e-06   2.921823141110308e-06   -2.8287252279791237e-05
-5.969300476007816e-06   2.921823141110308e-06   -2.8287252279791237e-05
-5.969300476007816e-06   2.921823141110308e-06   -2.8287252279791237e-05
1.94282636848667e-06   8.56422674832668e-07   -4.0234890074182186e-05
1.94282636848667e-06   8.56422674832668e-07   -4.0234890074182186e-05
1.94282636848667e-06   8.56422674832668e-07   -4.0234890074182186e-05
1.94282636848667e-06   8.56422674832668e-07   -4.0234890074182186e-05
9.851123837273658e-06   -6.5302563694992315e-06   -2.9272168961598348e-05
9.851123837273658e-06   -6.5302563694992315e-06   -2.9272168961598348e-05
9.851123837273658e-06   -6.5302563694992315e-06   -2.9272168961598348e-05
9.851123837273658e-06   -6.5302563694992315e-06   -2.9272168961598348e-05
2.3910227616120078e-05   -3.0532681911709172e-06   -3.7541364231905797e-06
2.3910227616120078e-05   -3.0532681911709172e-06   -3.7541364231905797e-06
2.3910227616120078e-05   -3.0532681911709172e-06   -3.7541364231905797e-06
2.3910227616120078e-05   -3.0532681911709172e-06   -3.7541364231905797e-06
2.5577386739205238e-05   -5.6074351047263665e-06   -3.074376934051638e-05
2.5577386739205238e-05   -5.6074351047263665e-06   -3.074376934051638e-05
2.5577386739205238e-05   -5.6074351047263665e-06   -3.074376934051638e-05
2.5577386739205238e-05   -5.6074351047263665e-06   -3.074376934051638e-05
9.980377862207923e-06   -2.0411102121047856e-06   -6.888549481093824e-06
9.980377862207923e-06   -2.0411102121047856e-06   -6.888549481093824e-06
9.980377862207923e-06   -2.0411102121047856e-06   -6.888549481093824e-06
9.980377862207923e-06   -2.0411102121047856e-06   -6.888549481093824e-06
1.6590854609898218e-05   -4.174621946374411e-06   -1.6625903686682435e-05
1.6590854609898218e-05   -4.174621946374411e-06   -1.6625903686682435e-05
1.6590854609898218e-05   -4.174621946374411e-06   -1.6625903686682435e-05
1.6590854609898218e-05   -4.174621946374411e-06   -1.6625903686682435e-05
9.980377862207909e-06   -5.6074351047263665e-06   -3.288356427608906e-05
9.980377862207909e-06   -5.6074351047263665e-06   -3.288356427608906e-05
9.980377862207909e-06   -5.6074351047263665e-06   -3.288356427608906e-05
9.980377862207909e-06   -5.6074351047263665e-06   -3.288356427608906e-05
2.5577386739205157e-05   -2.0411102121047856e-06   -4.748754545520848e-06
2.5577386739205157e-05   -2.0411102121047856e-06   -4.748754545520848e-06
2.5577386739205157e-05   -2.0411102121047856e-06   -4.748754545520848e-06
2.5577386739205157e-05   -2.0411102121047856e-06   -4.748754545520848e-06
2.68603225288287e-05   -4.815307436056024e-06   -3.371577522908695e-05
2.68603225288287e-05   -4.815307436056024e-06   -3.371577522908695e-05
2.68603225288287e-05   -4.815307436056024e-06   -3.371577522908695e-05
2.68603225288287e-05   -4.815307436056024e-06   -3.371577522908695e-05
1.0284494095122101e-05   -1.3419909062545917e-06   -8.173384424123439e-06
1.0284494095122101e-05   -1.3419909062545917e-06   -8.173384424123439e-06
1.0284494095122101e-05   -1.3419909062545917e-06   -8.173384424123439e-06
1.0284494095122101e-05   -1.3419909062545917e-06   -8.173384424123439e-06
1.7610404627905145e-05   -3.6550315989640914e-06   -1.8995410896469468e-05
1.7610404627905145e-05   -3.6550315989640914e-06   -1.8995410896469468e-05
1.7610404627905145e-05   -3.6550315989640914e-06   -1.8995410896469468e-05
1.7610404627905145e-05   -3.6550315989640914e-06   -1.8995410896469468e-05
1.0284494095122101e-05   -4.815307436056024e-06   -3.5799765146967636e-05
1.0284494095122101e-05   -4.815307436056024e-06   -3.5799765146967636e-05
1.0284494095122101e-05   -4.815307436056024e-06   -3.5799765146967636e-05
1.0284494095122101e-05   -4.815307436056024e-06   -3.5799765146967636e-05
2.6860322528828593e-05   -1.3419909062548085e-06   -6.089394506242373e-06
2.6860322528828593e-05   -1.3419909062548085e-06   -6.089394506242373e-06
2.6860322528828593e-05   -1.3419909062548085e-06   -6.089394506242373e-06
2.6860322528828593e-05   -1.3419909062548085e-06   -6.089394506242373e-06
2.8564846029192252e-05   -3.1226618322869335e-06   -3.9413979275388614e-05
2.8564846029192252e-05   -3.1226618322869335e-06   -3.9413979275388614e-05
2.8564846029192252e-05   -3.1226618322869335e-06   -3.9413979275388614e-05
2.8564846029192252e-05   -3.1226618322869335e-06   -3.9413979275388614e-05
1.0433203193332589e-05   3.3051197831975715e-08   -1.1088002367027011e-05
1.0433203193332589e-05   3.3051197831975715e-08   -1.1088002367027011e-05
1.0433203193332589e-05   3.3051197831975715e-08   -1.1088002367027011e-05
1.0433203193332589e-05   3.3051197831975715e-08   -1.1088002367027011e-05
1.794876457260048e-05   -2.881092270198035e-06   -2.1865451918322352e-05
1.794876457260048e-05   -2.881092270198035e-06   -2.1865451918322352e-05
1.794876457260048e-05   -2.881092270198035e-06   -2.1865451918322352e-05
1.794876457260048e-05   -2.881092270198035e-06   -2.1865451918322352e-05
-3.4080538108139616e-05   5.487372105998992e-06   -3.192577584883367e-05
-3.4080538108139616e-05   5.487372105998992e-06   -3.192577584883367e-05
-3.4080538108139616e-05   5.487372105998992e-06   -3.192577584883367e-05
-3.4080538108139616e-05   5.487372105998992e-06   -3.192577584883367e-05
-2.5154239429708722e-05   2.237426853992459e-06   -1.8998578535986096e-05
-2.5154239429708722e-05   2.237426853992459e-06   -1.8998578535986096e-05
-2.5154239429708722e-05   2.237426853992459e-06   -1.8998578535986096e-05
-2.5154239429708722e-05   2.237426853992459e-06   -1.8998578535986096e-05
-2.4783711325775825e-05   6.983422728755765e-06   -2.8164239341216127e-05
-2.4783711325775825e-05   6.983422728755765e-06   -2.8164239341216127e-05
-2.4783711325775825e-05   6.983422728755765e-06   -2.8164239341216127e-05
-2.4783711325775825e-05   6.983422728755765e-06   -2.8164239341216127e-05
-3.2229947662734356e-05   3.482657519529456e-06   -1.3653386320749018e-05
-3.2229947662734356e-05   3.482657519529456e-06   -1.3653386320749018e-05
-3.2229947662734356e-05   3.482657519529456e-06   -1.3653386320749018e-05
-3.2229947662734356e-05   3.482657519529456e-06   -1.3653386320749018e-05
-2.783078141134566e-05   4.921835324801912e-06   -2.184883675622842e-05
-2.783078141134566e-05   4.921835324801912e-06   -2.184883675622842e-05
-2.783078141134566e-05   4.921835324801912e-06   -2.184883675622842e-05
-2.783078141134566e-05   4.921835324801912e-06   -2.184883675622842e-05
-3.2229947662734356e-05   6.983422728755765e-06   -2.6063780215680363e-05
-3.2229947662734356e-05   6.983422728755765e-06   -2.6063780215680363e-05
-3.2229947662734356e-05   6.983422728755765e-06   -2.6063780215680363e-05
-3.2229947662734356e-05   6.983422728755765e-06   -2.6063780215680363e-05
-2.4783711325775852e-05   3.482657519529456e-06   -1.5753845446285107e-05
-2.4783711325775852e-05   3.482657519529456e-06   -1.5753845446285107e-05
-2.4783711325775852e-05   3.482657519529456e-06   -1.5753845446285107e-05
-2.4783711325775852e-05   3.482657519529456e-06   -1.5753845446285107e-05
-2.4255052840294224e-05   7.680180609695962e-06   -2.514937508837304e-05
-2.4255052840294224e-05   7.680180609695962e-06   -2.514937508837304e-05
-2.4255052840294224e-05   7.680180609695962e-06   -2.514937508837304e-05
-2.4255052840294224e-05   7.680180609695962e-06   -2.514937508837304e-05
-3.075329840361801e-05   4.111507952966583e-06   -1.217776222212899e-05
-3.075329840361801e-05   4.111507952966583e-06   -1.217776222212899e-05
-3.075329840361801e-05   4.111507952966583e-06   -1.217776222212899e-05
-3.075329840361801e-05   4.111507952966583e-06   -1.217776222212899e-05
-2.7342436014927827e-05   5.593627507019354e-06   -1.8751804602377682e-05
-2.7342436014927827e-05   5.593627507019354e-06   -1.8751804602377682e-05
-2.7342436014927827e-05   5.593627507019354e-06   -1.8751804602377682e-05
-2.7342436014927827e-05   5.593627507019354e-06   -1.8751804602377682e-05
-3.075329840361796e-05   7.680180609695962e-06   -2.300817149433537e-05
-3.075329840361796e-05   7.680180609695962e-06   -2.300817149433537e-05
-3.075329840361796e-05   7.680180609695962e-06   -2.300817149433537e-05
-3.075329840361796e-05   7.680180609695962e-06   -2.300817149433537e-05
-2.425505284029425e-05   4.111507952966583e-06   -1.431896581616658e-05
-2.425505284029425e-05   4.111507952966583e-06   -1.431896581616658e-05
-2.425505284029425e-05   4.111507952966583e-06   -1.431896581616658e-05
-2.425505284029425e-05   4.111507952966583e-06   -1.431896581616658e-05
-2.3894436254415132e-05   8.555894970977036e-06   -2.128105554454287e-05
-2.3894436254415132e-05   8.555894970977036e-06   -2.128105554454287e-05
-2.3894436254415132e-05   8.555894970977036e-06   -2.128105554454287e-05
-2.3894436254415132e-05   8.555894970977036e-06   -2.128105554454287e-05
-2.8872875600917934e-05   5.107486783712586e-06   -1.0914611721345993e-05
-2.8872875600917934e-05   5.107486783712586e-06   -1.0914611721345993e-05
-2.8872875600917934e-05   5.107486783712586e-06   -1.0914611721345993e-05
-2.8872875600917934e-05   5.107486783712586e-06   -1.0914611721345993e-05
-2.6064442287063486e-05   6.058898187515658e-06   -1.616618075338586e-05
-2.6064442287063486e-05   6.058898187515658e-06   -1.616618075338586e-05
-2.6064442287063486e-05   6.058898187515658e-06   -1.616618075338586e-05
-2.6064442287063486e-05   6.058898187515658e-06   -1.616618075338586e-05
-2.5154239429708722e-05   2.8354753369066316e-06   -4.65181377928011e-05
-2.5154239429708722e-05   2.8354753369066316e-06   -4.65181377928011e-05
-2.5154239429708722e-05   2.8354753369066316e-06   -4.65181377928011e-05
-2.5154239429708722e-05   2.8354753369066316e-06   -4.65181377928011e-05
-1.7902711326151945e-05   1.2829117416646076e-06   -3.536379577735157e-05
-1.7902711326151945e-05   1.2829117416646076e-06   -3.536379577735157e-05
-1.7902711326151945e-05   1.2829117416646076e-06   -3.536379577735157e-05
-1.7902711326151945e-05   1.2829117416646076e-06   -3.536379577735157e-05
-1.7659722865792575e-05   4.414698785861317e-06   -4.636604317197516e-05
-1.7659722865792575e-05   4.414698785861317e-06   -4.636604317197516e-05
-1.7659722865792575e-05   4.414698785861317e-06   -4.636604317197516e-05
-1.7659722865792575e-05   4.414698785861317e-06   -4.636604317197516e-05
-2.4783711325775852e-05   2.710596970029785e-06   -3.3470267982503934e-05
-2.4783711325775852e-05   2.710596970029785e-06   -3.3470267982503934e-05
-2.4783711325775852e-05   2.710596970029785e-06   -3.3470267982503934e-05
-2.4783711325775852e-05   2.710596970029785e-06   -3.3470267982503934e-05
-2.116672222668756e-05   3.084446686896008e-06   -3.972289297777176e-05
-2.116672222668756e-05   3.084446686896008e-06   -3.972289297777176e-05
-2.116672222668756e-05   3.084446686896008e-06   -3.972289297777176e-05
-2.116672222668756e-05   3.084446686896008e-06   -3.972289297777176e-05
-2.4783711325775798e-05   4.4146987858611e-06   -4.534358208247596e-05
-2.4783711325775798e-05   4.4146987858611e-06   -4.534358208247596e-05
-2.4783711325775798e-05   4.4146987858611e-06   -4.534358208247596e-05
-2.4783711325775798e-05   4.4146987858611e-06   -4.534358208247596e-05
-1.7659722865792575e-05   2.710596970029785e-06   -3.449272907200281e-05
-1.7659722865792575e-05   2.710596970029785e-06   -3.449272907200281e-05
-1.7659722865792575e-05   2.710596970029785e-06   -3.449272907200281e-05
-1.7659722865792575e-05   2.710596970029785e-06   -3.449272907200281e-05
-1.7391416264971328e-05   5.85139567433929e-06   -4.56164675874095e-05
-1.7391416264971328e-05   5.85139567433929e-06   -4.56164675874095e-05
-1.7391416264971328e-05   5.85139567433929e-06   -4.56164675874095e-05
-1.7391416264971328e-05   5.85139567433929e-06   -4.56164675874095e-05
-2.4255052840294305e-05   4.037865637990029e-06   -3.308895527339486e-05
-2.4255052840294305e-05   4.037865637990029e-06   -3.308895527339486e-05
-2.4255052840294305e-05   4.037865637990029e-06   -3.308895527339486e-05
-2.4255052840294305e-05   4.037865637990029e-06   -3.308895527339486e-05
-2.0847389079577034e-05   4.238490654332426e-06   -3.888876988439533e-05
-2.0847389079577034e-05   4.238490654332426e-06   -3.888876988439533e-05
-2.0847389079577034e-05   4.238490654332426e-06   -3.888876988439533e-05
-2.0847389079577034e-05   4.238490654332426e-06   -3.888876988439533e-05
-2.4255052840294224e-05   5.851395674339073e-06   -4.4528349565599616e-05
-2.4255052840294224e-05   5.851395674339073e-06   -4.4528349565599616e-05
-2.4255052840294224e-05   5.851395674339073e-06   -4.4528349565599616e-05
-2.4255052840294224e-05   5.851395674339073e-06   -4.4528349565599616e-05
-1.73914162649713e-05   4.037865637990029e-06   -3.41770732952042e-05
-1.73914162649713e-05   4.037865637990029e-06   -3.41770732952042e-05
-1.73914162649713e-05   4.037865637990029e-06   -3.41770732952042e-05
-1.73914162649713e-05   4.037865637990029e-06   -3.41770732952042e-05
-1.7152658525639605e-05   7.411659542988502e-06   -4.605873032699297e-05
-1.7152658525639605e-05   7.411659542988502e-06   -4.605873032699297e-05
-1.7152658525639605e-05   7.411659542988502e-06   -4.605873032699297e-05
-1.7152658525639605e-05   7.411659542988502e-06   -4.605873032699297e-05
-2.3894436254415187e-05   5.512440317239102e-06   -3.3682902576916954e-05
-2.3894436254415187e-05   5.512440317239102e-06   -3.3682902576916954e-05
-2.3894436254415187e-05   5.512440317239102e-06   -3.3682902576916954e-05
-2.3894436254415187e-05   5.512440317239102e-06   -3.3682902576916954e-05
-2.0722181271945855e-05   5.407114721333152e-06   -3.890679885682261e-05
-2.0722181271945855e-05   5.407114721333152e-06   -3.890679885682261e-05
-2.0722181271945855e-05   5.407114721333152e-06   -3.890679885682261e-05
-2.0722181271945855e-05   5.407114721333152e-06   -3.890679885682261e-05
-1.7902711326151904e-05   4.872264107644558e-07   -5.2598089139800955e-05
-1.7902711326151904e-05   4.872264107644558e-07   -5.2598089139800955e-05
-1.7902711326151904e-05   4.872264107644558e-07   -5.2598089139800955e-05
-1.7902711326151904e-05   4.872264107644558e-07   -5.2598089139800955e-05
-1.083746511949481e-05   7.341805351643565e-07   -4.067450632073272e-05
-1.083746511949481e-05   7.341805351643565e-07   -4.067450632073272e-05
-1.083746511949481e-05   7.341805351643565e-07   -4.067450632073272e-05
-1.083746511949481e-05   7.341805351643565e-07   -4.067450632073272e-05
-1.0600565094993836e-05   2.0747150237382644e-06   -5.1937994899074746e-05
-1.0600565094993836e-05   2.0747150237382644e-06   -5.1937994899074746e-05
-1.0600565094993836e-05   2.0747150237382644e-06   -5.1937994899074746e-05
-1.0600565094993836e-05   2.0747150237382644e-06   -5.1937994899074746e-05
-1.7659722865792575e-05   2.1880184886931883e-06   -4.024071402671604e-05
-1.7659722865792575e-05   2.1880184886931883e-06   -4.024071402671604e-05
-1.7659722865792575e-05   2.1880184886931883e-06   -4.024071402671604e-05
-1.7659722865792575e-05   2.1880184886931883e-06   -4.024071402671604e-05
-1.415883547437511e-05   1.573263872861868e-06   -4.570667357624742e-05
-1.415883547437511e-05   1.573263872861868e-06   -4.570667357624742e-05
-1.415883547437511e-05   1.573263872861868e-06   -4.570667357624742e-05
-1.415883547437511e-05   1.573263872861868e-06   -4.570667357624742e-05
-1.7659722865792535e-05   2.0747150237382644e-06   -5.200597697804755e-05
-1.7659722865792535e-05   2.0747150237382644e-06   -5.200597697804755e-05
-1.7659722865792535e-05   2.0747150237382644e-06   -5.200597697804755e-05
-1.7659722865792535e-05   2.0747150237382644e-06   -5.200597697804755e-05
-1.0600565094993836e-05   2.1880184886931883e-06   -4.0172731947743295e-05
-1.0600565094993836e-05   2.1880184886931883e-06   -4.0172731947743295e-05
-1.0600565094993836e-05   2.1880184886931883e-06   -4.0172731947743295e-05
-1.0600565094993836e-05   2.1880184886931883e-06   -4.0172731947743295e-05
-1.033419119034249e-05   3.667273834858818e-06   -5.207381910683458e-05
-1.033419119034249e-05   3.667273834858818e-06   -5.207381910683458e-05
-1.033419119034249e-05   3.667273834858818e-06   -5.207381910683458e-05
-1.033419119034249e-05   3.667273834858818e-06   -5.207381910683458e-05
-1.73914162649713e-05   3.654605807354005e-06   -4.030417649928338e-05
-1.73914162649713e-05   3.654605807354005e-06   -4.030417649928338e-05
-1.73914162649713e-05   3.654605807354005e-06   -4.030417649928338e-05
-1.73914162649713e-05   3.654605807354005e-06   -4.030417649928338e-05
-1.3999727381325933e-05   2.8221547476938065e-06   -4.5457520669563124e-05
-1.3999727381325933e-05   2.8221547476938065e-06   -4.5457520669563124e-05
-1.3999727381325933e-05   2.8221547476938065e-06   -4.5457520669563124e-05
-1.3999727381325933e-05   2.8221547476938065e-06   -4.5457520669563124e-05
-1.7391416264971247e-05   3.6672738348590347e-06   -5.2066218290331475e-05
-1.7391416264971247e-05   3.6672738348590347e-06   -5.2066218290331475e-05
-1.7391416264971247e-05   3.6672738348590347e-06   -5.2066218290331475e-05
-1.7391416264971247e-05   3.6672738348590347e-06   -5.2066218290331475e-05
-1.0334191190342507e-05   3.654605807354005e-06   -4.0311777315786405e-05
-1.0334191190342507e-05   3.654605807354005e-06   -4.0311777315786405e-05
-1.0334191190342507e-05   3.654605807354005e-06   -4.0311777315786405e-05
-1.0334191190342507e-05   3.654605807354005e-06   -4.0311777315786405e-05
-1.0094829468610024e-05   5.287677126046943e-06   -5.295039344578687e-05
-1.0094829468610024e-05   5.287677126046943e-06   -5.295039344578687e-05
-1.0094829468610024e-05   5.287677126046943e-06   -5.295039344578687e-05
-1.0094829468610024e-05   5.287677126046943e-06   -5.295039344578687e-05
-1.715265852563962e-05   5.143311102987543e-06   -4.110072540356821e-05
-1.715265852563962e-05   5.143311102987543e-06   -4.110072540356821e-05
-1.715265852563962e-05   5.143311102987543e-06   -4.110072540356821e-05
-1.715265852563962e-05   5.143311102987543e-06   -4.110072540356821e-05
-1.3868036296380388e-05   4.087644599767067e-06   -4.594169588373494e-05
-1.3868036296380388e-05   4.087644599767067e-06   -4.594169588373494e-05
-1.3868036296380388e-05   4.087644599767067e-06   -4.594169588373494e-05
-1.3868036296380388e-05   4.087644599767067e-06   -4.594169588373494e-05
-1.0837465119494772e-05   -1.6606173492094128e-06   -4.610527749333458e-05
-1.0837465119494772e-05   -1.6606173492094128e-06   -4.610527749333458e-05
-1.0837465119494772e-05   -1.6606173492094128e-06   -4.610527749333458e-05
-1.0837465119494772e-05   -1.6606173492094128e-06   -4.610527749333458e-05
-3.983614763658849e-06   3.118846637222873e-07   -3.349869235918254e-05
-3.983614763658849e-06   3.118846637222873e-07   -3.349869235918254e-05
-3.983614763658849e-06   3.118846637222873e-07   -3.349869235918254e-05
-3.983614763658849e-06   3.118846637222873e-07   -3.349869235918254e-05
-3.6300263683560434e-06   -1.6567127839994117e-07   -4.462433860075025e-05
-3.6300263683560434e-06   -1.6567127839994117e-07   -4.462433860075025e-05
-3.6300263683560434e-06   -1.6567127839994117e-07   -4.462433860075025e-05
-3.6300263683560434e-06   -1.6567127839994117e-07   -4.462433860075025e-05
-1.0600565094993817e-05   1.7199435156213874e-06   -3.41381429327665e-05
-1.0600565094993817e-05   1.7199435156213874e-06   -3.41381429327665e-05
-1.0600565094993817e-05   1.7199435156213874e-06   -3.41381429327665e-05
-1.0600565094993817e-05   1.7199435156213874e-06   -3.41381429327665e-05
-7.189648532702115e-06   1.9847917661665326e-07   -3.8910125266517284e-05
-7.189648532702115e-06   1.9847917661665326e-07   -3.8910125266517284e-05
-7.189648532702115e-06   1.9847917661665326e-07   -3.8910125266517284e-05
-7.189648532702115e-06   1.9847917661665326e-07   -3.8910125266517284e-05
-1.0600565094993799e-05   -1.65671278400158e-07   -4.575570747716309e-05
-1.0600565094993799e-05   -1.65671278400158e-07   -4.575570747716309e-05
-1.0600565094993799e-05   -1.65671278400158e-07   -4.575570747716309e-05
-1.0600565094993799e-05   -1.65671278400158e-07   -4.575570747716309e-05
-3.6300263683560434e-06   1.7199435156213874e-06   -3.3006774056353874e-05
-3.6300263683560434e-06   1.7199435156213874e-06   -3.3006774056353874e-05
-3.6300263683560434e-06   1.7199435156213874e-06   -3.3006774056353874e-05
-3.6300263683560434e-06   1.7199435156213874e-06   -3.3006774056353874e-05
-3.1056533034690397e-06   1.2728059860084816e-06   -4.522631855189015e-05
-3.1056533034690397e-06   1.2728059860084816e-06   -4.522631855189015e-05
-3.1056533034690397e-06   1.2728059860084816e-06   -4.522631855189015e-05
-3.1056533034690397e-06   1.2728059860084816e-06   -4.522631855189015e-05
-1.033419119034249e-05   3.0470484614275248e-06   -3.424330089235231e-05
-1.033419119034249e-05   3.0470484614275248e-06   -3.424330089235231e-05
-1.033419119034249e-05   3.0470484614275248e-06   -3.424330089235231e-05
-1.033419119034249e-05   3.0470484614275248e-06   -3.424330089235231e-05
-6.975679258155381e-06   1.3351971774315952e-06   -3.881371000893333e-05
-6.975679258155381e-06   1.3351971774315952e-06   -3.881371000893333e-05
-6.975679258155381e-06   1.3351971774315952e-06   -3.881371000893333e-05
-6.975679258155381e-06   1.3351971774315952e-06   -3.881371000893333e-05
-1.0334191190342461e-05   1.2728059860084816e-06   -4.629086403714125e-05
-1.0334191190342461e-05   1.2728059860084816e-06   -4.629086403714125e-05
-1.0334191190342461e-05   1.2728059860084816e-06   -4.629086403714125e-05
-1.0334191190342461e-05   1.2728059860084816e-06   -4.629086403714125e-05
-3.1056533034690533e-06   3.0470484614275248e-06   -3.317875540710105e-05
-3.1056533034690533e-06   3.0470484614275248e-06   -3.317875540710105e-05
-3.1056533034690533e-06   3.0470484614275248e-06   -3.317875540710105e-05
-3.1056533034690533e-06   3.0470484614275248e-06   -3.317875540710105e-05
-2.739434182207225e-06   2.921823141110091e-06   -4.6491296002268445e-05
-2.739434182207225e-06   2.921823141110091e-06   -4.6491296002268445e-05
-2.739434182207225e-06   2.921823141110091e-06   -4.6491296002268445e-05
-2.739434182207225e-06   2.921823141110091e-06   -4.6491296002268445e-05
-1.0094829468610024e-05   4.5479327168227585e-06   -3.5207969603691075e-05
-1.0094829468610024e-05   4.5479327168227585e-06   -3.5207969603691075e-05
-1.0094829468610024e-05   4.5479327168227585e-06   -3.5207969603691075e-05
-1.0094829468610024e-05   4.5479327168227585e-06   -3.5207969603691075e-05
-6.75158312734533e-06   2.526872484481888e-06   -3.956741069972798e-05
-6.75158312734533e-06   2.526872484481888e-06   -3.956741069972798e-05
-6.75158312734533e-06   2.526872484481888e-06   -3.956741069972798e-05
-6.75158312734533e-06   2.526872484481888e-06   -3.956741069972798e-05
-3.983614763658822e-06   -3.0532681911709172e-06   -2.5024509930535958e-05
-3.983614763658822e-06   -3.0532681911709172e-06   -2.5024509930535958e-05
-3.983614763658822e-06   -3.0532681911709172e-06   -2.5024509930535958e-05
-3.983614763658822e-06   -3.0532681911709172e-06   -2.5024509930535958e-05
1.0937314809827709e-06   4.3032242119677745e-07   -1.4472111822045946e-05
1.0937314809827709e-06   4.3032242119677745e-07   -1.4472111822045946e-05
1.0937314809827709e-06   4.3032242119677745e-07   -1.4472111822045946e-05
1.0937314809827709e-06   4.3032242119677745e-07   -1.4472111822045946e-05
2.9555204165961438e-06   -2.0411102121047856e-06   -2.3905116347978678e-05
2.9555204165961438e-06   -2.0411102121047856e-06   -2.3905116347978678e-05
2.9555204165961438e-06   -2.0411102121047856e-06   -2.3905116347978678e-05
2.9555204165961438e-06   -2.0411102121047856e-06   -2.3905116347978678e-05
-3.6300263683560434e-06   1.5429570646100649e-06   -1.50796454057534e-05
-3.6300263683560434e-06   1.5429570646100649e-06   -1.50796454057534e-05
-3.6300263683560434e-06   1.5429570646100649e-06   -1.50796454057534e-05
-3.6300263683560434e-06   1.5429570646100649e-06   -1.50796454057534e-05
-8.684953027971549e-07   -6.297830793247292e-07   -1.8378553095324578e-05
-8.684953027971549e-07   -6.297830793247292e-07   -1.8378553095324578e-05
-8.684953027971549e-07   -6.297830793247292e-07   -1.8378553095324578e-05
-8.684953027971549e-07   -6.297830793247292e-07   -1.8378553095324578e-05
-3.63002636835603e-06   -2.0411102121047856e-06   -2.605555671400723e-05
-3.63002636835603e-06   -2.0411102121047856e-06   -2.605555671400723e-05
-3.63002636835603e-06   -2.0411102121047856e-06   -2.605555671400723e-05
-3.63002636835603e-06   -2.0411102121047856e-06   -2.605555671400723e-05
2.9555204165961438e-06   1.542957064609848e-06   -1.2929205039724848e-05
2.9555204165961438e-06   1.542957064609848e-06   -1.2929205039724848e-05
2.9555204165961438e-06   1.542957064609848e-06   -1.2929205039724848e-05
2.9555204165961438e-06   1.542957064609848e-06   -1.2929205039724848e-05
4.425491891630251e-06   -1.3419909062545917e-06   -2.5210916655725023e-05
4.425491891630251e-06   -1.3419909062545917e-06   -2.5210916655725023e-05
4.425491891630251e-06   -1.3419909062545917e-06   -2.5210916655725023e-05
4.425491891630251e-06   -1.3419909062545917e-06   -2.5210916655725023e-05
-3.1056533034690533e-06   2.168852055751784e-06   -1.476551377442998e-05
-3.1056533034690533e-06   2.168852055751784e-06   -1.476551377442998e-05
-3.1056533034690533e-06   2.168852055751784e-06   -1.476551377442998e-05
-3.1056533034690533e-06   2.168852055751784e-06   -1.476551377442998e-05
7.719697237859271e-08   -9.730665155973164e-08   -1.8710569009788792e-05
7.719697237859271e-08   -9.730665155973164e-08   -1.8710569009788792e-05
7.719697237859271e-08   -9.730665155973164e-08   -1.8710569009788792e-05
7.719697237859271e-08   -9.730665155973164e-08   -1.8710569009788792e-05
-3.1056533034690397e-06   -1.3419909062545917e-06   -2.7317422432928708e-05
-3.1056533034690397e-06   -1.3419909062545917e-06   -2.7317422432928708e-05
-3.1056533034690397e-06   -1.3419909062545917e-06   -2.7317422432928708e-05
-3.1056533034690397e-06   -1.3419909062545917e-06   -2.7317422432928708e-05
4.425491891630224e-06   2.168852055751784e-06   -1.265900799722608e-05
4.425491891630224e-06   2.168852055751784e-06   -1.265900799722608e-05
4.425491891630224e-06   2.168852055751784e-06   -1.265900799722608e-05
4.425491891630224e-06   2.168852055751784e-06   -1.265900799722608e-05
6.2797398055381315e-06   3.3051197831975715e-08   -2.8245287264938546e-05
6.2797398055381315e-06   3.3051197831975715e-08   -2.8245287264938546e-05
6.2797398055381315e-06   3.3051197831975715e-08   -2.8245287264938546e-05
6.2797398055381315e-06   3.3051197831975715e-08   -2.8245287264938546e-05
-2.739434182207225e-06   3.279504714056485e-06   -1.516120272843045e-05
-2.739434182207225e-06   3.279504714056485e-06   -1.516120272843045e-05
-2.739434182207225e-06   3.279504714056485e-06   -1.516120272843045e-05
-2.739434182207225e-06   3.279504714056485e-06   -1.516120272843045e-05
8.890449625543616e-07   5.111935871141352e-07   -1.9547681293534793e-05
8.890449625543616e-07   5.111935871141352e-07   -1.9547681293534793e-05
8.890449625543616e-07   5.111935871141352e-07   -1.9547681293534793e-05
8.890449625543616e-07   5.111935871141352e-07   -1.9547681293534793e-05
-1.189229740591809e-05   2.237426853992459e-06   -2.1295088856828422e-05
-1.189229740591809e-05   2.237426853992459e-06   -2.1295088856828422e-05
-1.189229740591809e-05   2.237426853992459e-06   -2.1295088856828422e-05
-1.189229740591809e-05   2.237426853992459e-06   -2.1295088856828422e-05
-1.2033539103443417e-05   -1.037781272014704e-06   -2.3495616561641536e-05
-1.2033539103443417e-05   -1.037781272014704e-06   -2.3495616561641536e-05
-1.2033539103443417e-05   -1.037781272014704e-06   -2.3495616561641536e-05
-1.2033539103443417e-05   -1.037781272014704e-06   -2.3495616561641536e-05
-1.1429715954456936e-05   3.482657519529239e-06   -2.0007829694561807e-05
-1.1429715954456936e-05   3.482657519529239e-06   -2.0007829694561807e-05
-1.1429715954456936e-05   3.482657519529239e-06   -2.0007829694561807e-05
-1.1429715954456936e-05   3.482657519529239e-06   -2.0007829694561807e-05
-9.818028698276862e-06   -3.007266196307368e-08   -2.0586337012632816e-05
-9.818028698276862e-06   -3.007266196307368e-08   -2.0586337012632816e-05
-9.818028698276862e-06   -3.007266196307368e-08   -2.0586337012632816e-05
-9.818028698276862e-06   -3.007266196307368e-08   -2.0586337012632816e-05
-1.079969454531162e-05   1.540224447327005e-06   -1.98924055331499e-05
-1.079969454531162e-05   1.540224447327005e-06   -1.98924055331499e-05
-1.079969454531162e-05   1.540224447327005e-06   -1.98924055331499e-05
-1.079969454531162e-05   1.540224447327005e-06   -1.98924055331499e-05
-9.818028698276807e-06   3.482657519529239e-06   -1.7900191585666332e-05
-9.818028698276807e-06   3.482657519529239e-06   -1.7900191585666332e-05
-9.818028698276807e-06   3.482657519529239e-06   -1.7900191585666332e-05
-9.818028698276807e-06   3.482657519529239e-06   -1.7900191585666332e-05
-1.1429715954456936e-05   -3.007266196329052e-08   -2.2693975121528724e-05
-1.1429715954456936e-05   -3.007266196329052e-08   -2.2693975121528724e-05
-1.1429715954456936e-05   -3.007266196329052e-08   -2.2693975121528724e-05
-1.1429715954456936e-05   -3.007266196329052e-08   -2.2693975121528724e-05
-1.0668252189747899e-05   4.1115079529668e-06   -1.8567583559796338e-05
-1.0668252189747899e-05   4.1115079529668e-06   -1.8567583559796338e-05
-1.0668252189747899e-05   4.1115079529668e-06   -1.8567583559796338e-05
-1.0668252189747899e-05   4.1115079529668e-06   -1.8567583559796338e-05
-8.10208836071459e-06   5.396253873156398e-07   -2.0701393735461367e-05
-8.10208836071459e-06   5.396253873156398e-07   -2.0701393735461367e-05
-8.10208836071459e-06   5.396253873156398e-07   -2.0701393735461367e-05
-8.10208836071459e-06   5.396253873156398e-07   -2.0701393735461367e-05
-9.817071594243301e-06   2.0573981751135107e-06   -1.875375201892634e-05
-9.817071594243301e-06   2.0573981751135107e-06   -1.875375201892634e-05
-9.817071594243301e-06   2.0573981751135107e-06   -1.875375201892634e-05
-9.817071594243301e-06   2.0573981751135107e-06   -1.875375201892634e-05
-8.102088360714536e-06   4.1115079529668e-06   -1.6424454020405816e-05
-8.102088360714536e-06   4.1115079529668e-06   -1.6424454020405816e-05
-8.102088360714536e-06   4.1115079529668e-06   -1.6424454020405816e-05
-8.102088360714536e-06   4.1115079529668e-06   -1.6424454020405816e-05
-1.0668252189747953e-05   5.396253873156398e-07   -2.2844523274851943e-05
-1.0668252189747953e-05   5.396253873156398e-07   -2.2844523274851943e-05
-1.0668252189747953e-05   5.396253873156398e-07   -2.2844523274851943e-05
-1.0668252189747953e-05   5.396253873156398e-07   -2.2844523274851943e-05
-1.0073818031239464e-05   5.107486783712586e-06   -1.722768546240502e-05
-1.0073818031239464e-05   5.107486783712586e-06   -1.722768546240502e-05
-1.0073818031239464e-05   5.107486783712586e-06   -1.722768546240502e-05
-1.0073818031239464e-05   5.107486783712586e-06   -1.722768546240502e-05
-5.9834540009272796e-06   1.675971881112074e-06   -2.1986049904697985e-05
-5.9834540009272796e-06   1.675971881112074e-06   -2.1986049904697985e-05
-5.9834540009272796e-06   1.675971881112074e-06   -2.1986049904697985e-05
-5.9834540009272796e-06   1.675971881112074e-06   -2.1986049904697985e-05
-8.588431262434394e-06   2.5525769068331355e-06   -1.817038415095223e-05
-8.588431262434394e-06   2.5525769068331355e-06   -1.817038415095223e-05
-8.588431262434394e-06   2.5525769068331355e-06   -1.817038415095223e-05
-8.588431262434394e-06   2.5525769068331355e-06   -1.817038415095223e-05
-1.2033539103443363e-05   1.2829117416648245e-06   -3.869389281665298e-05
-1.2033539103443363e-05   1.2829117416648245e-06   -3.869389281665298e-05
-1.2033539103443363e-05   1.2829117416648245e-06   -3.869389281665298e-05
-1.2033539103443363e-05   1.2829117416648245e-06   -3.869389281665298e-05
-1.3850678368310457e-05   -2.2595011092457935e-07   -4.2627775369651674e-05
-1.3850678368310457e-05   -2.2595011092457935e-07   -4.2627775369651674e-05
-1.3850678368310457e-05   -2.2595011092457935e-07   -4.2627775369651674e-05
-1.3850678368310457e-05   -2.2595011092457935e-07   -4.2627775369651674e-05
-1.3362400984700981e-05   2.710596970029785e-06   -3.87234333816659e-05
-1.3362400984700981e-05   2.710596970029785e-06   -3.87234333816659e-05
-1.3362400984700981e-05   2.710596970029785e-06   -3.87234333816659e-05
-1.3362400984700981e-05   2.710596970029785e-06   -3.87234333816659e-05
-1.1429715954456936e-05   1.045295051888169e-06   -4.0945393947854015e-05
-1.1429715954456936e-05   1.045295051888169e-06   -4.0945393947854015e-05
-1.1429715954456936e-05   1.045295051888169e-06   -4.0945393947854015e-05
-1.1429715954456936e-05   1.045295051888169e-06   -4.0945393947854015e-05
-1.2521480944795868e-05   1.4818897203460173e-06   -3.938774243169793e-05
-1.2521480944795868e-05   1.4818897203460173e-06   -3.938774243169793e-05
-1.2521480944795868e-05   1.4818897203460173e-06   -3.938774243169793e-05
-1.2521480944795868e-05   1.4818897203460173e-06   -3.938774243169793e-05
-1.1429715954456882e-05   2.7105969700300016e-06   -3.772425223078058e-05
-1.1429715954456882e-05   2.7105969700300016e-06   -3.772425223078058e-05
-1.1429715954456882e-05   2.7105969700300016e-06   -3.772425223078058e-05
-1.1429715954456882e-05   2.7105969700300016e-06   -3.772425223078058e-05
-1.3362400984700954e-05   1.0452950518883859e-06   -4.194457509873917e-05
-1.3362400984700954e-05   1.0452950518883859e-06   -4.194457509873917e-05
-1.3362400984700954e-05   1.0452950518883859e-06   -4.194457509873917e-05
-1.3362400984700954e-05   1.0452950518883859e-06   -4.194457509873917e-05
-1.285460573730371e-05   4.037865637990029e-06   -3.8398898489721894e-05
-1.285460573730371e-05   4.037865637990029e-06   -3.8398898489721894e-05
-1.285460573730371e-05   4.037865637990029e-06   -3.8398898489721894e-05
-1.285460573730371e-05   4.037865637990029e-06   -3.8398898489721894e-05
-1.0668252189747953e-05   2.26898985016097e-06   -4.0981495596283894e-05
-1.0668252189747953e-05   2.26898985016097e-06   -4.0981495596283894e-05
-1.0668252189747953e-05   2.26898985016097e-06   -4.0981495596283894e-05
-1.0668252189747953e-05   2.26898985016097e-06   -4.0981495596283894e-05
-1.203216207241389e-05   2.5064739397073505e-06   -3.885080291223528e-05
-1.203216207241389e-05   2.5064739397073505e-06   -3.885080291223528e-05
-1.203216207241389e-05   2.5064739397073505e-06   -3.885080291223528e-05
-1.203216207241389e-05   2.5064739397073505e-06   -3.885080291223528e-05
-1.0668252189747899e-05   4.037865637990029e-06   -3.733757301702437e-05
-1.0668252189747899e-05   4.037865637990029e-06   -3.733757301702437e-05
-1.0668252189747899e-05   4.037865637990029e-06   -3.733757301702437e-05
-1.0668252189747899e-05   4.037865637990029e-06   -3.733757301702437e-05
-1.2854605737303682e-05   2.26898985016097e-06   -4.20428210689812e-05
-1.2854605737303682e-05   2.26898985016097e-06   -4.20428210689812e-05
-1.2854605737303682e-05   2.26898985016097e-06   -4.20428210689812e-05
-1.2854605737303682e-05   2.26898985016097e-06   -4.20428210689812e-05
-1.23762145739065e-05   5.512440317239102e-06   -3.903474737627878e-05
-1.23762145739065e-05   5.512440317239102e-06   -3.903474737627878e-05
-1.23762145739065e-05   5.512440317239102e-06   -3.903474737627878e-05
-1.23762145739065e-05   5.512440317239102e-06   -3.903474737627878e-05
-1.0073818031239464e-05   3.6660803661363144e-06   -4.176425897672875e-05
-1.0073818031239464e-05   3.6660803661363144e-06   -4.176425897672875e-05
-1.0073818031239464e-05   3.6660803661363144e-06   -4.176425897672875e-05
-1.0073818031239464e-05   3.6660803661363144e-06   -4.176425897672875e-05
-1.1601488394079857e-05   3.580993823382086e-06   -3.9167089779675664e-05
-1.1601488394079857e-05   3.580993823382086e-06   -3.9167089779675664e-05
-1.1601488394079857e-05   3.580993823382086e-06   -3.9167089779675664e-05
-1.1601488394079857e-05   3.580993823382086e-06   -3.9167089779675664e-05
-1.3850678368310403e-05   7.341805351641396e-07   -4.5058092946227376e-05
-1.3850678368310403e-05   7.341805351641396e-07   -4.5058092946227376e-05
-1.3850678368310403e-05   7.341805351641396e-07   -4.5058092946227376e-05
-1.3850678368310403e-05   7.341805351641396e-07   -4.5058092946227376e-05
-1.5766097814494166e-05   1.0526362402331086e-06   -4.8059385266825856e-05
-1.5766097814494166e-05   1.0526362402331086e-06   -4.8059385266825856e-05
-1.5766097814494166e-05   1.0526362402331086e-06   -4.8059385266825856e-05
-1.5766097814494166e-05   1.0526362402331086e-06   -4.8059385266825856e-05
-1.5286143464973282e-05   2.1880184886931883e-06   -4.4364464044847765e-05
-1.5286143464973282e-05   2.1880184886931883e-06   -4.4364464044847765e-05
-1.5286143464973282e-05   2.1880184886931883e-06   -4.4364464044847765e-05
-1.5286143464973282e-05   2.1880184886931883e-06   -4.4364464044847765e-05
-1.3362400984700954e-05   2.366275641245679e-06   -4.767765580349954e-05
-1.3362400984700954e-05   2.366275641245679e-06   -4.767765580349954e-05
-1.3362400984700954e-05   2.366275641245679e-06   -4.767765580349954e-05
-1.3362400984700954e-05   2.366275641245679e-06   -4.767765580349954e-05
-1.447865239837326e-05   1.7897943789986492e-06   -4.547134802336463e-05
-1.447865239837326e-05   1.7897943789986492e-06   -4.547134802336463e-05
-1.447865239837326e-05   1.7897943789986492e-06   -4.547134802336463e-05
-1.447865239837326e-05   1.7897943789986492e-06   -4.547134802336463e-05
-1.3362400984700954e-05   2.1880184886931883e-06   -4.447141833637902e-05
-1.3362400984700954e-05   2.1880184886931883e-06   -4.447141833637902e-05
-1.3362400984700954e-05   2.1880184886931883e-06   -4.447141833637902e-05
-1.3362400984700954e-05   2.1880184886931883e-06   -4.447141833637902e-05
-1.528614346497331e-05   2.366275641245679e-06   -4.757070151196834e-05
-1.528614346497331e-05   2.366275641245679e-06   -4.757070151196834e-05
-1.528614346497331e-05   2.366275641245679e-06   -4.757070151196834e-05
-1.528614346497331e-05   2.366275641245679e-06   -4.757070151196834e-05
-1.4781479528161778e-05   3.654605807354005e-06   -4.4493461071529964e-05
-1.4781479528161778e-05   3.654605807354005e-06   -4.4493461071529964e-05
-1.4781479528161778e-05   3.654605807354005e-06   -4.4493461071529964e-05
-1.4781479528161778e-05   3.654605807354005e-06   -4.4493461071529964e-05
-1.285460573730371e-05   3.70884017780607e-06   -4.773745801189784e-05
-1.285460573730371e-05   3.70884017780607e-06   -4.773745801189784e-05
-1.285460573730371e-05   3.70884017780607e-06   -4.773745801189784e-05
-1.285460573730371e-05   3.70884017780607e-06   -4.773745801189784e-05
-1.4075676957774752e-05   2.913322928017664e-06   -4.522502896124039e-05
-1.4075676957774752e-05   2.913322928017664e-06   -4.522502896124039e-05
-1.4075676957774752e-05   2.913322928017664e-06   -4.522502896124039e-05
-1.4075676957774752e-05   2.913322928017664e-06   -4.522502896124039e-05
-1.2854605737303682e-05   3.654605807353788e-06   -4.452600169380105e-05
-1.2854605737303682e-05   3.654605807353788e-06   -4.452600169380105e-05
-1.2854605737303682e-05   3.654605807353788e-06   -4.452600169380105e-05
-1.2854605737303682e-05   3.654605807353788e-06   -4.452600169380105e-05
-1.4781479528161778e-05   3.70884017780607e-06   -4.770491738962648e-05
-1.4781479528161778e-05   3.70884017780607e-06   -4.770491738962648e-05
-1.4781479528161778e-05   3.70884017780607e-06   -4.770491738962648e-05
-1.4781479528161778e-05   3.70884017780607e-06   -4.770491738962648e-05
-1.4305476536634142e-05   5.143311102987543e-06   -4.5357047963500785e-05
-1.4305476536634142e-05   5.143311102987543e-06   -4.5357047963500785e-05
-1.4305476536634142e-05   5.143311102987543e-06   -4.5357047963500785e-05
-1.4305476536634142e-05   5.143311102987543e-06   -4.5357047963500785e-05
-1.23762145739065e-05   5.069962276286989e-06   -4.8528475272026345e-05
-1.23762145739065e-05   5.069962276286989e-06   -4.8528475272026345e-05
-1.23762145739065e-05   5.069962276286989e-06   -4.8528475272026345e-05
-1.23762145739065e-05   5.069962276286989e-06   -4.8528475272026345e-05
-1.3704652575358273e-05   4.052562781502438e-06   -4.570397223940283e-05
-1.3704652575358273e-05   4.052562781502438e-06   -4.570397223940283e-05
-1.3704652575358273e-05   4.052562781502438e-06   -4.570397223940283e-05
-1.3704652575358273e-05   4.052562781502438e-06   -4.570397223940283e-05
-1.5766097814494115e-05   3.118846637222873e-07   -3.887470676939512e-05
-1.5766097814494115e-05   3.118846637222873e-07   -3.887470676939512e-05
-1.5766097814494115e-05   3.118846637222873e-07   -3.887470676939512e-05
-1.5766097814494115e-05   3.118846637222873e-07   -3.887470676939512e-05
-1.7787307957439834e-05   2.3402488388696296e-06   -4.102637183588283e-05
-1.7787307957439834e-05   2.3402488388696296e-06   -4.102637183588283e-05
-1.7787307957439834e-05   2.3402488388696296e-06   -4.102637183588283e-05
-1.7787307957439834e-05   2.3402488388696296e-06   -4.102637183588283e-05
-1.720684435530762e-05   1.7199435156213874e-06   -3.7166941794733064e-05
-1.720684435530762e-05   1.7199435156213874e-06   -3.7166941794733064e-05
-1.720684435530762e-05   1.7199435156213874e-06   -3.7166941794733064e-05
-1.720684435530762e-05   1.7199435156213874e-06   -3.7166941794733064e-05
-1.5286143464973282e-05   3.6581655741851384e-06   -4.153104318042812e-05
-1.5286143464973282e-05   3.6581655741851384e-06   -4.153104318042812e-05
-1.5286143464973282e-05   3.6581655741851384e-06   -4.153104318042812e-05
-1.5286143464973282e-05   3.6581655741851384e-06   -4.153104318042812e-05
-1.6384029688276683e-05   2.15449213348878e-06   -3.8799028743838804e-05
-1.6384029688276683e-05   2.15449213348878e-06   -3.8799028743838804e-05
-1.6384029688276683e-05   2.15449213348878e-06   -3.8799028743838804e-05
-1.6384029688276683e-05   2.15449213348878e-06   -3.8799028743838804e-05
-1.5286143464973255e-05   1.7199435156213874e-06   -3.8329875029871076e-05
-1.5286143464973255e-05   1.7199435156213874e-06   -3.8329875029871076e-05
-1.5286143464973255e-05   1.7199435156213874e-06   -3.8329875029871076e-05
-1.5286143464973255e-05   1.7199435156213874e-06   -3.8329875029871076e-05
-1.720684435530762e-05   3.6581655741849215e-06   -4.036810994529033e-05
-1.720684435530762e-05   3.6581655741849215e-06   -4.036810994529033e-05
-1.720684435530762e-05   3.6581655741849215e-06   -4.036810994529033e-05
-1.720684435530762e-05   3.6581655741849215e-06   -4.036810994529033e-05
-1.6457326201923988e-05   3.047048461427308e-06   -3.732871947702179e-05
-1.6457326201923988e-05   3.047048461427308e-06   -3.732871947702179e-05
-1.6457326201923988e-05   3.047048461427308e-06   -3.732871947702179e-05
-1.6457326201923988e-05   3.047048461427308e-06   -3.732871947702179e-05
-1.4781479528161751e-05   4.874157079884237e-06   -4.121806243769936e-05
-1.4781479528161751e-05   4.874157079884237e-06   -4.121806243769936e-05
-1.4781479528161751e-05   4.874157079884237e-06   -4.121806243769936e-05
-1.4781479528161751e-05   4.874157079884237e-06   -4.121806243769936e-05
-1.586530531225475e-05   3.1999325014705256e-06   -3.8407151383830235e-05
-1.586530531225475e-05   3.1999325014705256e-06   -3.8407151383830235e-05
-1.586530531225475e-05   3.1999325014705256e-06   -3.8407151383830235e-05
-1.586530531225475e-05   3.1999325014705256e-06   -3.8407151383830235e-05
-1.4781479528161712e-05   3.0470484614275248e-06   -3.84249846480956e-05
-1.4781479528161712e-05   3.0470484614275248e-06   -3.84249846480956e-05
-1.4781479528161712e-05   3.0470484614275248e-06   -3.84249846480956e-05
-1.4781479528161712e-05   3.0470484614275248e-06   -3.84249846480956e-05
-1.6457326201924015e-05   4.87415707988402e-06   -4.01217972666255e-05
-1.6457326201924015e-05   4.87415707988402e-06   -4.01217972666255e-05
-1.6457326201924015e-05   4.87415707988402e-06   -4.01217972666255e-05
-1.6457326201924015e-05   4.87415707988402e-06   -4.01217972666255e-05
-1.586835291606259e-05   4.5479327168227585e-06   -3.8364104231397534e-05
-1.586835291606259e-05   4.5479327168227585e-06   -3.8364104231397534e-05
-1.586835291606259e-05   4.5479327168227585e-06   -3.8364104231397534e-05
-1.586835291606259e-05   4.5479327168227585e-06   -3.8364104231397534e-05
-1.4305476536634142e-05   6.237213247473582e-06   -4.1982466515501975e-05
-1.4305476536634142e-05   6.237213247473582e-06   -4.1982466515501975e-05
-1.4305476536634142e-05   6.237213247473582e-06   -4.1982466515501975e-05
-1.4305476536634142e-05   6.237213247473582e-06   -4.1982466515501975e-05
-1.547625796341795e-05   4.268617995556402e-06   -3.885000698637816e-05
-1.547625796341795e-05   4.268617995556402e-06   -3.885000698637816e-05
-1.547625796341795e-05   4.268617995556402e-06   -3.885000698637816e-05
-1.547625796341795e-05   4.268617995556402e-06   -3.885000698637816e-05
-1.778730795743978e-05   4.3032242119677745e-07   -2.0721262094590734e-05
-1.778730795743978e-05   4.3032242119677745e-07   -2.0721262094590734e-05
-1.778730795743978e-05   4.3032242119677745e-07   -2.0721262094590734e-05
-1.778730795743978e-05   4.3032242119677745e-07   -2.0721262094590734e-05
-2.1530745462931583e-05   3.931443586625101e-06   -2.4859651904486678e-05
-2.1530745462931583e-05   3.931443586625101e-06   -2.4859651904486678e-05
-2.1530745462931583e-05   3.931443586625101e-06   -2.4859651904486678e-05
-2.1530745462931583e-05   3.931443586625101e-06   -2.4859651904486678e-05
-1.9473062053262968e-05   1.5429570646100649e-06   -1.708999096371232e-05
-1.9473062053262968e-05   1.5429570646100649e-06   -1.708999096371232e-05
-1.9473062053262968e-05   1.5429570646100649e-06   -1.708999096371232e-05
-1.9473062053262968e-05   1.5429570646100649e-06   -1.708999096371232e-05
-1.7206844355307593e-05   5.125994031977528e-06   -2.3016842640724854e-05
-1.7206844355307593e-05   5.125994031977528e-06   -2.3016842640724854e-05
-1.7206844355307593e-05   5.125994031977528e-06   -2.3016842640724854e-05
-1.7206844355307593e-05   5.125994031977528e-06   -2.3016842640724854e-05
-1.823053286446192e-05   2.902554182830641e-06   -1.9976631215979984e-05
-1.823053286446192e-05   2.902554182830641e-06   -1.9976631215979984e-05
-1.823053286446192e-05   2.902554182830641e-06   -1.9976631215979984e-05
-1.823053286446192e-05   2.902554182830641e-06   -1.9976631215979984e-05
-1.720684435530754e-05   1.542957064609848e-06   -1.9239813144132536e-05
-1.720684435530754e-05   1.542957064609848e-06   -1.9239813144132536e-05
-1.720684435530754e-05   1.542957064609848e-06   -1.9239813144132536e-05
-1.720684435530754e-05   1.542957064609848e-06   -1.9239813144132536e-05
-1.947306205326294e-05   5.125994031977528e-06   -2.086702046030461e-05
-1.947306205326294e-05   5.125994031977528e-06   -2.086702046030461e-05
-1.947306205326294e-05   5.125994031977528e-06   -2.086702046030461e-05
-1.947306205326294e-05   5.125994031977528e-06   -2.086702046030461e-05
-1.7799424036263903e-05   2.168852055752001e-06   -1.6813008064040717e-05
-1.7799424036263903e-05   2.168852055752001e-06   -1.6813008064040717e-05
-1.7799424036263903e-05   2.168852055752001e-06   -1.6813008064040717e-05
-1.7799424036263903e-05   2.168852055752001e-06   -1.6813008064040717e-05
-1.6457326201923988e-05   5.672968356268621e-06   -2.1152307568250494e-05
-1.6457326201923988e-05   5.672968356268621e-06   -2.1152307568250494e-05
-1.6457326201923988e-05   5.672968356268621e-06   -2.1152307568250494e-05
-1.6457326201923988e-05   5.672968356268621e-06   -2.1152307568250494e-05
-1.73508707799707e-05   3.4552881941038623e-06   -1.8332458507540556e-05
-1.73508707799707e-05   3.4552881941038623e-06   -1.8332458507540556e-05
-1.73508707799707e-05   3.4552881941038623e-06   -1.8332458507540556e-05
-1.73508707799707e-05   3.4552881941038623e-06   -1.8332458507540556e-05
-1.645732620192396e-05   2.168852055752001e-06   -1.8915477844350884e-05
-1.645732620192396e-05   2.168852055752001e-06   -1.8915477844350884e-05
-1.645732620192396e-05   2.168852055752001e-06   -1.8915477844350884e-05
-1.645732620192396e-05   2.168852055752001e-06   -1.8915477844350884e-05
-1.7799424036263903e-05   5.672968356268621e-06   -1.9049837787940517e-05
-1.7799424036263903e-05   5.672968356268621e-06   -1.9049837787940517e-05
-1.7799424036263903e-05   5.672968356268621e-06   -1.9049837787940517e-05
-1.7799424036263903e-05   5.672968356268621e-06   -1.9049837787940517e-05
-1.575313998026758e-05   3.279504714056485e-06   -1.7347952169590808e-05
-1.575313998026758e-05   3.279504714056485e-06   -1.7347952169590808e-05
-1.575313998026758e-05   3.279504714056485e-06   -1.7347952169590808e-05
-1.575313998026758e-05   3.279504714056485e-06   -1.7347952169590808e-05
-1.586835291606255e-05   6.521256267345886e-06   -1.910098154190589e-05
-1.586835291606255e-05   6.521256267345886e-06   -1.910098154190589e-05
-1.586835291606255e-05   6.521256267345886e-06   -1.910098154190589e-05
-1.586835291606255e-05   6.521256267345886e-06   -1.910098154190589e-05
-1.6059216983252902e-05   3.902627258751956e-06   -1.7211697358098996e-05
-1.6059216983252902e-05   3.902627258751956e-06   -1.7211697358098996e-05
-1.6059216983252902e-05   3.902627258751956e-06   -1.7211697358098996e-05
-1.6059216983252902e-05   3.902627258751956e-06   -1.7211697358098996e-05
1.0486315916091824e-05   -1.037781272014704e-06   -1.0799487338763016e-05
1.0486315916091824e-05   -1.037781272014704e-06   -1.0799487338763016e-05
1.0486315916091824e-05   -1.037781272014704e-06   -1.0799487338763016e-05
1.0486315916091824e-05   -1.037781272014704e-06   -1.0799487338763016e-05
1.0725096570666235e-06   -4.373077681222356e-06   -2.849034228266298e-05
1.0725096570666235e-06   -4.373077681222356e-06   -2.849034228266298e-05
1.0725096570666235e-06   -4.373077681222356e-06   -2.849034228266298e-05
1.0725096570666235e-06   -4.373077681222356e-06   -2.849034228266298e-05
1.9005923646352e-06   -3.007266196329052e-08   -1.1927089244712866e-05
1.9005923646352e-06   -3.007266196329052e-08   -1.1927089244712866e-05
1.9005923646352e-06   -3.007266196329052e-08   -1.1927089244712866e-05
1.9005923646352e-06   -3.007266196329052e-08   -1.1927089244712866e-05
1.2796105587075735e-05   -3.593270076306023e-06   -2.7948359500174608e-05
1.2796105587075735e-05   -3.593270076306023e-06   -2.7948359500174608e-05
1.2796105587075735e-05   -3.593270076306023e-06   -2.7948359500174608e-05
1.2796105587075735e-05   -3.593270076306023e-06   -2.7948359500174608e-05
6.319543495912031e-06   -1.8238434318041882e-06   -1.8215745334936267e-05
6.319543495912031e-06   -1.8238434318041882e-06   -1.8215745334936267e-05
6.319543495912031e-06   -1.8238434318041882e-06   -1.8215745334936267e-05
6.319543495912031e-06   -1.8238434318041882e-06   -1.8215745334936267e-05
1.2796105587075735e-05   -3.007266196329052e-08   -9.78917079610714e-06
1.2796105587075735e-05   -3.007266196329052e-08   -9.78917079610714e-06
1.2796105587075735e-05   -3.007266196329052e-08   -9.78917079610714e-06
1.2796105587075735e-05   -3.007266196329052e-08   -9.78917079610714e-06
1.9005923646352e-06   -3.593270076306023e-06   -3.008627794878055e-05
1.9005923646352e-06   -3.593270076306023e-06   -3.008627794878055e-05
1.9005923646352e-06   -3.593270076306023e-06   -3.008627794878055e-05
1.9005923646352e-06   -3.593270076306023e-06   -3.008627794878055e-05
2.8765694130814283e-06   5.396253873156398e-07   -1.2017130721760907e-05
2.8765694130814283e-06   5.396253873156398e-07   -1.2017130721760907e-05
2.8765694130814283e-06   5.396253873156398e-07   -1.2017130721760907e-05
2.8765694130814283e-06   5.396253873156398e-07   -1.2017130721760907e-05
1.4749125174244387e-05   -3.0738021862715403e-06   -2.963666711288033e-05
1.4749125174244387e-05   -3.0738021862715403e-06   -2.963666711288033e-05
1.4749125174244387e-05   -3.0738021862715403e-06   -2.963666711288033e-05
1.4749125174244387e-05   -3.0738021862715403e-06   -2.963666711288033e-05
7.785168063421043e-06   -1.4597195846541115e-06   -1.8998521489145916e-05
7.785168063421043e-06   -1.4597195846541115e-06   -1.8998521489145916e-05
7.785168063421043e-06   -1.4597195846541115e-06   -1.8998521489145916e-05
7.785168063421043e-06   -1.4597195846541115e-06   -1.8998521489145916e-05
1.4749125174244441e-05   5.396253873156398e-07   -9.849074177608642e-06
1.4749125174244441e-05   5.396253873156398e-07   -9.849074177608642e-06
1.4749125174244441e-05   5.396253873156398e-07   -9.849074177608642e-06
1.4749125174244441e-05   5.396253873156398e-07   -9.849074177608642e-06
2.8765694130814283e-06   -3.0738021862711067e-06   -3.1804723657032703e-05
2.8765694130814283e-06   -3.0738021862711067e-06   -3.1804723657032703e-05
2.8765694130814283e-06   -3.0738021862711067e-06   -3.1804723657032703e-05
2.8765694130814283e-06   -3.0738021862711067e-06   -3.1804723657032703e-05
3.680486293917832e-06   1.675971881112074e-06   -1.3164142888558378e-05
3.680486293917832e-06   1.675971881112074e-06   -1.3164142888558378e-05
3.680486293917832e-06   1.675971881112074e-06   -1.3164142888558378e-05
3.680486293917832e-06   1.675971881112074e-06   -1.3164142888558378e-05
1.7095136678724882e-05   -1.764466682803098e-06   -3.345763039155447e-05
1.7095136678724882e-05   -1.764466682803098e-06   -3.345763039155447e-05
1.7095136678724882e-05   -1.764466682803098e-06   -3.345763039155447e-05
1.7095136678724882e-05   -1.764466682803098e-06   -3.345763039155447e-05
8.952227566984332e-06   -9.253748274205484e-07   -2.038957031855063e-05
8.952227566984332e-06   -9.253748274205484e-07   -2.038957031855063e-05
8.952227566984332e-06   -9.253748274205484e-07   -2.038957031855063e-05
8.952227566984332e-06   -9.253748274205484e-07   -2.038957031855063e-05
1.0725096570666235e-06   -2.259501109243625e-07   -3.1027506880744286e-05
1.0725096570666235e-06   -2.259501109243625e-07   -3.1027506880744286e-05
1.0725096570666235e-06   -2.259501109243625e-07   -3.1027506880744286e-05
1.0725096570666235e-06   -2.259501109243625e-07   -3.1027506880744286e-05
-9.92112782310635e-06   -1.7314809382337239e-06   -5.025355451075122e-05
-9.92112782310635e-06   -1.7314809382337239e-06   -5.025355451075122e-05
-9.92112782310635e-06   -1.7314809382337239e-06   -5.025355451075122e-05
-9.92112782310635e-06   -1.7314809382337239e-06   -5.025355451075122e-05
-9.194387216901088e-06   1.045295051888169e-06   -3.1203364700938116e-05
-9.194387216901088e-06   1.045295051888169e-06   -3.1203364700938116e-05
-9.194387216901088e-06   1.045295051888169e-06   -3.1203364700938116e-05
-9.194387216901088e-06   1.045295051888169e-06   -3.1203364700938116e-05
1.9005923646352e-06   -6.627993312780488e-07   -4.867014070693217e-05
1.9005923646352e-06   -6.627993312780488e-07   -4.867014070693217e-05
1.9005923646352e-06   -6.627993312780488e-07   -4.867014070693217e-05
1.9005923646352e-06   -6.627993312780488e-07   -4.867014070693217e-05
-3.942222563329403e-06   -6.66429813131128e-08   -3.928980963697039e-05
-3.942222563329403e-06   -6.66429813131128e-08   -3.928980963697039e-05
-3.942222563329403e-06   -6.66429813131128e-08   -3.928980963697039e-05
-3.942222563329403e-06   -6.66429813131128e-08   -3.928980963697039e-05
1.9005923646352e-06   1.045295051888169e-06   -3.017850807103821e-05
1.9005923646352e-06   1.045295051888169e-06   -3.017850807103821e-05
1.9005923646352e-06   1.045295051888169e-06   -3.017850807103821e-05
1.9005923646352e-06   1.045295051888169e-06   -3.017850807103821e-05
-9.194387216901088e-06   -6.627993312776151e-07   -4.969499733683213e-05
-9.194387216901088e-06   -6.627993312776151e-07   -4.969499733683213e-05
-9.194387216901088e-06   -6.627993312776151e-07   -4.969499733683213e-05
-9.194387216901088e-06   -6.627993312776151e-07   -4.969499733683213e-05
-8.463517078783955e-06   2.268989850161187e-06   -3.1250239989669224e-05
-8.463517078783955e-06   2.268989850161187e-06   -3.1250239989669224e-05
-8.463517078783955e-06   2.268989850161187e-06   -3.1250239989669224e-05
-8.463517078783955e-06   2.268989850161187e-06   -3.1250239989669224e-05
2.8765694130814283e-06   4.4209493936693545e-07   -4.905424719630193e-05
2.8765694130814283e-06   4.4209493936693545e-07   -4.905424719630193e-05
2.8765694130814283e-06   4.4209493936693545e-07   -4.905424719630193e-05
2.8765694130814283e-06   4.4209493936693545e-07   -4.905424719630193e-05
-3.2982978422637998e-06   8.107977554688492e-07   -3.8984023460387595e-05
-3.2982978422637998e-06   8.107977554688492e-07   -3.8984023460387595e-05
-3.2982978422637998e-06   8.107977554688492e-07   -3.8984023460387595e-05
-3.2982978422637998e-06   8.107977554688492e-07   -3.8984023460387595e-05
2.8765694130814283e-06   2.26898985016097e-06   -3.015410304319302e-05
2.8765694130814283e-06   2.26898985016097e-06   -3.015410304319302e-05
2.8765694130814283e-06   2.26898985016097e-06   -3.015410304319302e-05
2.8765694130814283e-06   2.26898985016097e-06   -3.015410304319302e-05
-8.463517078783955e-06   4.4209493936693545e-07   -5.015038414277857e-05
-8.463517078783955e-06   4.4209493936693545e-07   -5.015038414277857e-05
-8.463517078783955e-06   4.4209493936693545e-07   -5.015038414277857e-05
-8.463517078783955e-06   4.4209493936693545e-07   -5.015038414277857e-05
-7.765060194534515e-06   3.6660803661360975e-06   -3.203288368189045e-05
-7.765060194534515e-06   3.6660803661360975e-06   -3.203288368189045e-05
-7.765060194534515e-06   3.6660803661360975e-06   -3.203288368189045e-05
-7.765060194534515e-06   3.6660803661360975e-06   -3.203288368189045e-05
3.680486293917832e-06   1.7503459280331958e-06   -4.9959353833116046e-05
3.680486293917832e-06   1.7503459280331958e-06   -4.9959353833116046e-05
3.680486293917832e-06   1.7503459280331958e-06   -4.9959353833116046e-05
3.680486293917832e-06   1.7503459280331958e-06   -4.9959353833116046e-05
-2.581521900534814e-06   1.7832082142561594e-06   -3.954239088076265e-05
-2.581521900534814e-06   1.7832082142561594e-06   -3.954239088076265e-05
-2.581521900534814e-06   1.7832082142561594e-06   -3.954239088076265e-05
-2.581521900534814e-06   1.7832082142561594e-06   -3.954239088076265e-05
-9.921127823106377e-06   1.0526362402328918e-06   -3.7553508697345164e-05
-9.921127823106377e-06   1.0526362402328918e-06   -3.7553508697345164e-05
-9.921127823106377e-06   1.0526362402328918e-06   -3.7553508697345164e-05
-9.921127823106377e-06   1.0526362402328918e-06   -3.7553508697345164e-05
-2.0819978734827984e-05   1.3270317875441369e-06   -5.5553622888494325e-05
-2.0819978734827984e-05   1.3270317875441369e-06   -5.5553622888494325e-05
-2.0819978734827984e-05   1.3270317875441369e-06   -5.5553622888494325e-05
-2.0819978734827984e-05   1.3270317875441369e-06   -5.5553622888494325e-05
-2.0087993613229532e-05   2.366275641245679e-06   -3.6881754269922455e-05
-2.0087993613229532e-05   2.366275641245679e-06   -3.6881754269922455e-05
-2.0087993613229532e-05   2.366275641245679e-06   -3.6881754269922455e-05
-2.0087993613229532e-05   2.366275641245679e-06   -3.6881754269922455e-05
-9.194387216901115e-06   2.4574275342059346e-06   -5.509245606624604e-05
-9.194387216901115e-06   2.4574275342059346e-06   -5.509245606624604e-05
-9.194387216901115e-06   2.4574275342059346e-06   -5.509245606624604e-05
-9.194387216901115e-06   2.4574275342059346e-06   -5.509245606624604e-05
-1.4918963716943682e-05   2.0314818490797283e-06   -4.5295927821766024e-05
-1.4918963716943682e-05   2.0314818490797283e-06   -4.5295927821766024e-05
-1.4918963716943682e-05   2.0314818490797283e-06   -4.5295927821766024e-05
-1.4918963716943682e-05   2.0314818490797283e-06   -4.5295927821766024e-05
-9.194387216901115e-06   2.366275641245679e-06   -3.693644540569865e-05
-9.194387216901115e-06   2.366275641245679e-06   -3.693644540569865e-05
-9.194387216901115e-06   2.366275641245679e-06   -3.693644540569865e-05
-9.194387216901115e-06   2.366275641245679e-06   -3.693644540569865e-05
-2.0087993613229532e-05   2.457427534205501e-06   -5.503776493047006e-05
-2.0087993613229532e-05   2.457427534205501e-06   -5.503776493047006e-05
-2.0087993613229532e-05   2.457427534205501e-06   -5.503776493047006e-05
-2.0087993613229532e-05   2.457427534205501e-06   -5.503776493047006e-05
-1.934436119063233e-05   3.70884017780607e-06   -3.69775784742198e-05
-1.934436119063233e-05   3.70884017780607e-06   -3.69775784742198e-05
-1.934436119063233e-05   3.70884017780607e-06   -3.69775784742198e-05
-1.934436119063233e-05   3.70884017780607e-06   -3.69775784742198e-05
-8.463517078783955e-06   3.65433760841612e-06   -5.507961711899976e-05
-8.463517078783955e-06   3.65433760841612e-06   -5.507961711899976e-05
-8.463517078783955e-06   3.65433760841612e-06   -5.507961711899976e-05
-8.463517078783955e-06   3.65433760841612e-06   -5.507961711899976e-05
-1.4274676560402966e-05   3.0180091208581797e-06   -4.501255422376734e-05
-1.4274676560402966e-05   3.0180091208581797e-06   -4.501255422376734e-05
-1.4274676560402966e-05   3.0180091208581797e-06   -4.501255422376734e-05
-1.4274676560402966e-05   3.0180091208581797e-06   -4.501255422376734e-05
-8.463517078783955e-06   3.70884017780607e-06   -3.69448769325857e-05
-8.463517078783955e-06   3.70884017780607e-06   -3.69448769325857e-05
-8.463517078783955e-06   3.70884017780607e-06   -3.69448769325857e-05
-8.463517078783955e-06   3.70884017780607e-06   -3.69448769325857e-05
-1.93443611906323e-05   3.6543376084156864e-06   -5.511231866063408e-05
-1.93443611906323e-05   3.6543376084156864e-06   -5.511231866063408e-05
-1.93443611906323e-05   3.6543376084156864e-06   -5.511231866063408e-05
-1.93443611906323e-05   3.6543376084156864e-06   -5.511231866063408e-05
-1.8635241731224542e-05   5.069962276286989e-06   -3.780810886375055e-05
-1.8635241731224542e-05   5.069962276286989e-06   -3.780810886375055e-05
-1.8635241731224542e-05   5.069962276286989e-06   -3.780810886375055e-05
-1.8635241731224542e-05   5.069962276286989e-06   -3.780810886375055e-05
-7.765060194534542e-06   4.871920847580088e-06   -5.580625323434304e-05
-7.765060194534542e-06   4.871920847580088e-06   -5.580625323434304e-05
-7.765060194534542e-06   4.871920847580088e-06   -5.580625323434304e-05
-7.765060194534542e-06   4.871920847580088e-06   -5.580625323434304e-05
-1.3675184929328382e-05   4.0195010741973965e-06   -4.5444593478991165e-05
-1.3675184929328382e-05   4.0195010741973965e-06   -4.5444593478991165e-05
-1.3675184929328382e-05   4.0195010741973965e-06   -4.5444593478991165e-05
-1.3675184929328382e-05   4.0195010741973965e-06   -4.5444593478991165e-05
-2.0819978734828018e-05   2.3402488388696296e-06   -3.1572876443103966e-05
-2.0819978734828018e-05   2.3402488388696296e-06   -3.1572876443103966e-05
-2.0819978734828018e-05   2.3402488388696296e-06   -3.1572876443103966e-05
-2.0819978734828018e-05   2.3402488388696296e-06   -3.1572876443103966e-05
-3.158657056420128e-05   4.294853952062014e-06   -4.834443309081047e-05
-3.158657056420128e-05   4.294853952062014e-06   -4.834443309081047e-05
-3.158657056420128e-05   4.294853952062014e-06   -4.834443309081047e-05
-3.158657056420128e-05   4.294853952062014e-06   -4.834443309081047e-05
-3.075040320791851e-05   3.6581655741851384e-06   -2.973614423835958e-05
-3.075040320791851e-05   3.6581655741851384e-06   -2.973614423835958e-05
-3.075040320791851e-05   3.6581655741851384e-06   -2.973614423835958e-05
-3.075040320791851e-05   3.6581655741851384e-06   -2.973614423835958e-05
-2.0087993613229532e-05   5.501418407556635e-06   -4.861277859619746e-05
-2.0087993613229532e-05   5.501418407556635e-06   -4.861277859619746e-05
-2.0087993613229532e-05   5.501418407556635e-06   -4.861277859619746e-05
-2.0087993613229532e-05   5.501418407556635e-06   -4.861277859619746e-05
-2.5632494948443356e-05   4.105661757897953e-06   -3.85344890477126e-05
-2.5632494948443356e-05   4.105661757897953e-06   -3.85344890477126e-05
-2.5632494948443356e-05   4.105661757897953e-06   -3.85344890477126e-05
-2.5632494948443356e-05   4.105661757897953e-06   -3.85344890477126e-05
-2.0087993613229562e-05   3.6581655741851384e-06   -3.0842095938382564e-05
-2.0087993613229562e-05   3.6581655741851384e-06   -3.0842095938382564e-05
-2.0087993613229562e-05   3.6581655741851384e-06   -3.0842095938382564e-05
-2.0087993613229562e-05   3.6581655741851384e-06   -3.0842095938382564e-05
-3.0750403207918566e-05   5.501418407556635e-06   -4.750682689617469e-05
-3.0750403207918566e-05   5.501418407556635e-06   -4.750682689617469e-05
-3.0750403207918566e-05   5.501418407556635e-06   -4.750682689617469e-05
-3.0750403207918566e-05   5.501418407556635e-06   -4.750682689617469e-05
-2.9749808908750356e-05   4.87415707988402e-06   -2.9462181302815056e-05
-2.9749808908750356e-05   4.87415707988402e-06   -2.9462181302815056e-05
-2.9749808908750356e-05   4.87415707988402e-06   -2.9462181302815056e-05
-2.9749808908750356e-05   4.87415707988402e-06   -2.9462181302815056e-05
-1.934436119063233e-05   6.5883941123465704e-06   -4.783313638582275e-05
-1.934436119063233e-05   6.5883941123465704e-06   -4.783313638582275e-05
-1.934436119063233e-05   6.5883941123465704e-06   -4.783313638582275e-05
-1.934436119063233e-05   6.5883941123465704e-06   -4.783313638582275e-05
-2.4790044631510037e-05   5.058155108117815e-06   -3.7838853915156466e-05
-2.4790044631510037e-05   5.058155108117815e-06   -3.7838853915156466e-05
-2.4790044631510037e-05   5.058155108117815e-06   -3.7838853915156466e-05
-2.4790044631510037e-05   5.058155108117815e-06   -3.7838853915156466e-05
-1.934436119063231e-05   4.87415707988402e-06   -3.049072352229263e-05
-1.934436119063231e-05   4.87415707988402e-06   -3.049072352229263e-05
-1.934436119063231e-05   4.87415707988402e-06   -3.049072352229263e-05
-1.934436119063231e-05   4.87415707988402e-06   -3.049072352229263e-05
-2.9749808908750356e-05   6.588394112347004e-06   -4.6804594166345364e-05
-2.9749808908750356e-05   6.588394112347004e-06   -4.6804594166345364e-05
-2.9749808908750356e-05   6.588394112347004e-06   -4.6804594166345364e-05
-2.9749808908750356e-05   6.588394112347004e-06   -4.6804594166345364e-05
-2.891604456557705e-05   6.237213247473582e-06   -3.027748336558193e-05
-2.891604456557705e-05   6.237213247473582e-06   -3.027748336558193e-05
-2.891604456557705e-05   6.237213247473582e-06   -3.027748336558193e-05
-2.891604456557705e-05   6.237213247473582e-06   -3.027748336558193e-05
-1.8635241731224542e-05   7.804892323513835e-06   -4.8352762201793624e-05
-1.8635241731224542e-05   7.804892323513835e-06   -4.8352762201793624e-05
-1.8635241731224542e-05   7.804892323513835e-06   -4.8352762201793624e-05
-1.8635241731224542e-05   7.804892323513835e-06   -4.8352762201793624e-05
-2.4225059472243576e-05   5.996875833544878e-06   -3.795158940611391e-05
-2.4225059472243576e-05   5.996875833544878e-06   -3.795158940611391e-05
-2.4225059472243576e-05   5.996875833544878e-06   -3.795158940611391e-05
-2.4225059472243576e-05   5.996875833544878e-06   -3.795158940611391e-05
-3.158657056420128e-05   3.931443586625101e-06   -1.633406614304938e-05
-3.158657056420128e-05   3.931443586625101e-06   -1.633406614304938e-05
-3.158657056420128e-05   3.931443586625101e-06   -1.633406614304938e-05
-3.158657056420128e-05   3.931443586625101e-06   -1.633406614304938e-05
-4.385445152149537e-05   7.383418842293876e-06   -3.470934925180495e-05
-4.385445152149537e-05   7.383418842293876e-06   -3.470934925180495e-05
-4.385445152149537e-05   7.383418842293876e-06   -3.470934925180495e-05
-4.385445152149537e-05   7.383418842293876e-06   -3.470934925180495e-05
-4.1559995329973294e-05   5.125994031977528e-06   -1.0278984662392921e-05
-4.1559995329973294e-05   5.125994031977528e-06   -1.0278984662392921e-05
-4.1559995329973294e-05   5.125994031977528e-06   -1.0278984662392921e-05
-4.1559995329973294e-05   5.125994031977528e-06   -1.0278984662392921e-05
-3.075040320791851e-05   8.635814484313654e-06   -3.0400863803885673e-05
-3.075040320791851e-05   8.635814484313654e-06   -3.0400863803885673e-05
-3.075040320791851e-05   8.635814484313654e-06   -3.0400863803885673e-05
-3.075040320791851e-05   8.635814484313654e-06   -3.0400863803885673e-05
-3.5435020902429576e-05   6.412781030243429e-06   -2.1259347573925405e-05
-3.5435020902429576e-05   6.412781030243429e-06   -2.1259347573925405e-05
-3.5435020902429576e-05   6.412781030243429e-06   -2.1259347573925405e-05
-3.5435020902429576e-05   6.412781030243429e-06   -2.1259347573925405e-05
-3.075040320791854e-05   5.125994031977528e-06   -1.2384876933794293e-05
-3.075040320791854e-05   5.125994031977528e-06   -1.2384876933794293e-05
-3.075040320791854e-05   5.125994031977528e-06   -1.2384876933794293e-05
-3.075040320791854e-05   5.125994031977528e-06   -1.2384876933794293e-05
-4.155999532997316e-05   8.635814484313654e-06   -2.8294971532484342e-05
-4.155999532997316e-05   8.635814484313654e-06   -2.8294971532484342e-05
-4.155999532997316e-05   8.635814484313654e-06   -2.8294971532484342e-05
-4.155999532997316e-05   8.635814484313654e-06   -2.8294971532484342e-05
-3.9663584613804824e-05   5.672968356268621e-06   -8.445789524478501e-06
-3.9663584613804824e-05   5.672968356268621e-06   -8.445789524478501e-06
-3.9663584613804824e-05   5.672968356268621e-06   -8.445789524478501e-06
-3.9663584613804824e-05   5.672968356268621e-06   -8.445789524478501e-06
-2.9749808908750315e-05   9.084471822871486e-06   -2.7015651112864374e-05
-2.9749808908750315e-05   9.084471822871486e-06   -2.7015651112864374e-05
-2.9749808908750315e-05   9.084471822871486e-06   -2.7015651112864374e-05
-2.9749808908750315e-05   9.084471822871486e-06   -2.7015651112864374e-05
-3.459267056323888e-05   6.975600291822103e-06   -1.7678892103420462e-05
-3.459267056323888e-05   6.975600291822103e-06   -1.7678892103420462e-05
-3.459267056323888e-05   6.975600291822103e-06   -1.7678892103420462e-05
-3.459267056323888e-05   6.975600291822103e-06   -1.7678892103420462e-05
-2.9749808908750356e-05   5.672968356268621e-06   -1.0492691604440134e-05
-2.9749808908750356e-05   5.672968356268621e-06   -1.0492691604440134e-05
-2.9749808908750356e-05   5.672968356268621e-06   -1.0492691604440134e-05
-2.9749808908750356e-05   5.672968356268621e-06   -1.0492691604440134e-05
-3.966358461380474e-05   9.084471822871486e-06   -2.4968749032902972e-05
-3.966358461380474e-05   9.084471822871486e-06   -2.4968749032902972e-05
-3.966358461380474e-05   9.084471822871486e-06   -2.4968749032902972e-05
-3.966358461380474e-05   9.084471822871486e-06   -2.4968749032902972e-05
-3.7421609335512e-05   6.5212562673456695e-06   -6.529765583292851e-06
-3.7421609335512e-05   6.5212562673456695e-06   -6.529765583292851e-06
-3.7421609335512e-05   6.5212562673456695e-06   -6.529765583292851e-06
-3.7421609335512e-05   6.5212562673456695e-06   -6.529765583292851e-06
-2.891604456557705e-05   9.654258145818523e-06   -2.258550799360118e-05
-2.891604456557705e-05   9.654258145818523e-06   -2.258550799360118e-05
-2.891604456557705e-05   9.654258145818523e-06   -2.258550799360118e-05
-2.891604456557705e-05   9.654258145818523e-06   -2.258550799360118e-05
-3.281103762922079e-05   7.247685404678482e-06   -1.4649909242844578e-05
-3.281103762922079e-05   7.247685404678482e-06   -1.4649909242844578e-05
-3.281103762922079e-05   7.247685404678482e-06   -1.4649909242844578e-05
-3.281103762922079e-05   7.247685404678482e-06   -1.4649909242844578e-05
3.332803346326314e-05   -4.3730776812227895e-06   -2.8321525671003676e-07
3.332803346326314e-05   -4.3730776812227895e-06   -2.8321525671003676e-07
3.332803346326314e-05   -4.3730776812227895e-06   -2.8321525671003676e-07
3.332803346326314e-05   -4.3730776812227895e-06   -2.8321525671003676e-07
1.4209336243422319e-05   -7.892663779740603e-06   -3.425946228222229e-05
1.4209336243422319e-05   -7.892663779740603e-06   -3.425946228222229e-05
1.4209336243422319e-05   -7.892663779740603e-06   -3.425946228222229e-05
1.4209336243422319e-05   -7.892663779740603e-06   -3.425946228222229e-05
1.5219535484303212e-05   -3.593270076306023e-06   -3.793099380380643e-06
1.5219535484303212e-05   -3.593270076306023e-06   -3.793099380380643e-06
1.5219535484303212e-05   -3.593270076306023e-06   -3.793099380380643e-06
1.5219535484303212e-05   -3.593270076306023e-06   -3.793099380380643e-06
3.585481695154188e-05   -7.339726876413096e-06   -3.593736107904762e-05
3.585481695154188e-05   -7.339726876413096e-06   -3.593736107904762e-05
3.585481695154188e-05   -7.339726876413096e-06   -3.593736107904762e-05
3.585481695154188e-05   -7.339726876413096e-06   -3.593736107904762e-05
2.3659020347623988e-05   -5.200399186936454e-06   -1.689463001953691e-05
2.3659020347623988e-05   -5.200399186936454e-06   -1.689463001953691e-05
2.3659020347623988e-05   -5.200399186936454e-06   -1.689463001953691e-05
2.3659020347623988e-05   -5.200399186936454e-06   -1.689463001953691e-05
3.585481695154194e-05   -3.593270076306023e-06   -1.5452253003163125e-06
3.585481695154194e-05   -3.593270076306023e-06   -1.5452253003163125e-06
3.585481695154194e-05   -3.593270076306023e-06   -1.5452253003163125e-06
3.585481695154194e-05   -3.593270076306023e-06   -1.5452253003163125e-06
1.5219535484303185e-05   -7.339726876413096e-06   -3.818523515911152e-05
1.5219535484303185e-05   -7.339726876413096e-06   -3.818523515911152e-05
1.5219535484303185e-05   -7.339726876413096e-06   -3.818523515911152e-05
1.5219535484303185e-05   -7.339726876413096e-06   -3.818523515911152e-05
1.6338436781577478e-05   -3.0738021862711067e-06   -5.330999233339956e-06
1.6338436781577478e-05   -3.0738021862711067e-06   -5.330999233339956e-06
1.6338436781577478e-05   -3.0738021862711067e-06   -5.330999233339956e-06
1.6338436781577478e-05   -3.0738021862711067e-06   -5.330999233339956e-06
3.7978195807462293e-05   -6.865171372543756e-06   -3.9122442764717735e-05
3.7978195807462293e-05   -6.865171372543756e-06   -3.9122442764717735e-05
3.7978195807462293e-05   -6.865171372543756e-06   -3.9122442764717735e-05
3.7978195807462293e-05   -6.865171372543756e-06   -3.9122442764717735e-05
2.5556936160540903e-05   -4.98920689208978e-06   -1.9545922041454625e-05
2.5556936160540903e-05   -4.98920689208978e-06   -1.9545922041454625e-05
2.5556936160540903e-05   -4.98920689208978e-06   -1.9545922041454625e-05
2.5556936160540903e-05   -4.98920689208978e-06   -1.9545922041454625e-05
3.797819580746235e-05   -3.0738021862711067e-06   -3.0561777215763666e-06
3.797819580746235e-05   -3.0738021862711067e-06   -3.0561777215763666e-06
3.797819580746235e-05   -3.0738021862711067e-06   -3.0561777215763666e-06
3.797819580746235e-05   -3.0738021862711067e-06   -3.0561777215763666e-06
1.6338436781577424e-05   -6.865171372543756e-06   -4.1397264276481324e-05
1.6338436781577424e-05   -6.865171372543756e-06   -4.1397264276481324e-05
1.6338436781577424e-05   -6.865171372543756e-06   -4.1397264276481324e-05
1.6338436781577424e-05   -6.865171372543756e-06   -4.1397264276481324e-05
1.7263905842566647e-05   -1.764466682803098e-06   -8.882555094099362e-06
1.7263905842566647e-05   -1.764466682803098e-06   -8.882555094099362e-06
1.7263905842566647e-05   -1.764466682803098e-06   -8.882555094099362e-06
1.7263905842566647e-05   -1.764466682803098e-06   -8.882555094099362e-06
4.044357107684248e-05   -5.363708103019345e-06   -4.53557856324293e-05
4.044357107684248e-05   -5.363708103019345e-06   -4.53557856324293e-05
4.044357107684248e-05   -5.363708103019345e-06   -4.53557856324293e-05
4.044357107684248e-05   -5.363708103019345e-06   -4.53557856324293e-05
2.6587425346095606e-05   -4.403267025754852e-06   -2.2838474060877373e-05
2.6587425346095606e-05   -4.403267025754852e-06   -2.2838474060877373e-05
2.6587425346095606e-05   -4.403267025754852e-06   -2.2838474060877373e-05
2.6587425346095606e-05   -4.403267025754852e-06   -2.2838474060877373e-05
1.4209336243422319e-05   -1.7314809382332902e-06   -2.3254860647523848e-05
1.4209336243422319e-05   -1.7314809382332902e-06   -2.3254860647523848e-05
1.4209336243422319e-05   -1.7314809382332902e-06   -2.3254860647523848e-05
1.4209336243422319e-05   -1.7314809382332902e-06   -2.3254860647523848e-05
-6.034699463215948e-06   -3.6995461341129965e-06   -5.8175759276115225e-05
-6.034699463215948e-06   -3.6995461341129965e-06   -5.8175759276115225e-05
-6.034699463215948e-06   -3.6995461341129965e-06   -5.8175759276115225e-05
-6.034699463215948e-06   -3.6995461341129965e-06   -5.8175759276115225e-05
-5.094375030344808e-06   -6.627993312780488e-07   -2.3738812944666806e-05
-5.094375030344808e-06   -6.627993312780488e-07   -2.3738812944666806e-05
-5.094375030344808e-06   -6.627993312780488e-07   -2.3738812944666806e-05
-5.094375030344808e-06   -6.627993312780488e-07   -2.3738812944666806e-05
1.5219535484303185e-05   -2.9325506748353533e-06   -5.623347966294558e-05
1.5219535484303185e-05   -2.9325506748353533e-06   -5.623347966294558e-05
1.5219535484303185e-05   -2.9325506748353533e-06   -5.623347966294558e-05
1.5219535484303185e-05   -2.9325506748353533e-06   -5.623347966294558e-05
4.625525772444927e-06   -1.7894480654478961e-06   -3.926265837548117e-05
4.625525772444927e-06   -1.7894480654478961e-06   -3.926265837548117e-05
4.625525772444927e-06   -1.7894480654478961e-06   -3.926265837548117e-05
4.625525772444927e-06   -1.7894480654478961e-06   -3.926265837548117e-05
1.5219535484303212e-05   -6.627993312780488e-07   -2.2376962138532207e-05
1.5219535484303212e-05   -6.627993312780488e-07   -2.2376962138532207e-05
1.5219535484303212e-05   -6.627993312780488e-07   -2.2376962138532207e-05
1.5219535484303212e-05   -6.627993312780488e-07   -2.2376962138532207e-05
-5.094375030344808e-06   -2.9325506748353533e-06   -5.7595330469079964e-05
-5.094375030344808e-06   -2.9325506748353533e-06   -5.7595330469079964e-05
-5.094375030344808e-06   -2.9325506748353533e-06   -5.7595330469079964e-05
-5.094375030344808e-06   -2.9325506748353533e-06   -5.7595330469079964e-05
-4.1965443168792064e-06   4.4209493936736913e-07   -2.4042725583588165e-05
-4.1965443168792064e-06   4.4209493936736913e-07   -2.4042725583588165e-05
-4.1965443168792064e-06   4.4209493936736913e-07   -2.4042725583588165e-05
-4.1965443168792064e-06   4.4209493936736913e-07   -2.4042725583588165e-05
1.6338436781577424e-05   -1.994909745597819e-06   -5.680549127003696e-05
1.6338436781577424e-05   -1.994909745597819e-06   -5.680549127003696e-05
1.6338436781577424e-05   -1.994909745597819e-06   -5.680549127003696e-05
1.6338436781577424e-05   -1.994909745597819e-06   -5.680549127003696e-05
5.372106643357992e-06   -1.1112968991847452e-06   -3.9058442080851436e-05
5.372106643357992e-06   -1.1112968991847452e-06   -3.9058442080851436e-05
5.372106643357992e-06   -1.1112968991847452e-06   -3.9058442080851436e-05
5.372106643357992e-06   -1.1112968991847452e-06   -3.9058442080851436e-05
1.6338436781577478e-05   4.4209493936693545e-07   -2.2580522772609182e-05
1.6338436781577478e-05   4.4209493936693545e-07   -2.2580522772609182e-05
1.6338436781577478e-05   4.4209493936693545e-07   -2.2580522772609182e-05
1.6338436781577478e-05   4.4209493936693545e-07   -2.2580522772609182e-05
-4.1965443168792064e-06   -1.994909745597819e-06   -5.826769408101605e-05
-4.1965443168792064e-06   -1.994909745597819e-06   -5.826769408101605e-05
-4.1965443168792064e-06   -1.994909745597819e-06   -5.826769408101605e-05
-4.1965443168792064e-06   -1.994909745597819e-06   -5.826769408101605e-05
-3.3530601477357435e-06   1.7503459280331958e-06   -2.4859438252166667e-05
-3.3530601477357435e-06   1.7503459280331958e-06   -2.4859438252166667e-05
-3.3530601477357435e-06   1.7503459280331958e-06   -2.4859438252166667e-05
-3.3530601477357435e-06   1.7503459280331958e-06   -2.4859438252166667e-05
1.7263905842566647e-05   -8.153588300580453e-07   -5.7681625381149283e-05
1.7263905842566647e-05   -8.153588300580453e-07   -5.7681625381149283e-05
1.7263905842566647e-05   -8.153588300580453e-07   -5.7681625381149283e-05
1.7263905842566647e-05   -8.153588300580453e-07   -5.7681625381149283e-05
6.3026818088190875e-06   -2.7507994342784725e-07   -3.973708599021601e-05
6.3026818088190875e-06   -2.7507994342784725e-07   -3.973708599021601e-05
6.3026818088190875e-06   -2.7507994342784725e-07   -3.973708599021601e-05
6.3026818088190875e-06   -2.7507994342784725e-07   -3.973708599021601e-05
-6.034699463215948e-06   1.3270317875441369e-06   -2.9900405471181392e-05
-6.034699463215948e-06   1.3270317875441369e-06   -2.9900405471181392e-05
-6.034699463215948e-06   1.3270317875441369e-06   -2.9900405471181392e-05
-6.034699463215948e-06   1.3270317875441369e-06   -2.9900405471181392e-05
-2.5922186518030736e-05   6.667429198838927e-07   -6.344239054980184e-05
-2.5922186518030736e-05   6.667429198838927e-07   -6.344239054980184e-05
-2.5922186518030736e-05   6.667429198838927e-07   -6.344239054980184e-05
-2.5922186518030736e-05   6.667429198838927e-07   -6.344239054980184e-05
-2.4910015102757265e-05   2.4574275342059346e-06   -2.9693948216361022e-05
-2.4910015102757265e-05   2.4574275342059346e-06   -2.9693948216361022e-05
-2.4910015102757265e-05   2.4574275342059346e-06   -2.9693948216361022e-05
-2.4910015102757265e-05   2.4574275342059346e-06   -2.9693948216361022e-05
-5.094375030344808e-06   1.5279666304057922e-06   -6.216233846143487e-05
-5.094375030344808e-06   1.5279666304057922e-06   -6.216233846143487e-05
-5.094375030344808e-06   1.5279666304057922e-06   -6.216233846143487e-05
-5.094375030344808e-06   1.5279666304057922e-06   -6.216233846143487e-05
-1.5384138024065725e-05   1.8192238762232416e-06   -4.5187487819390486e-05
-1.5384138024065725e-05   1.8192238762232416e-06   -4.5187487819390486e-05
-1.5384138024065725e-05   1.8192238762232416e-06   -4.5187487819390486e-05
-1.5384138024065725e-05   1.8192238762232416e-06   -4.5187487819390486e-05
-5.094375030344808e-06   2.4574275342059346e-06   -2.9136271674080937e-05
-5.094375030344808e-06   2.4574275342059346e-06   -2.9136271674080937e-05
-5.094375030344808e-06   2.4574275342059346e-06   -2.9136271674080937e-05
-5.094375030344808e-06   2.4574275342059346e-06   -2.9136271674080937e-05
-2.4910015102757265e-05   1.5279666304057922e-06   -6.272001500371512e-05
-2.4910015102757265e-05   1.5279666304057922e-06   -6.272001500371512e-05
-2.4910015102757265e-05   1.5279666304057922e-06   -6.272001500371512e-05
-2.4910015102757265e-05   1.5279666304057922e-06   -6.272001500371512e-05
-2.3933842258144057e-05   3.6543376084156864e-06   -2.9649192416506855e-05
-2.3933842258144057e-05   3.6543376084156864e-06   -2.9649192416506855e-05
-2.3933842258144057e-05   3.6543376084156864e-06   -2.9649192416506855e-05
-2.3933842258144057e-05   3.6543376084156864e-06   -2.9649192416506855e-05
-4.1965443168792335e-06   2.5256145139204017e-06   -6.186745512858435e-05
-4.1965443168792335e-06   2.5256145139204017e-06   -6.186745512858435e-05
-4.1965443168792335e-06   2.5256145139204017e-06   -6.186745512858435e-05
-4.1965443168792335e-06   2.5256145139204017e-06   -6.186745512858435e-05
-1.4513029858640627e-05   2.6254519926117645e-06   -4.4733215046196704e-05
-1.4513029858640627e-05   2.6254519926117645e-06   -4.4733215046196704e-05
-1.4513029858640627e-05   2.6254519926117645e-06   -4.4733215046196704e-05
-1.4513029858640627e-05   2.6254519926117645e-06   -4.4733215046196704e-05
-4.1965443168792335e-06   3.65433760841612e-06   -2.8971958559809684e-05
-4.1965443168792335e-06   3.65433760841612e-06   -2.8971958559809684e-05
-4.1965443168792335e-06   3.65433760841612e-06   -2.8971958559809684e-05
-4.1965443168792335e-06   3.65433760841612e-06   -2.8971958559809684e-05
-2.3933842258144057e-05   2.5256145139204017e-06   -6.25446889852819e-05
-2.3933842258144057e-05   2.5256145139204017e-06   -6.25446889852819e-05
-2.3933842258144057e-05   2.5256145139204017e-06   -6.25446889852819e-05
-2.3933842258144057e-05   2.5256145139204017e-06   -6.25446889852819e-05
-2.3031791460126038e-05   4.871920847579654e-06   -3.034602128090813e-05
-2.3031791460126038e-05   4.871920847579654e-06   -3.034602128090813e-05
-2.3031791460126038e-05   4.871920847579654e-06   -3.034602128090813e-05
-2.3031791460126038e-05   4.871920847579654e-06   -3.034602128090813e-05
-3.3530601477357435e-06   3.556713696953144e-06   -6.235478251118273e-05
-3.3530601477357435e-06   3.556713696953144e-06   -6.235478251118273e-05
-3.3530601477357435e-06   3.556713696953144e-06   -6.235478251118273e-05
-3.3530601477357435e-06   3.556713696953144e-06   -6.235478251118273e-05
-1.373464212524757e-05   3.452727618039747e-06   -4.498975423464875e-05
-1.373464212524757e-05   3.452727618039747e-06   -4.498975423464875e-05
-1.373464212524757e-05   3.452727618039747e-06   -4.498975423464875e-05
-1.373464212524757e-05   3.452727618039747e-06   -4.498975423464875e-05
-2.5922186518030777e-05   4.294853952062014e-06   -2.4260152062008725e-05
-2.5922186518030777e-05   4.294853952062014e-06   -2.4260152062008725e-05
-2.5922186518030777e-05   4.294853952062014e-06   -2.4260152062008725e-05
-2.5922186518030777e-05   4.294853952062014e-06   -2.4260152062008725e-05
-4.5437546998948285e-05   5.189132432929268e-06   -5.6249185775017734e-05
-4.5437546998948285e-05   5.189132432929268e-06   -5.6249185775017734e-05
-4.5437546998948285e-05   5.189132432929268e-06   -5.6249185775017734e-05
-4.5437546998948285e-05   5.189132432929268e-06   -5.6249185775017734e-05
-4.421779816212263e-05   5.501418407556635e-06   -2.279988762107451e-05
-4.421779816212263e-05   5.501418407556635e-06   -2.279988762107451e-05
-4.421779816212263e-05   5.501418407556635e-06   -2.279988762107451e-05
-4.421779816212263e-05   5.501418407556635e-06   -2.279988762107451e-05
-2.4910015102757312e-05   6.2832088425805385e-06   -5.544860031436434e-05
-2.4910015102757312e-05   6.2832088425805385e-06   -5.544860031436434e-05
-2.4910015102757312e-05   6.2832088425805385e-06   -5.544860031436434e-05
-2.4910015102757312e-05   6.2832088425805385e-06   -5.544860031436434e-05
-3.4865205199804725e-05   5.546170046499387e-06   -3.841439354163663e-05
-3.4865205199804725e-05   5.546170046499387e-06   -3.841439354163663e-05
-3.4865205199804725e-05   5.546170046499387e-06   -3.841439354163663e-05
-3.4865205199804725e-05   5.546170046499387e-06   -3.841439354163663e-05
-2.4910015102757312e-05   5.501418407556635e-06   -2.3268961882088636e-05
-2.4910015102757312e-05   5.501418407556635e-06   -2.3268961882088636e-05
-2.4910015102757312e-05   5.501418407556635e-06   -2.3268961882088636e-05
-2.4910015102757312e-05   5.501418407556635e-06   -2.3268961882088636e-05
-4.4217798162122706e-05   6.2832088425805385e-06   -5.497952605335011e-05
-4.4217798162122706e-05   6.2832088425805385e-06   -5.497952605335011e-05
-4.4217798162122706e-05   6.2832088425805385e-06   -5.497952605335011e-05
-4.4217798162122706e-05   6.2832088425805385e-06   -5.497952605335011e-05
-4.286860603692084e-05   6.5883941123465704e-06   -2.198775279240394e-05
-4.286860603692084e-05   6.5883941123465704e-06   -2.198775279240394e-05
-4.286860603692084e-05   6.5883941123465704e-06   -2.198775279240394e-05
-4.286860603692084e-05   6.5883941123465704e-06   -2.198775279240394e-05
-2.3933842258144105e-05   7.225489694500254e-06   -5.392794977299047e-05
-2.3933842258144105e-05   7.225489694500254e-06   -5.392794977299047e-05
-2.3933842258144105e-05   7.225489694500254e-06   -5.392794977299047e-05
-2.3933842258144105e-05   7.225489694500254e-06   -5.392794977299047e-05
-3.3631973002073664e-05   6.39775392422947e-06   -3.726775707094544e-05
-3.3631973002073664e-05   6.39775392422947e-06   -3.726775707094544e-05
-3.3631973002073664e-05   6.39775392422947e-06   -3.726775707094544e-05
-3.3631973002073664e-05   6.39775392422947e-06   -3.726775707094544e-05
-2.393384225814409e-05   6.5883941123465704e-06   -2.2370010141695715e-05
-2.393384225814409e-05   6.5883941123465704e-06   -2.2370010141695715e-05
-2.393384225814409e-05   6.5883941123465704e-06   -2.2370010141695715e-05
-2.393384225814409e-05   6.5883941123465704e-06   -2.2370010141695715e-05
-4.286860603692084e-05   7.225489694500254e-06   -5.354569242369857e-05
-4.286860603692084e-05   7.225489694500254e-06   -5.354569242369857e-05
-4.286860603692084e-05   7.225489694500254e-06   -5.354569242369857e-05
-4.286860603692084e-05   7.225489694500254e-06   -5.354569242369857e-05
-4.172840521107325e-05   7.804892323513835e-06   -2.2495692434120222e-05
-4.172840521107325e-05   7.804892323513835e-06   -2.2495692434120222e-05
-4.172840521107325e-05   7.804892323513835e-06   -2.2495692434120222e-05
-4.172840521107325e-05   7.804892323513835e-06   -2.2495692434120222e-05
-2.3031791460126092e-05   8.26824725187053e-06   -5.393472830937958e-05
-2.3031791460126092e-05   8.26824725187053e-06   -5.393472830937958e-05
-2.3031791460126092e-05   8.26824725187053e-06   -5.393472830937958e-05
-2.3031791460126092e-05   8.26824725187053e-06   -5.393472830937958e-05
-3.2863657886864784e-05   7.182280619398053e-06   -3.689670428533157e-05
-3.2863657886864784e-05   7.182280619398053e-06   -3.689670428533157e-05
-3.2863657886864784e-05   7.182280619398053e-06   -3.689670428533157e-05
-3.2863657886864784e-05   7.182280619398053e-06   -3.689670428533157e-05
-4.5437546998948285e-05   7.383418842293876e-06   -1.2159686287884679e-05
-4.5437546998948285e-05   7.383418842293876e-06   -1.2159686287884679e-05
-4.5437546998948285e-05   7.383418842293876e-06   -1.2159686287884679e-05
-4.5437546998948285e-05   7.383418842293876e-06   -1.2159686287884679e-05
-6.598831450745124e-05   1.0203921083018312e-05   -4.471866412428813e-05
-6.598831450745124e-05   1.0203921083018312e-05   -4.471866412428813e-05
-6.598831450745124e-05   1.0203921083018312e-05   -4.471866412428813e-05
-6.598831450745124e-05   1.0203921083018312e-05   -4.471866412428813e-05
-6.319029216188409e-05   8.635814484313654e-06   -3.880892573053822e-06
-6.319029216188409e-05   8.635814484313654e-06   -3.880892573053822e-06
-6.319029216188409e-05   8.635814484313654e-06   -3.880892573053822e-06
-6.319029216188409e-05   8.635814484313654e-06   -3.880892573053822e-06
-4.421779816212263e-05   1.1657534410533608e-05   -3.731474786172147e-05
-4.421779816212263e-05   1.1657534410533608e-05   -3.731474786172147e-05
-4.421779816212263e-05   1.1657534410533608e-05   -3.731474786172147e-05
-4.421779816212263e-05   1.1657534410533608e-05   -3.731474786172147e-05
-5.244651311813869e-05   9.72137125266996e-06   -2.2438525040309682e-05
-5.244651311813869e-05   9.72137125266996e-06   -2.2438525040309682e-05
-5.244651311813869e-05   9.72137125266996e-06   -2.2438525040309682e-05
-5.244651311813869e-05   9.72137125266996e-06   -2.2438525040309682e-05
-4.421779816212267e-05   8.635814484313654e-06   -5.693924528785534e-06
-4.421779816212267e-05   8.635814484313654e-06   -5.693924528785534e-06
-4.421779816212267e-05   8.635814484313654e-06   -5.693924528785534e-06
-4.421779816212267e-05   8.635814484313654e-06   -5.693924528785534e-06
-6.319029216188397e-05   1.1657534410533608e-05   -3.550171590598929e-05
-6.319029216188397e-05   1.1657534410533608e-05   -3.550171590598929e-05
-6.319029216188397e-05   1.1657534410533608e-05   -3.550171590598929e-05
-6.319029216188397e-05   1.1657534410533608e-05   -3.550171590598929e-05
-6.088775187085285e-05   9.084471822871486e-06   -4.256767071381031e-07
-6.088775187085285e-05   9.084471822871486e-06   -4.256767071381031e-07
-6.088775187085285e-05   9.084471822871486e-06   -4.256767071381031e-07
-6.088775187085285e-05   9.084471822871486e-06   -4.256767071381031e-07
-4.286860603692084e-05   1.2039693542513063e-05   -3.223071946214327e-05
-4.286860603692084e-05   1.2039693542513063e-05   -3.223071946214327e-05
-4.286860603692084e-05   1.2039693542513063e-05   -3.223071946214327e-05
-4.286860603692084e-05   1.2039693542513063e-05   -3.223071946214327e-05
-5.149054346036487e-05   1.029970646017949e-05   -1.6816831507002476e-05
-5.149054346036487e-05   1.029970646017949e-05   -1.6816831507002476e-05
-5.149054346036487e-05   1.029970646017949e-05   -1.6816831507002476e-05
-5.149054346036487e-05   1.029970646017949e-05   -1.6816831507002476e-05
-4.286860603692084e-05   9.084471822871486e-06   -2.1988097389229622e-06
-4.286860603692084e-05   9.084471822871486e-06   -2.1988097389229622e-06
-4.286860603692084e-05   9.084471822871486e-06   -2.1988097389229622e-06
-4.286860603692084e-05   9.084471822871486e-06   -2.1988097389229622e-06
-6.0887751870852635e-05   1.2039693542513063e-05   -3.0457586430358277e-05
-6.0887751870852635e-05   1.2039693542513063e-05   -3.0457586430358277e-05
-6.0887751870852635e-05   1.2039693542513063e-05   -3.0457586430358277e-05
-6.0887751870852635e-05   1.2039693542513063e-05   -3.0457586430358277e-05
-5.840459361619764e-05   9.654258145818523e-06   3.960334217549804e-06
-5.840459361619764e-05   9.654258145818523e-06   3.960334217549804e-06
-5.840459361619764e-05   9.654258145818523e-06   3.960334217549804e-06
-5.840459361619764e-05   9.654258145818523e-06   3.960334217549804e-06
-4.172840521107325e-05   1.236989129432169e-05   -2.5462693013426174e-05
-4.172840521107325e-05   1.236989129432169e-05   -2.5462693013426174e-05
-4.172840521107325e-05   1.236989129432169e-05   -2.5462693013426174e-05
-4.172840521107325e-05   1.236989129432169e-05   -2.5462693013426174e-05
-4.9157822866089114e-05   1.039427116898738e-05   -1.1894958179866646e-05
-4.9157822866089114e-05   1.039427116898738e-05   -1.1894958179866646e-05
-4.9157822866089114e-05   1.039427116898738e-05   -1.1894958179866646e-05
-4.9157822866089114e-05   1.039427116898738e-05   -1.1894958179866646e-05
5.6587995127515146e-05   -7.892663779741037e-06   1.118573553813727e-05
5.6587995127515146e-05   -7.892663779741037e-06   1.118573553813727e-05
5.6587995127515146e-05   -7.892663779741037e-06   1.118573553813727e-05
5.6587995127515146e-05   -7.892663779741037e-06   1.118573553813727e-05
2.727804116205897e-05   -1.1691758666019635e-05   -3.994364466939032e-05
2.727804116205897e-05   -1.1691758666019635e-05   -3.994364466939032e-05
2.727804116205897e-05   -1.1691758666019635e-05   -3.994364466939032e-05
2.727804116205897e-05   -1.1691758666019635e-05   -3.994364466939032e-05
2.8397806842036968e-05   -7.339726876413096e-06   5.376740481580211e-06
2.8397806842036968e-05   -7.339726876413096e-06   5.376740481580211e-06
2.8397806842036968e-05   -7.339726876413096e-06   5.376740481580211e-06
2.8397806842036968e-05   -7.339726876413096e-06   5.376740481580211e-06
5.918462503538271e-05   -1.141811947542263e-05   -4.348758761459087e-05
5.918462503538271e-05   -1.141811947542263e-05   -4.348758761459087e-05
5.918462503538271e-05   -1.141811947542263e-05   -4.348758761459087e-05
5.918462503538271e-05   -1.141811947542263e-05   -4.348758761459087e-05
4.111984473491792e-05   -8.64297940337969e-06   -1.5044704490374972e-05
4.111984473491792e-05   -8.64297940337969e-06   -1.5044704490374972e-05
4.111984473491792e-05   -8.64297940337969e-06   -1.5044704490374972e-05
4.111984473491792e-05   -8.64297940337969e-06   -1.5044704490374972e-05
5.9184625035382766e-05   -7.339726876413096e-06   7.823776040985714e-06
5.9184625035382766e-05   -7.339726876413096e-06   7.823776040985714e-06
5.9184625035382766e-05   -7.339726876413096e-06   7.823776040985714e-06
5.9184625035382766e-05   -7.339726876413096e-06   7.823776040985714e-06
2.8397806842036914e-05   -1.141811947542263e-05   -4.5934623173996426e-05
2.8397806842036914e-05   -1.141811947542263e-05   -4.5934623173996426e-05
2.8397806842036914e-05   -1.141811947542263e-05   -4.5934623173996426e-05
2.8397806842036914e-05   -1.141811947542263e-05   -4.5934623173996426e-05
2.9511650037542642e-05   -6.865171372543756e-06   2.53614083905139e-06
2.9511650037542642e-05   -6.865171372543756e-06   2.53614083905139e-06
2.9511650037542642e-05   -6.865171372543756e-06   2.53614083905139e-06
2.9511650037542642e-05   -6.865171372543756e-06   2.53614083905139e-06
6.117819542948434e-05   -1.1021915182145726e-05   -4.774738852842368e-05
6.117819542948434e-05   -1.1021915182145726e-05   -4.774738852842368e-05
6.117819542948434e-05   -1.1021915182145726e-05   -4.774738852842368e-05
6.117819542948434e-05   -1.1021915182145726e-05   -4.774738852842368e-05
4.330620805112087e-05   -8.614563222363383e-06   -1.940515407368752e-05
4.330620805112087e-05   -8.614563222363383e-06   -1.940515407368752e-05
4.330620805112087e-05   -8.614563222363383e-06   -1.940515407368752e-05
4.330620805112087e-05   -8.614563222363383e-06   -1.940515407368752e-05
6.117819542948434e-05   -6.865171372543756e-06   5.030187124812442e-06
6.117819542948434e-05   -6.865171372543756e-06   5.030187124812442e-06
6.117819542948434e-05   -6.865171372543756e-06   5.030187124812442e-06
6.117819542948434e-05   -6.865171372543756e-06   5.030187124812442e-06
2.9511650037542642e-05   -1.1021915182145726e-05   -5.0241434814185006e-05
2.9511650037542642e-05   -1.1021915182145726e-05   -5.0241434814185006e-05
2.9511650037542642e-05   -1.1021915182145726e-05   -5.0241434814185006e-05
2.9511650037542642e-05   -1.1021915182145726e-05   -5.0241434814185006e-05
3.0268690379557466e-05   -5.363708103019345e-06   -3.187816005680976e-06
3.0268690379557466e-05   -5.363708103019345e-06   -3.187816005680976e-06
3.0268690379557466e-05   -5.363708103019345e-06   -3.187816005680976e-06
3.0268690379557466e-05   -5.363708103019345e-06   -3.187816005680976e-06
6.328609662615962e-05   -9.47580469126989e-06   -5.574956846373405e-05
6.328609662615962e-05   -9.47580469126989e-06   -5.574956846373405e-05
6.328609662615962e-05   -9.47580469126989e-06   -5.574956846373405e-05
6.328609662615962e-05   -9.47580469126989e-06   -5.574956846373405e-05
4.3919864321406626e-05   -7.952835171209406e-06   -2.4386296334516218e-05
4.3919864321406626e-05   -7.952835171209406e-06   -2.4386296334516218e-05
4.3919864321406626e-05   -7.952835171209406e-06   -2.4386296334516218e-05
4.3919864321406626e-05   -7.952835171209406e-06   -2.4386296334516218e-05
2.727804116205897e-05   -3.6995461341129965e-06   -1.382917926999504e-05
2.727804116205897e-05   -3.6995461341129965e-06   -1.382917926999504e-05
2.727804116205897e-05   -3.6995461341129965e-06   -1.382917926999504e-05
2.727804116205897e-05   -3.6995461341129965e-06   -1.382917926999504e-05
-1.6369093009044658e-06   -7.585433713696091e-06   -6.43522959226843e-05
-1.6369093009044658e-06   -7.585433713696091e-06   -6.43522959226843e-05
-1.6369093009044658e-06   -7.585433713696091e-06   -6.43522959226843e-05
-1.6369093009044658e-06   -7.585433713696091e-06   -6.43522959226843e-05
-4.871695619414163e-07   -2.9325506748353533e-06   -1.5246073828144996e-05
-4.871695619414163e-07   -2.9325506748353533e-06   -1.5246073828144996e-05
-4.871695619414163e-07   -2.9325506748353533e-06   -1.5246073828144996e-05
-4.871695619414163e-07   -2.9325506748353533e-06   -1.5246073828144996e-05
2.8397806842036968e-05   -7.22350035132005e-06   -6.081313136221825e-05
2.8397806842036968e-05   -7.22350035132005e-06   -6.081313136221825e-05
2.8397806842036968e-05   -7.22350035132005e-06   -6.081313136221825e-05
2.8397806842036968e-05   -7.22350035132005e-06   -6.081313136221825e-05
1.3428543561960085e-05   -4.588759874879847e-06   -3.7445203514620403e-05
1.3428543561960085e-05   -4.588759874879847e-06   -3.7445203514620403e-05
1.3428543561960085e-05   -4.588759874879847e-06   -3.7445203514620403e-05
1.3428543561960085e-05   -4.588759874879847e-06   -3.7445203514620403e-05
2.839780684203694e-05   -2.9325506748353533e-06   -1.2671504022254178e-05
2.839780684203694e-05   -2.9325506748353533e-06   -1.2671504022254178e-05
2.839780684203694e-05   -2.9325506748353533e-06   -1.2671504022254178e-05
2.839780684203694e-05   -2.9325506748353533e-06   -1.2671504022254178e-05
-4.871695619414163e-07   -7.22350035132005e-06   -6.338770116810885e-05
-4.871695619414163e-07   -7.22350035132005e-06   -6.338770116810885e-05
-4.871695619414163e-07   -7.22350035132005e-06   -6.338770116810885e-05
-4.871695619414163e-07   -7.22350035132005e-06   -6.338770116810885e-05
5.25912812936321e-07   -1.994909745597819e-06   -1.560440206929952e-05
5.25912812936321e-07   -1.994909745597819e-06   -1.560440206929952e-05
5.25912812936321e-07   -1.994909745597819e-06   -1.560440206929952e-05
5.25912812936321e-07   -1.994909745597819e-06   -1.560440206929952e-05
2.9511650037542642e-05   -6.548769603589508e-06   -6.118164819551489e-05
2.9511650037542642e-05   -6.548769603589508e-06   -6.118164819551489e-05
2.9511650037542642e-05   -6.548769603589508e-06   -6.118164819551489e-05
2.9511650037542642e-05   -6.548769603589508e-06   -6.118164819551489e-05
1.4211935595228315e-05   -4.213577937592621e-06   -3.7083239124588874e-05
1.4211935595228315e-05   -4.213577937592621e-06   -3.7083239124588874e-05
1.4211935595228315e-05   -4.213577937592621e-06   -3.7083239124588874e-05
1.4211935595228315e-05   -4.213577937592621e-06   -3.7083239124588874e-05
2.9511650037542642e-05   -1.994909745597819e-06   -1.2872086154504464e-05
2.9511650037542642e-05   -1.994909745597819e-06   -1.2872086154504464e-05
2.9511650037542642e-05   -1.994909745597819e-06   -1.2872086154504464e-05
2.9511650037542642e-05   -1.994909745597819e-06   -1.2872086154504464e-05
5.259128129363481e-07   -6.548769603589941e-06   -6.391396411031033e-05
5.259128129363481e-07   -6.548769603589941e-06   -6.391396411031033e-05
5.259128129363481e-07   -6.548769603589941e-06   -6.391396411031033e-05
5.259128129363481e-07   -6.548769603589941e-06   -6.391396411031033e-05
1.2475019417010228e-06   -8.15358830058479e-07   -1.621820538266587e-05
1.2475019417010228e-06   -8.15358830058479e-07   -1.621820538266587e-05
1.2475019417010228e-06   -8.15358830058479e-07   -1.621820538266587e-05
1.2475019417010228e-06   -8.15358830058479e-07   -1.621820538266587e-05
3.0268690379557547e-05   -5.5888496307164234e-06   -6.172275829869852e-05
3.0268690379557547e-05   -5.5888496307164234e-06   -6.172275829869852e-05
3.0268690379557547e-05   -5.5888496307164234e-06   -6.172275829869852e-05
3.0268690379557547e-05   -5.5888496307164234e-06   -6.172275829869852e-05
1.51485770355972e-05   -3.551903216784426e-06   -3.774473724045828e-05
1.51485770355972e-05   -3.551903216784426e-06   -3.774473724045828e-05
1.51485770355972e-05   -3.551903216784426e-06   -3.774473724045828e-05
1.51485770355972e-05   -3.551903216784426e-06   -3.774473724045828e-05
-1.6369093009044658e-06   6.667429198838927e-07   -2.1031169770835976e-05
-1.6369093009044658e-06   6.667429198838927e-07   -2.1031169770835976e-05
-1.6369093009044658e-06   6.667429198838927e-07   -2.1031169770835976e-05
-1.6369093009044658e-06   6.667429198838927e-07   -2.1031169770835976e-05
-3.012467737375584e-05   -3.996702918540249e-06   -7.130885072864309e-05
-3.012467737375584e-05   -3.996702918540249e-06   -7.130885072864309e-05
-3.012467737375584e-05   -3.996702918540249e-06   -7.130885072864309e-05
-3.012467737375584e-05   -3.996702918540249e-06   -7.130885072864309e-05
-2.8745321547713352e-05   1.5279666304053585e-06   -2.2872243233109388e-05
-2.8745321547713352e-05   1.5279666304053585e-06   -2.2872243233109388e-05
-2.8745321547713352e-05   1.5279666304053585e-06   -2.2872243233109388e-05
-2.8745321547713352e-05   1.5279666304053585e-06   -2.2872243233109388e-05
-4.871695619414163e-07   -3.570635723943588e-06   -6.691000179678618e-05
-4.871695619414163e-07   -3.570635723943588e-06   -6.691000179678618e-05
-4.871695619414163e-07   -3.570635723943588e-06   -6.691000179678618e-05
-4.871695619414163e-07   -3.570635723943588e-06   -6.691000179678618e-05
-1.5066972674186835e-05   -7.817140826441894e-07   -4.428368292782366e-05
-1.5066972674186835e-05   -7.817140826441894e-07   -4.428368292782366e-05
-1.5066972674186835e-05   -7.817140826441894e-07   -4.428368292782366e-05
-1.5066972674186835e-05   -7.817140826441894e-07   -4.428368292782366e-05
-4.871695619414163e-07   1.5279666304057922e-06   -1.981308182049963e-05
-4.871695619414163e-07   1.5279666304057922e-06   -1.981308182049963e-05
-4.871695619414163e-07   1.5279666304057922e-06   -1.981308182049963e-05
-4.871695619414163e-07   1.5279666304057922e-06   -1.981308182049963e-05
-2.8745321547713352e-05   -3.570635723944022e-06   -6.99691632093961e-05
-2.8745321547713352e-05   -3.570635723944022e-06   -6.99691632093961e-05
-2.8745321547713352e-05   -3.570635723944022e-06   -6.99691632093961e-05
-2.8745321547713352e-05   -3.570635723944022e-06   -6.99691632093961e-05
-2.747981901385397e-05   2.5256145139204017e-06   -2.246317249006576e-05
-2.747981901385397e-05   2.5256145139204017e-06   -2.246317249006576e-05
-2.747981901385397e-05   2.5256145139204017e-06   -2.246317249006576e-05
-2.747981901385397e-05   2.5256145139204017e-06   -2.246317249006576e-05
5.259128129363481e-07   -2.9060677747428515e-06   -6.588038282818499e-05
5.259128129363481e-07   -2.9060677747428515e-06   -6.588038282818499e-05
5.259128129363481e-07   -2.9060677747428515e-06   -6.588038282818499e-05
5.259128129363481e-07   -2.9060677747428515e-06   -6.588038282818499e-05
-1.3943244436720083e-05   -2.934234613017825e-07   -4.333270733348875e-05
-1.3943244436720083e-05   -2.934234613017825e-07   -4.333270733348875e-05
-1.3943244436720083e-05   -2.934234613017825e-07   -4.333270733348875e-05
-1.3943244436720083e-05   -2.934234613017825e-07   -4.333270733348875e-05
5.259128129363481e-07   2.5256145139204017e-06   -1.9204163116867765e-05
5.259128129363481e-07   2.5256145139204017e-06   -1.9204163116867765e-05
5.259128129363481e-07   2.5256145139204017e-06   -1.9204163116867765e-05
5.259128129363481e-07   2.5256145139204017e-06   -1.9204163116867765e-05
-2.7479819013854023e-05   -2.906067774742418e-06   -6.91393922013831e-05
-2.7479819013854023e-05   -2.906067774742418e-06   -6.91393922013831e-05
-2.7479819013854023e-05   -2.906067774742418e-06   -6.91393922013831e-05
-2.7479819013854023e-05   -2.906067774742418e-06   -6.91393922013831e-05
-2.6626439251084072e-05   3.556713696953144e-06   -2.285159496963991e-05
-2.6626439251084072e-05   3.556713696953144e-06   -2.285159496963991e-05
-2.6626439251084072e-05   3.556713696953144e-06   -2.285159496963991e-05
-2.6626439251084072e-05   3.556713696953144e-06   -2.285159496963991e-05
1.2475019417010228e-06   -2.2760451560393385e-06   -6.58085083124865e-05
1.2475019417010228e-06   -2.2760451560393385e-06   -6.58085083124865e-05
1.2475019417010228e-06   -2.2760451560393385e-06   -6.58085083124865e-05
1.2475019417010228e-06   -2.2760451560393385e-06   -6.58085083124865e-05
-1.3141454141381546e-05   2.549456789807496e-07   -4.334550934169466e-05
-1.3141454141381546e-05   2.549456789807496e-07   -4.334550934169466e-05
-1.3141454141381546e-05   2.549456789807496e-07   -4.334550934169466e-05
-1.3141454141381546e-05   2.549456789807496e-07   -4.334550934169466e-05
-3.012467737375577e-05   5.189132432929268e-06   -1.7172599587626704e-05
-3.012467737375577e-05   5.189132432929268e-06   -1.7172599587626704e-05
-3.012467737375577e-05   5.189132432929268e-06   -1.7172599587626704e-05
-3.012467737375577e-05   5.189132432929268e-06   -1.7172599587626704e-05
-5.900785053441045e-05   9.852325192852979e-07   -6.783356147023749e-05
-5.900785053441045e-05   9.852325192852979e-07   -6.783356147023749e-05
-5.900785053441045e-05   9.852325192852979e-07   -6.783356147023749e-05
-5.900785053441045e-05   9.852325192852979e-07   -6.783356147023749e-05
-5.704432649353165e-05   6.283208842580105e-06   -1.8305810009853173e-05
-5.704432649353165e-05   6.283208842580105e-06   -1.8305810009853173e-05
-5.704432649353165e-05   6.283208842580105e-06   -1.8305810009853173e-05
-5.704432649353165e-05   6.283208842580105e-06   -1.8305810009853173e-05
-2.8745321547713298e-05   1.7749063990894244e-06   -6.276583678678914e-05
-2.8745321547713298e-05   1.7749063990894244e-06   -6.276583678678914e-05
-2.8745321547713298e-05   1.7749063990894244e-06   -6.276583678678914e-05
-2.8745321547713298e-05   1.7749063990894244e-06   -6.276583678678914e-05
-4.327592608259564e-05   3.934673477432819e-06   -3.9844022808991166e-05
-4.327592608259564e-05   3.934673477432819e-06   -3.9844022808991166e-05
-4.327592608259564e-05   3.934673477432819e-06   -3.9844022808991166e-05
-4.327592608259564e-05   3.934673477432819e-06   -3.9844022808991166e-05
-2.8745321547713298e-05   6.283208842580105e-06   -1.5600828543758504e-05
-2.8745321547713298e-05   6.283208842580105e-06   -1.5600828543758504e-05
-2.8745321547713298e-05   6.283208842580105e-06   -1.5600828543758504e-05
-2.8745321547713298e-05   6.283208842580105e-06   -1.5600828543758504e-05
-5.704432649353175e-05   1.7749063990894244e-06   -6.547081825288383e-05
-5.704432649353175e-05   1.7749063990894244e-06   -6.547081825288383e-05
-5.704432649353175e-05   1.7749063990894244e-06   -6.547081825288383e-05
-5.704432649353175e-05   1.7749063990894244e-06   -6.547081825288383e-05
-5.5146807501768614e-05   7.225489694500254e-06   -1.6680500943233546e-05
-5.5146807501768614e-05   7.225489694500254e-06   -1.6680500943233546e-05
-5.5146807501768614e-05   7.225489694500254e-06   -1.6680500943233546e-05
-5.5146807501768614e-05   7.225489694500254e-06   -1.6680500943233546e-05
-2.7479819013854023e-05   2.5020435854014936e-06   -5.9958080757632174e-05
-2.7479819013854023e-05   2.5020435854014936e-06   -5.9958080757632174e-05
-2.7479819013854023e-05   2.5020435854014936e-06   -5.9958080757632174e-05
-2.7479819013854023e-05   2.5020435854014936e-06   -5.9958080757632174e-05
-4.150221731668122e-05   4.621713357700827e-06   -3.785921878296614e-05
-4.150221731668122e-05   4.621713357700827e-06   -3.785921878296614e-05
-4.150221731668122e-05   4.621713357700827e-06   -3.785921878296614e-05
-4.150221731668122e-05   4.621713357700827e-06   -3.785921878296614e-05
-2.747981901385394e-05   7.225489694500254e-06   -1.384643327777442e-05
-2.747981901385394e-05   7.225489694500254e-06   -1.384643327777442e-05
-2.747981901385394e-05   7.225489694500254e-06   -1.384643327777442e-05
-2.747981901385394e-05   7.225489694500254e-06   -1.384643327777442e-05
-5.514680750176871e-05   2.5020435854014936e-06   -6.279214842309162e-05
-5.514680750176871e-05   2.5020435854014936e-06   -6.279214842309162e-05
-5.514680750176871e-05   2.5020435854014936e-06   -6.279214842309162e-05
-5.514680750176871e-05   2.5020435854014936e-06   -6.279214842309162e-05
-5.3706522317179095e-05   8.26824725187053e-06   -1.6732842296320787e-05
-5.3706522317179095e-05   8.26824725187053e-06   -1.6732842296320787e-05
-5.3706522317179095e-05   8.26824725187053e-06   -1.6732842296320787e-05
-5.3706522317179095e-05   8.26824725187053e-06   -1.6732842296320787e-05
-2.6626439251084113e-05   3.1175375537705573e-06   -5.877588825428602e-05
-2.6626439251084113e-05   3.1175375537705573e-06   -5.877588825428602e-05
-2.6626439251084113e-05   3.1175375537705573e-06   -5.877588825428602e-05
-2.6626439251084113e-05   3.1175375537705573e-06   -5.877588825428602e-05
-4.050662980385783e-05   5.101136342010575e-06   -3.683239660594003e-05
-4.050662980385783e-05   5.101136342010575e-06   -3.683239660594003e-05
-4.050662980385783e-05   5.101136342010575e-06   -3.683239660594003e-05
-4.050662980385783e-05   5.101136342010575e-06   -3.683239660594003e-05
-5.900785053441045e-05   1.0203921083018312e-05   -9.856719229518534e-06
-5.900785053441045e-05   1.0203921083018312e-05   -9.856719229518534e-06
-5.900785053441045e-05   1.0203921083018312e-05   -9.856719229518534e-06
-5.900785053441045e-05   1.0203921083018312e-05   -9.856719229518534e-06
-8.917939851527725e-05   9.627649095464777e-06   -6.0488395723495673e-05
-8.917939851527725e-05   9.627649095464777e-06   -6.0488395723495673e-05
-8.917939851527725e-05   9.627649095464777e-06   -6.0488395723495673e-05
-8.917939851527725e-05   9.627649095464777e-06   -6.0488395723495673e-05
-8.531069019993232e-05   1.1657534410533608e-05   -3.182333977278136e-07
-8.531069019993232e-05   1.1657534410533608e-05   -3.182333977278136e-07
-8.531069019993232e-05   1.1657534410533608e-05   -3.182333977278136e-07
-8.531069019993232e-05   1.1657534410533608e-05   -3.182333977278136e-07
-5.7044326493531556e-05   1.219553177802743e-05   -4.7751637995559104e-05
-5.7044326493531556e-05   1.219553177802743e-05   -4.7751637995559104e-05
-5.7044326493531556e-05   1.219553177802743e-05   -4.7751637995559104e-05
-5.7044326493531556e-05   1.219553177802743e-05   -4.7751637995559104e-05
-6.95027271505231e-05   1.1500179227022771e-05   -2.6570425369970433e-05
-6.95027271505231e-05   1.1500179227022771e-05   -2.6570425369970433e-05
-6.95027271505231e-05   1.1500179227022771e-05   -2.6570425369970433e-05
-6.95027271505231e-05   1.1500179227022771e-05   -2.6570425369970433e-05
-5.7044326493531705e-05   1.1657534410533608e-05   -6.410318182242802e-07
-5.7044326493531705e-05   1.1657534410533608e-05   -6.410318182242802e-07
-5.7044326493531705e-05   1.1657534410533608e-05   -6.410318182242802e-07
-5.7044326493531705e-05   1.1657534410533608e-05   -6.410318182242802e-07
-8.531069019993232e-05   1.219553177802743e-05   -4.742883957506265e-05
-8.531069019993232e-05   1.219553177802743e-05   -4.742883957506265e-05
-8.531069019993232e-05   1.219553177802743e-05   -4.742883957506265e-05
-8.531069019993232e-05   1.219553177802743e-05   -4.742883957506265e-05
-8.210127937814327e-05   1.2039693542513063e-05   5.074031113351573e-06
-8.210127937814327e-05   1.2039693542513063e-05   5.074031113351573e-06
-8.210127937814327e-05   1.2039693542513063e-05   5.074031113351573e-06
-8.210127937814327e-05   1.2039693542513063e-05   5.074031113351573e-06
-5.5146807501768614e-05   1.2772292034229568e-05   -4.0289647775635994e-05
-5.5146807501768614e-05   1.2772292034229568e-05   -4.0289647775635994e-05
-5.5146807501768614e-05   1.2772292034229568e-05   -4.0289647775635994e-05
-5.5146807501768614e-05   1.2772292034229568e-05   -4.0289647775635994e-05
-6.803389729679977e-05   1.2336428533286925e-05   -1.8549646683351374e-05
-6.803389729679977e-05   1.2336428533286925e-05   -1.8549646683351374e-05
-6.803389729679977e-05   1.2336428533286925e-05   -1.8549646683351374e-05
-6.803389729679977e-05   1.2336428533286925e-05   -1.8549646683351374e-05
-5.514680750176871e-05   1.2039693542513063e-05   4.634472018321886e-06
-5.514680750176871e-05   1.2039693542513063e-05   4.634472018321886e-06
-5.514680750176871e-05   1.2039693542513063e-05   4.634472018321886e-06
-5.514680750176871e-05   1.2039693542513063e-05   4.634472018321886e-06
-8.210127937814313e-05   1.2772292034230002e-05   -3.985008868060617e-05
-8.210127937814313e-05   1.2772292034230002e-05   -3.985008868060617e-05
-8.210127937814313e-05   1.2772292034230002e-05   -3.985008868060617e-05
-8.210127937814313e-05   1.2772292034230002e-05   -3.985008868060617e-05
-7.874546971706236e-05   1.236989129432169e-05   1.2298317151950965e-05
-7.874546971706236e-05   1.236989129432169e-05   1.2298317151950965e-05
-7.874546971706236e-05   1.236989129432169e-05   1.2298317151950965e-05
-7.874546971706236e-05   1.236989129432169e-05   1.2298317151950965e-05
-5.3706522317179095e-05   1.376511980987578e-05   -3.027039895718699e-05
-5.3706522317179095e-05   1.376511980987578e-05   -3.027039895718699e-05
-5.3706522317179095e-05   1.376511980987578e-05   -3.027039895718699e-05
-5.3706522317179095e-05   1.376511980987578e-05   -3.027039895718699e-05
-6.479588293454162e-05   1.2618397599568551e-05   -1.1100097935399264e-05
-6.479588293454162e-05   1.2618397599568551e-05   -1.1100097935399264e-05
-6.479588293454162e-05   1.2618397599568551e-05   -1.1100097935399264e-05
-6.479588293454162e-05   1.2618397599568551e-05   -1.1100097935399264e-05
7.781795953451135e-05   -1.1691758666019635e-05   2.652120549288166e-05
7.781795953451135e-05   -1.1691758666019635e-05   2.652120549288166e-05
7.781795953451135e-05   -1.1691758666019635e-05   2.652120549288166e-05
7.781795953451135e-05   -1.1691758666019635e-05   2.652120549288166e-05
3.912412850756811e-05   -1.4790076379459817e-05   -3.982750351342115e-05
3.912412850756811e-05   -1.4790076379459817e-05   -3.982750351342115e-05
3.912412850756811e-05   -1.4790076379459817e-05   -3.982750351342115e-05
3.912412850756811e-05   -1.4790076379459817e-05   -3.982750351342115e-05
4.008276640268623e-05   -1.141811947542263e-05   1.9017263186881222e-05
4.008276640268623e-05   -1.141811947542263e-05   1.9017263186881222e-05
4.008276640268623e-05   -1.141811947542263e-05   1.9017263186881222e-05
4.008276640268623e-05   -1.141811947542263e-05   1.9017263186881222e-05
7.976061762776564e-05   -1.5160038267135294e-05   -4.486733757989023e-05
7.976061762776564e-05   -1.5160038267135294e-05   -4.486733757989023e-05
7.976061762776564e-05   -1.5160038267135294e-05   -4.486733757989023e-05
7.976061762776564e-05   -1.5160038267135294e-05   -4.486733757989023e-05
5.683887460479587e-05   -1.1942978870713248e-05   -8.594668179460444e-06
5.683887460479587e-05   -1.1942978870713248e-05   -8.594668179460444e-06
5.683887460479587e-05   -1.1942978870713248e-05   -8.594668179460444e-06
5.683887460479587e-05   -1.1942978870713248e-05   -8.594668179460444e-06
7.976061762776564e-05   -1.141811947542263e-05   2.1262414461908994e-05
7.976061762776564e-05   -1.141811947542263e-05   2.1262414461908994e-05
7.976061762776564e-05   -1.141811947542263e-05   2.1262414461908994e-05
7.976061762776564e-05   -1.141811947542263e-05   2.1262414461908994e-05
4.008276640268623e-05   -1.5160038267135294e-05   -4.7112488854917896e-05
4.008276640268623e-05   -1.5160038267135294e-05   -4.7112488854917896e-05
4.008276640268623e-05   -1.5160038267135294e-05   -4.7112488854917896e-05
4.008276640268623e-05   -1.5160038267135294e-05   -4.7112488854917896e-05
4.089311571721073e-05   -1.1021915182145726e-05   1.5002093983179383e-05
4.089311571721073e-05   -1.1021915182145726e-05   1.5002093983179383e-05
4.089311571721073e-05   -1.1021915182145726e-05   1.5002093983179383e-05
4.089311571721073e-05   -1.1021915182145726e-05   1.5002093983179383e-05
8.09715785994432e-05   -1.5023227910315913e-05   -4.939455651697288e-05
8.09715785994432e-05   -1.5023227910315913e-05   -4.939455651697288e-05
8.09715785994432e-05   -1.5023227910315913e-05   -4.939455651697288e-05
8.09715785994432e-05   -1.5023227910315913e-05   -4.939455651697288e-05
5.8845073587848404e-05   -1.2320859159281605e-05   -1.4138469414935436e-05
5.8845073587848404e-05   -1.2320859159281605e-05   -1.4138469414935436e-05
5.8845073587848404e-05   -1.2320859159281605e-05   -1.4138469414935436e-05
5.8845073587848404e-05   -1.2320859159281605e-05   -1.4138469414935436e-05
8.09715785994432e-05   -1.1021915182145726e-05   1.740288162008132e-05
8.09715785994432e-05   -1.1021915182145726e-05   1.740288162008132e-05
8.09715785994432e-05   -1.1021915182145726e-05   1.740288162008132e-05
8.09715785994432e-05   -1.1021915182145726e-05   1.740288162008132e-05
4.089311571721073e-05   -1.5023227910315913e-05   -5.1795344153874765e-05
4.089311571721073e-05   -1.5023227910315913e-05   -5.1795344153874765e-05
4.089311571721073e-05   -1.5023227910315913e-05   -5.1795344153874765e-05
4.089311571721073e-05   -1.5023227910315913e-05   -5.1795344153874765e-05
4.1740144150161876e-05   -9.475804691270323e-06   7.208138054537287e-06
4.1740144150161876e-05   -9.475804691270323e-06   7.208138054537287e-06
4.1740144150161876e-05   -9.475804691270323e-06   7.208138054537287e-06
4.1740144150161876e-05   -9.475804691270323e-06   7.208138054537287e-06
8.216392577086343e-05   -1.4189014861847819e-05   -5.733690521095183e-05
8.216392577086343e-05   -1.4189014861847819e-05   -5.733690521095183e-05
8.216392577086343e-05   -1.4189014861847819e-05   -5.733690521095183e-05
8.216392577086343e-05   -1.4189014861847819e-05   -5.733690521095183e-05
5.887685236435794e-05   -1.185834343453776e-05   -1.9923519056495843e-05
5.887685236435794e-05   -1.185834343453776e-05   -1.9923519056495843e-05
5.887685236435794e-05   -1.185834343453776e-05   -1.9923519056495843e-05
5.887685236435794e-05   -1.185834343453776e-05   -1.9923519056495843e-05
3.912412850756811e-05   -7.5854337136965246e-06   2.585096159273513e-06
3.912412850756811e-05   -7.5854337136965246e-06   2.585096159273513e-06
3.912412850756811e-05   -7.5854337136965246e-06   2.585096159273513e-06
3.912412850756811e-05   -7.5854337136965246e-06   2.585096159273513e-06
4.664277265000111e-06   -1.4859449884324551e-05   -5.921239894738327e-05
4.664277265000111e-06   -1.4859449884324551e-05   -5.921239894738327e-05
4.664277265000111e-06   -1.4859449884324551e-05   -5.921239894738327e-05
4.664277265000111e-06   -1.4859449884324551e-05   -5.921239894738327e-05
5.781828226465767e-06   -7.2235003513196165e-06   -3.976176122556796e-07
5.781828226465767e-06   -7.2235003513196165e-06   -3.976176122556796e-07
5.781828226465767e-06   -7.2235003513196165e-06   -3.976176122556796e-07
5.781828226465767e-06   -7.2235003513196165e-06   -3.976176122556796e-07
4.008276640268631e-05   -1.4784121369511554e-05   -5.3029475295041345e-05
4.008276640268631e-05   -1.4784121369511554e-05   -5.3029475295041345e-05
4.008276640268631e-05   -1.4784121369511554e-05   -5.3029475295041345e-05
4.008276640268631e-05   -1.4784121369511554e-05   -5.3029475295041345e-05
2.2501073158410774e-05   -1.0023658484876498e-05   -2.658293095203013e-05
2.2501073158410774e-05   -1.0023658484876498e-05   -2.658293095203013e-05
2.2501073158410774e-05   -1.0023658484876498e-05   -2.658293095203013e-05
2.2501073158410774e-05   -1.0023658484876498e-05   -2.658293095203013e-05
4.00827664026862e-05   -7.2235003513196165e-06   4.138754998659396e-06
4.00827664026862e-05   -7.2235003513196165e-06   4.138754998659396e-06
4.00827664026862e-05   -7.2235003513196165e-06   4.138754998659396e-06
4.00827664026862e-05   -7.2235003513196165e-06   4.138754998659396e-06
5.781828226465767e-06   -1.4784121369511988e-05   -5.7565847905956475e-05
5.781828226465767e-06   -1.4784121369511988e-05   -5.7565847905956475e-05
5.781828226465767e-06   -1.4784121369511988e-05   -5.7565847905956475e-05
5.781828226465767e-06   -1.4784121369511988e-05   -5.7565847905956475e-05
6.7906351970295855e-06   -6.548769603589941e-06   -7.609892249908073e-07
6.7906351970295855e-06   -6.548769603589941e-06   -7.609892249908073e-07
6.7906351970295855e-06   -6.548769603589941e-06   -7.609892249908073e-07
6.7906351970295855e-06   -6.548769603589941e-06   -7.609892249908073e-07
4.089311571721073e-05   -1.4586885981656555e-05   -5.2775586931785965e-05
4.089311571721073e-05   -1.4586885981656555e-05   -5.2775586931785965e-05
4.089311571721073e-05   -1.4586885981656555e-05   -5.2775586931785965e-05
4.089311571721073e-05   -1.4586885981656555e-05   -5.2775586931785965e-05
2.3136396157285663e-05   -1.0135075601128748e-05   -2.5852140560226255e-05
2.3136396157285663e-05   -1.0135075601128748e-05   -2.5852140560226255e-05
2.3136396157285663e-05   -1.0135075601128748e-05   -2.5852140560226255e-05
2.3136396157285663e-05   -1.0135075601128748e-05   -2.5852140560226255e-05
4.089311571721073e-05   -6.548769603589941e-06   4.061880601849118e-06
4.089311571721073e-05   -6.548769603589941e-06   4.061880601849118e-06
4.089311571721073e-05   -6.548769603589941e-06   4.061880601849118e-06
4.089311571721073e-05   -6.548769603589941e-06   4.061880601849118e-06
6.790635197029558e-06   -1.4586885981656555e-05   -5.7598456758626e-05
6.790635197029558e-06   -1.4586885981656555e-05   -5.7598456758626e-05
6.790635197029558e-06   -1.4586885981656555e-05   -5.7598456758626e-05
6.790635197029558e-06   -1.4586885981656555e-05   -5.7598456758626e-05
8.296032534762051e-06   -5.5888496307164234e-06   -1.4597164637282847e-06
8.296032534762051e-06   -5.5888496307164234e-06   -1.4597164637282847e-06
8.296032534762051e-06   -5.5888496307164234e-06   -1.4597164637282847e-06
8.296032534762051e-06   -5.5888496307164234e-06   -1.4597164637282847e-06
4.174014415016185e-05   -1.4192054024469037e-05   -5.2037979853143234e-05
4.174014415016185e-05   -1.4192054024469037e-05   -5.2037979853143234e-05
4.174014415016185e-05   -1.4192054024469037e-05   -5.2037979853143234e-05
4.174014415016185e-05   -1.4192054024469037e-05   -5.2037979853143234e-05
2.434584956533667e-05   -9.979238947774131e-06   -2.557517792445166e-05
2.434584956533667e-05   -9.979238947774131e-06   -2.557517792445166e-05
2.434584956533667e-05   -9.979238947774131e-06   -2.557517792445166e-05
2.434584956533667e-05   -9.979238947774131e-06   -2.557517792445166e-05
4.664277265000111e-06   -3.996702918540249e-06   -5.937800846007261e-06
4.664277265000111e-06   -3.996702918540249e-06   -5.937800846007261e-06
4.664277265000111e-06   -3.996702918540249e-06   -5.937800846007261e-06
4.664277265000111e-06   -3.996702918540249e-06   -5.937800846007261e-06
-2.944018868872765e-05   -1.7948816901016285e-05   -7.114984582503908e-05
-2.944018868872765e-05   -1.7948816901016285e-05   -7.114984582503908e-05
-2.944018868872765e-05   -1.7948816901016285e-05   -7.114984582503908e-05
-2.944018868872765e-05   -1.7948816901016285e-05   -7.114984582503908e-05
-2.7699629325074387e-05   -3.570635723944022e-06   -1.2785874653962722e-05
-2.7699629325074387e-05   -3.570635723944022e-06   -1.2785874653962722e-05
-2.7699629325074387e-05   -3.570635723944022e-06   -1.2785874653962722e-05
-2.7699629325074387e-05   -3.570635723944022e-06   -1.2785874653962722e-05
5.781828226465767e-06   -1.8347229745659718e-05   -5.9722347493499804e-05
5.781828226465767e-06   -1.8347229745659718e-05   -5.9722347493499804e-05
5.781828226465767e-06   -1.8347229745659718e-05   -5.9722347493499804e-05
5.781828226465767e-06   -1.8347229745659718e-05   -5.9722347493499804e-05
-1.1278725236375378e-05   -1.015414969915418e-05   -3.620393975000129e-05
-1.1278725236375378e-05   -1.015414969915418e-05   -3.620393975000129e-05
-1.1278725236375378e-05   -1.015414969915418e-05   -3.620393975000129e-05
-1.1278725236375378e-05   -1.015414969915418e-05   -3.620393975000129e-05
5.781828226465767e-06   -3.570635723944022e-06   -3.919918240933174e-06
5.781828226465767e-06   -3.570635723944022e-06   -3.919918240933174e-06
5.781828226465767e-06   -3.570635723944022e-06   -3.919918240933174e-06
5.781828226465767e-06   -3.570635723944022e-06   -3.919918240933174e-06
-2.7699629325074427e-05   -1.834722974566015e-05   -6.858830390652979e-05
-2.7699629325074427e-05   -1.834722974566015e-05   -6.858830390652979e-05
-2.7699629325074427e-05   -1.834722974566015e-05   -6.858830390652979e-05
-2.7699629325074427e-05   -1.834722974566015e-05   -6.858830390652979e-05
-2.620002565310689e-05   -2.906067774742418e-06   -1.1941669663613312e-05
-2.620002565310689e-05   -2.906067774742418e-06   -1.1941669663613312e-05
-2.620002565310689e-05   -2.906067774742418e-06   -1.1941669663613312e-05
-2.620002565310689e-05   -2.906067774742418e-06   -1.1941669663613312e-05
6.790635197029558e-06   -1.8263170642655088e-05   -5.771184269309329e-05
6.790635197029558e-06   -1.8263170642655088e-05   -5.771184269309329e-05
6.790635197029558e-06   -1.8263170642655088e-05   -5.771184269309329e-05
6.790635197029558e-06   -1.8263170642655088e-05   -5.771184269309329e-05
-1.004263878265217e-05   -1.0385533297877989e-05   -3.438296846715663e-05
-1.004263878265217e-05   -1.0385533297877989e-05   -3.438296846715663e-05
-1.004263878265217e-05   -1.0385533297877989e-05   -3.438296846715663e-05
-1.004263878265217e-05   -1.0385533297877989e-05   -3.438296846715663e-05
6.790635197029558e-06   -2.906067774742418e-06   -2.727407942865797e-06
6.790635197029558e-06   -2.906067774742418e-06   -2.727407942865797e-06
6.790635197029558e-06   -2.906067774742418e-06   -2.727407942865797e-06
6.790635197029558e-06   -2.906067774742418e-06   -2.727407942865797e-06
-2.620002565310697e-05   -1.826317064265552e-05   -6.692610441384099e-05
-2.620002565310697e-05   -1.826317064265552e-05   -6.692610441384099e-05
-2.620002565310697e-05   -1.826317064265552e-05   -6.692610441384099e-05
-2.620002565310697e-05   -1.826317064265552e-05   -6.692610441384099e-05
-2.3612831383589797e-05   -2.2760451560393385e-06   -1.1890651009720385e-05
-2.3612831383589797e-05   -2.2760451560393385e-06   -1.1890651009720385e-05
-2.3612831383589797e-05   -2.2760451560393385e-06   -1.1890651009720385e-05
-2.3612831383589797e-05   -2.2760451560393385e-06   -1.1890651009720385e-05
8.296032534762051e-06   -1.7624843510371732e-05   -5.586281186104104e-05
8.296032534762051e-06   -1.7624843510371732e-05   -5.586281186104104e-05
8.296032534762051e-06   -1.7624843510371732e-05   -5.586281186104104e-05
8.296032534762051e-06   -1.7624843510371732e-05   -5.586281186104104e-05
-8.436393698585199e-06   -1.01568267841445e-05   -3.245624484119836e-05
-8.436393698585199e-06   -1.01568267841445e-05   -3.245624484119836e-05
-8.436393698585199e-06   -1.01568267841445e-05   -3.245624484119836e-05
-8.436393698585199e-06   -1.01568267841445e-05   -3.245624484119836e-05
-2.9440188688727623e-05   9.852325192852979e-07   -8.311440028900682e-06
-2.9440188688727623e-05   9.852325192852979e-07   -8.311440028900682e-06
-2.9440188688727623e-05   9.852325192852979e-07   -8.311440028900682e-06
-2.9440188688727623e-05   9.852325192852979e-07   -8.311440028900682e-06
-6.749899597052462e-05   -2.240203066499781e-05   -8.57751434091324e-05
-6.749899597052462e-05   -2.240203066499781e-05   -8.57751434091324e-05
-6.749899597052462e-05   -2.240203066499781e-05   -8.57751434091324e-05
-6.749899597052462e-05   -2.240203066499781e-05   -8.57751434091324e-05
-6.542208854901098e-05   1.7749063990894244e-06   -2.165043092242948e-05
-6.542208854901098e-05   1.7749063990894244e-06   -2.165043092242948e-05
-6.542208854901098e-05   1.7749063990894244e-06   -2.165043092242948e-05
-6.542208854901098e-05   1.7749063990894244e-06   -2.165043092242948e-05
-2.7699629325074387e-05   -2.5004898086033404e-05   -6.845331360458368e-05
-2.7699629325074387e-05   -2.5004898086033404e-05   -6.845331360458368e-05
-2.7699629325074387e-05   -2.5004898086033404e-05   -6.845331360458368e-05
-2.7699629325074387e-05   -2.5004898086033404e-05   -6.845331360458368e-05
-4.683047866040306e-05   -1.1404256170048296e-05   -4.4728949861959984e-05
-4.683047866040306e-05   -1.1404256170048296e-05   -4.4728949861959984e-05
-4.683047866040306e-05   -1.1404256170048296e-05   -4.4728949861959984e-05
-4.683047866040306e-05   -1.1404256170048296e-05   -4.4728949861959984e-05
-2.7699629325074387e-05   1.7749063990894244e-06   -5.582548231355998e-06
-2.7699629325074387e-05   1.7749063990894244e-06   -5.582548231355998e-06
-2.7699629325074387e-05   1.7749063990894244e-06   -5.582548231355998e-06
-2.7699629325074387e-05   1.7749063990894244e-06   -5.582548231355998e-06
-6.542208854901098e-05   -2.500489808603297e-05   -8.452119629565719e-05
-6.542208854901098e-05   -2.500489808603297e-05   -8.452119629565719e-05
-6.542208854901098e-05   -2.500489808603297e-05   -8.452119629565719e-05
-6.542208854901098e-05   -2.500489808603297e-05   -8.452119629565719e-05
-6.343098706849471e-05   2.5020435854014936e-06   -1.934930959892299e-05
-6.343098706849471e-05   2.5020435854014936e-06   -1.934930959892299e-05
-6.343098706849471e-05   2.5020435854014936e-06   -1.934930959892299e-05
-6.343098706849471e-05   2.5020435854014936e-06   -1.934930959892299e-05
-2.620002565310693e-05   -2.514620871303273e-05   -6.481196057884226e-05
-2.620002565310693e-05   -2.514620871303273e-05   -6.481196057884226e-05
-2.620002565310693e-05   -2.514620871303273e-05   -6.481196057884226e-05
-2.620002565310693e-05   -2.514620871303273e-05   -6.481196057884226e-05
-4.480545275977296e-05   -1.144453569464814e-05   -4.202391921209617e-05
-4.480545275977296e-05   -1.144453569464814e-05   -4.202391921209617e-05
-4.480545275977296e-05   -1.144453569464814e-05   -4.202391921209617e-05
-4.480545275977296e-05   -1.144453569464814e-05   -4.202391921209617e-05
-2.6200025653106917e-05   2.5020435854014936e-06   -2.760358219862499e-06
-2.6200025653106917e-05   2.5020435854014936e-06   -2.760358219862499e-06
-2.6200025653106917e-05   2.5020435854014936e-06   -2.760358219862499e-06
-2.6200025653106917e-05   2.5020435854014936e-06   -2.760358219862499e-06
-6.343098706849485e-05   -2.5146208713032296e-05   -8.140091195790299e-05
-6.343098706849485e-05   -2.5146208713032296e-05   -8.140091195790299e-05
-6.343098706849485e-05   -2.5146208713032296e-05   -8.140091195790299e-05
-6.343098706849485e-05   -2.5146208713032296e-05   -8.140091195790299e-05
-6.016872875756562e-05   3.1175375537705573e-06   -1.700455349929039e-05
-6.016872875756562e-05   3.1175375537705573e-06   -1.700455349929039e-05
-6.016872875756562e-05   3.1175375537705573e-06   -1.700455349929039e-05
-6.016872875756562e-05   3.1175375537705573e-06   -1.700455349929039e-05
-2.361283138358988e-05   -2.2959425545505865e-05   -6.228487126301756e-05
-2.361283138358988e-05   -2.2959425545505865e-05   -6.228487126301756e-05
-2.361283138358988e-05   -2.2959425545505865e-05   -6.228487126301756e-05
-2.361283138358988e-05   -2.2959425545505865e-05   -6.228487126301756e-05
-4.280438363276773e-05   -1.0115909864849473e-05   -3.800506025611393e-05
-4.280438363276773e-05   -1.0115909864849473e-05   -3.800506025611393e-05
-4.280438363276773e-05   -1.0115909864849473e-05   -3.800506025611393e-05
-4.280438363276773e-05   -1.0115909864849473e-05   -3.800506025611393e-05
-6.749899597052462e-05   9.627649095464777e-06   -1.4652869000197086e-05
-6.749899597052462e-05   9.627649095464777e-06   -1.4652869000197086e-05
-6.749899597052462e-05   9.627649095464777e-06   -1.4652869000197086e-05
-6.749899597052462e-05   9.627649095464777e-06   -1.4652869000197086e-05
-0.00011626157991697496   0.0   -0.00010170043170156006
-0.00011626157991697496   0.0   -0.00010170043170156006
-0.00011626157991697496   0.0   -0.00010170043170156006
-0.00011626157991697496   0.0   -0.00010170043170156006
-0.00011322116702368288   1.219553177802743e-05   -1.1248569731921523e-05
-0.00011322116702368288   1.219553177802743e-05   -1.1248569731921523e-05
-0.00011322116702368288   1.219553177802743e-05   -1.1248569731921523e-05
-0.00011322116702368288   1.219553177802743e-05   -1.1248569731921523e-05
-6.542208854901087e-05   0.0   -8.359638145622494e-05
-6.542208854901087e-05   0.0   -8.359638145622494e-05
-6.542208854901087e-05   0.0   -8.359638145622494e-05
-6.542208854901087e-05   0.0   -8.359638145622494e-05
-8.675094614322228e-05   3.723130510638502e-06   -5.028216377225576e-05
-8.675094614322228e-05   3.723130510638502e-06   -5.028216377225576e-05
-8.675094614322228e-05   3.723130510638502e-06   -5.028216377225576e-05
-8.675094614322228e-05   3.723130510638502e-06   -5.028216377225576e-05
-6.542208854901094e-05   1.2195531778027863e-05   -3.931250665104762e-06
-6.542208854901094e-05   1.2195531778027863e-05   -3.931250665104762e-06
-6.542208854901094e-05   1.2195531778027863e-05   -3.931250665104762e-06
-6.542208854901094e-05   1.2195531778027863e-05   -3.931250665104762e-06
-0.00011322116702368266   0.0   -9.091370052304124e-05
-0.00011322116702368266   0.0   -9.091370052304124e-05
-0.00011322116702368266   0.0   -9.091370052304124e-05
-0.00011322116702368266   0.0   -9.091370052304124e-05
-0.00011065008000163667   1.2772292034230002e-05   -4.510184172005658e-06
-0.00011065008000163667   1.2772292034230002e-05   -4.510184172005658e-06
-0.00011065008000163667   1.2772292034230002e-05   -4.510184172005658e-06
-0.00011065008000163667   1.2772292034230002e-05   -4.510184172005658e-06
-6.343098706849485e-05   0.0   -7.554529717337114e-05
-6.343098706849485e-05   0.0   -7.554529717337114e-05
-6.343098706849485e-05   0.0   -7.554529717337114e-05
-6.343098706849485e-05   0.0   -7.554529717337114e-05
-8.584123272127295e-05   5.904657444681313e-06   -4.1737682218882105e-05
-8.584123272127295e-05   5.904657444681313e-06   -4.1737682218882105e-05
-8.584123272127295e-05   5.904657444681313e-06   -4.1737682218882105e-05
-8.584123272127295e-05   5.904657444681313e-06   -4.1737682218882105e-05
-6.343098706849485e-05   1.2772292034230002e-05   3.153191048532126e-06
-6.343098706849485e-05   1.2772292034230002e-05   3.153191048532126e-06
-6.343098706849485e-05   1.2772292034230002e-05   3.153191048532126e-06
-6.343098706849485e-05   1.2772292034230002e-05   3.153191048532126e-06
-0.00011065008000163647   0.0   -8.320867239390898e-05
-0.00011065008000163647   0.0   -8.320867239390898e-05
-0.00011065008000163647   0.0   -8.320867239390898e-05
-0.00011065008000163647   0.0   -8.320867239390898e-05
-0.0001055212085308561   1.376511980987578e-05   6.332289730742822e-06
-0.0001055212085308561   1.376511980987578e-05   6.332289730742822e-06
-0.0001055212085308561   1.376511980987578e-05   6.332289730742822e-06
-0.0001055212085308561   1.376511980987578e-05   6.332289730742822e-06
-6.0168728757565724e-05   0.0   -6.0996104672149403e-05
-6.0168728757565724e-05   0.0   -6.0996104672149403e-05
-6.0168728757565724e-05   0.0   -6.0996104672149403e-05
-6.0168728757565724e-05   0.0   -6.0996104672149403e-05
-8.136807988655585e-05   7.2845717318968314e-06   -3.003459582963657e-05
-8.136807988655585e-05   7.2845717318968314e-06   -3.003459582963657e-05
-8.136807988655585e-05   7.2845717318968314e-06   -3.003459582963657e-05
-8.136807988655585e-05   7.2845717318968314e-06   -3.003459582963657e-05
8.609372845996859e-05   -1.4790076379459817e-05   5.1403241898751676e-05
8.609372845996859e-05   -1.4790076379459817e-05   5.1403241898751676e-05
8.609372845996859e-05   -1.4790076379459817e-05   5.1403241898751676e-05
8.609372845996859e-05   -1.4790076379459817e-05   5.1403241898751676e-05
4.4676740374095125e-05   -1.1390551123314097e-05   -1.5585356424016854e-05
4.4676740374095125e-05   -1.1390551123314097e-05   -1.5585356424016854e-05
4.4676740374095125e-05   -1.1390551123314097e-05   -1.5585356424016854e-05
4.4676740374095125e-05   -1.1390551123314097e-05   -1.5585356424016854e-05
4.3551073826009044e-05   -1.5160038267135294e-05   4.540603087349734e-05
4.3551073826009044e-05   -1.5160038267135294e-05   4.540603087349734e-05
4.3551073826009044e-05   -1.5160038267135294e-05   4.540603087349734e-05
4.3551073826009044e-05   -1.5160038267135294e-05   4.540603087349734e-05
8.517056093375767e-05   -1.2524683609807519e-05   -2.5540993767147568e-05
8.517056093375767e-05   -1.2524683609807519e-05   -2.5540993767147568e-05
8.517056093375767e-05   -1.2524683609807519e-05   -2.5540993767147568e-05
8.517056093375767e-05   -1.2524683609807519e-05   -2.5540993767147568e-05
6.221890268011781e-05   -1.2740793003035e-05   1.2841435624855397e-05
6.221890268011781e-05   -1.2740793003035e-05   1.2841435624855397e-05
6.221890268011781e-05   -1.2740793003035e-05   1.2841435624855397e-05
6.221890268011781e-05   -1.2740793003035e-05   1.2841435624855397e-05
8.517056093375767e-05   -1.5160038267135294e-05   4.382481807910037e-05
8.517056093375767e-05   -1.5160038267135294e-05   4.382481807910037e-05
8.517056093375767e-05   -1.5160038267135294e-05   4.382481807910037e-05
8.517056093375767e-05   -1.5160038267135294e-05   4.382481807910037e-05
4.3551073826009044e-05   -1.2524683609807519e-05   -2.3959780972750708e-05
4.3551073826009044e-05   -1.2524683609807519e-05   -2.3959780972750708e-05
4.3551073826009044e-05   -1.2524683609807519e-05   -2.3959780972750708e-05
4.3551073826009044e-05   -1.2524683609807519e-05   -2.3959780972750708e-05
4.2532926407170694e-05   -1.5023227910315913e-05   4.077071064697343e-05
4.2532926407170694e-05   -1.5023227910315913e-05   4.077071064697343e-05
4.2532926407170694e-05   -1.5023227910315913e-05   4.077071064697343e-05
4.2532926407170694e-05   -1.5023227910315913e-05   4.077071064697343e-05
8.410349723118229e-05   -1.2629500723193056e-05   -2.9949810371985967e-05
8.410349723118229e-05   -1.2629500723193056e-05   -2.9949810371985967e-05
8.410349723118229e-05   -1.2629500723193056e-05   -2.9949810371985967e-05
8.410349723118229e-05   -1.2629500723193056e-05   -2.9949810371985967e-05
6.216964475724787e-05   -1.2964225634341797e-05   6.807445364593679e-06
6.216964475724787e-05   -1.2964225634341797e-05   6.807445364593679e-06
6.216964475724787e-05   -1.2964225634341797e-05   6.807445364593679e-06
6.216964475724787e-05   -1.2964225634341797e-05   6.807445364593679e-06
8.410349723118242e-05   -1.502322791031548e-05   3.93344743346998e-05
8.410349723118242e-05   -1.502322791031548e-05   3.93344743346998e-05
8.410349723118242e-05   -1.502322791031548e-05   3.93344743346998e-05
8.410349723118242e-05   -1.502322791031548e-05   3.93344743346998e-05
4.2532926407170694e-05   -1.2629500723193056e-05   -2.8513574059712502e-05
4.2532926407170694e-05   -1.2629500723193056e-05   -2.8513574059712502e-05
4.2532926407170694e-05   -1.2629500723193056e-05   -2.8513574059712502e-05
4.2532926407170694e-05   -1.2629500723193056e-05   -2.8513574059712502e-05
4.129084431742639e-05   -1.4189014861847819e-05   3.322947785441583e-05
4.129084431742639e-05   -1.4189014861847819e-05   3.322947785441583e-05
4.129084431742639e-05   -1.4189014861847819e-05   3.322947785441583e-05
4.129084431742639e-05   -1.4189014861847819e-05   3.322947785441583e-05
8.243165249084052e-05   -1.2367532899487665e-05   -3.643142494535694e-05
8.243165249084052e-05   -1.2367532899487665e-05   -3.643142494535694e-05
8.243165249084052e-05   -1.2367532899487665e-05   -3.643142494535694e-05
8.243165249084052e-05   -1.2367532899487665e-05   -3.643142494535694e-05
6.004550239462525e-05   -1.2327872953876197e-05   8.550292476351478e-07
6.004550239462525e-05   -1.2327872953876197e-05   8.550292476351478e-07
6.004550239462525e-05   -1.2327872953876197e-05   8.550292476351478e-07
6.004550239462525e-05   -1.2327872953876197e-05   8.550292476351478e-07
4.4676740374095125e-05   -1.4859449884324551e-05   3.842247132085385e-05
4.4676740374095125e-05   -1.4859449884324551e-05   3.842247132085385e-05
4.4676740374095125e-05   -1.4859449884324551e-05   3.842247132085385e-05
4.4676740374095125e-05   -1.4859449884324551e-05   3.842247132085385e-05
9.539916493419789e-06   -7.050321691724672e-06   -1.5453424898044825e-05
9.539916493419789e-06   -7.050321691724672e-06   -1.5453424898044825e-05
9.539916493419789e-06   -7.050321691724672e-06   -1.5453424898044825e-05
9.539916493419789e-06   -7.050321691724672e-06   -1.5453424898044825e-05
7.75835838712815e-06   -1.4784121369511988e-05   4.3872499869833815e-05
7.75835838712815e-06   -1.4784121369511988e-05   4.3872499869833815e-05
7.75835838712815e-06   -1.4784121369511988e-05   4.3872499869833815e-05
7.75835838712815e-06   -1.4784121369511988e-05   4.3872499869833815e-05
4.3551073826009044e-05   -7.47836230874507e-06   -2.0165481298094255e-05
4.3551073826009044e-05   -7.47836230874507e-06   -2.0165481298094255e-05
4.3551073826009044e-05   -7.47836230874507e-06   -2.0165481298094255e-05
4.3551073826009044e-05   -7.47836230874507e-06   -2.0165481298094255e-05
2.634510070517924e-05   -1.0634404404344898e-05   1.0404765827315182e-05
2.634510070517924e-05   -1.0634404404344898e-05   1.0404765827315182e-05
2.634510070517924e-05   -1.0634404404344898e-05   1.0404765827315182e-05
2.634510070517924e-05   -1.0634404404344898e-05   1.0404765827315182e-05
4.355107382600907e-05   -1.4784121369511554e-05   3.948904443337384e-05
4.355107382600907e-05   -1.4784121369511554e-05   3.948904443337384e-05
4.355107382600907e-05   -1.4784121369511554e-05   3.948904443337384e-05
4.355107382600907e-05   -1.4784121369511554e-05   3.948904443337384e-05
7.75835838712815e-06   -7.47836230874507e-06   -1.5782025861634224e-05
7.75835838712815e-06   -7.47836230874507e-06   -1.5782025861634224e-05
7.75835838712815e-06   -7.47836230874507e-06   -1.5782025861634224e-05
7.75835838712815e-06   -7.47836230874507e-06   -1.5782025861634224e-05
6.488166520183164e-06   -1.4586885981656555e-05   4.394102693012743e-05
6.488166520183164e-06   -1.4586885981656555e-05   4.394102693012743e-05
6.488166520183164e-06   -1.4586885981656555e-05   4.394102693012743e-05
6.488166520183164e-06   -1.4586885981656555e-05   4.394102693012743e-05
4.2532926407170694e-05   -7.669287546547849e-06   -2.0284131942583836e-05
4.2532926407170694e-05   -7.669287546547849e-06   -2.0284131942583836e-05
4.2532926407170694e-05   -7.669287546547849e-06   -2.0284131942583836e-05
4.2532926407170694e-05   -7.669287546547849e-06   -2.0284131942583836e-05
2.4818544358543463e-05   -1.0416974332309783e-05   1.0888450209919714e-05
2.4818544358543463e-05   -1.0416974332309783e-05   1.0888450209919714e-05
2.4818544358543463e-05   -1.0416974332309783e-05   1.0888450209919714e-05
2.4818544358543463e-05   -1.0416974332309783e-05   1.0888450209919714e-05
4.2532926407170776e-05   -1.4586885981656555e-05   3.979046786906234e-05
4.2532926407170776e-05   -1.4586885981656555e-05   3.979046786906234e-05
4.2532926407170776e-05   -1.4586885981656555e-05   3.979046786906234e-05
4.2532926407170776e-05   -1.4586885981656555e-05   3.979046786906234e-05
6.488166520183164e-06   -7.669287546547849e-06   -1.613357288151847e-05
6.488166520183164e-06   -7.669287546547849e-06   -1.613357288151847e-05
6.488166520183164e-06   -7.669287546547849e-06   -1.613357288151847e-05
6.488166520183164e-06   -7.669287546547849e-06   -1.613357288151847e-05
5.075094676240129e-06   -1.4192054024469037e-05   4.537311843867426e-05
5.075094676240129e-06   -1.4192054024469037e-05   4.537311843867426e-05
5.075094676240129e-06   -1.4192054024469037e-05   4.537311843867426e-05
5.075094676240129e-06   -1.4192054024469037e-05   4.537311843867426e-05
4.1290844317426364e-05   -7.497405484298454e-06   -1.9003253420738788e-05
4.1290844317426364e-05   -7.497405484298454e-06   -1.9003253420738788e-05
4.1290844317426364e-05   -7.497405484298454e-06   -1.9003253420738788e-05
4.1290844317426364e-05   -7.497405484298454e-06   -1.9003253420738788e-05
2.3884470433446366e-05   -9.960760894333481e-06   1.1485382965248695e-05
2.3884470433446366e-05   -9.960760894333481e-06   1.1485382965248695e-05
2.3884470433446366e-05   -9.960760894333481e-06   1.1485382965248695e-05
2.3884470433446366e-05   -9.960760894333481e-06   1.1485382965248695e-05
9.539916493419816e-06   -1.7948816901016285e-05   3.954176974824402e-05
9.539916493419816e-06   -1.7948816901016285e-05   3.954176974824402e-05
9.539916493419816e-06   -1.7948816901016285e-05   3.954176974824402e-05
9.539916493419816e-06   -1.7948816901016285e-05   3.954176974824402e-05
-2.421175011544158e-05   -2.9759210014006915e-06   -7.72727039342262e-06
-2.421175011544158e-05   -2.9759210014006915e-06   -7.72727039342262e-06
-2.421175011544158e-05   -2.9759210014006915e-06   -7.72727039342262e-06
-2.421175011544158e-05   -2.9759210014006915e-06   -7.72727039342262e-06
-2.698336423846191e-05   -1.834722974566015e-05   5.0838677654788285e-05
-2.698336423846191e-05   -1.834722974566015e-05   5.0838677654788285e-05
-2.698336423846191e-05   -1.834722974566015e-05   5.0838677654788285e-05
-2.698336423846191e-05   -1.834722974566015e-05   5.0838677654788285e-05
7.758358387128177e-06   -3.142767458163675e-06   -1.6186870760359742e-05
7.758358387128177e-06   -3.142767458163675e-06   -1.6186870760359742e-05
7.758358387128177e-06   -3.142767458163675e-06   -1.6186870760359742e-05
7.758358387128177e-06   -3.142767458163675e-06   -1.6186870760359742e-05
-8.171268877765485e-06   -1.0262975053316331e-05   1.463463257155473e-05
-8.171268877765485e-06   -1.0262975053316331e-05   1.463463257155473e-05
-8.171268877765485e-06   -1.0262975053316331e-05   1.463463257155473e-05
-8.171268877765485e-06   -1.0262975053316331e-05   1.463463257155473e-05
7.75835838712815e-06   -1.8347229745659718e-05   4.171600028229027e-05
7.75835838712815e-06   -1.8347229745659718e-05   4.171600028229027e-05
7.75835838712815e-06   -1.8347229745659718e-05   4.171600028229027e-05
7.75835838712815e-06   -1.8347229745659718e-05   4.171600028229027e-05
-2.6983364238461857e-05   -3.142767458163675e-06   -7.064193387861916e-06
-2.6983364238461857e-05   -3.142767458163675e-06   -7.064193387861916e-06
-2.6983364238461857e-05   -3.142767458163675e-06   -7.064193387861916e-06
-2.6983364238461857e-05   -3.142767458163675e-06   -7.064193387861916e-06
-2.867697212099222e-05   -1.826317064265552e-05   5.2777364827405644e-05
-2.867697212099222e-05   -1.826317064265552e-05   5.2777364827405644e-05
-2.867697212099222e-05   -1.826317064265552e-05   5.2777364827405644e-05
-2.867697212099222e-05   -1.826317064265552e-05   5.2777364827405644e-05
6.488166520183164e-06   -3.3469642564134226e-06   -1.4780923406298709e-05
6.488166520183164e-06   -3.3469642564134226e-06   -1.4780923406298709e-05
6.488166520183164e-06   -3.3469642564134226e-06   -1.4780923406298709e-05
6.488166520183164e-06   -3.3469642564134226e-06   -1.4780923406298709e-05
-1.0047448585561784e-05   -1.0231447188145757e-05   1.690912486231554e-05
-1.0047448585561784e-05   -1.0231447188145757e-05   1.690912486231554e-05
-1.0047448585561784e-05   -1.0231447188145757e-05   1.690912486231554e-05
-1.0047448585561784e-05   -1.0231447188145757e-05   1.690912486231554e-05
6.488166520183137e-06   -1.8263170642655088e-05   4.382764099566017e-05
6.488166520183137e-06   -1.8263170642655088e-05   4.382764099566017e-05
6.488166520183137e-06   -1.8263170642655088e-05   4.382764099566017e-05
6.488166520183137e-06   -1.8263170642655088e-05   4.382764099566017e-05
-2.8676972120992165e-05   -3.3469642564134226e-06   -5.8311995745534764e-06
-2.8676972120992165e-05   -3.3469642564134226e-06   -5.8311995745534764e-06
-2.8676972120992165e-05   -3.3469642564134226e-06   -5.8311995745534764e-06
-2.8676972120992165e-05   -3.3469642564134226e-06   -5.8311995745534764e-06
-3.0669391488121e-05   -1.7624843510371732e-05   5.5288269139212344e-05
-3.0669391488121e-05   -1.7624843510371732e-05   5.5288269139212344e-05
-3.0669391488121e-05   -1.7624843510371732e-05   5.5288269139212344e-05
-3.0669391488121e-05   -1.7624843510371732e-05   5.5288269139212344e-05
5.075094676240129e-06   -3.328076723397959e-06   -1.2863934540240877e-05
5.075094676240129e-06   -3.328076723397959e-06   -1.2863934540240877e-05
5.075094676240129e-06   -3.328076723397959e-06   -1.2863934540240877e-05
5.075094676240129e-06   -3.328076723397959e-06   -1.2863934540240877e-05
-1.1575009623381658e-05   -9.825713791851778e-06   1.8784821533534657e-05
-1.1575009623381658e-05   -9.825713791851778e-06   1.8784821533534657e-05
-1.1575009623381658e-05   -9.825713791851778e-06   1.8784821533534657e-05
-1.1575009623381658e-05   -9.825713791851778e-06   1.8784821533534657e-05
-2.4211750115441633e-05   -2.240203066499781e-05   4.7932567614489795e-05
-2.4211750115441633e-05   -2.240203066499781e-05   4.7932567614489795e-05
-2.4211750115441633e-05   -2.240203066499781e-05   4.7932567614489795e-05
-2.4211750115441633e-05   -2.240203066499781e-05   4.7932567614489795e-05
-6.265838589697645e-05   3.168091971828598e-06   -8.030851059723579e-07
-6.265838589697645e-05   3.168091971828598e-06   -8.030851059723579e-07
-6.265838589697645e-05   3.168091971828598e-06   -8.030851059723579e-07
-6.265838589697645e-05   3.168091971828598e-06   -8.030851059723579e-07
-6.59874420186447e-05   -2.500489808603297e-05   6.776221934492836e-05
-6.59874420186447e-05   -2.500489808603297e-05   6.776221934492836e-05
-6.59874420186447e-05   -2.500489808603297e-05   6.776221934492836e-05
-6.59874420186447e-05   -2.500489808603297e-05   6.776221934492836e-05
-2.6983364238461857e-05   2.9760208942902246e-06   -1.4033128343570193e-05
-2.6983364238461857e-05   2.9760208942902246e-06   -1.4033128343570193e-05
-2.6983364238461857e-05   2.9760208942902246e-06   -1.4033128343570193e-05
-2.6983364238461857e-05   2.9760208942902246e-06   -1.4033128343570193e-05
-4.4330762079646774e-05   -9.31440456513992e-06   2.225345666739603e-05
-4.4330762079646774e-05   -9.31440456513992e-06   2.225345666739603e-05
-4.4330762079646774e-05   -9.31440456513992e-06   2.225345666739603e-05
-4.4330762079646774e-05   -9.31440456513992e-06   2.225345666739603e-05
-2.698336423846191e-05   -2.500489808603297e-05   5.097366795673436e-05
-2.698336423846191e-05   -2.500489808603297e-05   5.097366795673436e-05
-2.698336423846191e-05   -2.500489808603297e-05   5.097366795673436e-05
-2.698336423846191e-05   -2.500489808603297e-05   5.097366795673436e-05
-6.59874420186447e-05   2.9760208942902246e-06   2.755423044623756e-06
-6.59874420186447e-05   2.9760208942902246e-06   2.755423044623756e-06
-6.59874420186447e-05   2.9760208942902246e-06   2.755423044623756e-06
-6.59874420186447e-05   2.9760208942902246e-06   2.755423044623756e-06
-6.80168469699829e-05   -2.5146208713032296e-05   7.155362995252441e-05
-6.80168469699829e-05   -2.5146208713032296e-05   7.155362995252441e-05
-6.80168469699829e-05   -2.5146208713032296e-05   7.155362995252441e-05
-6.80168469699829e-05   -2.5146208713032296e-05   7.155362995252441e-05
-2.8676972120992165e-05   2.6239934371682407e-06   -1.0674949419247227e-05
-2.8676972120992165e-05   2.6239934371682407e-06   -1.0674949419247227e-05
-2.8676972120992165e-05   2.6239934371682407e-06   -1.0674949419247227e-05
-2.8676972120992165e-05   2.6239934371682407e-06   -1.0674949419247227e-05
-4.649450126293639e-05   -1.0718930462168524e-05   2.7026686823595266e-05
-4.649450126293639e-05   -1.0718930462168524e-05   2.7026686823595266e-05
-4.649450126293639e-05   -1.0718930462168524e-05   2.7026686823595266e-05
-4.649450126293639e-05   -1.0718930462168524e-05   2.7026686823595266e-05
-2.8676972120992124e-05   -2.514620871303273e-05   5.489150866240392e-05
-2.8676972120992124e-05   -2.514620871303273e-05   5.489150866240392e-05
-2.8676972120992124e-05   -2.514620871303273e-05   5.489150866240392e-05
-2.8676972120992124e-05   -2.514620871303273e-05   5.489150866240392e-05
-6.80168469699828e-05   2.6239934371682407e-06   5.987171870873269e-06
-6.80168469699828e-05   2.6239934371682407e-06   5.987171870873269e-06
-6.80168469699828e-05   2.6239934371682407e-06   5.987171870873269e-06
-6.80168469699828e-05   2.6239934371682407e-06   5.987171870873269e-06
-7.020308287716026e-05   -2.2959425545505865e-05   7.318655424333248e-05
-7.020308287716026e-05   -2.2959425545505865e-05   7.318655424333248e-05
-7.020308287716026e-05   -2.2959425545505865e-05   7.318655424333248e-05
-7.020308287716026e-05   -2.2959425545505865e-05   7.318655424333248e-05
-3.066939148812089e-05   2.225683610323527e-06   -7.813996898563795e-06
-3.066939148812089e-05   2.225683610323527e-06   -7.813996898563795e-06
-3.066939148812089e-05   2.225683610323527e-06   -7.813996898563795e-06
-3.066939148812089e-05   2.225683610323527e-06   -7.813996898563795e-06
-4.872250190580158e-05   -1.0800072459813369e-05   3.0089974106320525e-05
-4.872250190580158e-05   -1.0800072459813369e-05   3.0089974106320525e-05
-4.872250190580158e-05   -1.0800072459813369e-05   3.0089974106320525e-05
-4.872250190580158e-05   -1.0800072459813369e-05   3.0089974106320525e-05
-6.265838589697625e-05   0.0   5.31259423614365e-05
-6.265838589697625e-05   0.0   5.31259423614365e-05
-6.265838589697625e-05   0.0   5.31259423614365e-05
-6.265838589697625e-05   0.0   5.31259423614365e-05
-0.0001103922988837284   1.4470367581777884e-05   -1.7748358734084044e-05
-0.0001103922988837284   1.4470367581777884e-05   -1.7748358734084044e-05
-0.0001103922988837284   1.4470367581777884e-05   -1.7748358734084044e-05
-0.0001103922988837284   1.4470367581777884e-05   -1.7748358734084044e-05
-0.00011498635573201924   0.0   7.706469527542399e-05
-0.00011498635573201924   0.0   7.706469527542399e-05
-0.00011498635573201924   0.0   7.706469527542399e-05
-0.00011498635573201924   0.0   7.706469527542399e-05
-6.59874420186446e-05   1.3962768485106455e-05   -1.2977822004597644e-05
-6.59874420186446e-05   1.3962768485106455e-05   -1.2977822004597644e-05
-6.59874420186446e-05   1.3962768485106455e-05   -1.2977822004597644e-05
-6.59874420186446e-05   1.3962768485106455e-05   -1.2977822004597644e-05
-8.473148272472713e-05   8.585382734515711e-06   2.1488677289227694e-05
-8.473148272472713e-05   8.585382734515711e-06   2.1488677289227694e-05
-8.473148272472713e-05   8.585382734515711e-06   2.1488677289227694e-05
-8.473148272472713e-05   8.585382734515711e-06   2.1488677289227694e-05
-6.598744201864452e-05   0.0   6.86870341843602e-05
-6.598744201864452e-05   0.0   6.86870341843602e-05
-6.598744201864452e-05   0.0   6.86870341843602e-05
-6.598744201864452e-05   0.0   6.86870341843602e-05
-0.00011498635573201942   1.3962768485106455e-05   -4.60016091353402e-06
-0.00011498635573201942   1.3962768485106455e-05   -4.60016091353402e-06
-0.00011498635573201942   1.3962768485106455e-05   -4.60016091353402e-06
-0.00011498635573201942   1.3962768485106455e-05   -4.60016091353402e-06
-0.0001173004310771907   0.0   8.55712925713647e-05
-0.0001173004310771907   0.0   8.55712925713647e-05
-0.0001173004310771907   0.0   8.55712925713647e-05
-0.0001173004310771907   0.0   8.55712925713647e-05
-6.80168469699828e-05   1.3603413057181827e-05   -4.73006210829094e-06
-6.80168469699828e-05   1.3603413057181827e-05   -4.73006210829094e-06
-6.80168469699828e-05   1.3603413057181827e-05   -4.73006210829094e-06
-6.80168469699828e-05   1.3603413057181827e-05   -4.73006210829094e-06
-8.915909222310185e-05   7.1678699757934256e-06   3.436833916240802e-05
-8.915909222310185e-05   7.1678699757934256e-06   3.436833916240802e-05
-8.915909222310185e-05   7.1678699757934256e-06   3.436833916240802e-05
-8.915909222310185e-05   7.1678699757934256e-06   3.436833916240802e-05
-6.80168469699828e-05   0.0   7.740924473705578e-05
-6.80168469699828e-05   0.0   7.740924473705578e-05
-6.80168469699828e-05   0.0   7.740924473705578e-05
-6.80168469699828e-05   0.0   7.740924473705578e-05
-0.00011730043107719112   1.360341305718226e-05   3.4319857260180914e-06
-0.00011730043107719112   1.360341305718226e-05   3.4319857260180914e-06
-0.00011730043107719112   1.360341305718226e-05   3.4319857260180914e-06
-0.00011730043107719112   1.360341305718226e-05   3.4319857260180914e-06
-0.00011987868148144486   0.0   9.691541718985681e-05
-0.00011987868148144486   0.0   9.691541718985681e-05
-0.00011987868148144486   0.0   9.691541718985681e-05
-0.00011987868148144486   0.0   9.691541718985681e-05
-7.020308287716026e-05   1.1323197493483955e-05   7.328834353291774e-06
-7.020308287716026e-05   1.1323197493483955e-05   7.328834353291774e-06
-7.020308287716026e-05   1.1323197493483955e-05   7.328834353291774e-06
-7.020308287716026e-05   1.1323197493483955e-05   7.328834353291774e-06
-8.990643973266863e-05   5.029242341097421e-06   4.394413553723776e-05
-8.990643973266863e-05   5.029242341097421e-06   4.394413553723776e-05
-8.990643973266863e-05   5.029242341097421e-06   4.394413553723776e-05
-8.990643973266863e-05   5.029242341097421e-06   4.394413553723776e-05
7.569620544363418e-05   -1.1390551123314097e-05   5.376546726738505e-05
7.569620544363418e-05   -1.1390551123314097e-05   5.376546726738505e-05
7.569620544363418e-05   -1.1390551123314097e-05   5.376546726738505e-05
7.569620544363418e-05   -1.1390551123314097e-05   5.376546726738505e-05
3.8289835054165056e-05   -8.585551177537828e-06   -6.895483414264816e-06
3.8289835054165056e-05   -8.585551177537828e-06   -6.895483414264816e-06
3.8289835054165056e-05   -8.585551177537828e-06   -6.895483414264816e-06
3.8289835054165056e-05   -8.585551177537828e-06   -6.895483414264816e-06
3.727774864058472e-05   -1.2524683609807519e-05   4.69358121747527e-05
3.727774864058472e-05   -1.2524683609807519e-05   4.69358121747527e-05
3.727774864058472e-05   -1.2524683609807519e-05   4.69358121747527e-05
3.727774864058472e-05   -1.2524683609807519e-05   4.69358121747527e-05
7.38885551298213e-05   -9.732130215263628e-06   -1.575773067736771e-05
7.38885551298213e-05   -9.732130215263628e-06   -1.575773067736771e-05
7.38885551298213e-05   -9.732130215263628e-06   -1.575773067736771e-05
7.38885551298213e-05   -9.732130215263628e-06   -1.575773067736771e-05
5.378222906830089e-05   -1.0135807794285981e-05   1.799501930591313e-05
5.378222906830089e-05   -1.0135807794285981e-05   1.799501930591313e-05
5.378222906830089e-05   -1.0135807794285981e-05   1.799501930591313e-05
5.378222906830089e-05   -1.0135807794285981e-05   1.799501930591313e-05
7.388855512982116e-05   -1.2524683609807519e-05   4.5260280138026366e-05
7.388855512982116e-05   -1.2524683609807519e-05   4.5260280138026366e-05
7.388855512982116e-05   -1.2524683609807519e-05   4.5260280138026366e-05
7.388855512982116e-05   -1.2524683609807519e-05   4.5260280138026366e-05
3.7277748640584775e-05   -9.732130215263628e-06   -1.4082198640641376e-05
3.7277748640584775e-05   -9.732130215263628e-06   -1.4082198640641376e-05
3.7277748640584775e-05   -9.732130215263628e-06   -1.4082198640641376e-05
3.7277748640584775e-05   -9.732130215263628e-06   -1.4082198640641376e-05
3.597358218590444e-05   -1.2629500723193056e-05   4.213284710330575e-05
3.597358218590444e-05   -1.2629500723193056e-05   4.213284710330575e-05
3.597358218590444e-05   -1.2629500723193056e-05   4.213284710330575e-05
3.597358218590444e-05   -1.2629500723193056e-05   4.213284710330575e-05
7.206069005858087e-05   -9.902905246735646e-06   -1.9648289970363055e-05
7.206069005858087e-05   -9.902905246735646e-06   -1.9648289970363055e-05
7.206069005858087e-05   -9.902905246735646e-06   -1.9648289970363055e-05
7.206069005858087e-05   -9.902905246735646e-06   -1.9648289970363055e-05
5.327342788651499e-05   -1.0578728663912431e-05   1.2069307700052906e-05
5.327342788651499e-05   -1.0578728663912431e-05   1.2069307700052906e-05
5.327342788651499e-05   -1.0578728663912431e-05   1.2069307700052906e-05
5.327342788651499e-05   -1.0578728663912431e-05   1.2069307700052906e-05
7.206069005858087e-05   -1.2629500723193056e-05   4.0496889817431e-05
7.206069005858087e-05   -1.2629500723193056e-05   4.0496889817431e-05
7.206069005858087e-05   -1.2629500723193056e-05   4.0496889817431e-05
7.206069005858087e-05   -1.2629500723193056e-05   4.0496889817431e-05
3.597358218590444e-05   -9.902905246735646e-06   -1.801233268448844e-05
3.597358218590444e-05   -9.902905246735646e-06   -1.801233268448844e-05
3.597358218590444e-05   -9.902905246735646e-06   -1.801233268448844e-05
3.597358218590444e-05   -9.902905246735646e-06   -1.801233268448844e-05
3.460540322270411e-05   -1.2367532899487665e-05   3.500970298636304e-05
3.460540322270411e-05   -1.2367532899487665e-05   3.500970298636304e-05
3.460540322270411e-05   -1.2367532899487665e-05   3.500970298636304e-05
3.460540322270411e-05   -1.2367532899487665e-05   3.500970298636304e-05
6.977269633127935e-05   -9.84181065644867e-06   -2.5117885540419195e-05
6.977269633127935e-05   -9.84181065644867e-06   -2.5117885540419195e-05
6.977269633127935e-05   -9.84181065644867e-06   -2.5117885540419195e-05
6.977269633127935e-05   -9.84181065644867e-06   -2.5117885540419195e-05
5.0896259586262244e-05   -1.0302319575061954e-05   6.619147719111491e-06
5.0896259586262244e-05   -1.0302319575061954e-05   6.619147719111491e-06
5.0896259586262244e-05   -1.0302319575061954e-05   6.619147719111491e-06
5.0896259586262244e-05   -1.0302319575061954e-05   6.619147719111491e-06
3.8289835054165124e-05   -7.050321691724672e-06   5.089492184526213e-05
3.8289835054165124e-05   -7.050321691724672e-06   5.089492184526213e-05
3.8289835054165124e-05   -7.050321691724672e-06   5.089492184526213e-05
3.8289835054165124e-05   -7.050321691724672e-06   5.089492184526213e-05
4.2119723653490505e-06   -3.0311703148010183e-06   -3.4900251432770906e-06
4.2119723653490505e-06   -3.0311703148010183e-06   -3.4900251432770906e-06
4.2119723653490505e-06   -3.0311703148010183e-06   -3.4900251432770906e-06
4.2119723653490505e-06   -3.0311703148010183e-06   -3.4900251432770906e-06
3.2067451348197684e-06   -7.478362308745504e-06   5.302854837147008e-05
3.2067451348197684e-06   -7.478362308745504e-06   5.302854837147008e-05
3.2067451348197684e-06   -7.478362308745504e-06   5.302854837147008e-05
3.2067451348197684e-06   -7.478362308745504e-06   5.302854837147008e-05
3.7277748640584775e-05   -3.647634771976587e-06   -6.054893993532516e-06
3.7277748640584775e-05   -3.647634771976587e-06   -6.054893993532516e-06
3.7277748640584775e-05   -3.647634771976587e-06   -6.054893993532516e-06
3.7277748640584775e-05   -3.647634771976587e-06   -6.054893993532516e-06
2.0547895639957197e-05   -4.929668632463503e-06   2.259741465713888e-05
2.0547895639957197e-05   -4.929668632463503e-06   2.259741465713888e-05
2.0547895639957197e-05   -4.929668632463503e-06   2.259741465713888e-05
2.0547895639957197e-05   -4.929668632463503e-06   2.259741465713888e-05
3.727774864058475e-05   -7.478362308745504e-06   5.073011184940921e-05
3.727774864058475e-05   -7.478362308745504e-06   5.073011184940921e-05
3.727774864058475e-05   -7.478362308745504e-06   5.073011184940921e-05
3.727774864058475e-05   -7.478362308745504e-06   5.073011184940921e-05
3.2067451348197684e-06   -3.647634771976587e-06   -3.7564574714714534e-06
3.2067451348197684e-06   -3.647634771976587e-06   -3.7564574714714534e-06
3.2067451348197684e-06   -3.647634771976587e-06   -3.7564574714714534e-06
3.2067451348197684e-06   -3.647634771976587e-06   -3.7564574714714534e-06
1.9233638246909707e-06   -7.669287546547415e-06   5.253247055081022e-05
1.9233638246909707e-06   -7.669287546547415e-06   5.253247055081022e-05
1.9233638246909707e-06   -7.669287546547415e-06   5.253247055081022e-05
1.9233638246909707e-06   -7.669287546547415e-06   5.253247055081022e-05
3.597358218590444e-05   -4.052318662587685e-06   -6.388074714921445e-06
3.597358218590444e-05   -4.052318662587685e-06   -6.388074714921445e-06
3.597358218590444e-05   -4.052318662587685e-06   -6.388074714921445e-06
3.597358218590444e-05   -4.052318662587685e-06   -6.388074714921445e-06
1.9273458194031914e-05   -5.1632536803509e-06   2.2112026282191614e-05
1.9273458194031914e-05   -5.1632536803509e-06   2.2112026282191614e-05
1.9273458194031914e-05   -5.1632536803509e-06   2.2112026282191614e-05
1.9273458194031914e-05   -5.1632536803509e-06   2.2112026282191614e-05
3.5973582185904374e-05   -7.669287546547849e-06   5.036228922043447e-05
3.5973582185904374e-05   -7.669287546547849e-06   5.036228922043447e-05
3.5973582185904374e-05   -7.669287546547849e-06   5.036228922043447e-05
3.5973582185904374e-05   -7.669287546547849e-06   5.036228922043447e-05
1.9233638246909707e-06   -4.052318662587685e-06   -4.217893384545314e-06
1.9233638246909707e-06   -4.052318662587685e-06   -4.217893384545314e-06
1.9233638246909707e-06   -4.052318662587685e-06   -4.217893384545314e-06
1.9233638246909707e-06   -4.052318662587685e-06   -4.217893384545314e-06
5.056092085214481e-07   -7.497405484298888e-06   5.3307627677090475e-05
5.056092085214481e-07   -7.497405484298888e-06   5.3307627677090475e-05
5.056092085214481e-07   -7.497405484298888e-06   5.3307627677090475e-05
5.056092085214481e-07   -7.497405484298888e-06   5.3307627677090475e-05
3.4605403222704085e-05   -4.22633491175585e-06   -5.4880046900731715e-06
3.4605403222704085e-05   -4.22633491175585e-06   -5.4880046900731715e-06
3.4605403222704085e-05   -4.22633491175585e-06   -5.4880046900731715e-06
3.4605403222704085e-05   -4.22633491175585e-06   -5.4880046900731715e-06
1.8234560711854526e-05   -5.114911731102147e-06   2.2329878919618044e-05
1.8234560711854526e-05   -5.114911731102147e-06   2.2329878919618044e-05
1.8234560711854526e-05   -5.114911731102147e-06   2.2329878919618044e-05
1.8234560711854526e-05   -5.114911731102147e-06   2.2329878919618044e-05
4.2119723653490505e-06   -2.9759210014006915e-06   5.2048829636269474e-05
4.2119723653490505e-06   -2.9759210014006915e-06   5.2048829636269474e-05
4.2119723653490505e-06   -2.9759210014006915e-06   5.2048829636269474e-05
4.2119723653490505e-06   -2.9759210014006915e-06   5.2048829636269474e-05
-2.880067148235729e-05   2.6900500055141233e-06   4.2733916090801835e-07
-2.880067148235729e-05   2.6900500055141233e-06   4.2733916090801835e-07
-2.880067148235729e-05   2.6900500055141233e-06   4.2733916090801835e-07
-2.880067148235729e-05   2.6900500055141233e-06   4.2733916090801835e-07
-2.993321212074916e-05   -3.142767458163675e-06   5.583998162871995e-05
-2.993321212074916e-05   -3.142767458163675e-06   5.583998162871995e-05
-2.993321212074916e-05   -3.142767458163675e-06   5.583998162871995e-05
-2.993321212074916e-05   -3.142767458163675e-06   5.583998162871995e-05
3.2067451348197684e-06   2.217696135128379e-06   -2.609558619869886e-06
3.2067451348197684e-06   2.217696135128379e-06   -2.609558619869886e-06
3.2067451348197684e-06   2.217696135128379e-06   -2.609558619869886e-06
3.2067451348197684e-06   2.217696135128379e-06   -2.609558619869886e-06
-1.2805192891308798e-05   -5.401475382683235e-08   2.5440031290384292e-05
-1.2805192891308798e-05   -5.401475382683235e-08   2.5440031290384292e-05
-1.2805192891308798e-05   -5.401475382683235e-08   2.5440031290384292e-05
-1.2805192891308798e-05   -5.401475382683235e-08   2.5440031290384292e-05
3.2067451348197684e-06   -3.142767458163675e-06   5.262370347274502e-05
3.2067451348197684e-06   -3.142767458163675e-06   5.262370347274502e-05
3.2067451348197684e-06   -3.142767458163675e-06   5.262370347274502e-05
3.2067451348197684e-06   -3.142767458163675e-06   5.262370347274502e-05
-2.993321212074916e-05   2.217696135128379e-06   6.06719536105178e-07
-2.993321212074916e-05   2.217696135128379e-06   6.06719536105178e-07
-2.993321212074916e-05   2.217696135128379e-06   6.06719536105178e-07
-2.993321212074916e-05   2.217696135128379e-06   6.06719536105178e-07
-3.1451936326221114e-05   -3.3469642564134226e-06   5.696008927580701e-05
-3.1451936326221114e-05   -3.3469642564134226e-06   5.696008927580701e-05
-3.1451936326221114e-05   -3.3469642564134226e-06   5.696008927580701e-05
-3.1451936326221114e-05   -3.3469642564134226e-06   5.696008927580701e-05
1.9233638246909707e-06   1.7779844932149305e-06   -1.7403802254896232e-06
1.9233638246909707e-06   1.7779844932149305e-06   -1.7403802254896232e-06
1.9233638246909707e-06   1.7779844932149305e-06   -1.7403802254896232e-06
1.9233638246909707e-06   1.7779844932149305e-06   -1.7403802254896232e-06
-1.3922445322123083e-05   -1.8718400356283749e-07   2.5848402783933784e-05
-1.3922445322123083e-05   -1.8718400356283749e-07   2.5848402783933784e-05
-1.3922445322123083e-05   -1.8718400356283749e-07   2.5848402783933784e-05
-1.3922445322123083e-05   -1.8718400356283749e-07   2.5848402783933784e-05
1.9233638246909707e-06   -3.3469642564134226e-06   5.3885120026030174e-05
1.9233638246909707e-06   -3.3469642564134226e-06   5.3885120026030174e-05
1.9233638246909707e-06   -3.3469642564134226e-06   5.3885120026030174e-05
1.9233638246909707e-06   -3.3469642564134226e-06   5.3885120026030174e-05
-3.145193632622106e-05   1.7779844932149305e-06   1.3345890242872152e-06
-3.145193632622106e-05   1.7779844932149305e-06   1.3345890242872152e-06
-3.145193632622106e-05   1.7779844932149305e-06   1.3345890242872152e-06
-3.145193632622106e-05   1.7779844932149305e-06   1.3345890242872152e-06
-3.307003711778151e-05   -3.328076723397525e-06   5.8303683395896514e-05
-3.307003711778151e-05   -3.328076723397525e-06   5.8303683395896514e-05
-3.307003711778151e-05   -3.328076723397525e-06   5.8303683395896514e-05
-3.307003711778151e-05   -3.328076723397525e-06   5.8303683395896514e-05
5.056092085214481e-07   1.4611332139527998e-06   -5.292531103519673e-07
5.056092085214481e-07   1.4611332139527998e-06   -5.292531103519673e-07
5.056092085214481e-07   1.4611332139527998e-06   -5.292531103519673e-07
5.056092085214481e-07   1.4611332139527998e-06   -5.292531103519673e-07
-1.5347407547550883e-05   -2.8296517888895534e-07   2.693890051880753e-05
-1.5347407547550883e-05   -2.8296517888895534e-07   2.693890051880753e-05
-1.5347407547550883e-05   -2.8296517888895534e-07   2.693890051880753e-05
-1.5347407547550883e-05   -2.8296517888895534e-07   2.693890051880753e-05
-2.880067148235718e-05   3.1680919718281644e-06   4.7030523945772824e-05
-2.880067148235718e-05   3.1680919718281644e-06   4.7030523945772824e-05
-2.880067148235718e-05   3.1680919718281644e-06   4.7030523945772824e-05
-2.880067148235718e-05   3.1680919718281644e-06   4.7030523945772824e-05
-6.113782508419691e-05   8.768369601690543e-06   -3.5045654793765257e-06
-6.113782508419691e-05   8.768369601690543e-06   -3.5045654793765257e-06
-6.113782508419691e-05   8.768369601690543e-06   -3.5045654793765257e-06
-6.113782508419691e-05   8.768369601690543e-06   -3.5045654793765257e-06
-6.278809008564045e-05   2.9760208942902246e-06   5.206215644743993e-05
-6.278809008564045e-05   2.9760208942902246e-06   5.206215644743993e-05
-6.278809008564045e-05   2.9760208942902246e-06   5.206215644743993e-05
-6.278809008564045e-05   2.9760208942902246e-06   5.206215644743993e-05
-2.993321212074908e-05   8.294537185004214e-06   -5.887083268473652e-06
-2.993321212074908e-05   8.294537185004214e-06   -5.887083268473652e-06
-2.993321212074908e-05   8.294537185004214e-06   -5.887083268473652e-06
-2.993321212074908e-05   8.294537185004214e-06   -5.887083268473652e-06
-4.530426779592638e-05   5.9036585509145666e-06   2.1165870037275912e-05
-4.530426779592638e-05   5.9036585509145666e-06   2.1165870037275912e-05
-4.530426779592638e-05   5.9036585509145666e-06   2.1165870037275912e-05
-4.530426779592638e-05   5.9036585509145666e-06   2.1165870037275912e-05
-2.9933212120749107e-05   2.9760208942906582e-06   4.887104667301162e-05
-2.9933212120749107e-05   2.9760208942906582e-06   4.887104667301162e-05
-2.9933212120749107e-05   2.9760208942906582e-06   4.887104667301162e-05
-2.9933212120749107e-05   2.9760208942906582e-06   4.887104667301162e-05
-6.278809008564032e-05   8.294537185004214e-06   -2.695973494045399e-06
-6.278809008564032e-05   8.294537185004214e-06   -2.695973494045399e-06
-6.278809008564032e-05   8.294537185004214e-06   -2.695973494045399e-06
-6.278809008564032e-05   8.294537185004214e-06   -2.695973494045399e-06
-6.481022427547796e-05   2.6239934371682407e-06   5.525589236269734e-05
-6.481022427547796e-05   2.6239934371682407e-06   5.525589236269734e-05
-6.481022427547796e-05   2.6239934371682407e-06   5.525589236269734e-05
-6.481022427547796e-05   2.6239934371682407e-06   5.525589236269734e-05
-3.145193632622106e-05   7.85658165647395e-06   -3.4808071509811306e-06
-3.145193632622106e-05   7.85658165647395e-06   -3.4808071509811306e-06
-3.145193632622106e-05   7.85658165647395e-06   -3.4808071509811306e-06
-3.145193632622106e-05   7.85658165647395e-06   -3.4808071509811306e-06
-4.653401239123157e-05   5.793751332461988e-06   2.2893684485110585e-05
-4.653401239123157e-05   5.793751332461988e-06   2.2893684485110585e-05
-4.653401239123157e-05   5.793751332461988e-06   2.2893684485110585e-05
-4.653401239123157e-05   5.793751332461988e-06   2.2893684485110585e-05
-3.145193632622103e-05   2.6239934371682407e-06   5.211633943111348e-05
-3.145193632622103e-05   2.6239934371682407e-06   5.211633943111348e-05
-3.145193632622103e-05   2.6239934371682407e-06   5.211633943111348e-05
-3.145193632622103e-05   2.6239934371682407e-06   5.211633943111348e-05
-6.481022427547796e-05   7.85658165647395e-06   -3.4125421939732586e-07
-6.481022427547796e-05   7.85658165647395e-06   -3.4125421939732586e-07
-6.481022427547796e-05   7.85658165647395e-06   -3.4125421939732586e-07
-6.481022427547796e-05   7.85658165647395e-06   -3.4125421939732586e-07
-6.695011842321771e-05   2.225683610323527e-06   5.780103473236554e-05
-6.695011842321771e-05   2.225683610323527e-06   5.780103473236554e-05
-6.695011842321771e-05   2.225683610323527e-06   5.780103473236554e-05
-6.695011842321771e-05   2.225683610323527e-06   5.780103473236554e-05
-3.30700371177814e-05   7.268139888617128e-06   -1.6912412103381696e-06
-3.30700371177814e-05   7.268139888617128e-06   -1.6912412103381696e-06
-3.30700371177814e-05   7.268139888617128e-06   -1.6912412103381696e-06
-3.30700371177814e-05   7.268139888617128e-06   -1.6912412103381696e-06
-4.85804100514691e-05   5.438147599095243e-06   2.525737571952341e-05
-4.85804100514691e-05   5.438147599095243e-06   2.525737571952341e-05
-4.85804100514691e-05   5.438147599095243e-06   2.525737571952341e-05
-4.85804100514691e-05   5.438147599095243e-06   2.525737571952341e-05
-6.113782508419691e-05   1.4470367581777884e-05   2.476319634651166e-05
-6.113782508419691e-05   1.4470367581777884e-05   2.476319634651166e-05
-6.113782508419691e-05   1.4470367581777884e-05   2.476319634651166e-05
-6.113782508419691e-05   1.4470367581777884e-05   2.476319634651166e-05
-9.210196733298726e-05   1.4260198949923256e-05   -2.6969808580585035e-05
-9.210196733298726e-05   1.4260198949923256e-05   -2.6969808580585035e-05
-9.210196733298726e-05   1.4260198949923256e-05   -2.6969808580585035e-05
-9.210196733298726e-05   1.4260198949923256e-05   -2.6969808580585035e-05
-9.50639230629685e-05   1.3962768485106455e-05   3.6670691612654665e-05
-9.50639230629685e-05   1.3962768485106455e-05   3.6670691612654665e-05
-9.50639230629685e-05   1.3962768485106455e-05   3.6670691612654665e-05
-9.50639230629685e-05   1.3962768485106455e-05   3.6670691612654665e-05
-6.278809008564032e-05   1.4532402175833261e-05   -1.746414356399562e-05
-6.278809008564032e-05   1.4532402175833261e-05   -1.746414356399562e-05
-6.278809008564032e-05   1.4532402175833261e-05   -1.746414356399562e-05
-6.278809008564032e-05   1.4532402175833261e-05   -1.746414356399562e-05
-7.464248634712339e-05   1.4532848181729539e-05   2.2929159349386642e-06
-7.464248634712339e-05   1.4532848181729539e-05   2.2929159349386642e-06
-7.464248634712339e-05   1.4532848181729539e-05   2.2929159349386642e-06
-7.464248634712339e-05   1.4532848181729539e-05   2.2929159349386642e-06
-6.278809008564026e-05   1.3962768485106022e-05   3.6328911398218365e-05
-6.278809008564026e-05   1.3962768485106022e-05   3.6328911398218365e-05
-6.278809008564026e-05   1.3962768485106022e-05   3.6328911398218365e-05
-6.278809008564026e-05   1.3962768485106022e-05   3.6328911398218365e-05
-9.50639230629685e-05   1.4532402175833695e-05   -1.7122363349559048e-05
-9.50639230629685e-05   1.4532402175833695e-05   -1.7122363349559048e-05
-9.50639230629685e-05   1.4532402175833695e-05   -1.7122363349559048e-05
-9.50639230629685e-05   1.4532402175833695e-05   -1.7122363349559048e-05
-9.796859732590018e-05   1.3603413057181827e-05   4.5032968139279653e-05
-9.796859732590018e-05   1.3603413057181827e-05   4.5032968139279653e-05
-9.796859732590018e-05   1.3603413057181827e-05   4.5032968139279653e-05
-9.796859732590018e-05   1.3603413057181827e-05   4.5032968139279653e-05
-6.481022427547785e-05   1.4427262650093097e-05   -1.0725296700504717e-05
-6.481022427547785e-05   1.4427262650093097e-05   -1.0725296700504717e-05
-6.481022427547785e-05   1.4427262650093097e-05   -1.0725296700504717e-05
-6.481022427547785e-05   1.4427262650093097e-05   -1.0725296700504717e-05
-7.803583457787103e-05   1.452950158897532e-05   1.1256043773489027e-05
-7.803583457787103e-05   1.452950158897532e-05   1.1256043773489027e-05
-7.803583457787103e-05   1.452950158897532e-05   1.1256043773489027e-05
-7.803583457787103e-05   1.452950158897532e-05   1.1256043773489027e-05
-6.481022427547785e-05   1.3603413057181827e-05   4.453865838353302e-05
-6.481022427547785e-05   1.3603413057181827e-05   4.453865838353302e-05
-6.481022427547785e-05   1.3603413057181827e-05   4.453865838353302e-05
-6.481022427547785e-05   1.3603413057181827e-05   4.453865838353302e-05
-9.796859732590018e-05   1.4427262650093097e-05   -1.0230986944757868e-05
-9.796859732590018e-05   1.4427262650093097e-05   -1.0230986944757868e-05
-9.796859732590018e-05   1.4427262650093097e-05   -1.0230986944757868e-05
-9.796859732590018e-05   1.4427262650093097e-05   -1.0230986944757868e-05
-0.00010139400544427463   1.1323197493483522e-05   5.900683781516437e-05
-0.00010139400544427463   1.1323197493483522e-05   5.900683781516437e-05
-0.00010139400544427463   1.1323197493483522e-05   5.900683781516437e-05
-0.00010139400544427463   1.1323197493483522e-05   5.900683781516437e-05
-6.695011842321747e-05   1.3279926367552701e-05   4.263221222945354e-07
-6.695011842321747e-05   1.3279926367552701e-05   4.263221222945354e-07
-6.695011842321747e-05   1.3279926367552701e-05   4.263221222945354e-07
-6.695011842321747e-05   1.3279926367552701e-05   4.263221222945354e-07
-7.925679761536945e-05   1.3838684678063335e-05   2.060219912290858e-05
-7.925679761536945e-05   1.3838684678063335e-05   2.060219912290858e-05
-7.925679761536945e-05   1.3838684678063335e-05   2.060219912290858e-05
-7.925679761536945e-05   1.3838684678063335e-05   2.060219912290858e-05
6.136052322194467e-05   -8.585551177538262e-06   4.737443951954531e-05
6.136052322194467e-05   -8.585551177538262e-06   4.737443951954531e-05
6.136052322194467e-05   -8.585551177538262e-06   4.737443951954531e-05
6.136052322194467e-05   -8.585551177538262e-06   4.737443951954531e-05
3.0383985015945393e-05   -6.290580352408433e-06   -2.8761416620425202e-06
3.0383985015945393e-05   -6.290580352408433e-06   -2.8761416620425202e-06
3.0383985015945393e-05   -6.290580352408433e-06   -2.8761416620425202e-06
3.0383985015945393e-05   -6.290580352408433e-06   -2.8761416620425202e-06
2.92182351283037e-05   -9.732130215263195e-06   4.120049471137356e-05
2.92182351283037e-05   -9.732130215263195e-06   4.120049471137356e-05
2.92182351283037e-05   -9.732130215263195e-06   4.120049471137356e-05
2.92182351283037e-05   -9.732130215263195e-06   4.120049471137356e-05
5.921634729713261e-05   -7.3001131530745986e-06   -1.0255569140654306e-05
5.921634729713261e-05   -7.3001131530745986e-06   -1.0255569140654306e-05
5.921634729713261e-05   -7.3001131530745986e-06   -1.0255569140654306e-05
5.921634729713261e-05   -7.3001131530745986e-06   -1.0255569140654306e-05
4.298241315143188e-05   -7.895555748509663e-06   1.7158253326107786e-05
4.298241315143188e-05   -7.895555748509663e-06   1.7158253326107786e-05
4.298241315143188e-05   -7.895555748509663e-06   1.7158253326107786e-05
4.298241315143188e-05   -7.895555748509663e-06   1.7158253326107786e-05
5.921634729713251e-05   -9.732130215263195e-06   3.974128447406045e-05
5.921634729713251e-05   -9.732130215263195e-06   3.974128447406045e-05
5.921634729713251e-05   -9.732130215263195e-06   3.974128447406045e-05
5.921634729713251e-05   -9.732130215263195e-06   3.974128447406045e-05
2.9218235128303807e-05   -7.3001131530745986e-06   -8.796358903341009e-06
2.9218235128303807e-05   -7.3001131530745986e-06   -8.796358903341009e-06
2.9218235128303807e-05   -7.3001131530745986e-06   -8.796358903341009e-06
2.9218235128303807e-05   -7.3001131530745986e-06   -8.796358903341009e-06
2.7923010164203623e-05   -9.902905246735212e-06   3.6925648219603147e-05
2.7923010164203623e-05   -9.902905246735212e-06   3.6925648219603147e-05
2.7923010164203623e-05   -9.902905246735212e-06   3.6925648219603147e-05
2.7923010164203623e-05   -9.902905246735212e-06   3.6925648219603147e-05
5.727503242238795e-05   -7.503171871926697e-06   -1.3434228902255854e-05
5.727503242238795e-05   -7.503171871926697e-06   -1.3434228902255854e-05
5.727503242238795e-05   -7.503171871926697e-06   -1.3434228902255854e-05
5.727503242238795e-05   -7.503171871926697e-06   -1.3434228902255854e-05
4.217388726760032e-05   -8.286682767858888e-06   1.2204452893282915e-05
4.217388726760032e-05   -8.286682767858888e-06   1.2204452893282915e-05
4.217388726760032e-05   -8.286682767858888e-06   1.2204452893282915e-05
4.217388726760032e-05   -8.286682767858888e-06   1.2204452893282915e-05
5.7275032422387755e-05   -9.902905246735646e-06   3.5485808194717994e-05
5.7275032422387755e-05   -9.902905246735646e-06   3.5485808194717994e-05
5.7275032422387755e-05   -9.902905246735646e-06   3.5485808194717994e-05
5.7275032422387755e-05   -9.902905246735646e-06   3.5485808194717994e-05
2.7923010164203677e-05   -7.503171871926697e-06   -1.199438887737039e-05
2.7923010164203677e-05   -7.503171871926697e-06   -1.199438887737039e-05
2.7923010164203677e-05   -7.503171871926697e-06   -1.199438887737039e-05
2.7923010164203677e-05   -7.503171871926697e-06   -1.199438887737039e-05
2.667739862839615e-05   -9.84181065644867e-06   3.096645198295313e-05
2.667739862839615e-05   -9.84181065644867e-06   3.096645198295313e-05
2.667739862839615e-05   -9.84181065644867e-06   3.096645198295313e-05
2.667739862839615e-05   -9.84181065644867e-06   3.096645198295313e-05
5.507661844773345e-05   -7.586515260274082e-06   -1.771875828698049e-05
5.507661844773345e-05   -7.586515260274082e-06   -1.771875828698049e-05
5.507661844773345e-05   -7.586515260274082e-06   -1.771875828698049e-05
5.507661844773345e-05   -7.586515260274082e-06   -1.771875828698049e-05
3.9999335853062315e-05   -8.147155704922929e-06   7.746430304261939e-06
3.9999335853062315e-05   -8.147155704922929e-06   7.746430304261939e-06
3.9999335853062315e-05   -8.147155704922929e-06   7.746430304261939e-06
3.9999335853062315e-05   -8.147155704922929e-06   7.746430304261939e-06
3.0383985015945393e-05   -3.0311703148005846e-06   4.974538945945613e-05
3.0383985015945393e-05   -3.0311703148005846e-06   4.974538945945613e-05
3.0383985015945393e-05   -3.0311703148005846e-06   4.974538945945613e-05
3.0383985015945393e-05   -3.0311703148005846e-06   4.974538945945613e-05
1.3080621250487255e-06   -1.2026937703355119e-06   2.3826039013078587e-06
1.3080621250487255e-06   -1.2026937703355119e-06   2.3826039013078587e-06
1.3080621250487255e-06   -1.2026937703355119e-06   2.3826039013078587e-06
1.3080621250487255e-06   -1.2026937703355119e-06   2.3826039013078587e-06
1.8912991413581274e-07   -3.647634771977021e-06   5.026506478930399e-05
1.8912991413581274e-07   -3.647634771977021e-06   5.026506478930399e-05
1.8912991413581274e-07   -3.647634771977021e-06   5.026506478930399e-05
1.8912991413581274e-07   -3.647634771977021e-06   5.026506478930399e-05
2.9218235128303807e-05   -1.9188590539408884e-06   8.459573348691164e-07
2.9218235128303807e-05   -1.9188590539408884e-06   8.459573348691164e-07
2.9218235128303807e-05   -1.9188590539408884e-06   8.459573348691164e-07
2.9218235128303807e-05   -1.9188590539408884e-06   8.459573348691164e-07
1.5089592602030893e-05   -2.359215149044802e-06   2.46579085357194e-05
1.5089592602030893e-05   -2.359215149044802e-06   2.46579085357194e-05
1.5089592602030893e-05   -2.359215149044802e-06   2.46579085357194e-05
1.5089592602030893e-05   -2.359215149044802e-06   2.46579085357194e-05
2.921823512830378e-05   -3.647634771976587e-06   4.9227799358482396e-05
2.921823512830378e-05   -3.647634771976587e-06   4.9227799358482396e-05
2.921823512830378e-05   -3.647634771976587e-06   4.9227799358482396e-05
2.921823512830378e-05   -3.647634771976587e-06   4.9227799358482396e-05
1.8912991413581274e-07   -1.9188590539408884e-06   1.8832227656907091e-06
1.8912991413581274e-07   -1.9188590539408884e-06   1.8832227656907091e-06
1.8912991413581274e-07   -1.9188590539408884e-06   1.8832227656907091e-06
1.8912991413581274e-07   -1.9188590539408884e-06   1.8832227656907091e-06
-9.739175205124263e-07   -4.052318662587685e-06   4.951054241241924e-05
-9.739175205124263e-07   -4.052318662587685e-06   4.951054241241924e-05
-9.739175205124263e-07   -4.052318662587685e-06   4.951054241241924e-05
-9.739175205124263e-07   -4.052318662587685e-06   4.951054241241924e-05
2.7923010164203677e-05   -2.451258290506273e-06   3.883600479770796e-07
2.7923010164203677e-05   -2.451258290506273e-06   3.883600479770796e-07
2.7923010164203677e-05   -2.451258290506273e-06   3.883600479770796e-07
2.7923010164203677e-05   -2.451258290506273e-06   3.883600479770796e-07
1.3805453337565486e-05   -2.7346200991954124e-06   2.4087638510921438e-05
1.3805453337565486e-05   -2.7346200991954124e-06   2.4087638510921438e-05
1.3805453337565486e-05   -2.7346200991954124e-06   2.4087638510921438e-05
1.3805453337565486e-05   -2.7346200991954124e-06   2.4087638510921438e-05
2.7923010164203623e-05   -4.052318662588119e-06   4.854990618917052e-05
2.7923010164203623e-05   -4.052318662588119e-06   4.854990618917052e-05
2.7923010164203623e-05   -4.052318662588119e-06   4.854990618917052e-05
2.7923010164203623e-05   -4.052318662588119e-06   4.854990618917052e-05
-9.739175205124263e-07   -2.451258290506273e-06   1.3489962712258646e-06
-9.739175205124263e-07   -2.451258290506273e-06   1.3489962712258646e-06
-9.739175205124263e-07   -2.451258290506273e-06   1.3489962712258646e-06
-9.739175205124263e-07   -2.451258290506273e-06   1.3489962712258646e-06
-2.1847270148625552e-06   -4.226334911756283e-06   4.989366823845271e-05
-2.1847270148625552e-06   -4.226334911756283e-06   4.989366823845271e-05
-2.1847270148625552e-06   -4.226334911756283e-06   4.989366823845271e-05
-2.1847270148625552e-06   -4.226334911756283e-06   4.989366823845271e-05
2.6677398628396218e-05   -2.8717203267940826e-06   9.773567487110312e-07
2.6677398628396218e-05   -2.8717203267940826e-06   9.773567487110312e-07
2.6677398628396218e-05   -2.8717203267940826e-06   9.773567487110312e-07
2.6677398628396218e-05   -2.8717203267940826e-06   9.773567487110312e-07
1.2839318762827491e-05   -2.9366839354263465e-06   2.4079801356506093e-05
1.2839318762827491e-05   -2.9366839354263465e-06   2.4079801356506093e-05
1.2839318762827491e-05   -2.9366839354263465e-06   2.4079801356506093e-05
1.2839318762827491e-05   -2.9366839354263465e-06   2.4079801356506093e-05
1.3080621250487255e-06   2.6900500055141233e-06   5.136025708617144e-05
1.3080621250487255e-06   2.6900500055141233e-06   5.136025708617144e-05
1.3080621250487255e-06   2.6900500055141233e-06   5.136025708617144e-05
1.3080621250487255e-06   2.6900500055141233e-06   5.136025708617144e-05
-2.6917541605638647e-05   3.907859384172808e-06   5.048269828887867e-06
-2.6917541605638647e-05   3.907859384172808e-06   5.048269828887867e-06
-2.6917541605638647e-05   3.907859384172808e-06   5.048269828887867e-06
-2.6917541605638647e-05   3.907859384172808e-06   5.048269828887867e-06
-2.8086562535492528e-05   2.2176961351288126e-06   5.206822449952959e-05
-2.8086562535492528e-05   2.2176961351288126e-06   5.206822449952959e-05
-2.8086562535492528e-05   2.2176961351288126e-06   5.206822449952959e-05
-2.8086562535492528e-05   2.2176961351288126e-06   5.206822449952959e-05
1.8912991413581274e-07   3.311464232835532e-06   4.285809558191402e-06
1.8912991413581274e-07   3.311464232835532e-06   4.285809558191402e-06
1.8912991413581274e-07   3.311464232835532e-06   4.285809558191402e-06
1.8912991413581274e-07   3.311464232835532e-06   4.285809558191402e-06
-1.3397479922761966e-05   3.066706241286292e-06   2.70770140812838e-05
-1.3397479922761966e-05   3.066706241286292e-06   2.70770140812838e-05
-1.3397479922761966e-05   3.066706241286292e-06   2.70770140812838e-05
-1.3397479922761966e-05   3.066706241286292e-06   2.70770140812838e-05
1.8912991413581274e-07   2.2176961351288126e-06   5.1411963640905474e-05
1.8912991413581274e-07   2.2176961351288126e-06   5.1411963640905474e-05
1.8912991413581274e-07   2.2176961351288126e-06   5.1411963640905474e-05
1.8912991413581274e-07   2.2176961351288126e-06   5.1411963640905474e-05
-2.8086562535492528e-05   3.311464232835532e-06   4.942070416815575e-06
-2.8086562535492528e-05   3.311464232835532e-06   4.942070416815575e-06
-2.8086562535492528e-05   3.311464232835532e-06   4.942070416815575e-06
-2.8086562535492528e-05   3.311464232835532e-06   4.942070416815575e-06
-2.932113667317309e-05   1.7779844932144968e-06   5.256067151286235e-05
-2.932113667317309e-05   1.7779844932144968e-06   5.256067151286235e-05
-2.932113667317309e-05   1.7779844932144968e-06   5.256067151286235e-05
-2.932113667317309e-05   1.7779844932144968e-06   5.256067151286235e-05
-9.739175205124263e-07   2.732344395527369e-06   4.742690317040391e-06
-9.739175205124263e-07   2.732344395527369e-06   4.742690317040391e-06
-9.739175205124263e-07   2.732344395527369e-06   4.742690317040391e-06
-9.739175205124263e-07   2.732344395527369e-06   4.742690317040391e-06
-1.4483524553612654e-05   2.725989024396965e-06   2.7262515261552295e-05
-1.4483524553612654e-05   2.725989024396965e-06   2.7262515261552295e-05
-1.4483524553612654e-05   2.725989024396965e-06   2.7262515261552295e-05
-1.4483524553612654e-05   2.725989024396965e-06   2.7262515261552295e-05
-9.739175205124263e-07   1.7779844932149305e-06   5.198805557147493e-05
-9.739175205124263e-07   1.7779844932149305e-06   5.198805557147493e-05
-9.739175205124263e-07   1.7779844932149305e-06   5.198805557147493e-05
-9.739175205124263e-07   1.7779844932149305e-06   5.198805557147493e-05
-2.9321136673173117e-05   2.732344395527369e-06   5.315306258427783e-06
-2.9321136673173117e-05   2.732344395527369e-06   5.315306258427783e-06
-2.9321136673173117e-05   2.732344395527369e-06   5.315306258427783e-06
-2.9321136673173117e-05   2.732344395527369e-06   5.315306258427783e-06
-3.059518095267658e-05   1.4611332139527998e-06   5.334319548911813e-05
-3.059518095267658e-05   1.4611332139527998e-06   5.334319548911813e-05
-3.059518095267658e-05   1.4611332139527998e-06   5.334319548911813e-05
-3.059518095267658e-05   1.4611332139527998e-06   5.334319548911813e-05
-2.184727014862528e-06   2.216829904735842e-06   5.5390209116246885e-06
-2.184727014862528e-06   2.216829904735842e-06   5.5390209116246885e-06
-2.184727014862528e-06   2.216829904735842e-06   5.5390209116246885e-06
-2.184727014862528e-06   2.216829904735842e-06   5.5390209116246885e-06
-1.5658793225295593e-05   2.3995198646796674e-06   2.7886183953047968e-05
-1.5658793225295593e-05   2.3995198646796674e-06   2.7886183953047968e-05
-1.5658793225295593e-05   2.3995198646796674e-06   2.7886183953047968e-05
-1.5658793225295593e-05   2.3995198646796674e-06   2.7886183953047968e-05
-2.6917541605638755e-05   8.768369601690109e-06   4.4798871495165286e-05
-2.6917541605638755e-05   8.768369601690109e-06   4.4798871495165286e-05
-2.6917541605638755e-05   8.768369601690109e-06   4.4798871495165286e-05
-2.6917541605638755e-05   8.768369601690109e-06   4.4798871495165286e-05
-5.424949393130111e-05   8.879239577589803e-06   -6.878603953988909e-07
-5.424949393130111e-05   8.879239577589803e-06   -6.878603953988909e-07
-5.424949393130111e-05   8.879239577589803e-06   -6.878603953988909e-07
-5.424949393130111e-05   8.879239577589803e-06   -6.878603953988909e-07
-5.5606707971225816e-05   8.294537185004214e-06   4.558328604138727e-05
-5.5606707971225816e-05   8.294537185004214e-06   4.558328604138727e-05
-5.5606707971225816e-05   8.294537185004214e-06   4.558328604138727e-05
-5.5606707971225816e-05   8.294537185004214e-06   4.558328604138727e-05
-2.8086562535492582e-05   8.309311095731822e-06   -2.9248736460477185e-07
-2.8086562535492582e-05   8.309311095731822e-06   -2.9248736460477185e-07
-2.8086562535492582e-05   8.309311095731822e-06   -2.9248736460477185e-07
-2.8086562535492582e-05   8.309311095731822e-06   -2.9248736460477185e-07
-4.103087398188554e-05   8.54276883034688e-06   2.1141290405281114e-05
-4.103087398188554e-05   8.54276883034688e-06   2.1141290405281114e-05
-4.103087398188554e-05   8.54276883034688e-06   2.1141290405281114e-05
-4.103087398188554e-05   8.54276883034688e-06   2.1141290405281114e-05
-2.8086562535492582e-05   8.294537185004214e-06   4.5574421694950925e-05
-2.8086562535492582e-05   8.294537185004214e-06   4.5574421694950925e-05
-2.8086562535492582e-05   8.294537185004214e-06   4.5574421694950925e-05
-2.8086562535492582e-05   8.294537185004214e-06   4.5574421694950925e-05
-5.5606707971225734e-05   8.309311095731822e-06   -2.836230181680992e-07
-5.5606707971225734e-05   8.309311095731822e-06   -2.836230181680992e-07
-5.5606707971225734e-05   8.309311095731822e-06   -2.836230181680992e-07
-5.5606707971225734e-05   8.309311095731822e-06   -2.836230181680992e-07
-5.7111153274076986e-05   7.85658165647395e-06   4.770188187153265e-05
-5.7111153274076986e-05   7.85658165647395e-06   4.770188187153265e-05
-5.7111153274076986e-05   7.85658165647395e-06   4.770188187153265e-05
-5.7111153274076986e-05   7.85658165647395e-06   4.770188187153265e-05
-2.9321136673173117e-05   7.784259213038016e-06   1.428581002754412e-06
-2.9321136673173117e-05   7.784259213038016e-06   1.428581002754412e-06
-2.9321136673173117e-05   7.784259213038016e-06   1.428581002754412e-06
-2.9321136673173117e-05   7.784259213038016e-06   1.428581002754412e-06
-4.201285709008557e-05   8.220662860393066e-06   2.2319606175862355e-05
-4.201285709008557e-05   8.220662860393066e-06   2.2319606175862355e-05
-4.201285709008557e-05   8.220662860393066e-06   2.2319606175862355e-05
-4.201285709008557e-05   8.220662860393066e-06   2.2319606175862355e-05
-2.932113667317309e-05   7.85658165647395e-06   4.774527533759395e-05
-2.932113667317309e-05   7.85658165647395e-06   4.774527533759395e-05
-2.932113667317309e-05   7.85658165647395e-06   4.774527533759395e-05
-2.932113667317309e-05   7.85658165647395e-06   4.774527533759395e-05
-5.711115327407688e-05   7.784259213038016e-06   1.385187536692787e-06
-5.711115327407688e-05   7.784259213038016e-06   1.385187536692787e-06
-5.711115327407688e-05   7.784259213038016e-06   1.385187536692787e-06
-5.711115327407688e-05   7.784259213038016e-06   1.385187536692787e-06
-5.854508851181359e-05   7.268139888617561e-06   4.9232821752067616e-05
-5.854508851181359e-05   7.268139888617561e-06   4.9232821752067616e-05
-5.854508851181359e-05   7.268139888617561e-06   4.9232821752067616e-05
-5.854508851181359e-05   7.268139888617561e-06   4.9232821752067616e-05
-3.0595180952676685e-05   7.143373764193026e-06   2.7245021614940917e-06
-3.0595180952676685e-05   7.143373764193026e-06   2.7245021614940917e-06
-3.0595180952676685e-05   7.143373764193026e-06   2.7245021614940917e-06
-3.0595180952676685e-05   7.143373764193026e-06   2.7245021614940917e-06
-4.3573391947332674e-05   7.802758770273505e-06   2.3959222815607482e-05
-4.3573391947332674e-05   7.802758770273505e-06   2.3959222815607482e-05
-4.3573391947332674e-05   7.802758770273505e-06   2.3959222815607482e-05
-4.3573391947332674e-05   7.802758770273505e-06   2.3959222815607482e-05
-5.424949393130103e-05   1.4260198949923256e-05   2.1526251558609023e-05
-5.424949393130103e-05   1.4260198949923256e-05   2.1526251558609023e-05
-5.424949393130103e-05   1.4260198949923256e-05   2.1526251558609023e-05
-5.424949393130103e-05   1.4260198949923256e-05   2.1526251558609023e-05
-8.021204839218622e-05   1.2779750077566987e-05   -2.263294186628036e-05
-8.021204839218622e-05   1.2779750077566987e-05   -2.263294186628036e-05
-8.021204839218622e-05   1.2779750077566987e-05   -2.263294186628036e-05
-8.021204839218622e-05   1.2779750077566987e-05   -2.263294186628036e-05
-8.234925404288678e-05   1.4532402175833261e-05   2.9844026201658255e-05
-8.234925404288678e-05   1.4532402175833261e-05   2.9844026201658255e-05
-8.234925404288678e-05   1.4532402175833261e-05   2.9844026201658255e-05
-8.234925404288678e-05   1.4532402175833261e-05   2.9844026201658255e-05
-5.5606707971225816e-05   1.2913919226201914e-05   -1.3755794147998074e-05
-5.5606707971225816e-05   1.2913919226201914e-05   -1.3755794147998074e-05
-5.5606707971225816e-05   1.2913919226201914e-05   -1.3755794147998074e-05
-5.5606707971225816e-05   1.2913919226201914e-05   -1.3755794147998074e-05
-6.549683162490347e-05   1.354293953711224e-05   2.3503330882517805e-06
-6.549683162490347e-05   1.354293953711224e-05   2.3503330882517805e-06
-6.549683162490347e-05   1.354293953711224e-05   2.3503330882517805e-06
-6.549683162490347e-05   1.354293953711224e-05   2.3503330882517805e-06
-5.5606707971225734e-05   1.4532402175833261e-05   3.081511597143711e-05
-5.5606707971225734e-05   1.4532402175833261e-05   3.081511597143711e-05
-5.5606707971225734e-05   1.4532402175833261e-05   3.081511597143711e-05
-5.5606707971225734e-05   1.4532402175833261e-05   3.081511597143711e-05
-8.234925404288705e-05   1.2913919226201914e-05   -1.4726883917776925e-05
-8.234925404288705e-05   1.2913919226201914e-05   -1.4726883917776925e-05
-8.234925404288705e-05   1.2913919226201914e-05   -1.4726883917776925e-05
-8.234925404288705e-05   1.2913919226201914e-05   -1.4726883917776925e-05
-8.44364570484687e-05   1.4427262650093097e-05   3.632432114241855e-05
-8.44364570484687e-05   1.4427262650093097e-05   3.632432114241855e-05
-8.44364570484687e-05   1.4427262650093097e-05   3.632432114241855e-05
-8.44364570484687e-05   1.4427262650093097e-05   3.632432114241855e-05
-5.7111153274076986e-05   1.2771398903414603e-05   -8.224333566894627e-06
-5.7111153274076986e-05   1.2771398903414603e-05   -8.224333566894627e-06
-5.7111153274076986e-05   1.2771398903414603e-05   -8.224333566894627e-06
-5.7111153274076986e-05   1.2771398903414603e-05   -8.224333566894627e-06
-6.812034341849501e-05   1.378961702391433e-05   9.513385801504081e-06
-6.812034341849501e-05   1.378961702391433e-05   9.513385801504081e-06
-6.812034341849501e-05   1.378961702391433e-05   9.513385801504081e-06
-6.812034341849501e-05   1.378961702391433e-05   9.513385801504081e-06
-5.7111153274076986e-05   1.4427262650093097e-05   3.731783939042569e-05
-5.7111153274076986e-05   1.4427262650093097e-05   3.731783939042569e-05
-5.7111153274076986e-05   1.4427262650093097e-05   3.731783939042569e-05
-5.7111153274076986e-05   1.4427262650093097e-05   3.731783939042569e-05
-8.443645704846902e-05   1.2771398903414603e-05   -9.217851814901333e-06
-8.443645704846902e-05   1.2771398903414603e-05   -9.217851814901333e-06
-8.443645704846902e-05   1.2771398903414603e-05   -9.217851814901333e-06
-8.443645704846902e-05   1.2771398903414603e-05   -9.217851814901333e-06
-8.68743926427998e-05   1.3279926367552267e-05   4.7428338543274544e-05
-8.68743926427998e-05   1.3279926367552267e-05   4.7428338543274544e-05
-8.68743926427998e-05   1.3279926367552267e-05   4.7428338543274544e-05
-8.68743926427998e-05   1.3279926367552267e-05   4.7428338543274544e-05
-5.854508851181359e-05   1.1785638410137089e-05   1.109404432746142e-06
-5.854508851181359e-05   1.1785638410137089e-05   1.109404432746142e-06
-5.854508851181359e-05   1.1785638410137089e-05   1.109404432746142e-06
-5.854508851181359e-05   1.1785638410137089e-05   1.109404432746142e-06
-6.879021269924878e-05   1.3383009749560158e-05   1.722618860815206e-05
-6.879021269924878e-05   1.3383009749560158e-05   1.722618860815206e-05
-6.879021269924878e-05   1.3383009749560158e-05   1.722618860815206e-05
-6.879021269924878e-05   1.3383009749560158e-05   1.722618860815206e-05
4.654905851601059e-05   -6.290580352408433e-06   3.9530743909395316e-05
4.654905851601059e-05   -6.290580352408433e-06   3.9530743909395316e-05
4.654905851601059e-05   -6.290580352408433e-06   3.9530743909395316e-05
4.654905851601059e-05   -6.290580352408433e-06   3.9530743909395316e-05
2.1917074709374463e-05   -4.153298271959878e-06   -2.4019318672885946e-07
2.1917074709374463e-05   -4.153298271959878e-06   -2.4019318672885946e-07
2.1917074709374463e-05   -4.153298271959878e-06   -2.4019318672885946e-07
2.1917074709374463e-05   -4.153298271959878e-06   -2.4019318672885946e-07
2.0876186050207983e-05   -7.3001131530745986e-06   3.4737611782320946e-05
2.0876186050207983e-05   -7.3001131530745986e-06   3.4737611782320946e-05
2.0876186050207983e-05   -7.3001131530745986e-06   3.4737611782320946e-05
2.0876186050207983e-05   -7.3001131530745986e-06   3.4737611782320946e-05
4.4535398183549405e-05   -5.0424899061948456e-06   -6.048982388042598e-06
4.4535398183549405e-05   -5.0424899061948456e-06   -6.048982388042598e-06
4.4535398183549405e-05   -5.0424899061948456e-06   -6.048982388042598e-06
4.4535398183549405e-05   -5.0424899061948456e-06   -6.048982388042598e-06
3.189486927800226e-05   -5.740309622228636e-06   1.5437257617489713e-05
3.189486927800226e-05   -5.740309622228636e-06   1.5437257617489713e-05
3.189486927800226e-05   -5.740309622228636e-06   1.5437257617489713e-05
3.189486927800226e-05   -5.740309622228636e-06   1.5437257617489713e-05
4.4535398183549405e-05   -7.300113153075032e-06   3.338303783419314e-05
4.4535398183549405e-05   -7.300113153075032e-06   3.338303783419314e-05
4.4535398183549405e-05   -7.300113153075032e-06   3.338303783419314e-05
4.4535398183549405e-05   -7.300113153075032e-06   3.338303783419314e-05
2.087618605020801e-05   -5.0424899061948456e-06   -4.694408439914668e-06
2.087618605020801e-05   -5.0424899061948456e-06   -4.694408439914668e-06
2.087618605020801e-05   -5.0424899061948456e-06   -4.694408439914668e-06
2.087618605020801e-05   -5.0424899061948456e-06   -4.694408439914668e-06
1.9727546593261114e-05   -7.503171871926697e-06   3.136804848526001e-05
1.9727546593261114e-05   -7.503171871926697e-06   3.136804848526001e-05
1.9727546593261114e-05   -7.503171871926697e-06   3.136804848526001e-05
1.9727546593261114e-05   -7.503171871926697e-06   3.136804848526001e-05
4.2770952534995255e-05   -5.280264110767846e-06   -8.371372740991899e-06
4.2770952534995255e-05   -5.280264110767846e-06   -8.371372740991899e-06
4.2770952534995255e-05   -5.280264110767846e-06   -8.371372740991899e-06
4.2770952534995255e-05   -5.280264110767846e-06   -8.371372740991899e-06
3.105872588065974e-05   -6.100948892872465e-06   1.1641415885497324e-05
3.105872588065974e-05   -6.100948892872465e-06   1.1641415885497324e-05
3.105872588065974e-05   -6.100948892872465e-06   1.1641415885497324e-05
3.105872588065974e-05   -6.100948892872465e-06   1.1641415885497324e-05
4.277095253499519e-05   -7.503171871926697e-06   3.0034303828564918e-05
4.277095253499519e-05   -7.503171871926697e-06   3.0034303828564918e-05
4.277095253499519e-05   -7.503171871926697e-06   3.0034303828564918e-05
4.277095253499519e-05   -7.503171871926697e-06   3.0034303828564918e-05
1.9727546593261147e-05   -5.280264110767846e-06   -7.037628084296914e-06
1.9727546593261147e-05   -5.280264110767846e-06   -7.037628084296914e-06
1.9727546593261147e-05   -5.280264110767846e-06   -7.037628084296914e-06
1.9727546593261147e-05   -5.280264110767846e-06   -7.037628084296914e-06
1.866707248317822e-05   -7.586515260274082e-06   2.680662838078088e-05
1.866707248317822e-05   -7.586515260274082e-06   2.680662838078088e-05
1.866707248317822e-05   -7.586515260274082e-06   2.680662838078088e-05
1.866707248317822e-05   -7.586515260274082e-06   2.680662838078088e-05
4.080000590083899e-05   -5.503533658353637e-06   -1.1331382943139523e-05
4.080000590083899e-05   -5.503533658353637e-06   -1.1331382943139523e-05
4.080000590083899e-05   -5.503533658353637e-06   -1.1331382943139523e-05
4.080000590083899e-05   -5.503533658353637e-06   -1.1331382943139523e-05
2.921853405618053e-05   -6.066577403401885e-06   8.308896378321127e-06
2.921853405618053e-05   -6.066577403401885e-06   8.308896378321127e-06
2.921853405618053e-05   -6.066577403401885e-06   8.308896378321127e-06
2.921853405618053e-05   -6.066577403401885e-06   8.308896378321127e-06
2.191707470937439e-05   -1.2026937703350782e-06   4.497477279433561e-05
2.191707470937439e-05   -1.2026937703350782e-06   4.497477279433561e-05
2.191707470937439e-05   -1.2026937703350782e-06   4.497477279433561e-05
2.191707470937439e-05   -1.2026937703350782e-06   4.497477279433561e-05
-1.3992259905282298e-06   -1.91570229076711e-08   6.824393676287642e-06
-1.3992259905282298e-06   -1.91570229076711e-08   6.824393676287642e-06
-1.3992259905282298e-06   -1.91570229076711e-08   6.824393676287642e-06
-1.3992259905282298e-06   -1.91570229076711e-08   6.824393676287642e-06
-2.377667718010272e-06   -1.9188590539408884e-06   4.505544099749894e-05
-2.377667718010272e-06   -1.9188590539408884e-06   4.505544099749894e-05
-2.377667718010272e-06   -1.9188590539408884e-06   4.505544099749894e-05
-2.377667718010272e-06   -1.9188590539408884e-06   4.505544099749894e-05
2.087618605020801e-05   -7.930040923278397e-07   5.623505073500652e-06
2.087618605020801e-05   -7.930040923278397e-07   5.623505073500652e-06
2.087618605020801e-05   -7.930040923278397e-07   5.623505073500652e-06
2.087618605020801e-05   -7.930040923278397e-07   5.623505073500652e-06
9.596147471036736e-06   -1.0114528410428564e-06   2.4554638621348385e-05
9.596147471036736e-06   -1.0114528410428564e-06   2.4554638621348385e-05
9.596147471036736e-06   -1.0114528410428564e-06   2.4554638621348385e-05
9.596147471036736e-06   -1.0114528410428564e-06   2.4554638621348385e-05
2.0876186050207963e-05   -1.9188590539404547e-06   4.4379928020530854e-05
2.0876186050207963e-05   -1.9188590539404547e-06   4.4379928020530854e-05
2.0876186050207963e-05   -1.9188590539404547e-06   4.4379928020530854e-05
2.0876186050207963e-05   -1.9188590539404547e-06   4.4379928020530854e-05
-2.377667718010272e-06   -7.930040923278397e-07   6.29901805046843e-06
-2.377667718010272e-06   -7.930040923278397e-07   6.29901805046843e-06
-2.377667718010272e-06   -7.930040923278397e-07   6.29901805046843e-06
-2.377667718010272e-06   -7.930040923278397e-07   6.29901805046843e-06
-3.376870070116733e-06   -2.451258290506273e-06   4.4379516907703696e-05
-3.376870070116733e-06   -2.451258290506273e-06   4.4379516907703696e-05
-3.376870070116733e-06   -2.451258290506273e-06   4.4379516907703696e-05
-3.376870070116733e-06   -2.451258290506273e-06   4.4379516907703696e-05
1.9727546593261147e-05   -1.4033924620130561e-06   5.243436304977706e-06
1.9727546593261147e-05   -1.4033924620130561e-06   5.243436304977706e-06
1.9727546593261147e-05   -1.4033924620130561e-06   5.243436304977706e-06
1.9727546593261147e-05   -1.4033924620130561e-06   5.243436304977706e-06
8.499041288441393e-06   -1.4892437617888832e-06   2.4009122592877764e-05
8.499041288441393e-06   -1.4892437617888832e-06   2.4009122592877764e-05
8.499041288441393e-06   -1.4892437617888832e-06   2.4009122592877764e-05
8.499041288441393e-06   -1.4892437617888832e-06   2.4009122592877764e-05
1.9727546593261114e-05   -2.451258290506273e-06   4.3750797410607766e-05
1.9727546593261114e-05   -2.451258290506273e-06   4.3750797410607766e-05
1.9727546593261114e-05   -2.451258290506273e-06   4.3750797410607766e-05
1.9727546593261114e-05   -2.451258290506273e-06   4.3750797410607766e-05
-3.376870070116733e-06   -1.4033924620130561e-06   5.8721558020737984e-06
-3.376870070116733e-06   -1.4033924620130561e-06   5.8721558020737984e-06
-3.376870070116733e-06   -1.4033924620130561e-06   5.8721558020737984e-06
-3.376870070116733e-06   -1.4033924620130561e-06   5.8721558020737984e-06
-4.381458445813319e-06   -2.8717203267940826e-06   4.4691077892127775e-05
-4.381458445813319e-06   -2.8717203267940826e-06   4.4691077892127775e-05
-4.381458445813319e-06   -2.8717203267940826e-06   4.4691077892127775e-05
-4.381458445813319e-06   -2.8717203267940826e-06   4.4691077892127775e-05
1.8667072483178235e-05   -1.969200804526755e-06   5.735347963781417e-06
1.8667072483178235e-05   -1.969200804526755e-06   5.735347963781417e-06
1.8667072483178235e-05   -1.969200804526755e-06   5.735347963781417e-06
1.8667072483178235e-05   -1.969200804526755e-06   5.735347963781417e-06
7.66062228260949e-06   -1.8434172653976517e-06   2.4003961507919162e-05
7.66062228260949e-06   -1.8434172653976517e-06   2.4003961507919162e-05
7.66062228260949e-06   -1.8434172653976517e-06   2.4003961507919162e-05
7.66062228260949e-06   -1.8434172653976517e-06   2.4003961507919162e-05
-1.3992259905282298e-06   3.907859384172808e-06   4.761987514317694e-05
-1.3992259905282298e-06   3.907859384172808e-06   4.761987514317694e-05
-1.3992259905282298e-06   3.907859384172808e-06   4.761987514317694e-05
-1.3992259905282298e-06   3.907859384172808e-06   4.761987514317694e-05
-2.4226398124332e-05   4.021453539364804e-06   9.64274474661922e-06
-2.4226398124332e-05   4.021453539364804e-06   9.64274474661922e-06
-2.4226398124332e-05   4.021453539364804e-06   9.64274474661922e-06
-2.4226398124332e-05   4.021453539364804e-06   9.64274474661922e-06
-2.5209968771080604e-05   3.311464232835532e-06   4.747576855257656e-05
-2.5209968771080604e-05   3.311464232835532e-06   4.747576855257656e-05
-2.5209968771080604e-05   3.311464232835532e-06   4.747576855257656e-05
-2.5209968771080604e-05   3.311464232835532e-06   4.747576855257656e-05
-2.377667718010272e-06   3.3410321704637966e-06   9.404192701549128e-06
-2.377667718010272e-06   3.3410321704637966e-06   9.404192701549128e-06
-2.377667718010272e-06   3.3410321704637966e-06   9.404192701549128e-06
-2.377667718010272e-06   3.3410321704637966e-06   9.404192701549128e-06
-1.3337871457814939e-05   3.5820009746997256e-06   2.7526617652015302e-05
-1.3337871457814939e-05   3.5820009746997256e-06   2.7526617652015302e-05
-1.3337871457814939e-05   3.5820009746997256e-06   2.7526617652015302e-05
-1.3337871457814939e-05   3.5820009746997256e-06   2.7526617652015302e-05
-2.377667718010272e-06   3.311464232835532e-06   4.745802778999969e-05
-2.377667718010272e-06   3.311464232835532e-06   4.745802778999969e-05
-2.377667718010272e-06   3.311464232835532e-06   4.745802778999969e-05
-2.377667718010272e-06   3.311464232835532e-06   4.745802778999969e-05
-2.5209968771080604e-05   3.3410321704637966e-06   9.421933464126e-06
-2.5209968771080604e-05   3.3410321704637966e-06   9.421933464126e-06
-2.5209968771080604e-05   3.3410321704637966e-06   9.421933464126e-06
-2.5209968771080604e-05   3.3410321704637966e-06   9.421933464126e-06
-2.6218176228080982e-05   2.732344395527369e-06   4.773663751407109e-05
-2.6218176228080982e-05   2.732344395527369e-06   4.773663751407109e-05
-2.6218176228080982e-05   2.732344395527369e-06   4.773663751407109e-05
-2.6218176228080982e-05   2.732344395527369e-06   4.773663751407109e-05
-3.376870070116733e-06   2.671388663115677e-06   9.70436735691095e-06
-3.376870070116733e-06   2.671388663115677e-06   9.70436735691095e-06
-3.376870070116733e-06   2.671388663115677e-06   9.70436735691095e-06
-3.376870070116733e-06   2.671388663115677e-06   9.70436735691095e-06
-1.4251206498655804e-05   3.124313877603778e-06   2.7556506275784078e-05
-1.4251206498655804e-05   3.124313877603778e-06   2.7556506275784078e-05
-1.4251206498655804e-05   3.124313877603778e-06   2.7556506275784078e-05
-1.4251206498655804e-05   3.124313877603778e-06   2.7556506275784078e-05
-3.376870070116733e-06   2.732344395527369e-06   4.7773210953518195e-05
-3.376870070116733e-06   2.732344395527369e-06   4.7773210953518195e-05
-3.376870070116733e-06   2.732344395527369e-06   4.7773210953518195e-05
-3.376870070116733e-06   2.732344395527369e-06   4.7773210953518195e-05
-2.6218176228080982e-05   2.671388663115677e-06   9.667793917463984e-06
-2.6218176228080982e-05   2.671388663115677e-06   9.667793917463984e-06
-2.6218176228080982e-05   2.671388663115677e-06   9.667793917463984e-06
-2.6218176228080982e-05   2.671388663115677e-06   9.667793917463984e-06
-2.7226051163069834e-05   2.216829904735842e-06   4.833142599855499e-05
-2.7226051163069834e-05   2.216829904735842e-06   4.833142599855499e-05
-2.7226051163069834e-05   2.216829904735842e-06   4.833142599855499e-05
-2.7226051163069834e-05   2.216829904735842e-06   4.833142599855499e-05
-4.381458445813346e-06   2.0359177288868657e-06   1.0365652108636946e-05
-4.381458445813346e-06   2.0359177288868657e-06   1.0365652108636946e-05
-4.381458445813346e-06   2.0359177288868657e-06   1.0365652108636946e-05
-4.381458445813346e-06   2.0359177288868657e-06   1.0365652108636946e-05
-1.5207321997871107e-05   2.678270191213035e-06   2.8023346551338474e-05
-1.5207321997871107e-05   2.678270191213035e-06   2.8023346551338474e-05
-1.5207321997871107e-05   2.678270191213035e-06   2.8023346551338474e-05
-1.5207321997871107e-05   2.678270191213035e-06   2.8023346551338474e-05
-2.4226398124331972e-05   8.879239577589803e-06   4.188537942646591e-05
-2.4226398124331972e-05   8.879239577589803e-06   4.188537942646591e-05
-2.4226398124331972e-05   8.879239577589803e-06   4.188537942646591e-05
-2.4226398124331972e-05   8.879239577589803e-06   4.188537942646591e-05
-4.6545452250414685e-05   7.909208139442268e-06   4.104937020105821e-06
-4.6545452250414685e-05   7.909208139442268e-06   4.104937020105821e-06
-4.6545452250414685e-05   7.909208139442268e-06   4.104937020105821e-06
-4.6545452250414685e-05   7.909208139442268e-06   4.104937020105821e-06
-4.7603677155897664e-05   8.309311095731822e-06   4.160992428585333e-05
-4.7603677155897664e-05   8.309311095731822e-06   4.160992428585333e-05
-4.7603677155897664e-05   8.309311095731822e-06   4.160992428585333e-05
-4.7603677155897664e-05   8.309311095731822e-06   4.160992428585333e-05
-2.5209968771080658e-05   7.257166953560015e-06   4.9183634631278905e-06
-2.5209968771080658e-05   7.257166953560015e-06   4.9183634631278905e-06
-2.5209968771080658e-05   7.257166953560015e-06   4.9183634631278905e-06
-2.5209968771080658e-05   7.257166953560015e-06   4.9183634631278905e-06
-3.577788338860355e-05   7.983745354174683e-06   2.2095607451964134e-05
-3.577788338860355e-05   7.983745354174683e-06   2.2095607451964134e-05
-3.577788338860355e-05   7.983745354174683e-06   2.2095607451964134e-05
-3.577788338860355e-05   7.983745354174683e-06   2.2095607451964134e-05
-2.5209968771080604e-05   8.309311095731822e-06   4.2241210771156324e-05
-2.5209968771080604e-05   8.309311095731822e-06   4.2241210771156324e-05
-2.5209968771080604e-05   8.309311095731822e-06   4.2241210771156324e-05
-2.5209968771080604e-05   8.309311095731822e-06   4.2241210771156324e-05
-4.7603677155897664e-05   7.257166953560015e-06   4.287076977824893e-06
-4.7603677155897664e-05   7.257166953560015e-06   4.287076977824893e-06
-4.7603677155897664e-05   7.257166953560015e-06   4.287076977824893e-06
-4.7603677155897664e-05   7.257166953560015e-06   4.287076977824893e-06
-4.876881363893165e-05   7.784259213038016e-06   4.316936192043353e-05
-4.876881363893165e-05   7.784259213038016e-06   4.316936192043353e-05
-4.876881363893165e-05   7.784259213038016e-06   4.316936192043353e-05
-4.876881363893165e-05   7.784259213038016e-06   4.316936192043353e-05
-2.6218176228081036e-05   6.65000864976447e-06   6.265516573646741e-06
-2.6218176228081036e-05   6.65000864976447e-06   6.265516573646741e-06
-2.6218176228081036e-05   6.65000864976447e-06   6.265516573646741e-06
-2.6218176228081036e-05   6.65000864976447e-06   6.265516573646741e-06
-3.653832597289219e-05   7.567285467356341e-06   2.2915400057777792e-05
-3.653832597289219e-05   7.567285467356341e-06   2.2915400057777792e-05
-3.653832597289219e-05   7.567285467356341e-06   2.2915400057777792e-05
-3.653832597289219e-05   7.567285467356341e-06   2.2915400057777792e-05
-2.621817622808101e-05   7.784259213038016e-06   4.3849912258397614e-05
-2.621817622808101e-05   7.784259213038016e-06   4.3849912258397614e-05
-2.621817622808101e-05   7.784259213038016e-06   4.3849912258397614e-05
-2.621817622808101e-05   7.784259213038016e-06   4.3849912258397614e-05
-4.876881363893165e-05   6.65000864976447e-06   5.584966235682278e-06
-4.876881363893165e-05   6.65000864976447e-06   5.584966235682278e-06
-4.876881363893165e-05   6.65000864976447e-06   5.584966235682278e-06
-4.876881363893165e-05   6.65000864976447e-06   5.584966235682278e-06
-4.9834394983622914e-05   7.143373764193026e-06   4.434345677644942e-05
-4.9834394983622914e-05   7.143373764193026e-06   4.434345677644942e-05
-4.9834394983622914e-05   7.143373764193026e-06   4.434345677644942e-05
-4.9834394983622914e-05   7.143373764193026e-06   4.434345677644942e-05
-2.7226051163069888e-05   5.9433196683516924e-06   7.3829161996990665e-06
-2.7226051163069888e-05   5.9433196683516924e-06   7.3829161996990665e-06
-2.7226051163069888e-05   5.9433196683516924e-06   7.3829161996990665e-06
-2.7226051163069888e-05   5.9433196683516924e-06   7.3829161996990665e-06
-3.7746510439807745e-05   7.097950347981913e-06   2.4224236586485853e-05
-3.7746510439807745e-05   7.097950347981913e-06   2.4224236586485853e-05
-3.7746510439807745e-05   7.097950347981913e-06   2.4224236586485853e-05
-3.7746510439807745e-05   7.097950347981913e-06   2.4224236586485853e-05
-4.6545452250414685e-05   1.2779750077566987e-05   2.024654841610964e-05
-4.6545452250414685e-05   1.2779750077566987e-05   2.024654841610964e-05
-4.6545452250414685e-05   1.2779750077566987e-05   2.024654841610964e-05
-4.6545452250414685e-05   1.2779750077566987e-05   2.024654841610964e-05
-6.773047468939896e-05   1.0895047413970235e-05   -1.6192643913688913e-05
-6.773047468939896e-05   1.0895047413970235e-05   -1.6192643913688913e-05
-6.773047468939896e-05   1.0895047413970235e-05   -1.6192643913688913e-05
-6.773047468939896e-05   1.0895047413970235e-05   -1.6192643913688913e-05
-6.963182955656646e-05   1.2913919226202348e-05   2.6892833202788163e-05
-6.963182955656646e-05   1.2913919226202348e-05   2.6892833202788163e-05
-6.963182955656646e-05   1.2913919226202348e-05   2.6892833202788163e-05
-6.963182955656646e-05   1.2913919226202348e-05   2.6892833202788163e-05
-4.7603677155897664e-05   1.0839052637476743e-05   -8.575834178425152e-06
-4.7603677155897664e-05   1.0839052637476743e-05   -8.575834178425152e-06
-4.7603677155897664e-05   1.0839052637476743e-05   -8.575834178425152e-06
-4.7603677155897664e-05   1.0839052637476743e-05   -8.575834178425152e-06
-5.567609434668815e-05   1.1683887094109287e-05   4.371293798912908e-06
-5.567609434668815e-05   1.1683887094109287e-05   4.371293798912908e-06
-5.567609434668815e-05   1.1683887094109287e-05   4.371293798912908e-06
-5.567609434668815e-05   1.1683887094109287e-05   4.371293798912908e-06
-4.760367715589761e-05   1.2913919226202348e-05   2.8137753156023135e-05
-4.760367715589761e-05   1.2913919226202348e-05   2.8137753156023135e-05
-4.760367715589761e-05   1.2913919226202348e-05   2.8137753156023135e-05
-4.760367715589761e-05   1.2913919226202348e-05   2.8137753156023135e-05
-6.963182955656663e-05   1.0839052637476743e-05   -9.82075413166045e-06
-6.963182955656663e-05   1.0839052637476743e-05   -9.82075413166045e-06
-6.963182955656663e-05   1.0839052637476743e-05   -9.82075413166045e-06
-6.963182955656663e-05   1.0839052637476743e-05   -9.82075413166045e-06
-7.133464852604145e-05   1.2771398903414603e-05   3.2267602640688106e-05
-7.133464852604145e-05   1.2771398903414603e-05   3.2267602640688106e-05
-7.133464852604145e-05   1.2771398903414603e-05   3.2267602640688106e-05
-7.133464852604145e-05   1.2771398903414603e-05   3.2267602640688106e-05
-4.876881363893165e-05   1.061766860981821e-05   -4.049883995003935e-06
-4.876881363893165e-05   1.061766860981821e-05   -4.049883995003935e-06
-4.876881363893165e-05   1.061766860981821e-05   -4.049883995003935e-06
-4.876881363893165e-05   1.061766860981821e-05   -4.049883995003935e-06
-5.7859302600982686e-05   1.1812366302067171e-05   1.0384112326400352e-05
-5.7859302600982686e-05   1.1812366302067171e-05   1.0384112326400352e-05
-5.7859302600982686e-05   1.1812366302067171e-05   1.0384112326400352e-05
-5.7859302600982686e-05   1.1812366302067171e-05   1.0384112326400352e-05
-4.876881363893165e-05   1.2771398903414603e-05   3.3559840816846116e-05
-4.876881363893165e-05   1.2771398903414603e-05   3.3559840816846116e-05
-4.876881363893165e-05   1.2771398903414603e-05   3.3559840816846116e-05
-4.876881363893165e-05   1.2771398903414603e-05   3.3559840816846116e-05
-7.133464852604156e-05   1.061766860981821e-05   -5.342122171161836e-06
-7.133464852604156e-05   1.061766860981821e-05   -5.342122171161836e-06
-7.133464852604156e-05   1.061766860981821e-05   -5.342122171161836e-06
-7.133464852604156e-05   1.061766860981821e-05   -5.342122171161836e-06
-7.329169101976063e-05   1.1785638410137089e-05   4.1517225558267406e-05
-7.329169101976063e-05   1.1785638410137089e-05   4.1517225558267406e-05
-7.329169101976063e-05   1.1785638410137089e-05   4.1517225558267406e-05
-7.329169101976063e-05   1.1785638410137089e-05   4.1517225558267406e-05
-4.9834394983622914e-05   9.642316469988914e-06   3.7077253287930503e-06
-4.9834394983622914e-05   9.642316469988914e-06   3.7077253287930503e-06
-4.9834394983622914e-05   9.642316469988914e-06   3.7077253287930503e-06
-4.9834394983622914e-05   9.642316469988914e-06   3.7077253287930503e-06
-5.83296922484539e-05   1.140811682770514e-05   1.6807073888882727e-05
-5.83296922484539e-05   1.140811682770514e-05   1.6807073888882727e-05
-5.83296922484539e-05   1.140811682770514e-05   1.6807073888882727e-05
-5.83296922484539e-05   1.140811682770514e-05   1.6807073888882727e-05
3.203982001909899e-05   -4.153298271960312e-06   3.215969192510741e-05
3.203982001909899e-05   -4.153298271960312e-06   3.215969192510741e-05
3.203982001909899e-05   -4.153298271960312e-06   3.215969192510741e-05
3.203982001909899e-05   -4.153298271960312e-06   3.215969192510741e-05
1.3292617264352046e-05   -2.037164811039254e-06   2.1840340770815612e-06
1.3292617264352046e-05   -2.037164811039254e-06   2.1840340770815612e-06
1.3292617264352046e-05   -2.037164811039254e-06   2.1840340770815612e-06
1.3292617264352046e-05   -2.037164811039254e-06   2.1840340770815612e-06
1.2455854891214672e-05   -5.0424899061948456e-06   2.8918046625164406e-05
1.2455854891214672e-05   -5.0424899061948456e-06   2.8918046625164406e-05
1.2455854891214672e-05   -5.0424899061948456e-06   2.8918046625164406e-05
1.2455854891214672e-05   -5.0424899061948456e-06   2.8918046625164406e-05
3.0259215377321768e-05   -2.8319574636218557e-06   -2.0805403172243463e-06
3.0259215377321768e-05   -2.8319574636218557e-06   -2.0805403172243463e-06
3.0259215377321768e-05   -2.8319574636218557e-06   -2.0805403172243463e-06
3.0259215377321768e-05   -2.8319574636218557e-06   -2.0805403172243463e-06
2.0916470286697173e-05   -3.6010230377520394e-06   1.3952140844961905e-05
2.0916470286697173e-05   -3.6010230377520394e-06   1.3952140844961905e-05
2.0916470286697173e-05   -3.6010230377520394e-06   1.3952140844961905e-05
2.0916470286697173e-05   -3.6010230377520394e-06   1.3952140844961905e-05
3.025921537732183e-05   -5.0424899061948456e-06   2.75917271596207e-05
3.025921537732183e-05   -5.0424899061948456e-06   2.75917271596207e-05
3.025921537732183e-05   -5.0424899061948456e-06   2.75917271596207e-05
3.025921537732183e-05   -5.0424899061948456e-06   2.75917271596207e-05
1.2455854891214624e-05   -2.8319574636218557e-06   -7.542208516806391e-07
1.2455854891214624e-05   -2.8319574636218557e-06   -7.542208516806391e-07
1.2455854891214624e-05   -2.8319574636218557e-06   -7.542208516806391e-07
1.2455854891214624e-05   -2.8319574636218557e-06   -7.542208516806391e-07
1.1516333255107906e-05   -5.280264110767846e-06   2.651026129662148e-05
1.1516333255107906e-05   -5.280264110767846e-06   2.651026129662148e-05
1.1516333255107906e-05   -5.280264110767846e-06   2.651026129662148e-05
1.1516333255107906e-05   -5.280264110767846e-06   2.651026129662148e-05
2.8730979808917273e-05   -3.1058780252642484e-06   -3.485447944362956e-06
2.8730979808917273e-05   -3.1058780252642484e-06   -3.485447944362956e-06
2.8730979808917273e-05   -3.1058780252642484e-06   -3.485447944362956e-06
2.8730979808917273e-05   -3.1058780252642484e-06   -3.485447944362956e-06
2.0122930904273017e-05   -3.938033527808339e-06   1.1360593531570978e-05
2.0122930904273017e-05   -3.938033527808339e-06   1.1360593531570978e-05
2.0122930904273017e-05   -3.938033527808339e-06   1.1360593531570978e-05
2.0122930904273017e-05   -3.938033527808339e-06   1.1360593531570978e-05
2.8730979808917314e-05   -5.280264110767846e-06   2.5205629645319106e-05
2.8730979808917314e-05   -5.280264110767846e-06   2.5205629645319106e-05
2.8730979808917314e-05   -5.280264110767846e-06   2.5205629645319106e-05
2.8730979808917314e-05   -5.280264110767846e-06   2.5205629645319106e-05
1.1516333255107886e-05   -3.1058780252642484e-06   -2.1808162930607704e-06
1.1516333255107886e-05   -3.1058780252642484e-06   -2.1808162930607704e-06
1.1516333255107886e-05   -3.1058780252642484e-06   -2.1808162930607704e-06
1.1516333255107886e-05   -3.1058780252642484e-06   -2.1808162930607704e-06
1.0674269685280814e-05   -5.503533658353637e-06   2.3386046623672828e-05
1.0674269685280814e-05   -5.503533658353637e-06   2.3386046623672828e-05
1.0674269685280814e-05   -5.503533658353637e-06   2.3386046623672828e-05
1.0674269685280814e-05   -5.503533658353637e-06   2.3386046623672828e-05
2.699813404223074e-05   -3.4689885979721086e-06   -5.041121007472253e-06
2.699813404223074e-05   -3.4689885979721086e-06   -5.041121007472253e-06
2.699813404223074e-05   -3.4689885979721086e-06   -5.041121007472253e-06
2.699813404223074e-05   -3.4689885979721086e-06   -5.041121007472253e-06
1.8657382556229568e-05   -4.004767539072824e-06   9.181598833856667e-06
1.8657382556229568e-05   -4.004767539072824e-06   9.181598833856667e-06
1.8657382556229568e-05   -4.004767539072824e-06   9.181598833856667e-06
1.8657382556229568e-05   -4.004767539072824e-06   9.181598833856667e-06
1.3292617264352093e-05   -1.91570229076711e-08   3.97838368162201e-05
1.3292617264352093e-05   -1.91570229076711e-08   3.97838368162201e-05
1.3292617264352093e-05   -1.91570229076711e-08   3.97838368162201e-05
1.3292617264352093e-05   -1.91570229076711e-08   3.97838368162201e-05
-4.302171887114351e-06   1.054296168680191e-06   1.1103260145395614e-05
-4.302171887114351e-06   1.054296168680191e-06   1.1103260145395614e-05
-4.302171887114351e-06   1.054296168680191e-06   1.1103260145395614e-05
-4.302171887114351e-06   1.054296168680191e-06   1.1103260145395614e-05
-5.070915563061486e-06   -7.930040923278397e-07   3.986123657513381e-05
-5.070915563061486e-06   -7.930040923278397e-07   3.986123657513381e-05
-5.070915563061486e-06   -7.930040923278397e-07   3.986123657513381e-05
-5.070915563061486e-06   -7.930040923278397e-07   3.986123657513381e-05
1.2455854891214624e-05   2.4912330192933957e-07   1.002467604811963e-05
1.2455854891214624e-05   2.4912330192933957e-07   1.002467604811963e-05
1.2455854891214624e-05   2.4912330192933957e-07   1.002467604811963e-05
1.2455854891214624e-05   2.4912330192933957e-07   1.002467604811963e-05
3.9685182918421495e-06   5.378746037584467e-08   2.4287438552006457e-05
3.9685182918421495e-06   5.378746037584467e-08   2.4287438552006457e-05
3.9685182918421495e-06   5.378746037584467e-08   2.4287438552006457e-05
3.9685182918421495e-06   5.378746037584467e-08   2.4287438552006457e-05
1.2455854891214658e-05   -7.930040923274061e-07   3.923596013857985e-05
1.2455854891214658e-05   -7.930040923274061e-07   3.923596013857985e-05
1.2455854891214658e-05   -7.930040923274061e-07   3.923596013857985e-05
1.2455854891214658e-05   -7.930040923274061e-07   3.923596013857985e-05
-5.070915563061513e-06   2.491233019289059e-07   1.064995248467376e-05
-5.070915563061513e-06   2.491233019289059e-07   1.064995248467376e-05
-5.070915563061513e-06   2.491233019289059e-07   1.064995248467376e-05
-5.070915563061513e-06   2.491233019289059e-07   1.064995248467376e-05
-5.85683482578098e-06   -1.4033924620130561e-06   3.938728424690411e-05
-5.85683482578098e-06   -1.4033924620130561e-06   3.938728424690411e-05
-5.85683482578098e-06   -1.4033924620130561e-06   3.938728424690411e-05
-5.85683482578098e-06   -1.4033924620130561e-06   3.938728424690411e-05
1.1516333255107886e-05   -4.101281936659193e-07   9.836045551081433e-06
1.1516333255107886e-05   -4.101281936659193e-07   9.836045551081433e-06
1.1516333255107886e-05   -4.101281936659193e-07   9.836045551081433e-06
1.1516333255107886e-05   -4.101281936659193e-07   9.836045551081433e-06
3.123611883532805e-06   -4.834888836097173e-07   2.3867930917674117e-05
3.123611883532805e-06   -4.834888836097173e-07   2.3867930917674117e-05
3.123611883532805e-06   -4.834888836097173e-07   2.3867930917674117e-05
3.123611883532805e-06   -4.834888836097173e-07   2.3867930917674117e-05
1.1516333255107927e-05   -1.4033924620130561e-06   3.8791325685896046e-05
1.1516333255107927e-05   -1.4033924620130561e-06   3.8791325685896046e-05
1.1516333255107927e-05   -1.4033924620130561e-06   3.8791325685896046e-05
1.1516333255107927e-05   -1.4033924620130561e-06   3.8791325685896046e-05
-5.85683482578098e-06   -4.101281936654856e-07   1.0432004112089464e-05
-5.85683482578098e-06   -4.101281936654856e-07   1.0432004112089464e-05
-5.85683482578098e-06   -4.101281936654856e-07   1.0432004112089464e-05
-5.85683482578098e-06   -4.101281936654856e-07   1.0432004112089464e-05
-6.636101453225509e-06   -1.969200804526755e-06   3.9748326510802377e-05
-6.636101453225509e-06   -1.969200804526755e-06   3.9748326510802377e-05
-6.636101453225509e-06   -1.969200804526755e-06   3.9748326510802377e-05
-6.636101453225509e-06   -1.969200804526755e-06   3.9748326510802377e-05
1.067426968528076e-05   -1.0603042355917906e-06   1.0352370005264192e-05
1.067426968528076e-05   -1.0603042355917906e-06   1.0352370005264192e-05
1.067426968528076e-05   -1.0603042355917906e-06   1.0352370005264192e-05
1.067426968528076e-05   -1.0603042355917906e-06   1.0352370005264192e-05
2.455636977019937e-06   -9.319100460667383e-07   2.3973054671983787e-05
2.455636977019937e-06   -9.319100460667383e-07   2.3973054671983787e-05
2.455636977019937e-06   -9.319100460667383e-07   2.3973054671983787e-05
2.455636977019937e-06   -9.319100460667383e-07   2.3973054671983787e-05
-4.302171887114351e-06   4.021453539364804e-06   4.317810330838924e-05
-4.302171887114351e-06   4.021453539364804e-06   4.317810330838924e-05
-4.302171887114351e-06   4.021453539364804e-06   4.317810330838924e-05
-4.302171887114351e-06   4.021453539364804e-06   4.317810330838924e-05
-2.160813372067982e-05   3.956077200068225e-06   1.4295607782202169e-05
-2.160813372067982e-05   3.956077200068225e-06   1.4295607782202169e-05
-2.160813372067982e-05   3.956077200068225e-06   1.4295607782202169e-05
-2.160813372067982e-05   3.956077200068225e-06   1.4295607782202169e-05
-2.236641890500515e-05   3.3410321704637966e-06   4.289617327320823e-05
-2.236641890500515e-05   3.3410321704637966e-06   4.289617327320823e-05
-2.236641890500515e-05   3.3410321704637966e-06   4.289617327320823e-05
-2.236641890500515e-05   3.3410321704637966e-06   4.289617327320823e-05
-5.070915563061486e-06   3.223968915453193e-06   1.4140572322975196e-05
-5.070915563061486e-06   3.223968915453193e-06   1.4140572322975196e-05
-5.070915563061486e-06   3.223968915453193e-06   1.4140572322975196e-05
-5.070915563061486e-06   3.223968915453193e-06   1.4140572322975196e-05
-1.337013393270354e-05   3.545852649608234e-06   2.777947269855301e-05
-1.337013393270354e-05   3.545852649608234e-06   2.777947269855301e-05
-1.337013393270354e-05   3.545852649608234e-06   2.777947269855301e-05
-1.337013393270354e-05   3.545852649608234e-06   2.777947269855301e-05
-5.070915563061486e-06   3.3410321704637966e-06   4.296641122621451e-05
-5.070915563061486e-06   3.3410321704637966e-06   4.296641122621451e-05
-5.070915563061486e-06   3.3410321704637966e-06   4.296641122621451e-05
-5.070915563061486e-06   3.3410321704637966e-06   4.296641122621451e-05
-2.236641890500515e-05   3.2239689154536268e-06   1.4070334369969029e-05
-2.236641890500515e-05   3.2239689154536268e-06   1.4070334369969029e-05
-2.236641890500515e-05   3.2239689154536268e-06   1.4070334369969029e-05
-2.236641890500515e-05   3.2239689154536268e-06   1.4070334369969029e-05
-2.3143001671163715e-05   2.671388663115677e-06   4.3116809195964086e-05
-2.3143001671163715e-05   2.671388663115677e-06   4.3116809195964086e-05
-2.3143001671163715e-05   2.671388663115677e-06   4.3116809195964086e-05
-2.3143001671163715e-05   2.671388663115677e-06   4.3116809195964086e-05
-5.8568348257809525e-06   2.5002443201529827e-06   1.4409217726103643e-05
-5.8568348257809525e-06   2.5002443201529827e-06   1.4409217726103643e-05
-5.8568348257809525e-06   2.5002443201529827e-06   1.4409217726103643e-05
-5.8568348257809525e-06   2.5002443201529827e-06   1.4409217726103643e-05
-1.4064745695169695e-05   3.0142839417407474e-06   2.7780645402133086e-05
-1.4064745695169695e-05   3.0142839417407474e-06   2.7780645402133086e-05
-1.4064745695169695e-05   3.0142839417407474e-06   2.7780645402133086e-05
-1.4064745695169695e-05   3.0142839417407474e-06   2.7780645402133086e-05
-5.85683482578098e-06   2.671388663115677e-06   4.32194958017414e-05
-5.85683482578098e-06   2.671388663115677e-06   4.32194958017414e-05
-5.85683482578098e-06   2.671388663115677e-06   4.32194958017414e-05
-5.85683482578098e-06   2.671388663115677e-06   4.32194958017414e-05
-2.3143001671163715e-05   2.5002443201529827e-06   1.4306531120326167e-05
-2.3143001671163715e-05   2.5002443201529827e-06   1.4306531120326167e-05
-2.3143001671163715e-05   2.5002443201529827e-06   1.4306531120326167e-05
-2.3143001671163715e-05   2.5002443201529827e-06   1.4306531120326167e-05
-2.3910604076358955e-05   2.0359177288868657e-06   4.369762414227897e-05
-2.3910604076358955e-05   2.0359177288868657e-06   4.369762414227897e-05
-2.3910604076358955e-05   2.0359177288868657e-06   4.369762414227897e-05
-2.3910604076358955e-05   2.0359177288868657e-06   4.369762414227897e-05
-6.636101453225482e-06   1.8034263955229307e-06   1.5046281237075245e-05
-6.636101453225482e-06   1.8034263955229307e-06   1.5046281237075245e-05
-6.636101453225482e-06   1.8034263955229307e-06   1.5046281237075245e-05
-6.636101453225482e-06   1.8034263955229307e-06   1.5046281237075245e-05
-1.479122411199387e-05   2.4951619823493365e-06   2.822311098292675e-05
-1.479122411199387e-05   2.4951619823493365e-06   2.822311098292675e-05
-1.479122411199387e-05   2.4951619823493365e-06   2.822311098292675e-05
-1.479122411199387e-05   2.4951619823493365e-06   2.822311098292675e-05
-2.160813372067982e-05   7.909208139442268e-06   3.818308864118663e-05
-2.160813372067982e-05   7.909208139442268e-06   3.818308864118663e-05
-2.160813372067982e-05   7.909208139442268e-06   3.818308864118663e-05
-2.160813372067982e-05   7.909208139442268e-06   3.818308864118663e-05
-3.862009143024408e-05   6.778686692387667e-06   9.151512923680194e-06
-3.862009143024408e-05   6.778686692387667e-06   9.151512923680194e-06
-3.862009143024408e-05   6.778686692387667e-06   9.151512923680194e-06
-3.862009143024408e-05   6.778686692387667e-06   9.151512923680194e-06
-3.9433308765372875e-05   7.257166953560015e-06   3.7676201868388484e-05
-3.9433308765372875e-05   7.257166953560015e-06   3.7676201868388484e-05
-3.9433308765372875e-05   7.257166953560015e-06   3.7676201868388484e-05
-3.9433308765372875e-05   7.257166953560015e-06   3.7676201868388484e-05
-2.2366418905005067e-05   6.0631646138574295e-06   9.947786838264091e-06
-2.2366418905005067e-05   6.0631646138574295e-06   9.947786838264091e-06
-2.2366418905005067e-05   6.0631646138574295e-06   9.947786838264091e-06
-2.2366418905005067e-05   6.0631646138574295e-06   9.947786838264091e-06
-3.0420894120882202e-05   6.883484340992722e-06   2.2879720361779188e-05
-3.0420894120882202e-05   6.883484340992722e-06   2.2879720361779188e-05
-3.0420894120882202e-05   6.883484340992722e-06   2.2879720361779188e-05
-3.0420894120882202e-05   6.883484340992722e-06   2.2879720361779188e-05
-2.236641890500515e-05   7.257166953560015e-06   3.839260327221012e-05
-2.236641890500515e-05   7.257166953560015e-06   3.839260327221012e-05
-2.236641890500515e-05   7.257166953560015e-06   3.839260327221012e-05
-2.236641890500515e-05   7.257166953560015e-06   3.839260327221012e-05
-3.943330876537277e-05   6.063164613857863e-06   9.231385434442453e-06
-3.943330876537277e-05   6.063164613857863e-06   9.231385434442453e-06
-3.943330876537277e-05   6.063164613857863e-06   9.231385434442453e-06
-3.943330876537277e-05   6.063164613857863e-06   9.231385434442453e-06
-4.034869324133348e-05   6.65000864976447e-06   3.896539955686e-05
-4.034869324133348e-05   6.65000864976447e-06   3.896539955686e-05
-4.034869324133348e-05   6.65000864976447e-06   3.896539955686e-05
-4.034869324133348e-05   6.65000864976447e-06   3.896539955686e-05
-2.3143001671163633e-05   5.401454824287104e-06   1.1038379235197009e-05
-2.3143001671163633e-05   5.401454824287104e-06   1.1038379235197009e-05
-2.3143001671163633e-05   5.401454824287104e-06   1.1038379235197009e-05
-2.3143001671163633e-05   5.401454824287104e-06   1.1038379235197009e-05
-3.0984955354072124e-05   6.395916041379221e-06   2.3511625309789773e-05
-3.0984955354072124e-05   6.395916041379221e-06   2.3511625309789773e-05
-3.0984955354072124e-05   6.395916041379221e-06   2.3511625309789773e-05
-3.0984955354072124e-05   6.395916041379221e-06   2.3511625309789773e-05
-2.3143001671163715e-05   6.65000864976447e-06   3.971453185214625e-05
-2.3143001671163715e-05   6.65000864976447e-06   3.971453185214625e-05
-2.3143001671163715e-05   6.65000864976447e-06   3.971453185214625e-05
-2.3143001671163715e-05   6.65000864976447e-06   3.971453185214625e-05
-4.034869324133337e-05   5.401454824287104e-06   1.0289246939910708e-05
-4.034869324133337e-05   5.401454824287104e-06   1.0289246939910708e-05
-4.034869324133337e-05   5.401454824287104e-06   1.0289246939910708e-05
-4.034869324133337e-05   5.401454824287104e-06   1.0289246939910708e-05
-4.116282007025066e-05   5.9433196683516924e-06   4.005470662397383e-05
-4.116282007025066e-05   5.9433196683516924e-06   4.005470662397383e-05
-4.116282007025066e-05   5.9433196683516924e-06   4.005470662397383e-05
-4.116282007025066e-05   5.9433196683516924e-06   4.005470662397383e-05
-2.3910604076358874e-05   4.662104810222896e-06   1.2069742215698104e-05
-2.3910604076358874e-05   4.662104810222896e-06   1.2069742215698104e-05
-2.3910604076358874e-05   4.662104810222896e-06   1.2069742215698104e-05
-2.3910604076358874e-05   4.662104810222896e-06   1.2069742215698104e-05
-3.1901988909514124e-05   5.883137687822879e-06   2.4656097211064247e-05
-3.1901988909514124e-05   5.883137687822879e-06   2.4656097211064247e-05
-3.1901988909514124e-05   5.883137687822879e-06   2.4656097211064247e-05
-3.1901988909514124e-05   5.883137687822879e-06   2.4656097211064247e-05
-3.862009143024408e-05   1.0895047413969801e-05   1.8338016437317124e-05
-3.862009143024408e-05   1.0895047413969801e-05   1.8338016437317124e-05
-3.862009143024408e-05   1.0895047413969801e-05   1.8338016437317124e-05
-3.862009143024408e-05   1.0895047413969801e-05   1.8338016437317124e-05
-5.456156712333756e-05   8.88627124261002e-06   -9.436375420654778e-06
-5.456156712333756e-05   8.88627124261002e-06   -9.436375420654778e-06
-5.456156712333756e-05   8.88627124261002e-06   -9.436375420654778e-06
-5.456156712333756e-05   8.88627124261002e-06   -9.436375420654778e-06
-5.62611740161885e-05   1.0839052637476743e-05   2.350332438031972e-05
-5.62611740161885e-05   1.0839052637476743e-05   2.350332438031972e-05
-5.62611740161885e-05   1.0839052637476743e-05   2.350332438031972e-05
-5.62611740161885e-05   1.0839052637476743e-05   2.350332438031972e-05
-3.943330876537271e-05   8.655775417778806e-06   -3.2331513725543035e-06
-3.943330876537271e-05   8.655775417778806e-06   -3.2331513725543035e-06
-3.943330876537271e-05   8.655775417778806e-06   -3.2331513725543035e-06
-3.943330876537271e-05   8.655775417778806e-06   -3.2331513725543035e-06
-4.544965114725618e-05   9.640968933892751e-06   6.2029698209171156e-06
-4.544965114725618e-05   9.640968933892751e-06   6.2029698209171156e-06
-4.544965114725618e-05   9.640968933892751e-06   6.2029698209171156e-06
-4.544965114725618e-05   9.640968933892751e-06   6.2029698209171156e-06
-3.943330876537282e-05   1.0839052637476743e-05   2.4813290712138655e-05
-3.943330876537282e-05   1.0839052637476743e-05   2.4813290712138655e-05
-3.943330876537282e-05   1.0839052637476743e-05   2.4813290712138655e-05
-3.943330876537282e-05   1.0839052637476743e-05   2.4813290712138655e-05
-5.626117401618855e-05   8.655775417778806e-06   -4.543117704372914e-06
-5.626117401618855e-05   8.655775417778806e-06   -4.543117704372914e-06
-5.626117401618855e-05   8.655775417778806e-06   -4.543117704372914e-06
-5.626117401618855e-05   8.655775417778806e-06   -4.543117704372914e-06
-5.7744529531806026e-05   1.061766860981821e-05   2.7985149817582504e-05
-5.7744529531806026e-05   1.061766860981821e-05   2.7985149817582504e-05
-5.7744529531806026e-05   1.061766860981821e-05   2.7985149817582504e-05
-5.7744529531806026e-05   1.061766860981821e-05   2.7985149817582504e-05
-4.034869324133332e-05   8.375336095499657e-06   3.374888420528766e-07
-4.034869324133332e-05   8.375336095499657e-06   3.374888420528766e-07
-4.034869324133332e-05   8.375336095499657e-06   3.374888420528766e-07
-4.034869324133332e-05   8.375336095499657e-06   3.374888420528766e-07
-4.7247900151823e-05   9.646523776056688e-06   1.1073454417869443e-05
-4.7247900151823e-05   9.646523776056688e-06   1.1073454417869443e-05
-4.7247900151823e-05   9.646523776056688e-06   1.1073454417869443e-05
-4.7247900151823e-05   9.646523776056688e-06   1.1073454417869443e-05
-4.034869324133348e-05   1.061766860981821e-05   2.9330549326173896e-05
-4.034869324133348e-05   1.061766860981821e-05   2.9330549326173896e-05
-4.034869324133348e-05   1.061766860981821e-05   2.9330549326173896e-05
-4.034869324133348e-05   1.061766860981821e-05   2.9330549326173896e-05
-5.7744529531806026e-05   8.375336095499657e-06   -1.0079106665384068e-06
-5.7744529531806026e-05   8.375336095499657e-06   -1.0079106665384068e-06
-5.7744529531806026e-05   8.375336095499657e-06   -1.0079106665384068e-06
-5.7744529531806026e-05   8.375336095499657e-06   -1.0079106665384068e-06
-5.946563609774243e-05   9.642316469988914e-06   3.577531795614323e-05
-5.946563609774243e-05   9.642316469988914e-06   3.577531795614323e-05
-5.946563609774243e-05   9.642316469988914e-06   3.577531795614323e-05
-5.946563609774243e-05   9.642316469988914e-06   3.577531795614323e-05
-4.11628200702505e-05   7.435266045940567e-06   6.5948548314191495e-06
-4.11628200702505e-05   7.435266045940567e-06   6.5948548314191495e-06
-4.11628200702505e-05   7.435266045940567e-06   6.5948548314191495e-06
-4.11628200702505e-05   7.435266045940567e-06   6.5948548314191495e-06
-4.765233516315965e-05   9.237217769382869e-06   1.6329542285535526e-05
-4.765233516315965e-05   9.237217769382869e-06   1.6329542285535526e-05
-4.765233516315965e-05   9.237217769382869e-06   1.6329542285535526e-05
-4.765233516315965e-05   9.237217769382869e-06   1.6329542285535526e-05
1.7756893600122864e-05   -2.037164811039254e-06   2.528328586746736e-05
1.7756893600122864e-05   -2.037164811039254e-06   2.528328586746736e-05
1.7756893600122864e-05   -2.037164811039254e-06   2.528328586746736e-05
1.7756893600122864e-05   -2.037164811039254e-06   2.528328586746736e-05
4.629001321991418e-06   5.5528470288253653e-08   4.659081372711694e-06
4.629001321991418e-06   5.5528470288253653e-08   4.659081372711694e-06
4.629001321991418e-06   5.5528470288253653e-08   4.659081372711694e-06
4.629001321991418e-06   5.5528470288253653e-08   4.659081372711694e-06
4.003703067839074e-06   -2.8319574636218557e-06   2.3578038555175122e-05
4.003703067839074e-06   -2.8319574636218557e-06   2.3578038555175122e-05
4.003703067839074e-06   -2.8319574636218557e-06   2.3578038555175122e-05
4.003703067839074e-06   -2.8319574636218557e-06   2.3578038555175122e-05
1.6211697924116243e-05   -6.563107802718803e-07   1.925992451370142e-06
1.6211697924116243e-05   -6.563107802718803e-07   1.925992451370142e-06
1.6211697924116243e-05   -6.563107802718803e-07   1.925992451370142e-06
1.6211697924116243e-05   -6.563107802718803e-07   1.925992451370142e-06
1.0020852299841215e-05   -1.4682504694064121e-06   1.2731232305310063e-05
1.0020852299841215e-05   -1.4682504694064121e-06   1.2731232305310063e-05
1.0020852299841215e-05   -1.4682504694064121e-06   1.2731232305310063e-05
1.0020852299841215e-05   -1.4682504694064121e-06   1.2731232305310063e-05
1.621169792411627e-05   -2.8319574636218557e-06   2.227265054516531e-05
1.621169792411627e-05   -2.8319574636218557e-06   2.227265054516531e-05
1.621169792411627e-05   -2.8319574636218557e-06   2.227265054516531e-05
1.621169792411627e-05   -2.8319574636218557e-06   2.227265054516531e-05
4.003703067839067e-06   -6.563107802718803e-07   3.2313804613800894e-06
4.003703067839067e-06   -6.563107802718803e-07   3.2313804613800894e-06
4.003703067839067e-06   -6.563107802718803e-07   3.2313804613800894e-06
4.003703067839067e-06   -6.563107802718803e-07   3.2313804613800894e-06
3.2752778359737863e-06   -3.105878025264682e-06   2.2132352475051978e-05
3.2752778359737863e-06   -3.105878025264682e-06   2.2132352475051978e-05
3.2752778359737863e-06   -3.105878025264682e-06   2.2132352475051978e-05
3.2752778359737863e-06   -3.105878025264682e-06   2.2132352475051978e-05
1.4903757386211435e-05   -9.636860907515782e-07   1.466238063948345e-06
1.4903757386211435e-05   -9.636860907515782e-07   1.466238063948345e-06
1.4903757386211435e-05   -9.636860907515782e-07   1.466238063948345e-06
1.4903757386211435e-05   -9.636860907515782e-07   1.466238063948345e-06
9.273001434252064e-06   -1.778926009001489e-06   1.1339975268163938e-05
9.273001434252064e-06   -1.778926009001489e-06   1.1339975268163938e-05
9.273001434252064e-06   -1.778926009001489e-06   1.1339975268163938e-05
9.273001434252064e-06   -1.778926009001489e-06   1.1339975268163938e-05
1.4903757386211476e-05   -3.1058780252642484e-06   2.084703731434416e-05
1.4903757386211476e-05   -3.1058780252642484e-06   2.084703731434416e-05
1.4903757386211476e-05   -3.1058780252642484e-06   2.084703731434416e-05
1.4903757386211476e-05   -3.1058780252642484e-06   2.084703731434416e-05
3.2752778359737728e-06   -9.636860907515782e-07   2.7515532246562453e-06
3.2752778359737728e-06   -9.636860907515782e-07   2.7515532246562453e-06
3.2752778359737728e-06   -9.636860907515782e-07   2.7515532246562453e-06
3.2752778359737728e-06   -9.636860907515782e-07   2.7515532246562453e-06
2.6443211743049558e-06   -3.4689885979725422e-06   2.046441015380717e-05
2.6443211743049558e-06   -3.4689885979725422e-06   2.046441015380717e-05
2.6443211743049558e-06   -3.4689885979725422e-06   2.046441015380717e-05
2.6443211743049558e-06   -3.4689885979725422e-06   2.046441015380717e-05
1.3372675731296052e-05   -1.4765554314799274e-06   1.388359325593376e-06
1.3372675731296052e-05   -1.4765554314799274e-06   1.388359325593376e-06
1.3372675731296052e-05   -1.4765554314799274e-06   1.388359325593376e-06
1.3372675731296052e-05   -1.4765554314799274e-06   1.388359325593376e-06
8.17418818781844e-06   -1.9400362441771186e-06   1.0330593719007895e-05
8.17418818781844e-06   -1.9400362441771186e-06   1.0330593719007895e-05
8.17418818781844e-06   -1.9400362441771186e-06   1.0330593719007895e-05
8.17418818781844e-06   -1.9400362441771186e-06   1.0330593719007895e-05
4.629001321991425e-06   1.054296168680191e-06   3.481405598962503e-05
4.629001321991425e-06   1.054296168680191e-06   3.481405598962503e-05
4.629001321991425e-06   1.054296168680191e-06   3.481405598962503e-05
4.629001321991425e-06   1.054296168680191e-06   3.481405598962503e-05
-7.333465991195818e-06   2.000926755791081e-06   1.5444588819913058e-05
-7.333465991195818e-06   2.000926755791081e-06   1.5444588819913058e-05
-7.333465991195818e-06   2.000926755791081e-06   1.5444588819913058e-05
-7.333465991195818e-06   2.000926755791081e-06   1.5444588819913058e-05
-7.882601573357416e-06   2.4912330192933957e-07   3.492502162726649e-05
-7.882601573357416e-06   2.4912330192933957e-07   3.492502162726649e-05
-7.882601573357416e-06   2.4912330192933957e-07   3.492502162726649e-05
-7.882601573357416e-06   2.4912330192933957e-07   3.492502162726649e-05
4.003703067839067e-06   1.1959335890811013e-06   1.4546427719648334e-05
4.003703067839067e-06   1.1959335890811013e-06   1.4546427719648334e-05
4.003703067839067e-06   1.1959335890811013e-06   1.4546427719648334e-05
4.003703067839067e-06   1.1959335890811013e-06   1.4546427719648334e-05
-1.7351233358909924e-06   1.045078906141035e-06   2.4201651202296847e-05
-1.7351233358909924e-06   1.045078906141035e-06   2.4201651202296847e-05
-1.7351233358909924e-06   1.045078906141035e-06   2.4201651202296847e-05
-1.7351233358909924e-06   1.045078906141035e-06   2.4201651202296847e-05
4.0037030678390705e-06   2.491233019289059e-07   3.4356935454975344e-05
4.0037030678390705e-06   2.491233019289059e-07   3.4356935454975344e-05
4.0037030678390705e-06   2.491233019289059e-07   3.4356935454975344e-05
4.0037030678390705e-06   2.491233019289059e-07   3.4356935454975344e-05
-7.882601573357416e-06   1.1959335890808845e-06   1.5114513891939518e-05
-7.882601573357416e-06   1.1959335890808845e-06   1.5114513891939518e-05
-7.882601573357416e-06   1.1959335890808845e-06   1.5114513891939518e-05
-7.882601573357416e-06   1.1959335890808845e-06   1.5114513891939518e-05
-8.447699558916677e-06   -4.101281936654856e-07   3.47032441739047e-05
-8.447699558916677e-06   -4.101281936654856e-07   3.47032441739047e-05
-8.447699558916677e-06   -4.101281936654856e-07   3.47032441739047e-05
-8.447699558916677e-06   -4.101281936654856e-07   3.47032441739047e-05
3.2752778359737728e-06   5.132548975190533e-07   1.4610918661043379e-05
3.2752778359737728e-06   5.132548975190533e-07   1.4610918661043379e-05
3.2752778359737728e-06   5.132548975190533e-07   1.4610918661043379e-05
3.2752778359737728e-06   5.132548975190533e-07   1.4610918661043379e-05
-2.3210952080292066e-06   4.833574934906635e-07   2.3956145510132534e-05
-2.3210952080292066e-06   4.833574934906635e-07   2.3956145510132534e-05
-2.3210952080292066e-06   4.833574934906635e-07   2.3956145510132534e-05
-2.3210952080292066e-06   4.833574934906635e-07   2.3956145510132534e-05
3.2752778359737863e-06   -4.101281936654856e-07   3.414921431919393e-05
3.2752778359737863e-06   -4.101281936654856e-07   3.414921431919393e-05
3.2752778359737863e-06   -4.101281936654856e-07   3.414921431919393e-05
3.2752778359737863e-06   -4.101281936654856e-07   3.414921431919393e-05
-8.447699558916704e-06   5.132548975190533e-07   1.516494851575424e-05
-8.447699558916704e-06   5.132548975190533e-07   1.516494851575424e-05
-8.447699558916704e-06   5.132548975190533e-07   1.516494851575424e-05
-8.447699558916704e-06   5.132548975190533e-07   1.516494851575424e-05
-9.004283348487316e-06   -1.0603042355917906e-06   3.516239378696987e-05
-9.004283348487316e-06   -1.0603042355917906e-06   3.516239378696987e-05
-9.004283348487316e-06   -1.0603042355917906e-06   3.516239378696987e-05
-9.004283348487316e-06   -1.0603042355917906e-06   3.516239378696987e-05
2.644321174304949e-06   -1.849381411670424e-07   1.5222833258995194e-05
2.644321174304949e-06   -1.849381411670424e-07   1.5222833258995194e-05
2.644321174304949e-06   -1.849381411670424e-07   1.5222833258995194e-05
2.644321174304949e-06   -1.849381411670424e-07   1.5222833258995194e-05
-2.81758320898674e-06   -2.123206723132244e-08   2.422778358678675e-05
-2.81758320898674e-06   -2.123206723132244e-08   2.422778358678675e-05
-2.81758320898674e-06   -2.123206723132244e-08   2.422778358678675e-05
-2.81758320898674e-06   -2.123206723132244e-08   2.422778358678675e-05
-7.333465991195818e-06   3.956077200068225e-06   3.861360778227617e-05
-7.333465991195818e-06   3.956077200068225e-06   3.861360778227617e-05
-7.333465991195818e-06   3.956077200068225e-06   3.861360778227617e-05
-7.333465991195818e-06   3.956077200068225e-06   3.861360778227617e-05
-1.909500532010607e-05   3.727857254621266e-06   1.8874110266824313e-05
-1.909500532010607e-05   3.727857254621266e-06   1.8874110266824313e-05
-1.909500532010607e-05   3.727857254621266e-06   1.8874110266824313e-05
-1.909500532010607e-05   3.727857254621266e-06   1.8874110266824313e-05
-1.9621738242777992e-05   3.223968915453193e-06   3.827241129891073e-05
-1.9621738242777992e-05   3.223968915453193e-06   3.827241129891073e-05
-1.9621738242777992e-05   3.223968915453193e-06   3.827241129891073e-05
-1.9621738242777992e-05   3.223968915453193e-06   3.827241129891073e-05
-7.882601573357389e-06   2.9852519710241773e-06   1.8850413683200865e-05
-7.882601573357389e-06   2.9852519710241773e-06   1.8850413683200865e-05
-7.882601573357389e-06   2.9852519710241773e-06   1.8850413683200865e-05
-7.882601573357389e-06   2.9852519710241773e-06   1.8850413683200865e-05
-1.3508211407819792e-05   3.390718462827026e-06   2.7983150178891058e-05
-1.3508211407819792e-05   3.390718462827026e-06   2.7983150178891058e-05
-1.3508211407819792e-05   3.390718462827026e-06   2.7983150178891058e-05
-1.3508211407819792e-05   3.390718462827026e-06   2.7983150178891058e-05
-7.882601573357416e-06   3.2239689154536268e-06   3.841564146556836e-05
-7.882601573357416e-06   3.2239689154536268e-06   3.841564146556836e-05
-7.882601573357416e-06   3.2239689154536268e-06   3.841564146556836e-05
-7.882601573357416e-06   3.2239689154536268e-06   3.841564146556836e-05
-1.9621738242777992e-05   2.985251971024394e-06   1.870718351654351e-05
-1.9621738242777992e-05   2.985251971024394e-06   1.870718351654351e-05
-1.9621738242777992e-05   2.985251971024394e-06   1.870718351654351e-05
-1.9621738242777992e-05   2.985251971024394e-06   1.870718351654351e-05
-2.0165802125340698e-05   2.5002443201529827e-06   3.852817252605737e-05
-2.0165802125340698e-05   2.5002443201529827e-06   3.852817252605737e-05
-2.0165802125340698e-05   2.5002443201529827e-06   3.852817252605737e-05
-2.0165802125340698e-05   2.5002443201529827e-06   3.852817252605737e-05
-8.447699558916677e-06   2.246435550383539e-06   1.9150286843879058e-05
-8.447699558916677e-06   2.246435550383539e-06   1.9150286843879058e-05
-8.447699558916677e-06   2.246435550383539e-06   1.9150286843879058e-05
-8.447699558916677e-06   2.246435550383539e-06   1.9150286843879058e-05
-1.3977320679125742e-05   2.825657028701113e-06   2.8018789157236617e-05
-1.3977320679125742e-05   2.825657028701113e-06   2.8018789157236617e-05
-1.3977320679125742e-05   2.825657028701113e-06   2.8018789157236617e-05
-1.3977320679125742e-05   2.825657028701113e-06   2.8018789157236617e-05
-8.447699558916704e-06   2.5002443201529827e-06   3.868045778791904e-05
-8.447699558916704e-06   2.5002443201529827e-06   3.868045778791904e-05
-8.447699558916704e-06   2.5002443201529827e-06   3.868045778791904e-05
-8.447699558916704e-06   2.5002443201529827e-06   3.868045778791904e-05
-2.0165802125340752e-05   2.246435550383322e-06   1.899800158201739e-05
-2.0165802125340752e-05   2.246435550383322e-06   1.899800158201739e-05
-2.0165802125340752e-05   2.246435550383322e-06   1.899800158201739e-05
-2.0165802125340752e-05   2.246435550383322e-06   1.899800158201739e-05
-2.0701410147824968e-05   1.8034263955229307e-06   3.9152236696935686e-05
-2.0701410147824968e-05   1.8034263955229307e-06   3.9152236696935686e-05
-2.0701410147824968e-05   1.8034263955229307e-06   3.9152236696935686e-05
-2.0701410147824968e-05   1.8034263955229307e-06   3.9152236696935686e-05
-9.00428334848729e-06   1.5388757613826135e-06   1.9815755745190562e-05
-9.00428334848729e-06   1.5388757613826135e-06   1.9815755745190562e-05
-9.00428334848729e-06   1.5388757613826135e-06   1.9815755745190562e-05
-9.00428334848729e-06   1.5388757613826135e-06   1.9815755745190562e-05
-1.4476227403170108e-05   2.271852642572519e-06   2.84958763742817e-05
-1.4476227403170108e-05   2.271852642572519e-06   2.84958763742817e-05
-1.4476227403170108e-05   2.271852642572519e-06   2.84958763742817e-05
-1.4476227403170108e-05   2.271852642572519e-06   2.84958763742817e-05
-1.909500532010607e-05   6.778686692387667e-06   3.401089382471878e-05
-1.909500532010607e-05   6.778686692387667e-06   3.401089382471878e-05
-1.909500532010607e-05   6.778686692387667e-06   3.401089382471878e-05
-1.909500532010607e-05   6.778686692387667e-06   3.401089382471878e-05
-3.0640018926997954e-05   5.5342030792875085e-06   1.402251431203874e-05
-3.0640018926997954e-05   5.5342030792875085e-06   1.402251431203874e-05
-3.0640018926997954e-05   5.5342030792875085e-06   1.402251431203874e-05
-3.0640018926997954e-05   5.5342030792875085e-06   1.402251431203874e-05
-3.121396851141114e-05   6.0631646138574295e-06   3.3383010175257015e-05
-3.121396851141114e-05   6.0631646138574295e-06   3.3383010175257015e-05
-3.121396851141114e-05   6.0631646138574295e-06   3.3383010175257015e-05
-3.121396851141114e-05   6.0631646138574295e-06   3.3383010175257015e-05
-1.9621738242777938e-05   4.785075293942944e-06   1.4829479986150818e-05
-1.9621738242777938e-05   4.785075293942944e-06   1.4829479986150818e-05
-1.9621738242777938e-05   4.785075293942944e-06   1.4829479986150818e-05
-1.9621738242777938e-05   4.785075293942944e-06   1.4829479986150818e-05
-2.5082125869016193e-05   5.69668637095521e-06   2.3383159383675396e-05
-2.5082125869016193e-05   5.69668637095521e-06   2.3383159383675396e-05
-2.5082125869016193e-05   5.69668637095521e-06   2.3383159383675396e-05
-2.5082125869016193e-05   5.69668637095521e-06   2.3383159383675396e-05
-1.9621738242777992e-05   6.0631646138574295e-06   3.414986376720601e-05
-1.9621738242777992e-05   6.0631646138574295e-06   3.414986376720601e-05
-1.9621738242777992e-05   6.0631646138574295e-06   3.414986376720601e-05
-1.9621738242777992e-05   6.0631646138574295e-06   3.414986376720601e-05
-3.1213968511411086e-05   4.7850752939427275e-06   1.406262639420204e-05
-3.1213968511411086e-05   4.7850752939427275e-06   1.406262639420204e-05
-3.1213968511411086e-05   4.7850752939427275e-06   1.406262639420204e-05
-3.1213968511411086e-05   4.7850752939427275e-06   1.406262639420204e-05
-3.189390163438728e-05   5.401454824287104e-06   3.448174674045815e-05
-3.189390163438728e-05   5.401454824287104e-06   3.448174674045815e-05
-3.189390163438728e-05   5.401454824287104e-06   3.448174674045815e-05
-3.189390163438728e-05   5.401454824287104e-06   3.448174674045815e-05
-2.0165802125340698e-05   4.10433165683676e-06   1.5713188125850716e-05
-2.0165802125340698e-05   4.10433165683676e-06   1.5713188125850716e-05
-2.0165802125340698e-05   4.10433165683676e-06   1.5713188125850716e-05
-2.0165802125340698e-05   4.10433165683676e-06   1.5713188125850716e-05
-2.5454620074386535e-05   5.1666570184600615e-06   2.3890489490619956e-05
-2.5454620074386535e-05   5.1666570184600615e-06   2.3890489490619956e-05
-2.5454620074386535e-05   5.1666570184600615e-06   2.3890489490619956e-05
-2.5454620074386535e-05   5.1666570184600615e-06   2.3890489490619956e-05
-2.0165802125340698e-05   5.401454824287104e-06   3.526002064092805e-05
-2.0165802125340698e-05   5.401454824287104e-06   3.526002064092805e-05
-2.0165802125340698e-05   5.401454824287104e-06   3.526002064092805e-05
-2.0165802125340698e-05   5.401454824287104e-06   3.526002064092805e-05
-3.1893901634387175e-05   4.10433165683676e-06   1.4934914225380705e-05
-3.1893901634387175e-05   4.10433165683676e-06   1.4934914225380705e-05
-3.1893901634387175e-05   4.10433165683676e-06   1.4934914225380705e-05
-3.1893901634387175e-05   4.10433165683676e-06   1.4934914225380705e-05
-3.247764003662439e-05   4.662104810222896e-06   3.554425303420989e-05
-3.247764003662439e-05   4.662104810222896e-06   3.554425303420989e-05
-3.247764003662439e-05   4.662104810222896e-06   3.554425303420989e-05
-3.247764003662439e-05   4.662104810222896e-06   3.554425303420989e-05
-2.0701410147824914e-05   3.3772057412776845e-06   1.6688142660911513e-05
-2.0701410147824914e-05   3.3772057412776845e-06   1.6688142660911513e-05
-2.0701410147824914e-05   3.3772057412776845e-06   1.6688142660911513e-05
-2.0701410147824914e-05   3.3772057412776845e-06   1.6688142660911513e-05
-2.6094061331650477e-05   4.636251952401787e-06   2.492046690728085e-05
-2.6094061331650477e-05   4.636251952401787e-06   2.492046690728085e-05
-2.6094061331650477e-05   4.636251952401787e-06   2.492046690728085e-05
-2.6094061331650477e-05   4.636251952401787e-06   2.492046690728085e-05
-3.0640018926998116e-05   8.88627124261002e-06   1.588158101533993e-05
-3.0640018926998116e-05   8.88627124261002e-06   1.588158101533993e-05
-3.0640018926998116e-05   8.88627124261002e-06   1.588158101533993e-05
-3.0640018926998116e-05   8.88627124261002e-06   1.588158101533993e-05
-4.1040910586881505e-05   6.803177555805232e-06   -2.703094629882114e-06
-4.1040910586881505e-05   6.803177555805232e-06   -2.703094629882114e-06
-4.1040910586881505e-05   6.803177555805232e-06   -2.703094629882114e-06
-4.1040910586881505e-05   6.803177555805232e-06   -2.703094629882114e-06
-4.2511801798035586e-05   8.655775417778806e-06   1.9576156793592748e-05
-4.2511801798035586e-05   8.655775417778806e-06   1.9576156793592748e-05
-4.2511801798035586e-05   8.655775417778806e-06   1.9576156793592748e-05
-4.2511801798035586e-05   8.655775417778806e-06   1.9576156793592748e-05
-3.121396851141103e-05   6.418581126666325e-06   2.0887512238858567e-06
-3.121396851141103e-05   6.418581126666325e-06   2.0887512238858567e-06
-3.121396851141103e-05   6.418581126666325e-06   2.0887512238858567e-06
-3.121396851141103e-05   6.418581126666325e-06   2.0887512238858567e-06
-3.5028123565417844e-05   7.550428709020588e-06   7.766567764486447e-06
-3.5028123565417844e-05   7.550428709020588e-06   7.766567764486447e-06
-3.5028123565417844e-05   7.550428709020588e-06   7.766567764486447e-06
-3.5028123565417844e-05   7.550428709020588e-06   7.766567764486447e-06
-3.121396851141103e-05   8.655775417778806e-06   2.0918473368259933e-05
-3.121396851141103e-05   8.655775417778806e-06   2.0918473368259933e-05
-3.121396851141103e-05   8.655775417778806e-06   2.0918473368259933e-05
-3.121396851141103e-05   8.655775417778806e-06   2.0918473368259933e-05
-4.25118017980358e-05   6.418581126666325e-06   7.464346492185633e-07
-4.25118017980358e-05   6.418581126666325e-06   7.464346492185633e-07
-4.25118017980358e-05   6.418581126666325e-06   7.464346492185633e-07
-4.25118017980358e-05   6.418581126666325e-06   7.464346492185633e-07
-4.377869654690399e-05   8.375336095499657e-06   2.3163556739615003e-05
-4.377869654690399e-05   8.375336095499657e-06   2.3163556739615003e-05
-4.377869654690399e-05   8.375336095499657e-06   2.3163556739615003e-05
-4.377869654690399e-05   8.375336095499657e-06   2.3163556739615003e-05
-3.1893901634387175e-05   6.0979495905240984e-06   4.721997121738867e-06
-3.1893901634387175e-05   6.0979495905240984e-06   4.721997121738867e-06
-3.1893901634387175e-05   6.0979495905240984e-06   4.721997121738867e-06
-3.1893901634387175e-05   6.0979495905240984e-06   4.721997121738867e-06
-3.6439299052219574e-05   7.450254463496489e-06   1.14862765610101e-05
-3.6439299052219574e-05   7.450254463496489e-06   1.14862765610101e-05
-3.6439299052219574e-05   7.450254463496489e-06   1.14862765610101e-05
-3.6439299052219574e-05   7.450254463496489e-06   1.14862765610101e-05
-3.189390163438723e-05   8.375336095499224e-06   2.4529988642600208e-05
-3.189390163438723e-05   8.375336095499224e-06   2.4529988642600208e-05
-3.189390163438723e-05   8.375336095499224e-06   2.4529988642600208e-05
-3.189390163438723e-05   8.375336095499224e-06   2.4529988642600208e-05
-4.377869654690421e-05   6.0979495905240984e-06   3.355565218753553e-06
-4.377869654690421e-05   6.0979495905240984e-06   3.355565218753553e-06
-4.377869654690421e-05   6.0979495905240984e-06   3.355565218753553e-06
-4.377869654690421e-05   6.0979495905240984e-06   3.355565218753553e-06
-4.5295497621758245e-05   7.435266045941e-06   2.9513144708020198e-05
-4.5295497621758245e-05   7.435266045941e-06   2.9513144708020198e-05
-4.5295497621758245e-05   7.435266045941e-06   2.9513144708020198e-05
-4.5295497621758245e-05   7.435266045941e-06   2.9513144708020198e-05
-3.247764003662428e-05   5.227016284627519e-06   9.474998589584812e-06
-3.247764003662428e-05   5.227016284627519e-06   9.474998589584812e-06
-3.247764003662428e-05   5.227016284627519e-06   9.474998589584812e-06
-3.247764003662428e-05   5.227016284627519e-06   9.474998589584812e-06
-3.6793359990204094e-05   7.054209908935547e-06   1.5571549004300277e-05
-3.6793359990204094e-05   7.054209908935547e-06   1.5571549004300277e-05
-3.6793359990204094e-05   7.054209908935547e-06   1.5571549004300277e-05
-3.6793359990204094e-05   7.054209908935547e-06   1.5571549004300277e-05
3.4921833076334764e-06   5.5528470288253653e-08   1.884528078426777e-05
3.4921833076334764e-06   5.5528470288253653e-08   1.884528078426777e-05
3.4921833076334764e-06   5.5528470288253653e-08   1.884528078426777e-05
3.4921833076334764e-06   5.5528470288253653e-08   1.884528078426777e-05
-4.0000563049413364e-06   2.063060104698193e-06   7.562733743955588e-06
-4.0000563049413364e-06   2.063060104698193e-06   7.562733743955588e-06
-4.0000563049413364e-06   2.063060104698193e-06   7.562733743955588e-06
-4.0000563049413364e-06   2.063060104698193e-06   7.562733743955588e-06
-4.44189553769648e-06   -6.563107802718803e-07   1.8596389636206393e-05
-4.44189553769648e-06   -6.563107802718803e-07   1.8596389636206393e-05
-4.44189553769648e-06   -6.563107802718803e-07   1.8596389636206393e-05
-4.44189553769648e-06   -6.563107802718803e-07   1.8596389636206393e-05
2.1466585422743987e-06   1.3990736789076114e-06   6.38223549408038e-06
2.1466585422743987e-06   1.3990736789076114e-06   6.38223549408038e-06
2.1466585422743987e-06   1.3990736789076114e-06   6.38223549408038e-06
2.1466585422743987e-06   1.3990736789076114e-06   6.38223549408038e-06
-8.743534382441347e-07   6.019143416590572e-07   1.1895551063960624e-05
-8.743534382441347e-07   6.019143416590572e-07   1.1895551063960624e-05
-8.743534382441347e-07   6.019143416590572e-07   1.1895551063960624e-05
-8.743534382441347e-07   6.019143416590572e-07   1.1895551063960624e-05
2.1466585422743987e-06   -6.563107802718803e-07   1.7363158960698503e-05
2.1466585422743987e-06   -6.563107802718803e-07   1.7363158960698503e-05
2.1466585422743987e-06   -6.563107802718803e-07   1.7363158960698503e-05
2.1466585422743987e-06   -6.563107802718803e-07   1.7363158960698503e-05
-4.44189553769648e-06   1.3990736789076114e-06   7.61546616958827e-06
-4.44189553769648e-06   1.3990736789076114e-06   7.61546616958827e-06
-4.44189553769648e-06   1.3990736789076114e-06   7.61546616958827e-06
-4.44189553769648e-06   1.3990736789076114e-06   7.61546616958827e-06
-4.987537704878163e-06   -9.636860907513613e-07   1.8115452366224312e-05
-4.987537704878163e-06   -9.636860907513613e-07   1.8115452366224312e-05
-4.987537704878163e-06   -9.636860907513613e-07   1.8115452366224312e-05
-4.987537704878163e-06   -9.636860907513613e-07   1.8115452366224312e-05
9.795323748306264e-07   1.0329105243269288e-06   6.972377597662746e-06
9.795323748306264e-07   1.0329105243269288e-06   6.972377597662746e-06
9.795323748306264e-07   1.0329105243269288e-06   6.972377597662746e-06
9.795323748306264e-07   1.0329105243269288e-06   6.972377597662746e-06
-1.6011683740750876e-06   3.18937160129467e-07   1.1701929531023796e-05
-1.6011683740750876e-06   3.18937160129467e-07   1.1701929531023796e-05
-1.6011683740750876e-06   3.18937160129467e-07   1.1701929531023796e-05
-1.6011683740750876e-06   3.18937160129467e-07   1.1701929531023796e-05
9.795323748306264e-07   -9.636860907515782e-07   1.6917494397177143e-05
9.795323748306264e-07   -9.636860907515782e-07   1.6917494397177143e-05
9.795323748306264e-07   -9.636860907515782e-07   1.6917494397177143e-05
9.795323748306264e-07   -9.636860907515782e-07   1.6917494397177143e-05
-4.987537704878153e-06   1.0329105243269288e-06   8.170335566709671e-06
-4.987537704878153e-06   1.0329105243269288e-06   8.170335566709671e-06
-4.987537704878153e-06   1.0329105243269288e-06   8.170335566709671e-06
-4.987537704878153e-06   1.0329105243269288e-06   8.170335566709671e-06
-5.443275193161297e-06   -1.4765554314799274e-06   1.795263269301539e-05
-5.443275193161297e-06   -1.4765554314799274e-06   1.795263269301539e-05
-5.443275193161297e-06   -1.4765554314799274e-06   1.795263269301539e-05
-5.443275193161297e-06   -1.4765554314799274e-06   1.795263269301539e-05
-4.843523207882571e-07   2.556520456735347e-07   8.64843675276838e-06
-4.843523207882571e-07   2.556520456735347e-07   8.64843675276838e-06
-4.843523207882571e-07   2.556520456735347e-07   8.64843675276838e-06
-4.843523207882571e-07   2.556520456735347e-07   8.64843675276838e-06
-2.3816600049818312e-06   5.857391823980117e-08   1.1928863102884598e-05
-2.3816600049818312e-06   5.857391823980117e-08   1.1928863102884598e-05
-2.3816600049818312e-06   5.857391823980117e-08   1.1928863102884598e-05
-2.3816600049818312e-06   5.857391823980117e-08   1.1928863102884598e-05
-4.0000563049413364e-06   2.0009267557912977e-06   3.026732885984848e-05
-4.0000563049413364e-06   2.0009267557912977e-06   3.026732885984848e-05
-4.0000563049413364e-06   2.0009267557912977e-06   3.026732885984848e-05
-4.0000563049413364e-06   2.0009267557912977e-06   3.026732885984848e-05
-1.0272468269490105e-05   2.3957447067241098e-06   2.0050199689493646e-05
-1.0272468269490105e-05   2.3957447067241098e-06   2.0050199689493646e-05
-1.0272468269490105e-05   2.3957447067241098e-06   2.0050199689493646e-05
-1.0272468269490105e-05   2.3957447067241098e-06   2.0050199689493646e-05
-1.0605324744565478e-05   1.1959335890811013e-06   3.0186207367197604e-05
-1.0605324744565478e-05   1.1959335890811013e-06   3.0186207367197604e-05
-1.0605324744565478e-05   1.1959335890811013e-06   3.0186207367197604e-05
-1.0605324744565478e-05   1.1959335890811013e-06   3.0186207367197604e-05
-4.44189553769648e-06   1.653884376952644e-06   1.9639054883026224e-05
-4.44189553769648e-06   1.653884376952644e-06   1.9639054883026224e-05
-4.44189553769648e-06   1.653884376952644e-06   1.9639054883026224e-05
-4.44189553769648e-06   1.653884376952644e-06   1.9639054883026224e-05
-7.372932398966014e-06   1.7259452458177633e-06   2.448087979715647e-05
-7.372932398966014e-06   1.7259452458177633e-06   2.448087979715647e-05
-7.372932398966014e-06   1.7259452458177633e-06   2.448087979715647e-05
-7.372932398966014e-06   1.7259452458177633e-06   2.448087979715647e-05
-4.441895537696483e-06   1.1959335890811013e-06   2.991143689447446e-05
-4.441895537696483e-06   1.1959335890811013e-06   2.991143689447446e-05
-4.441895537696483e-06   1.1959335890811013e-06   2.991143689447446e-05
-4.441895537696483e-06   1.1959335890811013e-06   2.991143689447446e-05
-1.0605324744565451e-05   1.653884376952644e-06   1.9913825355749224e-05
-1.0605324744565451e-05   1.653884376952644e-06   1.9913825355749224e-05
-1.0605324744565451e-05   1.653884376952644e-06   1.9913825355749224e-05
-1.0605324744565451e-05   1.653884376952644e-06   1.9913825355749224e-05
-1.094859588593065e-05   5.132548975190533e-07   3.024794417088748e-05
-1.094859588593065e-05   5.132548975190533e-07   3.024794417088748e-05
-1.094859588593065e-05   5.132548975190533e-07   3.024794417088748e-05
-1.094859588593065e-05   5.132548975190533e-07   3.024794417088748e-05
-4.987537704878153e-06   9.684655113122859e-07   2.0039720834190822e-05
-4.987537704878153e-06   9.684655113122859e-07   2.0039720834190822e-05
-4.987537704878153e-06   9.684655113122859e-07   2.0039720834190822e-05
-4.987537704878153e-06   9.684655113122859e-07   2.0039720834190822e-05
-7.712679051150955e-06   1.1834429162480356e-06   2.4452636635017655e-05
-7.712679051150955e-06   1.1834429162480356e-06   2.4452636635017655e-05
-7.712679051150955e-06   1.1834429162480356e-06   2.4452636635017655e-05
-7.712679051150955e-06   1.1834429162480356e-06   2.4452636635017655e-05
-4.987537704878163e-06   5.132548975190533e-07   2.9974817802611757e-05
-4.987537704878163e-06   5.132548975190533e-07   2.9974817802611757e-05
-4.987537704878163e-06   5.132548975190533e-07   2.9974817802611757e-05
-4.987537704878163e-06   5.132548975190533e-07   2.9974817802611757e-05
-1.094859588593065e-05   9.684655113122859e-07   2.0312847202466795e-05
-1.094859588593065e-05   9.684655113122859e-07   2.0312847202466795e-05
-1.094859588593065e-05   9.684655113122859e-07   2.0312847202466795e-05
-1.094859588593065e-05   9.684655113122859e-07   2.0312847202466795e-05
-1.1285190212366214e-05   -1.849381411670424e-07   3.083775564719101e-05
-1.1285190212366214e-05   -1.849381411670424e-07   3.083775564719101e-05
-1.1285190212366214e-05   -1.849381411670424e-07   3.083775564719101e-05
-1.1285190212366214e-05   -1.849381411670424e-07   3.083775564719101e-05
-5.443275193161284e-06   2.252433932820562e-07   2.0855121694513512e-05
-5.443275193161284e-06   2.252433932820562e-07   2.0855121694513512e-05
-5.443275193161284e-06   2.252433932820562e-07   2.0855121694513512e-05
-5.443275193161284e-06   2.252433932820562e-07   2.0855121694513512e-05
-8.05225797530308e-06   6.49645517217072e-07   2.494878505705561e-05
-8.05225797530308e-06   6.49645517217072e-07   2.494878505705561e-05
-8.05225797530308e-06   6.49645517217072e-07   2.494878505705561e-05
-8.05225797530308e-06   6.49645517217072e-07   2.494878505705561e-05
-1.0272468269490077e-05   3.7278572546210493e-06   3.4070673044587704e-05
-1.0272468269490077e-05   3.7278572546210493e-06   3.4070673044587704e-05
-1.0272468269490077e-05   3.7278572546210493e-06   3.4070673044587704e-05
-1.0272468269490077e-05   3.7278572546210493e-06   3.4070673044587704e-05
-1.6526808235686383e-05   2.8689209500309173e-06   2.3131411318173117e-05
-1.6526808235686383e-05   2.8689209500309173e-06   2.3131411318173117e-05
-1.6526808235686383e-05   2.8689209500309173e-06   2.3131411318173117e-05
-1.6526808235686383e-05   2.8689209500309173e-06   2.3131411318173117e-05
-1.6808283190698802e-05   2.985251971024394e-06   3.343952893836112e-05
-1.6808283190698802e-05   2.985251971024394e-06   3.343952893836112e-05
-1.6808283190698802e-05   2.985251971024394e-06   3.343952893836112e-05
-1.6808283190698802e-05   2.985251971024394e-06   3.343952893836112e-05
-1.0605324744565451e-05   2.180954937527988e-06   2.3583843081569978e-05
-1.0605324744565451e-05   2.180954937527988e-06   2.3583843081569978e-05
-1.0605324744565451e-05   2.180954937527988e-06   2.3583843081569978e-05
-1.0605324744565451e-05   2.180954937527988e-06   2.3583843081569978e-05
-1.3559783691182502e-05   2.884512193989568e-06   2.8085806972054947e-05
-1.3559783691182502e-05   2.884512193989568e-06   2.8085806972054947e-05
-1.3559783691182502e-05   2.884512193989568e-06   2.8085806972054947e-05
-1.3559783691182502e-05   2.884512193989568e-06   2.8085806972054947e-05
-1.0605324744565451e-05   2.985251971024394e-06   3.3922107158459005e-05
-1.0605324744565451e-05   2.985251971024394e-06   3.3922107158459005e-05
-1.0605324744565451e-05   2.985251971024394e-06   3.3922107158459005e-05
-1.0605324744565451e-05   2.985251971024394e-06   3.3922107158459005e-05
-1.6808283190698802e-05   2.180954937527988e-06   2.3101264861472254e-05
-1.6808283190698802e-05   2.180954937527988e-06   2.3101264861472254e-05
-1.6808283190698802e-05   2.180954937527988e-06   2.3101264861472254e-05
-1.6808283190698802e-05   2.180954937527988e-06   2.3101264861472254e-05
-1.710999427951312e-05   2.246435550383322e-06   3.3774436216415724e-05
-1.710999427951312e-05   2.246435550383322e-06   3.3774436216415724e-05
-1.710999427951312e-05   2.246435550383322e-06   3.3774436216415724e-05
-1.710999427951312e-05   2.246435550383322e-06   3.3774436216415724e-05
-1.094859588593065e-05   1.4816917460549767e-06   2.3964285176374827e-05
-1.094859588593065e-05   1.4816917460549767e-06   2.3964285176374827e-05
-1.094859588593065e-05   1.4816917460549767e-06   2.3964285176374827e-05
-1.094859588593065e-05   1.4816917460549767e-06   2.3964285176374827e-05
-1.3800261290317694e-05   2.3333451375521976e-06   2.820606881545509e-05
-1.3800261290317694e-05   2.3333451375521976e-06   2.820606881545509e-05
-1.3800261290317694e-05   2.3333451375521976e-06   2.820606881545509e-05
-1.3800261290317694e-05   2.3333451375521976e-06   2.820606881545509e-05
-1.094859588593065e-05   2.246435550383322e-06   3.42332824990123e-05
-1.094859588593065e-05   2.246435550383322e-06   3.42332824990123e-05
-1.094859588593065e-05   2.246435550383322e-06   3.42332824990123e-05
-1.094859588593065e-05   2.246435550383322e-06   3.42332824990123e-05
-1.710999427951312e-05   1.4816917460551936e-06   2.3505438893778037e-05
-1.710999427951312e-05   1.4816917460551936e-06   2.3505438893778037e-05
-1.710999427951312e-05   1.4816917460551936e-06   2.3505438893778037e-05
-1.710999427951312e-05   1.4816917460551936e-06   2.3505438893778037e-05
-1.7405469983263313e-05   1.5388757613826135e-06   3.4473261916751234e-05
-1.7405469983263313e-05   1.5388757613826135e-06   3.4473261916751234e-05
-1.7405469983263313e-05   1.5388757613826135e-06   3.4473261916751234e-05
-1.7405469983263313e-05   1.5388757613826135e-06   3.4473261916751234e-05
-1.1285190212366214e-05   8.185481614145663e-07   2.470499219190352e-05
-1.1285190212366214e-05   8.185481614145663e-07   2.470499219190352e-05
-1.1285190212366214e-05   8.185481614145663e-07   2.470499219190352e-05
-1.1285190212366214e-05   8.185481614145663e-07   2.470499219190352e-05
-1.4068217600853055e-05   1.7903736880433944e-06   2.876027585673775e-05
-1.4068217600853055e-05   1.7903736880433944e-06   2.876027585673775e-05
-1.4068217600853055e-05   1.7903736880433944e-06   2.876027585673775e-05
-1.4068217600853055e-05   1.7903736880433944e-06   2.876027585673775e-05
-1.6526808235686383e-05   5.5342030792875085e-06   2.9450405474908082e-05
-1.6526808235686383e-05   5.5342030792875085e-06   2.9450405474908082e-05
-1.6526808235686383e-05   5.5342030792875085e-06   2.9450405474908082e-05
-1.6526808235686383e-05   5.5342030792875085e-06   2.9450405474908082e-05
-2.2676568035991302e-05   3.875875883263243e-06   1.8205809490118524e-05
-2.2676568035991302e-05   3.875875883263243e-06   1.8205809490118524e-05
-2.2676568035991302e-05   3.875875883263243e-06   1.8205809490118524e-05
-2.2676568035991302e-05   3.875875883263243e-06   1.8205809490118524e-05
-2.2985765396060385e-05   4.7850752939427275e-06   2.858199131576056e-05
-2.2985765396060385e-05   4.7850752939427275e-06   2.858199131576056e-05
-2.2985765396060385e-05   4.7850752939427275e-06   2.858199131576056e-05
-2.2985765396060385e-05   4.7850752939427275e-06   2.858199131576056e-05
-1.6808283190698802e-05   3.1520184735961063e-06   1.926602173236611e-05
-1.6808283190698802e-05   3.1520184735961063e-06   1.926602173236611e-05
-1.6808283190698802e-05   3.1520184735961063e-06   1.926602173236611e-05
-1.6808283190698802e-05   3.1520184735961063e-06   1.926602173236611e-05
-1.9707534100001523e-05   4.300536509903828e-06   2.3408995759419192e-05
-1.9707534100001523e-05   4.300536509903828e-06   2.3408995759419192e-05
-1.9707534100001523e-05   4.300536509903828e-06   2.3408995759419192e-05
-1.9707534100001523e-05   4.300536509903828e-06   2.3408995759419192e-05
-1.6808283190698802e-05   4.785075293942944e-06   2.9561825407968534e-05
-1.6808283190698802e-05   4.785075293942944e-06   2.9561825407968534e-05
-1.6808283190698802e-05   4.785075293942944e-06   2.9561825407968534e-05
-1.6808283190698802e-05   4.785075293942944e-06   2.9561825407968534e-05
-2.298576539606033e-05   3.1520184735961063e-06   1.8286187640158003e-05
-2.298576539606033e-05   3.1520184735961063e-06   1.8286187640158003e-05
-2.298576539606033e-05   3.1520184735961063e-06   1.8286187640158003e-05
-2.298576539606033e-05   3.1520184735961063e-06   1.8286187640158003e-05
-2.3413536783730923e-05   4.10433165683676e-06   2.9532011059932783e-05
-2.3413536783730923e-05   4.10433165683676e-06   2.9532011059932783e-05
-2.3413536783730923e-05   4.10433165683676e-06   2.9532011059932783e-05
-2.3413536783730923e-05   4.10433165683676e-06   2.9532011059932783e-05
-1.710999427951312e-05   2.5083121563099393e-06   1.9983718586552676e-05
-1.710999427951312e-05   2.5083121563099393e-06   1.9983718586552676e-05
-1.710999427951312e-05   2.5083121563099393e-06   1.9983718586552676e-05
-1.710999427951312e-05   2.5083121563099393e-06   1.9983718586552676e-05
-1.9875644743225533e-05   3.7663436187225507e-06   2.3838317148625488e-05
-1.9875644743225533e-05   3.7663436187225507e-06   2.3838317148625488e-05
-1.9875644743225533e-05   3.7663436187225507e-06   2.3838317148625488e-05
-1.9875644743225533e-05   3.7663436187225507e-06   2.3838317148625488e-05
-1.7109994279513176e-05   4.1043316568369764e-06   3.0489622760248507e-05
-1.7109994279513176e-05   4.1043316568369764e-06   3.0489622760248507e-05
-1.7109994279513176e-05   4.1043316568369764e-06   3.0489622760248507e-05
-1.7109994279513176e-05   4.1043316568369764e-06   3.0489622760248507e-05
-2.3413536783730815e-05   2.5083121563099393e-06   1.9026106886236573e-05
-2.3413536783730815e-05   2.5083121563099393e-06   1.9026106886236573e-05
-2.3413536783730815e-05   2.5083121563099393e-06   1.9026106886236573e-05
-2.3413536783730815e-05   2.5083121563099393e-06   1.9026106886236573e-05
-2.3756579571095645e-05   3.3772057412776845e-06   3.058976274820241e-05
-2.3756579571095645e-05   3.3772057412776845e-06   3.058976274820241e-05
-2.3756579571095645e-05   3.3772057412776845e-06   3.058976274820241e-05
-2.3756579571095645e-05   3.3772057412776845e-06   3.058976274820241e-05
-1.7405469983263313e-05   1.8528449666880848e-06   2.0919196566569005e-05
-1.7405469983263313e-05   1.8528449666880848e-06   2.0919196566569005e-05
-1.7405469983263313e-05   1.8528449666880848e-06   2.0919196566569005e-05
-1.7405469983263313e-05   1.8528449666880848e-06   2.0919196566569005e-05
-2.0229692365848816e-05   3.2586782460870215e-06   2.47827339032395e-05
-2.0229692365848816e-05   3.2586782460870215e-06   2.47827339032395e-05
-2.0229692365848816e-05   3.2586782460870215e-06   2.47827339032395e-05
-2.0229692365848816e-05   3.2586782460870215e-06   2.47827339032395e-05
-2.2676568035991302e-05   6.803177555805232e-06   1.2979656427455455e-05
-2.2676568035991302e-05   6.803177555805232e-06   1.2979656427455455e-05
-2.2676568035991302e-05   6.803177555805232e-06   1.2979656427455455e-05
-2.2676568035991302e-05   6.803177555805232e-06   1.2979656427455455e-05
-2.7491785913484612e-05   4.574674699413988e-06   3.6171915844654038e-06
-2.7491785913484612e-05   4.574674699413988e-06   3.6171915844654038e-06
-2.7491785913484612e-05   4.574674699413988e-06   3.6171915844654038e-06
-2.7491785913484612e-05   4.574674699413988e-06   3.6171915844654038e-06
-2.8666677343156715e-05   6.418581126666325e-06   1.5212725867911475e-05
-2.8666677343156715e-05   6.418581126666325e-06   1.5212725867911475e-05
-2.8666677343156715e-05   6.418581126666325e-06   1.5212725867911475e-05
-2.8666677343156715e-05   6.418581126666325e-06   1.5212725867911475e-05
-2.298576539606033e-05   4.092930664111125e-06   7.139929566950514e-06
-2.298576539606033e-05   4.092930664111125e-06   7.139929566950514e-06
-2.298576539606033e-05   4.092930664111125e-06   7.139929566950514e-06
-2.298576539606033e-05   4.092930664111125e-06   7.139929566950514e-06
-2.4572306705845557e-05   5.418115031258913e-06   8.989054462970529e-06
-2.4572306705845557e-05   5.418115031258913e-06   8.989054462970529e-06
-2.4572306705845557e-05   5.418115031258913e-06   8.989054462970529e-06
-2.4572306705845557e-05   5.418115031258913e-06   8.989054462970529e-06
-2.2985765396060385e-05   6.418581126666325e-06   1.660811614544427e-05
-2.2985765396060385e-05   6.418581126666325e-06   1.660811614544427e-05
-2.2985765396060385e-05   6.418581126666325e-06   1.660811614544427e-05
-2.2985765396060385e-05   6.418581126666325e-06   1.660811614544427e-05
-2.8666677343156715e-05   4.0929306641109085e-06   5.744539289417357e-06
-2.8666677343156715e-05   4.0929306641109085e-06   5.744539289417357e-06
-2.8666677343156715e-05   4.0929306641109085e-06   5.744539289417357e-06
-2.8666677343156715e-05   4.0929306641109085e-06   5.744539289417357e-06
-2.9675731182229512e-05   6.0979495905240984e-06   1.791774020575747e-05
-2.9675731182229512e-05   6.0979495905240984e-06   1.791774020575747e-05
-2.9675731182229512e-05   6.0979495905240984e-06   1.791774020575747e-05
-2.9675731182229512e-05   6.0979495905240984e-06   1.791774020575747e-05
-2.341353678373087e-05   3.762360006302149e-06   8.882103292126358e-06
-2.341353678373087e-05   3.762360006302149e-06   8.882103292126358e-06
-2.341353678373087e-05   3.762360006302149e-06   8.882103292126358e-06
-2.341353678373087e-05   3.762360006302149e-06   8.882103292126358e-06
-2.5567195625153088e-05   5.2286391199905715e-06   1.1591767226284489e-05
-2.5567195625153088e-05   5.2286391199905715e-06   1.1591767226284489e-05
-2.5567195625153088e-05   5.2286391199905715e-06   1.1591767226284489e-05
-2.5567195625153088e-05   5.2286391199905715e-06   1.1591767226284489e-05
-2.341353678373087e-05   6.0979495905240984e-06   1.9319093956290728e-05
-2.341353678373087e-05   6.0979495905240984e-06   1.9319093956290728e-05
-2.341353678373087e-05   6.0979495905240984e-06   1.9319093956290728e-05
-2.341353678373087e-05   6.0979495905240984e-06   1.9319093956290728e-05
-2.967573118222973e-05   3.7623600063019322e-06   7.48074954159326e-06
-2.967573118222973e-05   3.7623600063019322e-06   7.48074954159326e-06
-2.967573118222973e-05   3.7623600063019322e-06   7.48074954159326e-06
-2.967573118222973e-05   3.7623600063019322e-06   7.48074954159326e-06
-3.0961389512944824e-05   5.2270162846277356e-06   2.2814134362614258e-05
-3.0961389512944824e-05   5.2270162846277356e-06   2.2814134362614258e-05
-3.0961389512944824e-05   5.2270162846277356e-06   2.2814134362614258e-05
-3.0961389512944824e-05   5.2270162846277356e-06   2.2814134362614258e-05
-2.375657957109559e-05   3.0046433585797627e-06   1.2139541548494294e-05
-2.375657957109559e-05   3.0046433585797627e-06   1.2139541548494294e-05
-2.375657957109559e-05   3.0046433585797627e-06   1.2139541548494294e-05
-2.375657957109559e-05   3.0046433585797627e-06   1.2139541548494294e-05
-2.5852654846777806e-05   4.867215771845032e-06   1.4515456893338693e-05
-2.5852654846777806e-05   4.867215771845032e-06   1.4515456893338693e-05
-2.5852654846777806e-05   4.867215771845032e-06   1.4515456893338693e-05
-2.5852654846777806e-05   4.867215771845032e-06   1.4515456893338693e-05
-1.1379272940081303e-05   2.063060104698193e-06   1.3422973362063498e-05
-1.1379272940081303e-05   2.063060104698193e-06   1.3422973362063498e-05
-1.1379272940081303e-05   2.063060104698193e-06   1.3422973362063498e-05
-1.1379272940081303e-05   2.063060104698193e-06   1.3422973362063498e-05
-1.2389815987669333e-05   3.886753514773943e-06   1.2832950995462231e-05
-1.2389815987669333e-05   3.886753514773943e-06   1.2832950995462231e-05
-1.2389815987669333e-05   3.886753514773943e-06   1.2832950995462231e-05
-1.2389815987669333e-05   3.886753514773943e-06   1.2832950995462231e-05
-1.2705721820588897e-05   1.3990736789076114e-06   1.4434136635372522e-05
-1.2705721820588897e-05   1.3990736789076114e-06   1.4434136635372522e-05
-1.2705721820588897e-05   1.3990736789076114e-06   1.4434136635372522e-05
-1.2705721820588897e-05   1.3990736789076114e-06   1.4434136635372522e-05
-1.2714119761150284e-05   3.038569382234524e-06   1.3464435780978799e-05
-1.2714119761150284e-05   3.038569382234524e-06   1.3464435780978799e-05
-1.2714119761150284e-05   3.038569382234524e-06   1.3464435780978799e-05
-1.2714119761150284e-05   3.038569382234524e-06   1.3464435780978799e-05
-1.1990151937245766e-05   2.4282989443122956e-06   1.2623985003891187e-05
-1.1990151937245766e-05   2.4282989443122956e-06   1.2623985003891187e-05
-1.1990151937245766e-05   2.4282989443122956e-06   1.2623985003891187e-05
-1.1990151937245766e-05   2.4282989443122956e-06   1.2623985003891187e-05
-1.2714119761150311e-05   1.3990736789078282e-06   1.3450439213376201e-05
-1.2714119761150311e-05   1.3990736789078282e-06   1.3450439213376201e-05
-1.2714119761150311e-05   1.3990736789078282e-06   1.3450439213376201e-05
-1.2714119761150311e-05   1.3990736789078282e-06   1.3450439213376201e-05
-1.2705721820588897e-05   3.038569382234524e-06   1.4448133202974822e-05
-1.2705721820588897e-05   3.038569382234524e-06   1.4448133202974822e-05
-1.2705721820588897e-05   3.038569382234524e-06   1.4448133202974822e-05
-1.2705721820588897e-05   3.038569382234524e-06   1.4448133202974822e-05
-1.3115841427633074e-05   1.0329105243269288e-06   1.489929646493937e-05
-1.3115841427633074e-05   1.0329105243269288e-06   1.489929646493937e-05
-1.3115841427633074e-05   1.0329105243269288e-06   1.489929646493937e-05
-1.3115841427633074e-05   1.0329105243269288e-06   1.489929646493937e-05
-1.4011749943178533e-05   2.4514433244772742e-06   1.5541357644091364e-05
-1.4011749943178533e-05   2.4514433244772742e-06   1.5541357644091364e-05
-1.4011749943178533e-05   2.4514433244772742e-06   1.5541357644091364e-05
-1.4011749943178533e-05   2.4514433244772742e-06   1.5541357644091364e-05
-1.2784967387033863e-05   2.0622253463693264e-06   1.3730250837381349e-05
-1.2784967387033863e-05   2.0622253463693264e-06   1.3730250837381349e-05
-1.2784967387033863e-05   2.0622253463693264e-06   1.3730250837381349e-05
-1.2784967387033863e-05   2.0622253463693264e-06   1.3730250837381349e-05
-1.401174994317856e-05   1.0329105243269288e-06   1.4048176784848816e-05
-1.401174994317856e-05   1.0329105243269288e-06   1.4048176784848816e-05
-1.401174994317856e-05   1.0329105243269288e-06   1.4048176784848816e-05
-1.401174994317856e-05   1.0329105243269288e-06   1.4048176784848816e-05
-1.3115841427633074e-05   2.4514433244772742e-06   1.6392477324181647e-05
-1.3115841427633074e-05   2.4514433244772742e-06   1.6392477324181647e-05
-1.3115841427633074e-05   2.4514433244772742e-06   1.6392477324181647e-05
-1.3115841427633074e-05   2.4514433244772742e-06   1.6392477324181647e-05
-1.3375874984400662e-05   2.556520456735347e-07   1.639035220569508e-05
-1.3375874984400662e-05   2.556520456735347e-07   1.639035220569508e-05
-1.3375874984400662e-05   2.556520456735347e-07   1.639035220569508e-05
-1.3375874984400662e-05   2.556520456735347e-07   1.639035220569508e-05
-1.539296945904545e-05   1.0069227436108061e-06   1.930141391134061e-05
-1.539296945904545e-05   1.0069227436108061e-06   1.930141391134061e-05
-1.539296945904545e-05   1.0069227436108061e-06   1.930141391134061e-05
-1.539296945904545e-05   1.0069227436108061e-06   1.930141391134061e-05
-1.3339527455938219e-05   1.6119691138949226e-06   1.551598275065756e-05
-1.3339527455938219e-05   1.6119691138949226e-06   1.551598275065756e-05
-1.3339527455938219e-05   1.6119691138949226e-06   1.551598275065756e-05
-1.3339527455938219e-05   1.6119691138949226e-06   1.551598275065756e-05
-1.2389815987669313e-05   2.3957447067243266e-06   2.6767764583087187e-05
-1.2389815987669313e-05   2.3957447067243266e-06   2.6767764583087187e-05
-1.2389815987669313e-05   2.3957447067243266e-06   2.6767764583087187e-05
-1.2389815987669313e-05   2.3957447067243266e-06   2.6767764583087187e-05
-1.2525473503266266e-05   1.0055431340739518e-06   2.570754778016875e-05
-1.2525473503266266e-05   1.0055431340739518e-06   2.570754778016875e-05
-1.2525473503266266e-05   1.0055431340739518e-06   2.570754778016875e-05
-1.2525473503266266e-05   1.0055431340739518e-06   2.570754778016875e-05
-1.2621653674382214e-05   1.6538843769524272e-06   2.5755441105062443e-05
-1.2621653674382214e-05   1.6538843769524272e-06   2.5755441105062443e-05
-1.2621653674382214e-05   1.6538843769524272e-06   2.5755441105062443e-05
-1.2621653674382214e-05   1.6538843769524272e-06   2.5755441105062443e-05
-1.2705721820588897e-05   4.834106373722115e-07   2.659783892582165e-05
-1.2705721820588897e-05   4.834106373722115e-07   2.659783892582165e-05
-1.2705721820588897e-05   4.834106373722115e-07   2.659783892582165e-05
-1.2705721820588897e-05   4.834106373722115e-07   2.659783892582165e-05
-1.252148532639852e-05   1.2249630195197876e-06   2.584584667288261e-05
-1.252148532639852e-05   1.2249630195197876e-06   2.584584667288261e-05
-1.252148532639852e-05   1.2249630195197876e-06   2.584584667288261e-05
-1.252148532639852e-05   1.2249630195197876e-06   2.584584667288261e-05
-1.2705721820588884e-05   1.653884376952644e-06   2.6457725348810225e-05
-1.2705721820588884e-05   1.653884376952644e-06   2.6457725348810225e-05
-1.2705721820588884e-05   1.653884376952644e-06   2.6457725348810225e-05
-1.2705721820588884e-05   1.653884376952644e-06   2.6457725348810225e-05
-1.2621653674382214e-05   4.834106373722115e-07   2.5895554682073502e-05
-1.2621653674382214e-05   4.834106373722115e-07   2.5895554682073502e-05
-1.2621653674382214e-05   4.834106373722115e-07   2.5895554682073502e-05
-1.2621653674382214e-05   4.834106373722115e-07   2.5895554682073502e-05
-1.2741111871597657e-05   9.68465511312069e-07   2.611368163828447e-05
-1.2741111871597657e-05   9.68465511312069e-07   2.611368163828447e-05
-1.2741111871597657e-05   9.68465511312069e-07   2.611368163828447e-05
-1.2741111871597657e-05   9.68465511312069e-07   2.611368163828447e-05
-1.3115841427633074e-05   -1.23201312248215e-07   2.7393230992479335e-05
-1.3115841427633074e-05   -1.23201312248215e-07   2.7393230992479335e-05
-1.3115841427633074e-05   -1.23201312248215e-07   2.7393230992479335e-05
-1.3115841427633074e-05   -1.23201312248215e-07   2.7393230992479335e-05
-1.2639664672522417e-05   7.918269254406519e-07   2.6050586124681325e-05
-1.2639664672522417e-05   7.918269254406519e-07   2.6050586124681325e-05
-1.2639664672522417e-05   7.918269254406519e-07   2.6050586124681325e-05
-1.2639664672522417e-05   7.918269254406519e-07   2.6050586124681325e-05
-1.3115841427633074e-05   9.68465511312069e-07   2.676868173242012e-05
-1.3115841427633074e-05   9.68465511312069e-07   2.676868173242012e-05
-1.3115841427633074e-05   9.68465511312069e-07   2.676868173242012e-05
-1.3115841427633074e-05   9.68465511312069e-07   2.676868173242012e-05
-1.2741111871597603e-05   -1.23201312248215e-07   2.6738230898343198e-05
-1.2741111871597603e-05   -1.23201312248215e-07   2.6738230898343198e-05
-1.2741111871597603e-05   -1.23201312248215e-07   2.6738230898343198e-05
-1.2741111871597603e-05   -1.23201312248215e-07   2.6738230898343198e-05
-1.2827179260057594e-05   2.2524339328183936e-07   2.6869933372175234e-05
-1.2827179260057594e-05   2.2524339328183936e-07   2.6869933372175234e-05
-1.2827179260057594e-05   2.2524339328183936e-07   2.6869933372175234e-05
-1.2827179260057594e-05   2.2524339328183936e-07   2.6869933372175234e-05
-1.3375874984400648e-05   -9.210554216729748e-07   2.847220553505292e-05
-1.3375874984400648e-05   -9.210554216729748e-07   2.847220553505292e-05
-1.3375874984400648e-05   -9.210554216729748e-07   2.847220553505292e-05
-1.3375874984400648e-05   -9.210554216729748e-07   2.847220553505292e-05
-1.282783277960243e-05   2.821264736391736e-07   2.683689272320135e-05
-1.282783277960243e-05   2.821264736391736e-07   2.683689272320135e-05
-1.282783277960243e-05   2.821264736391736e-07   2.683689272320135e-05
-1.282783277960243e-05   2.821264736391736e-07   2.683689272320135e-05
-1.252547350326632e-05   2.8689209500309173e-06   2.9530217050930557e-05
-1.252547350326632e-05   2.8689209500309173e-06   2.9530217050930557e-05
-1.252547350326632e-05   2.8689209500309173e-06   2.9530217050930557e-05
-1.252547350326632e-05   2.8689209500309173e-06   2.9530217050930557e-05
-1.3462025942189045e-05   2.790481633747118e-07   2.641537264739898e-05
-1.3462025942189045e-05   2.790481633747118e-07   2.641537264739898e-05
-1.3462025942189045e-05   2.790481633747118e-07   2.641537264739898e-05
-1.3462025942189045e-05   2.790481633747118e-07   2.641537264739898e-05
-1.3492813915610947e-05   2.180954937527988e-06   2.8019253975505778e-05
-1.3492813915610947e-05   2.180954937527988e-06   2.8019253975505778e-05
-1.3492813915610947e-05   2.180954937527988e-06   2.8019253975505778e-05
-1.3492813915610947e-05   2.180954937527988e-06   2.8019253975505778e-05
-1.2621653674382214e-05   -1.627198214340696e-07   2.797352509550184e-05
-1.2621653674382214e-05   -1.627198214340696e-07   2.797352509550184e-05
-1.2621653674382214e-05   -1.627198214340696e-07   2.797352509550184e-05
-1.2621653674382214e-05   -1.627198214340696e-07   2.797352509550184e-05
-1.3002860910495205e-05   1.2483498283046967e-06   2.7762228699180168e-05
-1.3002860910495205e-05   1.2483498283046967e-06   2.7762228699180168e-05
-1.3002860910495205e-05   1.2483498283046967e-06   2.7762228699180168e-05
-1.3002860910495205e-05   1.2483498283046967e-06   2.7762228699180168e-05
-1.2621653674382214e-05   2.180954937528205e-06   2.9425458830882926e-05
-1.2621653674382214e-05   2.180954937528205e-06   2.9425458830882926e-05
-1.2621653674382214e-05   2.180954937528205e-06   2.9425458830882926e-05
-1.2621653674382214e-05   2.180954937528205e-06   2.9425458830882926e-05
-1.3492813915610892e-05   -1.627198214340696e-07   2.656732024012464e-05
-1.3492813915610892e-05   -1.627198214340696e-07   2.656732024012464e-05
-1.3492813915610892e-05   -1.627198214340696e-07   2.656732024012464e-05
-1.3492813915610892e-05   -1.627198214340696e-07   2.656732024012464e-05
-1.3550542390366538e-05   1.4816917460551936e-06   2.84610380367437e-05
-1.3550542390366538e-05   1.4816917460551936e-06   2.84610380367437e-05
-1.3550542390366538e-05   1.4816917460551936e-06   2.84610380367437e-05
-1.3550542390366538e-05   1.4816917460551936e-06   2.84610380367437e-05
-1.2741111871597657e-05   -6.917775463599098e-07   2.8416068747577476e-05
-1.2741111871597657e-05   -6.917775463599098e-07   2.8416068747577476e-05
-1.2741111871597657e-05   -6.917775463599098e-07   2.8416068747577476e-05
-1.2741111871597657e-05   -6.917775463599098e-07   2.8416068747577476e-05
-1.3007919784377344e-05   8.104775466824966e-07   2.795939554638393e-05
-1.3007919784377344e-05   8.104775466824966e-07   2.795939554638393e-05
-1.3007919784377344e-05   8.104775466824966e-07   2.795939554638393e-05
-1.3007919784377344e-05   8.104775466824966e-07   2.795939554638393e-05
-1.2741111871597657e-05   1.4816917460549767e-06   2.9765119612192286e-05
-1.2741111871597657e-05   1.4816917460549767e-06   2.9765119612192286e-05
-1.2741111871597657e-05   1.4816917460549767e-06   2.9765119612192286e-05
-1.2741111871597657e-05   1.4816917460549767e-06   2.9765119612192286e-05
-1.3550542390366484e-05   -6.917775463599098e-07   2.711198717212854e-05
-1.3550542390366484e-05   -6.917775463599098e-07   2.711198717212854e-05
-1.3550542390366484e-05   -6.917775463599098e-07   2.711198717212854e-05
-1.3550542390366484e-05   -6.917775463599098e-07   2.711198717212854e-05
-1.3586601804021765e-05   8.185481614147831e-07   2.9248475026742715e-05
-1.3586601804021765e-05   8.185481614147831e-07   2.9248475026742715e-05
-1.3586601804021765e-05   8.185481614147831e-07   2.9248475026742715e-05
-1.3586601804021765e-05   8.185481614147831e-07   2.9248475026742715e-05
-1.2827179260057567e-05   -1.2234850421740263e-06   2.92079907089552e-05
-1.2827179260057567e-05   -1.2234850421740263e-06   2.92079907089552e-05
-1.2827179260057567e-05   -1.2234850421740263e-06   2.92079907089552e-05
-1.2827179260057567e-05   -1.2234850421740263e-06   2.92079907089552e-05
-1.3034482192723071e-05   3.6020878506283667e-07   2.860327930038803e-05
-1.3034482192723071e-05   3.6020878506283667e-07   2.860327930038803e-05
-1.3034482192723071e-05   3.6020878506283667e-07   2.860327930038803e-05
-1.3034482192723071e-05   3.6020878506283667e-07   2.860327930038803e-05
-1.3462025942189045e-05   3.875875883263243e-06   2.4045687868496962e-05
-1.3462025942189045e-05   3.875875883263243e-06   2.4045687868496962e-05
-1.3462025942189045e-05   3.875875883263243e-06   2.4045687868496962e-05
-1.3462025942189045e-05   3.875875883263243e-06   2.4045687868496962e-05
-1.4826986629259313e-05   1.2715215347534892e-06   2.020814078094091e-05
-1.4826986629259313e-05   1.2715215347534892e-06   2.020814078094091e-05
-1.4826986629259313e-05   1.2715215347534892e-06   2.020814078094091e-05
-1.4826986629259313e-05   1.2715215347534892e-06   2.020814078094091e-05
-1.4849055524222528e-05   3.1520184735961063e-06   2.270664911965619e-05
-1.4849055524222528e-05   3.1520184735961063e-06   2.270664911965619e-05
-1.4849055524222528e-05   3.1520184735961063e-06   2.270664911965619e-05
-1.4849055524222528e-05   3.1520184735961063e-06   2.270664911965619e-05
-1.3492813915610947e-05   6.897489290232962e-07   2.1923608165380442e-05
-1.3492813915610947e-05   6.897489290232962e-07   2.1923608165380442e-05
-1.3492813915610947e-05   6.897489290232962e-07   2.1923608165380442e-05
-1.3492813915610947e-05   6.897489290232962e-07   2.1923608165380442e-05
-1.4120649219862257e-05   2.301160683996833e-06   2.200315328614857e-05
-1.4120649219862257e-05   2.301160683996833e-06   2.200315328614857e-05
-1.4120649219862257e-05   2.301160683996833e-06   2.200315328614857e-05
-1.4120649219862257e-05   2.301160683996833e-06   2.200315328614857e-05
-1.3492813915610947e-05   3.1520184735958894e-06   2.4184010846399527e-05
-1.3492813915610947e-05   3.1520184735958894e-06   2.4184010846399527e-05
-1.3492813915610947e-05   3.1520184735958894e-06   2.4184010846399527e-05
-1.3492813915610947e-05   3.1520184735958894e-06   2.4184010846399527e-05
-1.4849055524222528e-05   6.897489290231878e-07   2.044624643863679e-05
-1.4849055524222528e-05   6.897489290231878e-07   2.044624643863679e-05
-1.4849055524222528e-05   6.897489290231878e-07   2.044624643863679e-05
-1.4849055524222528e-05   6.897489290231878e-07   2.044624643863679e-05
-1.5008218639606477e-05   2.5083121563099393e-06   2.3549370300365987e-05
-1.5008218639606477e-05   2.5083121563099393e-06   2.3549370300365987e-05
-1.5008218639606477e-05   2.5083121563099393e-06   2.3549370300365987e-05
-1.5008218639606477e-05   2.5083121563099393e-06   2.3549370300365987e-05
-1.3550542390366538e-05   1.9173310772261157e-07   2.2509857314118227e-05
-1.3550542390366538e-05   1.9173310772261157e-07   2.2509857314118227e-05
-1.3550542390366538e-05   1.9173310772261157e-07   2.2509857314118227e-05
-1.3550542390366538e-05   1.9173310772261157e-07   2.2509857314118227e-05
-1.4078281183047437e-05   1.8228673750314561e-06   2.2410741408199967e-05
-1.4078281183047437e-05   1.8228673750314561e-06   2.2410741408199967e-05
-1.4078281183047437e-05   1.8228673750314561e-06   2.2410741408199967e-05
-1.4078281183047437e-05   1.8228673750314561e-06   2.2410741408199967e-05
-1.3550542390366484e-05   2.5083121563099393e-06   2.49393177295178e-05
-1.3550542390366484e-05   2.5083121563099393e-06   2.49393177295178e-05
-1.3550542390366484e-05   2.5083121563099393e-06   2.49393177295178e-05
-1.3550542390366484e-05   2.5083121563099393e-06   2.49393177295178e-05
-1.5008218639606477e-05   1.9173310772261157e-07   2.1119909884965894e-05
-1.5008218639606477e-05   1.9173310772261157e-07   2.1119909884965894e-05
-1.5008218639606477e-05   1.9173310772261157e-07   2.1119909884965894e-05
-1.5008218639606477e-05   1.9173310772261157e-07   2.1119909884965894e-05
-1.510248112765694e-05   1.852844966687868e-06   2.459704672988115e-05
-1.510248112765694e-05   1.852844966687868e-06   2.459704672988115e-05
-1.510248112765694e-05   1.852844966687868e-06   2.459704672988115e-05
-1.510248112765694e-05   1.852844966687868e-06   2.459704672988115e-05
-1.3586601804021711e-05   -3.102037524918772e-07   2.3368410421996584e-05
-1.3586601804021711e-05   -3.102037524918772e-07   2.3368410421996584e-05
-1.3586601804021711e-05   -3.102037524918772e-07   2.3368410421996584e-05
-1.3586601804021711e-05   -3.102037524918772e-07   2.3368410421996584e-05
-1.4146700741363437e-05   1.3958776794444853e-06   2.3278259791737117e-05
-1.4146700741363437e-05   1.3958776794444853e-06   2.3278259791737117e-05
-1.4146700741363437e-05   1.3958776794444853e-06   2.3278259791737117e-05
-1.4146700741363437e-05   1.3958776794444853e-06   2.3278259791737117e-05
-1.4826986629259313e-05   4.574674699413771e-06   9.231559067572788e-06
-1.4826986629259313e-05   4.574674699413771e-06   9.231559067572788e-06
-1.4826986629259313e-05   4.574674699413771e-06   9.231559067572788e-06
-1.4826986629259313e-05   4.574674699413771e-06   9.231559067572788e-06
-1.4611606526149603e-05   2.0919511344446055e-06   8.100891767107323e-06
-1.4611606526149603e-05   2.0919511344446055e-06   8.100891767107323e-06
-1.4611606526149603e-05   2.0919511344446055e-06   8.100891767107323e-06
-1.4611606526149603e-05   2.0919511344446055e-06   8.100891767107323e-06
-1.536280837169282e-05   4.0929306641109085e-06   1.0113056402331335e-05
-1.536280837169282e-05   4.0929306641109085e-06   1.0113056402331335e-05
-1.536280837169282e-05   4.0929306641109085e-06   1.0113056402331335e-05
-1.536280837169282e-05   4.0929306641109085e-06   1.0113056402331335e-05
-1.4849055524222528e-05   1.6807062572487532e-06   1.07041363006646e-05
-1.4849055524222528e-05   1.6807062572487532e-06   1.07041363006646e-05
-1.4849055524222528e-05   1.6807062572487532e-06   1.07041363006646e-05
-1.4849055524222528e-05   1.6807062572487532e-06   1.07041363006646e-05
-1.442842855154926e-05   3.2170811581533516e-06   9.081266405666492e-06
-1.442842855154926e-05   3.2170811581533516e-06   9.081266405666492e-06
-1.442842855154926e-05   3.2170811581533516e-06   9.081266405666492e-06
-1.442842855154926e-05   3.2170811581533516e-06   9.081266405666492e-06
-1.484905552422242e-05   4.0929306641109085e-06   1.1560391046448347e-05
-1.484905552422242e-05   4.0929306641109085e-06   1.1560391046448347e-05
-1.484905552422242e-05   4.0929306641109085e-06   1.1560391046448347e-05
-1.484905552422242e-05   4.0929306641109085e-06   1.1560391046448347e-05
-1.5362808371692928e-05   1.6807062572488617e-06   9.256801656547426e-06
-1.5362808371692928e-05   1.6807062572488617e-06   9.256801656547426e-06
-1.5362808371692928e-05   1.6807062572488617e-06   9.256801656547426e-06
-1.5362808371692928e-05   1.6807062572488617e-06   9.256801656547426e-06
-1.6022672343228594e-05   3.762360006302149e-06   1.1994960935902011e-05
-1.6022672343228594e-05   3.762360006302149e-06   1.1994960935902011e-05
-1.6022672343228594e-05   3.762360006302149e-06   1.1994960935902011e-05
-1.6022672343228594e-05   3.762360006302149e-06   1.1994960935902011e-05
-1.5008218639606477e-05   1.4116837223793763e-06   1.1714610533552008e-05
-1.5008218639606477e-05   1.4116837223793763e-06   1.1714610533552008e-05
-1.5008218639606477e-05   1.4116837223793763e-06   1.1714610533552008e-05
-1.5008218639606477e-05   1.4116837223793763e-06   1.1714610533552008e-05
-1.4962952495434803e-05   2.976144025610035e-06   1.0700490777993538e-05
-1.4962952495434803e-05   2.976144025610035e-06   1.0700490777993538e-05
-1.4962952495434803e-05   2.976144025610035e-06   1.0700490777993538e-05
-1.4962952495434803e-05   2.976144025610035e-06   1.0700490777993538e-05
-1.5008218639606477e-05   3.762360006302149e-06   1.3405366706255393e-05
-1.5008218639606477e-05   3.762360006302149e-06   1.3405366706255393e-05
-1.5008218639606477e-05   3.762360006302149e-06   1.3405366706255393e-05
-1.5008218639606477e-05   3.762360006302149e-06   1.3405366706255393e-05
-1.6022672343228594e-05   1.411683722379268e-06   1.0304204763198464e-05
-1.6022672343228594e-05   1.411683722379268e-06   1.0304204763198464e-05
-1.6022672343228594e-05   1.411683722379268e-06   1.0304204763198464e-05
-1.6022672343228594e-05   1.411683722379268e-06   1.0304204763198464e-05
-1.7005739730653743e-05   3.0046433585797627e-06   1.545241502643943e-05
-1.7005739730653743e-05   3.0046433585797627e-06   1.545241502643943e-05
-1.7005739730653743e-05   3.0046433585797627e-06   1.545241502643943e-05
-1.7005739730653743e-05   3.0046433585797627e-06   1.545241502643943e-05
-1.5102481127656886e-05   8.719881083791344e-07   1.355991050489805e-05
-1.5102481127656886e-05   8.719881083791344e-07   1.355991050489805e-05
-1.5102481127656886e-05   8.719881083791344e-07   1.355991050489805e-05
-1.5102481127656886e-05   8.719881083791344e-07   1.355991050489805e-05
-1.5143478655245336e-05   2.6907626995799957e-06   1.2536974962823856e-05
-1.5143478655245336e-05   2.6907626995799957e-06   1.2536974962823856e-05
-1.5143478655245336e-05   2.6907626995799957e-06   1.2536974962823856e-05
-1.5143478655245336e-05   2.6907626995799957e-06   1.2536974962823856e-05
-2.9357719824197912e-05   3.886753514773943e-06   1.1207327449932569e-05
-2.9357719824197912e-05   3.886753514773943e-06   1.1207327449932569e-05
-2.9357719824197912e-05   3.886753514773943e-06   1.1207327449932569e-05
-2.9357719824197912e-05   3.886753514773943e-06   1.1207327449932569e-05
-1.979089174883016e-05   5.385480123544658e-06   2.8051276874141364e-05
-1.979089174883016e-05   5.385480123544658e-06   2.8051276874141364e-05
-1.979089174883016e-05   5.385480123544658e-06   2.8051276874141364e-05
-1.979089174883016e-05   5.385480123544658e-06   2.8051276874141364e-05
-1.9779381276792617e-05   3.038569382234524e-06   1.275866895984279e-05
-1.9779381276792617e-05   3.038569382234524e-06   1.275866895984279e-05
-1.9779381276792617e-05   3.038569382234524e-06   1.275866895984279e-05
-1.9779381276792617e-05   3.038569382234524e-06   1.275866895984279e-05
-3.23212056945639e-05   2.196745340929645e-06   3.416680408091147e-05
-3.23212056945639e-05   2.196745340929645e-06   3.416680408091147e-05
-3.23212056945639e-05   2.196745340929645e-06   3.416680408091147e-05
-3.23212056945639e-05   2.196745340929645e-06   3.416680408091147e-05
-2.4006734613331263e-05   3.194846214640769e-06   1.971049175463041e-05
-2.4006734613331263e-05   3.194846214640769e-06   1.971049175463041e-05
-2.4006734613331263e-05   3.194846214640769e-06   1.971049175463041e-05
-2.4006734613331263e-05   3.194846214640769e-06   1.971049175463041e-05
-3.2321205694563966e-05   3.038569382234524e-06   1.3263763384625815e-05
-3.2321205694563966e-05   3.038569382234524e-06   1.3263763384625815e-05
-3.2321205694563966e-05   3.038569382234524e-06   1.3263763384625815e-05
-3.2321205694563966e-05   3.038569382234524e-06   1.3263763384625815e-05
-1.9779381276792617e-05   2.196745340929645e-06   3.36617096561285e-05
-1.9779381276792617e-05   2.196745340929645e-06   3.36617096561285e-05
-1.9779381276792617e-05   2.196745340929645e-06   3.36617096561285e-05
-1.9779381276792617e-05   2.196745340929645e-06   3.36617096561285e-05
-2.0043990141712013e-05   2.4514433244772742e-06   1.4284115839961308e-05
-2.0043990141712013e-05   2.4514433244772742e-06   1.4284115839961308e-05
-2.0043990141712013e-05   2.4514433244772742e-06   1.4284115839961308e-05
-2.0043990141712013e-05   2.4514433244772742e-06   1.4284115839961308e-05
-3.243023722229694e-05   1.5816826992348827e-06   3.5449717349414766e-05
-3.243023722229694e-05   1.5816826992348827e-06   3.5449717349414766e-05
-3.243023722229694e-05   1.5816826992348827e-06   3.5449717349414766e-05
-3.243023722229694e-05   1.5816826992348827e-06   3.5449717349414766e-05
-2.5608829423288114e-05   2.0014986915518765e-06   2.38288147556763e-05
-2.5608829423288114e-05   2.0014986915518765e-06   2.38288147556763e-05
-2.5608829423288114e-05   2.0014986915518765e-06   2.38288147556763e-05
-2.5608829423288114e-05   2.0014986915518765e-06   2.38288147556763e-05
-3.2430237222297e-05   2.4514433244772742e-06   1.480597221510671e-05
-3.2430237222297e-05   2.4514433244772742e-06   1.480597221510671e-05
-3.2430237222297e-05   2.4514433244772742e-06   1.480597221510671e-05
-3.2430237222297e-05   2.4514433244772742e-06   1.480597221510671e-05
-2.0043990141711986e-05   1.5816826992348827e-06   3.4927860974269444e-05
-2.0043990141711986e-05   1.5816826992348827e-06   3.4927860974269444e-05
-2.0043990141711986e-05   1.5816826992348827e-06   3.4927860974269444e-05
-2.0043990141711986e-05   1.5816826992348827e-06   3.4927860974269444e-05
-1.9824894973650994e-05   1.0069227436108061e-06   1.6953278776529312e-05
-1.9824894973650994e-05   1.0069227436108061e-06   1.6953278776529312e-05
-1.9824894973650994e-05   1.0069227436108061e-06   1.6953278776529312e-05
-1.9824894973650994e-05   1.0069227436108061e-06   1.6953278776529312e-05
-3.27730744697819e-05   -1.0307901566146806e-06   3.9756205676882674e-05
-3.27730744697819e-05   -1.0307901566146806e-06   3.9756205676882674e-05
-3.27730744697819e-05   -1.0307901566146806e-06   3.9756205676882674e-05
-3.27730744697819e-05   -1.0307901566146806e-06   3.9756205676882674e-05
-2.5212688110572955e-05   9.772774257820957e-07   2.5950721195429664e-05
-2.5212688110572955e-05   9.772774257820957e-07   2.5950721195429664e-05
-2.5212688110572955e-05   9.772774257820957e-07   2.5950721195429664e-05
-2.5212688110572955e-05   9.772774257820957e-07   2.5950721195429664e-05
-1.9790891748830193e-05   1.0055431340738434e-06   2.581528114349173e-05
-1.9790891748830193e-05   1.0055431340738434e-06   2.581528114349173e-05
-1.9790891748830193e-05   1.0055431340738434e-06   2.581528114349173e-05
-1.9790891748830193e-05   1.0055431340738434e-06   2.581528114349173e-05
-1.2129584419857389e-05   -6.0329749158526905e-06   3.436101586182382e-05
-1.2129584419857389e-05   -6.0329749158526905e-06   3.436101586182382e-05
-1.2129584419857389e-05   -6.0329749158526905e-06   3.436101586182382e-05
-1.2129584419857389e-05   -6.0329749158526905e-06   3.436101586182382e-05
-1.2150897649122186e-05   4.834106373722115e-07   2.165655646522253e-05
-1.2150897649122186e-05   4.834106373722115e-07   2.165655646522253e-05
-1.2150897649122186e-05   4.834106373722115e-07   2.165655646522253e-05
-1.2150897649122186e-05   4.834106373722115e-07   2.165655646522253e-05
-1.9779381276792617e-05   -4.936286391739515e-06   3.7622514062140674e-05
-1.9779381276792617e-05   -4.936286391739515e-06   3.7622514062140674e-05
-1.9779381276792617e-05   -4.936286391739515e-06   3.7622514062140674e-05
-1.9779381276792617e-05   -4.936286391739515e-06   3.7622514062140674e-05
-1.587678236344709e-05   -2.9825501670818202e-06   2.9945940805103526e-05
-1.587678236344709e-05   -2.9825501670818202e-06   2.9945940805103526e-05
-1.587678236344709e-05   -2.9825501670818202e-06   2.9945940805103526e-05
-1.587678236344709e-05   -2.9825501670818202e-06   2.9945940805103526e-05
-1.977938127679263e-05   4.834106373722115e-07   2.4908374682689523e-05
-1.977938127679263e-05   4.834106373722115e-07   2.4908374682689523e-05
-1.977938127679263e-05   4.834106373722115e-07   2.4908374682689523e-05
-1.977938127679263e-05   4.834106373722115e-07   2.4908374682689523e-05
-1.2150897649122158e-05   -4.936286391739515e-06   3.437069584467356e-05
-1.2150897649122158e-05   -4.936286391739515e-06   3.437069584467356e-05
-1.2150897649122158e-05   -4.936286391739515e-06   3.437069584467356e-05
-1.2150897649122158e-05   -4.936286391739515e-06   3.437069584467356e-05
-1.2194007028984937e-05   -1.23201312248215e-07   2.2329115269802678e-05
-1.2194007028984937e-05   -1.23201312248215e-07   2.2329115269802678e-05
-1.2194007028984937e-05   -1.23201312248215e-07   2.2329115269802678e-05
-1.2194007028984937e-05   -1.23201312248215e-07   2.2329115269802678e-05
-2.0043990141711986e-05   -5.049458376342225e-06   3.836817469613741e-05
-2.0043990141711986e-05   -5.049458376342225e-06   3.836817469613741e-05
-2.0043990141711986e-05   -5.049458376342225e-06   3.836817469613741e-05
-2.0043990141711986e-05   -5.049458376342225e-06   3.836817469613741e-05
-1.5757611274403563e-05   -2.6056195106365088e-06   2.975790659786638e-05
-1.5757611274403563e-05   -2.6056195106365088e-06   2.975790659786638e-05
-1.5757611274403563e-05   -2.6056195106365088e-06   2.975790659786638e-05
-1.5757611274403563e-05   -2.6056195106365088e-06   2.975790659786638e-05
-2.0043990141712013e-05   -1.23201312248215e-07   2.528486950825916e-05
-2.0043990141712013e-05   -1.23201312248215e-07   2.528486950825916e-05
-2.0043990141712013e-05   -1.23201312248215e-07   2.528486950825916e-05
-2.0043990141712013e-05   -1.23201312248215e-07   2.528486950825916e-05
-1.2194007028984937e-05   -5.049458376342225e-06   3.5412420457680926e-05
-1.2194007028984937e-05   -5.049458376342225e-06   3.5412420457680926e-05
-1.2194007028984937e-05   -5.049458376342225e-06   3.5412420457680926e-05
-1.2194007028984937e-05   -5.049458376342225e-06   3.5412420457680926e-05
-1.206943707330292e-05   -9.210554216729748e-07   2.3166700752090064e-05
-1.206943707330292e-05   -9.210554216729748e-07   2.3166700752090064e-05
-1.206943707330292e-05   -9.210554216729748e-07   2.3166700752090064e-05
-1.206943707330292e-05   -9.210554216729748e-07   2.3166700752090064e-05
-1.982489497365094e-05   -5.098734137321773e-06   3.859907114872588e-05
-1.982489497365094e-05   -5.098734137321773e-06   3.859907114872588e-05
-1.982489497365094e-05   -5.098734137321773e-06   3.859907114872588e-05
-1.982489497365094e-05   -5.098734137321773e-06   3.859907114872588e-05
-1.582605295911073e-05   -2.9279930204256614e-06   3.0631889787688014e-05
-1.582605295911073e-05   -2.9279930204256614e-06   3.0631889787688014e-05
-1.582605295911073e-05   -2.9279930204256614e-06   3.0631889787688014e-05
-1.582605295911073e-05   -2.9279930204256614e-06   3.0631889787688014e-05
-1.2129584419857389e-05   2.790481633747118e-07   2.3853918852759725e-05
-1.2129584419857389e-05   2.790481633747118e-07   2.3853918852759725e-05
-1.2129584419857389e-05   2.790481633747118e-07   2.3853918852759725e-05
-1.2129584419857389e-05   2.790481633747118e-07   2.3853918852759725e-05
-8.91035111340641e-06   -4.712529634200624e-06   2.6224361018299624e-05
-8.91035111340641e-06   -4.712529634200624e-06   2.6224361018299624e-05
-8.91035111340641e-06   -4.712529634200624e-06   2.6224361018299624e-05
-8.91035111340641e-06   -4.712529634200624e-06   2.6224361018299624e-05
-8.82730449836515e-06   -1.627198214340696e-07   2.1055216513951158e-05
-8.82730449836515e-06   -1.627198214340696e-07   2.1055216513951158e-05
-8.82730449836515e-06   -1.627198214340696e-07   2.1055216513951158e-05
-8.82730449836515e-06   -1.627198214340696e-07   2.1055216513951158e-05
-1.2150897649122158e-05   -4.628237095933554e-06   2.9273848796579534e-05
-1.2150897649122158e-05   -4.628237095933554e-06   2.9273848796579534e-05
-1.2150897649122158e-05   -4.628237095933554e-06   2.9273848796579534e-05
-1.2150897649122158e-05   -4.628237095933554e-06   2.9273848796579534e-05
-1.0439465561320845e-05   -2.382362494120975e-06   2.507393722248996e-05
-1.0439465561320845e-05   -2.382362494120975e-06   2.507393722248996e-05
-1.0439465561320845e-05   -2.382362494120975e-06   2.507393722248996e-05
-1.0439465561320845e-05   -2.382362494120975e-06   2.507393722248996e-05
-1.2150897649122158e-05   -1.627198214340696e-07   2.3734526878650924e-05
-1.2150897649122158e-05   -1.627198214340696e-07   2.3734526878650924e-05
-1.2150897649122158e-05   -1.627198214340696e-07   2.3734526878650924e-05
-1.2150897649122158e-05   -1.627198214340696e-07   2.3734526878650924e-05
-8.82730449836515e-06   -4.628237095933554e-06   2.6594538431879902e-05
-8.82730449836515e-06   -4.628237095933554e-06   2.6594538431879902e-05
-8.82730449836515e-06   -4.628237095933554e-06   2.6594538431879902e-05
-8.82730449836515e-06   -4.628237095933554e-06   2.6594538431879902e-05
-8.754911351349778e-06   -6.917775463599098e-07   2.1559862289544443e-05
-8.754911351349778e-06   -6.917775463599098e-07   2.1559862289544443e-05
-8.754911351349778e-06   -6.917775463599098e-07   2.1559862289544443e-05
-8.754911351349778e-06   -6.917775463599098e-07   2.1559862289544443e-05
-1.2194007028984937e-05   -4.770262262180909e-06   2.9738779248428878e-05
-1.2194007028984937e-05   -4.770262262180909e-06   2.9738779248428878e-05
-1.2194007028984937e-05   -4.770262262180909e-06   2.9738779248428878e-05
-1.2194007028984937e-05   -4.770262262180909e-06   2.9738779248428878e-05
-1.0343861391009024e-05   -2.5423667004501873e-06   2.5318465848096674e-05
-1.0343861391009024e-05   -2.5423667004501873e-06   2.5318465848096674e-05
-1.0343861391009024e-05   -2.5423667004501873e-06   2.5318465848096674e-05
-1.0343861391009024e-05   -2.5423667004501873e-06   2.5318465848096674e-05
-1.2194007028984937e-05   -6.917775463599098e-07   2.4006953119037064e-05
-1.2194007028984937e-05   -6.917775463599098e-07   2.4006953119037064e-05
-1.2194007028984937e-05   -6.917775463599098e-07   2.4006953119037064e-05
-1.2194007028984937e-05   -6.917775463599098e-07   2.4006953119037064e-05
-8.754911351349778e-06   -4.770262262180963e-06   2.7291688418936365e-05
-8.754911351349778e-06   -4.770262262180963e-06   2.7291688418936365e-05
-8.754911351349778e-06   -4.770262262180963e-06   2.7291688418936365e-05
-8.754911351349778e-06   -4.770262262180963e-06   2.7291688418936365e-05
-8.57842674184333e-06   -1.2234850421740263e-06   2.23407875777885e-05
-8.57842674184333e-06   -1.2234850421740263e-06   2.23407875777885e-05
-8.57842674184333e-06   -1.2234850421740263e-06   2.23407875777885e-05
-8.57842674184333e-06   -1.2234850421740263e-06   2.23407875777885e-05
-1.206943707330292e-05   -4.9726144374688465e-06   3.0408615767397735e-05
-1.206943707330292e-05   -4.9726144374688465e-06   3.0408615767397735e-05
-1.206943707330292e-05   -4.9726144374688465e-06   3.0408615767397735e-05
-1.206943707330292e-05   -4.9726144374688465e-06   3.0408615767397735e-05
-1.023183825292518e-05   -2.774932113332575e-06   2.602734167228641e-05
-1.023183825292518e-05   -2.774932113332575e-06   2.602734167228641e-05
-1.023183825292518e-05   -2.774932113332575e-06   2.602734167228641e-05
-1.023183825292518e-05   -2.774932113332575e-06   2.602734167228641e-05
-8.91035111340641e-06   1.2715215347534892e-06   1.6214352916862147e-05
-8.91035111340641e-06   1.2715215347534892e-06   1.6214352916862147e-05
-8.91035111340641e-06   1.2715215347534892e-06   1.6214352916862147e-05
-8.91035111340641e-06   1.2715215347534892e-06   1.6214352916862147e-05
-7.413285163739361e-06   -1.9323654003079466e-06   1.6787130671937125e-05
-7.413285163739361e-06   -1.9323654003079466e-06   1.6787130671937125e-05
-7.413285163739361e-06   -1.9323654003079466e-06   1.6787130671937125e-05
-7.413285163739361e-06   -1.9323654003079466e-06   1.6787130671937125e-05
-7.250102128010733e-06   6.897489290232962e-07   1.4639688989005056e-05
-7.250102128010733e-06   6.897489290232962e-07   1.4639688989005056e-05
-7.250102128010733e-06   6.897489290232962e-07   1.4639688989005056e-05
-7.250102128010733e-06   6.897489290232962e-07   1.4639688989005056e-05
-8.82730449836515e-06   -2.2632768213135543e-06   1.9040175056464557e-05
-8.82730449836515e-06   -2.2632768213135543e-06   1.9040175056464557e-05
-8.82730449836515e-06   -2.2632768213135543e-06   1.9040175056464557e-05
-8.82730449836515e-06   -2.2632768213135543e-06   1.9040175056464557e-05
-8.040975568135699e-06   -4.406154095835252e-07   1.6636029992377825e-05
-8.040975568135699e-06   -4.406154095835252e-07   1.6636029992377825e-05
-8.040975568135699e-06   -4.406154095835252e-07   1.6636029992377825e-05
-8.040975568135699e-06   -4.406154095835252e-07   1.6636029992377825e-05
-8.82730449836515e-06   6.897489290232962e-07   1.641150443920707e-05
-8.82730449836515e-06   6.897489290232962e-07   1.641150443920707e-05
-8.82730449836515e-06   6.897489290232962e-07   1.641150443920707e-05
-8.82730449836515e-06   6.897489290232962e-07   1.641150443920707e-05
-7.250102128010733e-06   -2.2632768213135543e-06   1.72683596062626e-05
-7.250102128010733e-06   -2.2632768213135543e-06   1.72683596062626e-05
-7.250102128010733e-06   -2.2632768213135543e-06   1.72683596062626e-05
-7.250102128010733e-06   -2.2632768213135543e-06   1.72683596062626e-05
-7.174310924476415e-06   1.9173310772261157e-07   1.533293718799112e-05
-7.174310924476415e-06   1.9173310772261157e-07   1.533293718799112e-05
-7.174310924476415e-06   1.9173310772261157e-07   1.533293718799112e-05
-7.174310924476415e-06   1.9173310772261157e-07   1.533293718799112e-05
-8.754911351349724e-06   -2.5162589648492265e-06   1.9592066476322627e-05
-8.754911351349724e-06   -2.5162589648492265e-06   1.9592066476322627e-05
-8.754911351349724e-06   -2.5162589648492265e-06   1.9592066476322627e-05
-8.754911351349724e-06   -2.5162589648492265e-06   1.9592066476322627e-05
-7.879289937173686e-06   -7.956143972164204e-07   1.7100310712115578e-05
-7.879289937173686e-06   -7.956143972164204e-07   1.7100310712115578e-05
-7.879289937173686e-06   -7.956143972164204e-07   1.7100310712115578e-05
-7.879289937173686e-06   -7.956143972164204e-07   1.7100310712115578e-05
-8.754911351349724e-06   1.9173310772261157e-07   1.6957732431533996e-05
-8.754911351349724e-06   1.9173310772261157e-07   1.6957732431533996e-05
-8.754911351349724e-06   1.9173310772261157e-07   1.6957732431533996e-05
-8.754911351349724e-06   1.9173310772261157e-07   1.6957732431533996e-05
-7.174310924476415e-06   -2.5162589648491723e-06   1.796727123277959e-05
-7.174310924476415e-06   -2.5162589648491723e-06   1.796727123277959e-05
-7.174310924476415e-06   -2.5162589648491723e-06   1.796727123277959e-05
-7.174310924476415e-06   -2.5162589648491723e-06   1.796727123277959e-05
-7.051627121403903e-06   -3.102037524918772e-07   1.6203530723725174e-05
-7.051627121403903e-06   -3.102037524918772e-07   1.6203530723725174e-05
-7.051627121403903e-06   -3.102037524918772e-07   1.6203530723725174e-05
-7.051627121403903e-06   -3.102037524918772e-07   1.6203530723725174e-05
-8.57842674184333e-06   -2.8483645679217603e-06   2.027109324704852e-05
-8.57842674184333e-06   -2.8483645679217603e-06   2.027109324704852e-05
-8.57842674184333e-06   -2.8483645679217603e-06   2.027109324704852e-05
-8.57842674184333e-06   -2.8483645679217603e-06   2.027109324704852e-05
-7.75255975592613e-06   -1.1063741912544379e-06   1.7849454044520092e-05
-7.75255975592613e-06   -1.1063741912544379e-06   1.7849454044520092e-05
-7.75255975592613e-06   -1.1063741912544379e-06   1.7849454044520092e-05
-7.75255975592613e-06   -1.1063741912544379e-06   1.7849454044520092e-05
-7.413285163739361e-06   2.091951134444497e-06   3.674405880973368e-06
-7.413285163739361e-06   2.091951134444497e-06   3.674405880973368e-06
-7.413285163739361e-06   2.091951134444497e-06   3.674405880973368e-06
-7.413285163739361e-06   2.091951134444497e-06   3.674405880973368e-06
-4.263126435592041e-06   -2.1845108421925672e-07   7.538429096687295e-06
-4.263126435592041e-06   -2.1845108421925672e-07   7.538429096687295e-06
-4.263126435592041e-06   -2.1845108421925672e-07   7.538429096687295e-06
-4.263126435592041e-06   -2.1845108421925672e-07   7.538429096687295e-06
-4.502164188318735e-06   1.6807062572488617e-06   3.7069667975519766e-06
-4.502164188318735e-06   1.6807062572488617e-06   3.7069667975519766e-06
-4.502164188318735e-06   1.6807062572488617e-06   3.7069667975519766e-06
-4.502164188318735e-06   1.6807062572488617e-06   3.7069667975519766e-06
-7.250102128010733e-06   -3.03647165219472e-07   9.477475417186227e-06
-7.250102128010733e-06   -3.03647165219472e-07   9.477475417186227e-06
-7.250102128010733e-06   -3.03647165219472e-07   9.477475417186227e-06
-7.250102128010733e-06   -3.03647165219472e-07   9.477475417186227e-06
-5.655822202392242e-06   1.0748448106713939e-06   5.993247022288077e-06
-5.655822202392242e-06   1.0748448106713939e-06   5.993247022288077e-06
-5.655822202392242e-06   1.0748448106713939e-06   5.993247022288077e-06
-5.655822202392242e-06   1.0748448106713939e-06   5.993247022288077e-06
-7.250102128010733e-06   1.6807062572487532e-06   4.897578851032771e-06
-7.250102128010733e-06   1.6807062572487532e-06   4.897578851032771e-06
-7.250102128010733e-06   1.6807062572487532e-06   4.897578851032771e-06
-7.250102128010733e-06   1.6807062572487532e-06   4.897578851032771e-06
-4.502164188318735e-06   -3.036471652195262e-07   8.286863363705325e-06
-4.502164188318735e-06   -3.036471652195262e-07   8.286863363705325e-06
-4.502164188318735e-06   -3.036471652195262e-07   8.286863363705325e-06
-4.502164188318735e-06   -3.036471652195262e-07   8.286863363705325e-06
-4.697851943371765e-06   1.4116837223793763e-06   4.829054514023318e-06
-4.697851943371765e-06   1.4116837223793763e-06   4.829054514023318e-06
-4.697851943371765e-06   1.4116837223793763e-06   4.829054514023318e-06
-4.697851943371765e-06   1.4116837223793763e-06   4.829054514023318e-06
-7.174310924476415e-06   -4.192884818774757e-07   1.0055069471751402e-05
-7.174310924476415e-06   -4.192884818774757e-07   1.0055069471751402e-05
-7.174310924476415e-06   -4.192884818774757e-07   1.0055069471751402e-05
-7.174310924476415e-06   -4.192884818774757e-07   1.0055069471751402e-05
-5.751416025476404e-06   8.708663472645813e-07   6.9094850759322595e-06
-5.751416025476404e-06   8.708663472645813e-07   6.9094850759322595e-06
-5.751416025476404e-06   8.708663472645813e-07   6.9094850759322595e-06
-5.751416025476404e-06   8.708663472645813e-07   6.9094850759322595e-06
-7.174310924476415e-06   1.4116837223793763e-06   5.927637836577256e-06
-7.174310924476415e-06   1.4116837223793763e-06   5.927637836577256e-06
-7.174310924476415e-06   1.4116837223793763e-06   5.927637836577256e-06
-7.174310924476415e-06   1.4116837223793763e-06   5.927637836577256e-06
-4.697851943371765e-06   -4.192884818774757e-07   8.956486149197355e-06
-4.697851943371765e-06   -4.192884818774757e-07   8.956486149197355e-06
-4.697851943371765e-06   -4.192884818774757e-07   8.956486149197355e-06
-4.697851943371765e-06   -4.192884818774757e-07   8.956486149197355e-06
-5.186168995726173e-06   8.719881083791344e-07   6.834523954059009e-06
-5.186168995726173e-06   8.719881083791344e-07   6.834523954059009e-06
-5.186168995726173e-06   8.719881083791344e-07   6.834523954059009e-06
-5.186168995726173e-06   8.719881083791344e-07   6.834523954059009e-06
-7.051627121403903e-06   -5.585720317466815e-07   1.0801956914263818e-05
-7.051627121403903e-06   -5.585720317466815e-07   1.0801956914263818e-05
-7.051627121403903e-06   -5.585720317466815e-07   1.0801956914263818e-05
-7.051627121403903e-06   -5.585720317466815e-07   1.0801956914263818e-05
-5.761141879903891e-06   7.334130127322445e-07   7.875957151743133e-06
-5.761141879903891e-06   7.334130127322445e-07   7.875957151743133e-06
-5.761141879903891e-06   7.334130127322445e-07   7.875957151743133e-06
-5.761141879903891e-06   7.334130127322445e-07   7.875957151743133e-06
-6.860549968425156e-05   5.385480123544658e-06   2.9197395315713444e-05
-6.860549968425156e-05   5.385480123544658e-06   2.9197395315713444e-05
-6.860549968425156e-05   5.385480123544658e-06   2.9197395315713444e-05
-6.860549968425156e-05   5.385480123544658e-06   2.9197395315713444e-05
-1.6151684149304742e-05   -3.32765579784744e-05   9.342319834608008e-05
-1.6151684149304742e-05   -3.32765579784744e-05   9.342319834608008e-05
-1.6151684149304742e-05   -3.32765579784744e-05   9.342319834608008e-05
-1.6151684149304742e-05   -3.32765579784744e-05   9.342319834608008e-05
-1.894203621443333e-05   2.196745340929591e-06   1.604769797956441e-05
-1.894203621443333e-05   2.196745340929591e-06   1.604769797956441e-05
-1.894203621443333e-05   2.196745340929591e-06   1.604769797956441e-05
-1.894203621443333e-05   2.196745340929591e-06   1.604769797956441e-05
-6.257003711331461e-05   -2.5826765224348025e-05   0.00010557513915019964
-6.257003711331461e-05   -2.5826765224348025e-05   0.00010557513915019964
-6.257003711331461e-05   -2.5826765224348025e-05   0.00010557513915019964
-6.257003711331461e-05   -2.5826765224348025e-05   0.00010557513915019964
-4.1724453840976575e-05   -1.2859507571125504e-05   6.305214577103608e-05
-4.1724453840976575e-05   -1.2859507571125504e-05   6.305214577103608e-05
-4.1724453840976575e-05   -1.2859507571125504e-05   6.305214577103608e-05
-4.1724453840976575e-05   -1.2859507571125504e-05   6.305214577103608e-05
-6.25700371133145e-05   2.196745340929591e-06   3.2861804318730945e-05
-6.25700371133145e-05   2.196745340929591e-06   3.2861804318730945e-05
-6.25700371133145e-05   2.196745340929591e-06   3.2861804318730945e-05
-6.25700371133145e-05   2.196745340929591e-06   3.2861804318730945e-05
-1.8942036214433358e-05   -2.5826765224348025e-05   8.876103281103305e-05
-1.8942036214433358e-05   -2.5826765224348025e-05   8.876103281103305e-05
-1.8942036214433358e-05   -2.5826765224348025e-05   8.876103281103305e-05
-1.8942036214433358e-05   -2.5826765224348025e-05   8.876103281103305e-05
-1.9362397205161688e-05   1.581682699234937e-06   1.7633097662307358e-05
-1.9362397205161688e-05   1.581682699234937e-06   1.7633097662307358e-05
-1.9362397205161688e-05   1.581682699234937e-06   1.7633097662307358e-05
-1.9362397205161688e-05   1.581682699234937e-06   1.7633097662307358e-05
-5.903480867812501e-05   -2.2232051502019155e-05   9.804202397133184e-05
-5.903480867812501e-05   -2.2232051502019155e-05   9.804202397133184e-05
-5.903480867812501e-05   -2.2232051502019155e-05   9.804202397133184e-05
-5.903480867812501e-05   -2.2232051502019155e-05   9.804202397133184e-05
-4.047023733298139e-05   -1.217909659987268e-05   6.1069298788138e-05
-4.047023733298139e-05   -1.217909659987268e-05   6.1069298788138e-05
-4.047023733298139e-05   -1.217909659987268e-05   6.1069298788138e-05
-4.047023733298139e-05   -1.217909659987268e-05   6.1069298788138e-05
-5.903480867812491e-05   1.581682699234937e-06   3.192133818305976e-05
-5.903480867812491e-05   1.581682699234937e-06   3.192133818305976e-05
-5.903480867812491e-05   1.581682699234937e-06   3.192133818305976e-05
-5.903480867812491e-05   1.581682699234937e-06   3.192133818305976e-05
-1.9362397205161715e-05   -2.2232051502019155e-05   8.375378345057943e-05
-1.9362397205161715e-05   -2.2232051502019155e-05   8.375378345057943e-05
-1.9362397205161715e-05   -2.2232051502019155e-05   8.375378345057943e-05
-1.9362397205161715e-05   -2.2232051502019155e-05   8.375378345057943e-05
-2.1193117597271044e-05   -1.0307901566146806e-06   2.208818646933102e-05
-2.1193117597271044e-05   -1.0307901566146806e-06   2.208818646933102e-05
-2.1193117597271044e-05   -1.0307901566146806e-06   2.208818646933102e-05
-2.1193117597271044e-05   -1.0307901566146806e-06   2.208818646933102e-05
-5.450587763911465e-05   -1.746149643740973e-05   8.746787697421388e-05
-5.450587763911465e-05   -1.746149643740973e-05   8.746787697421388e-05
-5.450587763911465e-05   -1.746149643740973e-05   8.746787697421388e-05
-5.450587763911465e-05   -1.746149643740973e-05   8.746787697421388e-05
-3.8918118942523944e-05   -1.124063625450284e-05   5.775576303681863e-05
-3.8918118942523944e-05   -1.124063625450284e-05   5.775576303681863e-05
-3.8918118942523944e-05   -1.124063625450284e-05   5.775576303681863e-05
-3.8918118942523944e-05   -1.124063625450284e-05   5.775576303681863e-05
-1.61516841493047e-05   -6.0329749158526905e-06   1.6533022272140403e-05
-1.61516841493047e-05   -6.0329749158526905e-06   1.6533022272140403e-05
-1.61516841493047e-05   -6.0329749158526905e-06   1.6533022272140403e-05
-1.61516841493047e-05   -6.0329749158526905e-06   1.6533022272140403e-05
-5.6331045745463475e-06   -1.0247235595559614e-05   3.153543182224696e-05
-5.6331045745463475e-06   -1.0247235595559614e-05   3.153543182224696e-05
-5.6331045745463475e-06   -1.0247235595559614e-05   3.153543182224696e-05
-5.6331045745463475e-06   -1.0247235595559614e-05   3.153543182224696e-05
-6.2833985222566385e-06   -4.936286391739515e-06   1.4801472312546383e-05
-6.2833985222566385e-06   -4.936286391739515e-06   1.4801472312546383e-05
-6.2833985222566385e-06   -4.936286391739515e-06   1.4801472312546383e-05
-6.2833985222566385e-06   -4.936286391739515e-06   1.4801472312546383e-05
-1.8942036214433358e-05   -1.36146698467898e-05   4.110623187253759e-05
-1.8942036214433358e-05   -1.36146698467898e-05   4.110623187253759e-05
-1.8942036214433358e-05   -1.36146698467898e-05   4.110623187253759e-05
-1.8942036214433358e-05   -1.36146698467898e-05   4.110623187253759e-05
-1.1139840850902743e-05   -7.143423633674401e-06   2.4219825205450596e-05
-1.1139840850902743e-05   -7.143423633674401e-06   2.4219825205450596e-05
-1.1139840850902743e-05   -7.143423633674401e-06   2.4219825205450596e-05
-1.1139840850902743e-05   -7.143423633674401e-06   2.4219825205450596e-05
-1.8942036214433317e-05   -4.936286391739515e-06   2.0008502385576325e-05
-1.8942036214433317e-05   -4.936286391739515e-06   2.0008502385576325e-05
-1.8942036214433317e-05   -4.936286391739515e-06   2.0008502385576325e-05
-1.8942036214433317e-05   -4.936286391739515e-06   2.0008502385576325e-05
-6.283398522256666e-06   -1.36146698467898e-05   3.589920179950747e-05
-6.283398522256666e-06   -1.36146698467898e-05   3.589920179950747e-05
-6.283398522256666e-06   -1.36146698467898e-05   3.589920179950747e-05
-6.283398522256666e-06   -1.36146698467898e-05   3.589920179950747e-05
-6.839819951100825e-06   -5.049458376342225e-06   1.664163572087982e-05
-6.839819951100825e-06   -5.049458376342225e-06   1.664163572087982e-05
-6.839819951100825e-06   -5.049458376342225e-06   1.664163572087982e-05
-6.839819951100825e-06   -5.049458376342225e-06   1.664163572087982e-05
-1.9362397205161715e-05   -1.2435751148501376e-05   4.194437347427668e-05
-1.9362397205161715e-05   -1.2435751148501376e-05   4.194437347427668e-05
-1.9362397205161715e-05   -1.2435751148501376e-05   4.194437347427668e-05
-1.9362397205161715e-05   -1.2435751148501376e-05   4.194437347427668e-05
-1.2551095461753528e-05   -8.74257410743659e-06   2.837629767729106e-05
-1.2551095461753528e-05   -8.74257410743659e-06   2.837629767729106e-05
-1.2551095461753528e-05   -8.74257410743659e-06   2.837629767729106e-05
-1.2551095461753528e-05   -8.74257410743659e-06   2.837629767729106e-05
-1.9362397205161688e-05   -5.049458376342225e-06   2.1073411384175267e-05
-1.9362397205161688e-05   -5.049458376342225e-06   2.1073411384175267e-05
-1.9362397205161688e-05   -5.049458376342225e-06   2.1073411384175267e-05
-1.9362397205161688e-05   -5.049458376342225e-06   2.1073411384175267e-05
-6.839819951100825e-06   -1.2435751148501376e-05   3.751259781098118e-05
-6.839819951100825e-06   -1.2435751148501376e-05   3.751259781098118e-05
-6.839819951100825e-06   -1.2435751148501376e-05   3.751259781098118e-05
-6.839819951100825e-06   -1.2435751148501376e-05   3.751259781098118e-05
-7.743369323394211e-06   -5.098734137321773e-06   1.8196609556207213e-05
-7.743369323394211e-06   -5.098734137321773e-06   1.8196609556207213e-05
-7.743369323394211e-06   -5.098734137321773e-06   1.8196609556207213e-05
-7.743369323394211e-06   -5.098734137321773e-06   1.8196609556207213e-05
-2.119311759727107e-05   -1.16938510124926e-05   4.4569926804437584e-05
-2.119311759727107e-05   -1.16938510124926e-05   4.4569926804437584e-05
-2.119311759727107e-05   -1.16938510124926e-05   4.4569926804437584e-05
-2.119311759727107e-05   -1.16938510124926e-05   4.4569926804437584e-05
-1.33694852220707e-05   -7.980870119603337e-06   2.9302750976703497e-05
-1.33694852220707e-05   -7.980870119603337e-06   2.9302750976703497e-05
-1.33694852220707e-05   -7.980870119603337e-06   2.9302750976703497e-05
-1.33694852220707e-05   -7.980870119603337e-06   2.9302750976703497e-05
-5.63310457454632e-06   -4.712529634200624e-06   8.862757699337135e-06
-5.63310457454632e-06   -4.712529634200624e-06   8.862757699337135e-06
-5.63310457454632e-06   -4.712529634200624e-06   8.862757699337135e-06
-5.63310457454632e-06   -4.712529634200624e-06   8.862757699337135e-06
-3.1386398264211975e-06   -2.8241939180615524e-06   1.4153200375895928e-05
-3.1386398264211975e-06   -2.8241939180615524e-06   1.4153200375895928e-05
-3.1386398264211975e-06   -2.8241939180615524e-06   1.4153200375895928e-05
-3.1386398264211975e-06   -2.8241939180615524e-06   1.4153200375895928e-05
-3.0120467450698825e-06   -4.628237095933554e-06   1.025589034490135e-05
-3.0120467450698825e-06   -4.628237095933554e-06   1.025589034490135e-05
-3.0120467450698825e-06   -4.628237095933554e-06   1.025589034490135e-05
-3.0120467450698825e-06   -4.628237095933554e-06   1.025589034490135e-05
-6.283398522256666e-06   -3.709461961852013e-06   1.5156878226430274e-05
-6.283398522256666e-06   -3.709461961852013e-06   1.5156878226430274e-05
-6.283398522256666e-06   -3.709461961852013e-06   1.5156878226430274e-05
-6.283398522256666e-06   -3.709461961852013e-06   1.5156878226430274e-05
-4.231416839864648e-06   -3.7626584380511343e-06   1.1768826641496194e-05
-4.231416839864648e-06   -3.7626584380511343e-06   1.1768826641496194e-05
-4.231416839864648e-06   -3.7626584380511343e-06   1.1768826641496194e-05
-4.231416839864648e-06   -3.7626584380511343e-06   1.1768826641496194e-05
-6.283398522256611e-06   -4.628237095933554e-06   9.704625264452384e-06
-6.283398522256611e-06   -4.628237095933554e-06   9.704625264452384e-06
-6.283398522256611e-06   -4.628237095933554e-06   9.704625264452384e-06
-6.283398522256611e-06   -4.628237095933554e-06   9.704625264452384e-06
-3.0120467450698825e-06   -3.709461961852013e-06   1.5708143306879187e-05
-3.0120467450698825e-06   -3.709461961852013e-06   1.5708143306879187e-05
-3.0120467450698825e-06   -3.709461961852013e-06   1.5708143306879187e-05
-3.0120467450698825e-06   -3.709461961852013e-06   1.5708143306879187e-05
-3.0126524772130375e-06   -4.770262262180963e-06   1.0962615582835026e-05
-3.0126524772130375e-06   -4.770262262180963e-06   1.0962615582835026e-05
-3.0126524772130375e-06   -4.770262262180963e-06   1.0962615582835026e-05
-3.0126524772130375e-06   -4.770262262180963e-06   1.0962615582835026e-05
-6.839819951100825e-06   -4.779227143502218e-06   1.7346606968107292e-05
-6.839819951100825e-06   -4.779227143502218e-06   1.7346606968107292e-05
-6.839819951100825e-06   -4.779227143502218e-06   1.7346606968107292e-05
-6.839819951100825e-06   -4.779227143502218e-06   1.7346606968107292e-05
-4.481231127068818e-06   -4.114242115588478e-06   1.3016634577972389e-05
-4.481231127068818e-06   -4.114242115588478e-06   1.3016634577972389e-05
-4.481231127068818e-06   -4.114242115588478e-06   1.3016634577972389e-05
-4.481231127068818e-06   -4.114242115588478e-06   1.3016634577972389e-05
-6.839819951100798e-06   -4.770262262180963e-06   1.0967994511627691e-05
-6.839819951100798e-06   -4.770262262180963e-06   1.0967994511627691e-05
-6.839819951100798e-06   -4.770262262180963e-06   1.0967994511627691e-05
-6.839819951100798e-06   -4.770262262180963e-06   1.0967994511627691e-05
-3.0126524772130375e-06   -4.779227143502218e-06   1.7341228039314464e-05
-3.0126524772130375e-06   -4.779227143502218e-06   1.7341228039314464e-05
-3.0126524772130375e-06   -4.779227143502218e-06   1.7341228039314464e-05
-3.0126524772130375e-06   -4.779227143502218e-06   1.7341228039314464e-05
-3.0503804350747116e-06   -4.972614437468901e-06   1.2018386429238468e-05
-3.0503804350747116e-06   -4.972614437468901e-06   1.2018386429238468e-05
-3.0503804350747116e-06   -4.972614437468901e-06   1.2018386429238468e-05
-3.0503804350747116e-06   -4.972614437468901e-06   1.2018386429238468e-05
-7.743369323394211e-06   -5.796572729185197e-06   2.033440955146723e-05
-7.743369323394211e-06   -5.796572729185197e-06   2.033440955146723e-05
-7.743369323394211e-06   -5.796572729185197e-06   2.033440955146723e-05
-7.743369323394211e-06   -5.796572729185197e-06   2.033440955146723e-05
-4.764764233686558e-06   -4.497044972374872e-06   1.4590351081201851e-05
-4.764764233686558e-06   -4.497044972374872e-06   1.4590351081201851e-05
-4.764764233686558e-06   -4.497044972374872e-06   1.4590351081201851e-05
-4.764764233686558e-06   -4.497044972374872e-06   1.4590351081201851e-05
-3.1386398264211975e-06   -1.9323654003079466e-06   2.480860943695042e-06
-3.1386398264211975e-06   -1.9323654003079466e-06   2.480860943695042e-06
-3.1386398264211975e-06   -1.9323654003079466e-06   2.480860943695042e-06
-3.1386398264211975e-06   -1.9323654003079466e-06   2.480860943695042e-06
-2.3221545413470274e-06   5.301604186094908e-07   5.319185243502444e-06
-2.3221545413470274e-06   5.301604186094908e-07   5.319185243502444e-06
-2.3221545413470274e-06   5.301604186094908e-07   5.319185243502444e-06
-2.3221545413470274e-06   5.301604186094908e-07   5.319185243502444e-06
-1.8754908933608233e-06   -2.2632768213135543e-06   4.189243628946373e-06
-1.8754908933608233e-06   -2.2632768213135543e-06   4.189243628946373e-06
-1.8754908933608233e-06   -2.2632768213135543e-06   4.189243628946373e-06
-1.8754908933608233e-06   -2.2632768213135543e-06   4.189243628946373e-06
-3.0120467450698825e-06   2.1625094445379438e-07   4.595786722334338e-06
-3.0120467450698825e-06   2.1625094445379438e-07   4.595786722334338e-06
-3.0120467450698825e-06   2.1625094445379438e-07   4.595786722334338e-06
-3.0120467450698825e-06   2.1625094445379438e-07   4.595786722334338e-06
-2.4277460969744267e-06   -8.94500158980674e-07   4.288402970902385e-06
-2.4277460969744267e-06   -8.94500158980674e-07   4.288402970902385e-06
-2.4277460969744267e-06   -8.94500158980674e-07   4.288402970902385e-06
-2.4277460969744267e-06   -8.94500158980674e-07   4.288402970902385e-06
-3.0120467450698825e-06   -2.2632768213135543e-06   2.7015269694860328e-06
-3.0120467450698825e-06   -2.2632768213135543e-06   2.7015269694860328e-06
-3.0120467450698825e-06   -2.2632768213135543e-06   2.7015269694860328e-06
-3.0120467450698825e-06   -2.2632768213135543e-06   2.7015269694860328e-06
-1.8754908933608233e-06   2.1625094445379438e-07   6.083503381794624e-06
-1.8754908933608233e-06   2.1625094445379438e-07   6.083503381794624e-06
-1.8754908933608233e-06   2.1625094445379438e-07   6.083503381794624e-06
-1.8754908933608233e-06   2.1625094445379438e-07   6.083503381794624e-06
-1.6289246021285219e-06   -2.5162589648491723e-06   4.601706026525782e-06
-1.6289246021285219e-06   -2.5162589648491723e-06   4.601706026525782e-06
-1.6289246021285219e-06   -2.5162589648491723e-06   4.601706026525782e-06
-1.6289246021285219e-06   -2.5162589648491723e-06   4.601706026525782e-06
-3.0126524772130375e-06   -2.850716543421021e-07   5.5692067653621835e-06
-3.0126524772130375e-06   -2.850716543421021e-07   5.5692067653621835e-06
-3.0126524772130375e-06   -2.850716543421021e-07   5.5692067653621835e-06
-3.0126524772130375e-06   -2.850716543421021e-07   5.5692067653621835e-06
-2.1972688710926328e-06   -1.1485542413998146e-06   4.728323640729518e-06
-2.1972688710926328e-06   -1.1485542413998146e-06   4.728323640729518e-06
-2.1972688710926328e-06   -1.1485542413998146e-06   4.728323640729518e-06
-2.1972688710926328e-06   -1.1485542413998146e-06   4.728323640729518e-06
-3.0126524772130375e-06   -2.5162589648491723e-06   3.262993640221288e-06
-3.0126524772130375e-06   -2.5162589648491723e-06   3.262993640221288e-06
-3.0126524772130375e-06   -2.5162589648491723e-06   3.262993640221288e-06
-3.0126524772130375e-06   -2.5162589648491723e-06   3.262993640221288e-06
-1.6289246021285219e-06   -2.850716543421021e-07   6.907919151666461e-06
-1.6289246021285219e-06   -2.850716543421021e-07   6.907919151666461e-06
-1.6289246021285219e-06   -2.850716543421021e-07   6.907919151666461e-06
-1.6289246021285219e-06   -2.850716543421021e-07   6.907919151666461e-06
-1.2505092768783218e-06   -2.8483645679217603e-06   5.047749146298917e-06
-1.2505092768783218e-06   -2.8483645679217603e-06   5.047749146298917e-06
-1.2505092768783218e-06   -2.8483645679217603e-06   5.047749146298917e-06
-1.2505092768783218e-06   -2.8483645679217603e-06   5.047749146298917e-06
-3.0503804350747116e-06   -1.3193519008673245e-06   7.130126809726722e-06
-3.0503804350747116e-06   -1.3193519008673245e-06   7.130126809726722e-06
-3.0503804350747116e-06   -1.3193519008673245e-06   7.130126809726722e-06
-3.0503804350747116e-06   -1.3193519008673245e-06   7.130126809726722e-06
-2.0077717998119094e-06   -1.5389296147475505e-06   5.524192379283751e-06
-2.0077717998119094e-06   -1.5389296147475505e-06   5.524192379283751e-06
-2.0077717998119094e-06   -1.5389296147475505e-06   5.524192379283751e-06
-2.0077717998119094e-06   -1.5389296147475505e-06   5.524192379283751e-06
-2.3221545413470274e-06   -2.1845108421931093e-07   -3.9040838090059e-06
-2.3221545413470274e-06   -2.1845108421931093e-07   -3.9040838090059e-06
-2.3221545413470274e-06   -2.1845108421931093e-07   -3.9040838090059e-06
-2.3221545413470274e-06   -2.1845108421931093e-07   -3.9040838090059e-06
-4.2285934269870214e-07   3.3615782093871595e-07   -4.058264681638512e-07
-4.2285934269870214e-07   3.3615782093871595e-07   -4.058264681638512e-07
-4.2285934269870214e-07   3.3615782093871595e-07   -4.058264681638512e-07
-4.2285934269870214e-07   3.3615782093871595e-07   -4.058264681638512e-07
1.6088206272833055e-08   -3.036471652195262e-07   -3.069647319226508e-06
1.6088206272833055e-08   -3.036471652195262e-07   -3.069647319226508e-06
1.6088206272833055e-08   -3.036471652195262e-07   -3.069647319226508e-06
1.6088206272833055e-08   -3.036471652195262e-07   -3.069647319226508e-06
-1.8754908933608233e-06   5.830082362857626e-07   -4.490087274070572e-07
-1.8754908933608233e-06   5.830082362857626e-07   -4.490087274070572e-07
-1.8754908933608233e-06   5.830082362857626e-07   -4.490087274070572e-07
-1.8754908933608233e-06   5.830082362857626e-07   -4.490087274070572e-07
-1.0522410881278984e-06   1.5433661840454972e-07   -1.563888765400141e-06
-1.0522410881278984e-06   1.5433661840454972e-07   -1.563888765400141e-06
-1.0522410881278984e-06   1.5433661840454972e-07   -1.563888765400141e-06
-1.0522410881278984e-06   1.5433661840454972e-07   -1.563888765400141e-06
-1.8754908933608233e-06   -3.03647165219472e-07   -3.601640560129836e-06
-1.8754908933608233e-06   -3.03647165219472e-07   -3.601640560129836e-06
-1.8754908933608233e-06   -3.03647165219472e-07   -3.601640560129836e-06
-1.8754908933608233e-06   -3.03647165219472e-07   -3.601640560129836e-06
1.6088206272833055e-08   5.830082362857626e-07   8.298451349610797e-08
1.6088206272833055e-08   5.830082362857626e-07   8.298451349610797e-08
1.6088206272833055e-08   5.830082362857626e-07   8.298451349610797e-08
1.6088206272833055e-08   5.830082362857626e-07   8.298451349610797e-08
2.4755166016935445e-07   -4.1928848187752993e-07   -2.7571488045595362e-06
2.4755166016935445e-07   -4.1928848187752993e-07   -2.7571488045595362e-06
2.4755166016935445e-07   -4.1928848187752993e-07   -2.7571488045595362e-06
2.4755166016935445e-07   -4.1928848187752993e-07   -2.7571488045595362e-06
-1.6289246021285219e-06   5.029564013605292e-07   -1.830352973396579e-07
-1.6289246021285219e-06   5.029564013605292e-07   -1.830352973396579e-07
-1.6289246021285219e-06   5.029564013605292e-07   -1.830352973396579e-07
-1.6289246021285219e-06   5.029564013605292e-07   -1.830352973396579e-07
-7.271480856745635e-07   1.011043868683623e-07   -1.4448849494004025e-06
-7.271480856745635e-07   1.011043868683623e-07   -1.4448849494004025e-06
-7.271480856745635e-07   1.011043868683623e-07   -1.4448849494004025e-06
-7.271480856745635e-07   1.011043868683623e-07   -1.4448849494004025e-06
-1.6289246021285219e-06   -4.1928848187752993e-07   -3.31049573450246e-06
-1.6289246021285219e-06   -4.1928848187752993e-07   -3.31049573450246e-06
-1.6289246021285219e-06   -4.1928848187752993e-07   -3.31049573450246e-06
-1.6289246021285219e-06   -4.1928848187752993e-07   -3.31049573450246e-06
2.4755166016935445e-07   5.029564013605292e-07   3.703116326032657e-07
2.4755166016935445e-07   5.029564013605292e-07   3.703116326032657e-07
2.4755166016935445e-07   5.029564013605292e-07   3.703116326032657e-07
2.4755166016935445e-07   5.029564013605292e-07   3.703116326032657e-07
5.365898728000021e-07   -5.585720317466815e-07   -2.300229972780187e-06
5.365898728000021e-07   -5.585720317466815e-07   -2.300229972780187e-06
5.365898728000021e-07   -5.585720317466815e-07   -2.300229972780187e-06
5.365898728000021e-07   -5.585720317466815e-07   -2.300229972780187e-06
-1.2505092768783218e-06   4.3852917566612764e-07   8.000788556889252e-08
-1.2505092768783218e-06   4.3852917566612764e-07   8.000788556889252e-08
-1.2505092768783218e-06   4.3852917566612764e-07   8.000788556889252e-08
-1.2505092768783218e-06   4.3852917566612764e-07   8.000788556889252e-08
-4.325697121803165e-07   3.7408843278689775e-08   -1.0425525228284147e-06
-4.325697121803165e-07   3.7408843278689775e-08   -1.0425525228284147e-06
-4.325697121803165e-07   3.7408843278689775e-08   -1.0425525228284147e-06
-4.325697121803165e-07   3.7408843278689775e-08   -1.0425525228284147e-06
              </DataArray>   
             <DataArray type="Float64" NumberOfComponents="3" Name="Stress" format="ascii">   
-3.5579101935230217   -0.8894775483807554   -0.8894775483807554
-3.5579101935230217   -0.8894775483807554   -0.8894775483807554
-3.5579101935230217   -0.8894775483807554   -0.8894775483807554
-3.5579101935230217   -0.8894775483807554   -0.8894775483807554
-2.0589855200235467   -0.0651171893828183   -0.04123599112376829
-2.0589855200235467   -0.0651171893828183   -0.04123599112376829
-2.0589855200235467   -0.0651171893828183   -0.04123599112376829
-2.0589855200235467   -0.0651171893828183   -0.04123599112376829
-2.2194680334569123   -0.5548670083642281   -0.5548670083642281
-2.2194680334569123   -0.5548670083642281   -0.5548670083642281
-2.2194680334569123   -0.5548670083642281   -0.5548670083642281
-2.2194680334569123   -0.5548670083642281   -0.5548670083642281
-3.4291288897803565   -0.28151370334365466   -0.10763057411820257
-3.4291288897803565   -0.28151370334365466   -0.10763057411820257
-3.4291288897803565   -0.28151370334365466   -0.10763057411820257
-3.4291288897803565   -0.28151370334365466   -0.10763057411820257
-2.6894781597157356   -0.44086966581328757   -0.0074201220605602
-2.6894781597157356   -0.44086966581328757   -0.0074201220605602
-2.6894781597157356   -0.44086966581328757   -0.0074201220605602
-2.6894781597157356   -0.44086966581328757   -0.0074201220605602
-3.723666704764434   -0.9309166761911085   -0.9309166761911085
-3.723666704764434   -0.9309166761911085   -0.9309166761911085
-3.723666704764434   -0.9309166761911085   -0.9309166761911085
-3.723666704764434   -0.9309166761911085   -0.9309166761911085
-1.9947710044027507   0.024695178553315156   -0.010944050010963075
-1.9947710044027507   0.024695178553315156   -0.010944050010963075
-1.9947710044027507   0.024695178553315156   -0.010944050010963075
-1.9947710044027507   0.024695178553315156   -0.010944050010963075
-2.2258543848061247   -0.5564635962015312   -0.5564635962015312
-2.2258543848061247   -0.5564635962015312   -0.5564635962015312
-2.2258543848061247   -0.5564635962015312   -0.5564635962015312
-2.2258543848061247   -0.5564635962015312   -0.5564635962015312
-3.5445180534262772   -0.2842538577524901   -0.15773247055210152
-3.5445180534262772   -0.2842538577524901   -0.15773247055210152
-3.5445180534262772   -0.2842538577524901   -0.15773247055210152
-3.5445180534262772   -0.2842538577524901   -0.15773247055210152
-2.7899258695509133   -0.4151314589017139   -0.1480754373191194
-2.7899258695509133   -0.4151314589017139   -0.1480754373191194
-2.7899258695509133   -0.4151314589017139   -0.1480754373191194
-2.7899258695509133   -0.4151314589017139   -0.1480754373191194
-3.8401342086281836   -0.9600335521570459   -0.9600335521570459
-3.8401342086281836   -0.9600335521570459   -0.9600335521570459
-3.8401342086281836   -0.9600335521570459   -0.9600335521570459
-3.8401342086281836   -0.9600335521570459   -0.9600335521570459
-1.9890917130464993   0.060462614760749545   0.010423551634314826
-1.9890917130464993   0.060462614760749545   0.010423551634314826
-1.9890917130464993   0.060462614760749545   0.010423551634314826
-1.9890917130464993   0.060462614760749545   0.010423551634314826
-2.2248276572765913   -0.5562069143191478   -0.5562069143191478
-2.2248276572765913   -0.5562069143191478   -0.5562069143191478
-2.2248276572765913   -0.5562069143191478   -0.5562069143191478
-2.2248276572765913   -0.5562069143191478   -0.5562069143191478
-3.7506160482806936   -0.24941401184295964   -0.09456580270066772
-3.7506160482806936   -0.24941401184295964   -0.09456580270066772
-3.7506160482806936   -0.24941401184295964   -0.09456580270066772
-3.7506160482806936   -0.24941401184295964   -0.09456580270066772
-2.8645034894161245   -0.40871025757249185   -0.2676429912224112
-2.8645034894161245   -0.40871025757249185   -0.2676429912224112
-2.8645034894161245   -0.40871025757249185   -0.2676429912224112
-2.8645034894161245   -0.40871025757249185   -0.2676429912224112
-2.2641276488024817   -0.5660319122006204   -0.5660319122006204
-2.2641276488024817   -0.5660319122006204   -0.5660319122006204
-2.2641276488024817   -0.5660319122006204   -0.5660319122006204
-2.2641276488024817   -0.5660319122006204   -0.5660319122006204
-0.944489073193063   -0.0627683890729609   -0.020406294432418502
-0.944489073193063   -0.0627683890729609   -0.020406294432418502
-0.944489073193063   -0.0627683890729609   -0.020406294432418502
-0.944489073193063   -0.0627683890729609   -0.020406294432418502
-0.991676038432328   -0.247919009608082   -0.247919009608082
-0.991676038432328   -0.247919009608082   -0.247919009608082
-0.991676038432328   -0.247919009608082   -0.247919009608082
-0.991676038432328   -0.247919009608082   -0.247919009608082
-2.061440140067474   -0.24240922710439428   -0.07718532267686802
-2.061440140067474   -0.24240922710439428   -0.07718532267686802
-2.061440140067474   -0.24240922710439428   -0.07718532267686802
-2.061440140067474   -0.24240922710439428   -0.07718532267686802
-1.5203276196139435   -0.28798093120015356   0.011901129408744725
-1.5203276196139435   -0.28798093120015356   0.011901129408744725
-1.5203276196139435   -0.28798093120015356   0.011901129408744725
-1.5203276196139435   -0.28798093120015356   0.011901129408744725
-2.2194680334569106   -0.5548670083642276   -0.5548670083642276
-2.2194680334569106   -0.5548670083642276   -0.5548670083642276
-2.2194680334569106   -0.5548670083642276   -0.5548670083642276
-2.2194680334569106   -0.5548670083642276   -0.5548670083642276
-0.8912116797221045   0.006975236972536658   -0.000491462637582582
-0.8912116797221045   0.006975236972536658   -0.000491462637582582
-0.8912116797221045   0.006975236972536658   -0.000491462637582582
-0.8912116797221045   0.006975236972536658   -0.000491462637582582
-0.9696710496640178   -0.24241776241600446   -0.24241776241600446
-0.9696710496640178   -0.24241776241600446   -0.24241776241600446
-0.9696710496640178   -0.24241776241600446   -0.24241776241600446
-0.9696710496640178   -0.24241776241600446   -0.24241776241600446
-2.056379097487081   -0.19778837622445922   -0.06776237958338399
-2.056379097487081   -0.19778837622445922   -0.06776237958338399
-2.056379097487081   -0.19778837622445922   -0.06776237958338399
-2.056379097487081   -0.19778837622445922   -0.06776237958338399
-1.4992867236443346   -0.2424681780164209   -0.07840250318317384
-1.4992867236443346   -0.2424681780164209   -0.07840250318317384
-1.4992867236443346   -0.2424681780164209   -0.07840250318317384
-1.4992867236443346   -0.2424681780164209   -0.07840250318317384
-2.2258543848061247   -0.5564635962015312   -0.5564635962015312
-2.2258543848061247   -0.5564635962015312   -0.5564635962015312
-2.2258543848061247   -0.5564635962015312   -0.5564635962015312
-2.2258543848061247   -0.5564635962015312   -0.5564635962015312
-0.8559488209195624   0.06050439898647919   0.02327121990378936
-0.8559488209195624   0.06050439898647919   0.02327121990378936
-0.8559488209195624   0.06050439898647919   0.02327121990378936
-0.8559488209195624   0.06050439898647919   0.02327121990378936
-0.9496547731700569   -0.23741369329251422   -0.23741369329251422
-0.9496547731700569   -0.23741369329251422   -0.23741369329251422
-0.9496547731700569   -0.23741369329251422   -0.23741369329251422
-0.9496547731700569   -0.23741369329251422   -0.23741369329251422
-2.0414082987125823   -0.15265395613935123   -0.04266307967892262
-2.0414082987125823   -0.15265395613935123   -0.04266307967892262
-2.0414082987125823   -0.15265395613935123   -0.04266307967892262
-2.0414082987125823   -0.15265395613935123   -0.04266307967892262
-1.5068395660664744   -0.21460606948949218   -0.17469615539647426
-1.5068395660664744   -0.21460606948949218   -0.17469615539647426
-1.5068395660664744   -0.21460606948949218   -0.17469615539647426
-1.5068395660664744   -0.21460606948949218   -0.17469615539647426
-1.0309490405466541   -0.25773726013666354   -0.25773726013666354
-1.0309490405466541   -0.25773726013666354   -0.25773726013666354
-1.0309490405466541   -0.25773726013666354   -0.25773726013666354
-1.0309490405466541   -0.25773726013666354   -0.25773726013666354
0.12266950126494444   0.008080103716107897   0.0009998727994590768
0.12266950126494444   0.008080103716107897   0.0009998727994590768
0.12266950126494444   0.008080103716107897   0.0009998727994590768
0.12266950126494444   0.008080103716107897   0.0009998727994590768
0.15929066693981758   0.039822666734954396   0.039822666734954396
0.15929066693981758   0.039822666734954396   0.039822666734954396
0.15929066693981758   0.039822666734954396   0.039822666734954396
0.15929066693981758   0.039822666734954396   0.039822666734954396
-0.932263063279254   -0.16113810734644823   -0.037635036104353786
-0.932263063279254   -0.16113810734644823   -0.037635036104353786
-0.932263063279254   -0.16113810734644823   -0.037635036104353786
-0.932263063279254   -0.16113810734644823   -0.037635036104353786
-0.3989277411897987   -0.10120603368727368   0.06779866835365461
-0.3989277411897987   -0.10120603368727368   0.06779866835365461
-0.3989277411897987   -0.10120603368727368   0.06779866835365461
-0.3989277411897987   -0.10120603368727368   0.06779866835365461
-0.991676038432328   -0.247919009608082   -0.247919009608082
-0.991676038432328   -0.247919009608082   -0.247919009608082
-0.991676038432328   -0.247919009608082   -0.247919009608082
-0.991676038432328   -0.247919009608082   -0.247919009608082
0.1621120194208029   0.07001194632450061   0.023740149550333448
0.1621120194208029   0.07001194632450061   0.023740149550333448
0.1621120194208029   0.07001194632450061   0.023740149550333448
0.1621120194208029   0.07001194632450061   0.023740149550333448
0.1790125560887701   0.04475313902219252   0.04475313902219252
0.1790125560887701   0.04475313902219252   0.04475313902219252
0.1790125560887701   0.04475313902219252   0.04475313902219252
0.1790125560887701   0.04475313902219252   0.04475313902219252
-0.8994563919771477   -0.10852231992881177   -0.02523991646886128
-0.8994563919771477   -0.10852231992881177   -0.02523991646886128
-0.8994563919771477   -0.10852231992881177   -0.02523991646886128
-0.8994563919771477   -0.10852231992881177   -0.02523991646886128
-0.3828371000533472   -0.06257145625198128   -0.023121208741753194
-0.3828371000533472   -0.06257145625198128   -0.023121208741753194
-0.3828371000533472   -0.06257145625198128   -0.023121208741753194
-0.3828371000533472   -0.06257145625198128   -0.023121208741753194
-0.9696710496640178   -0.24241776241600446   -0.24241776241600446
-0.9696710496640178   -0.24241776241600446   -0.24241776241600446
-0.9696710496640178   -0.24241776241600446   -0.24241776241600446
-0.9696710496640178   -0.24241776241600446   -0.24241776241600446
0.19377433497675317   0.12319570271050037   0.04011946977379862
0.19377433497675317   0.12319570271050037   0.04011946977379862
0.19377433497675317   0.12319570271050037   0.04011946977379862
0.19377433497675317   0.12319570271050037   0.04011946977379862
0.2055906300923143   0.05139765752307857   0.05139765752307857
0.2055906300923143   0.05139765752307857   0.05139765752307857
0.2055906300923143   0.05139765752307857   0.05139765752307857
0.2055906300923143   0.05139765752307857   0.05139765752307857
-0.8637505237865069   -0.04576344933366136   0.00045730966637195364
-0.8637505237865069   -0.04576344933366136   0.00045730966637195364
-0.8637505237865069   -0.04576344933366136   0.00045730966637195364
-0.8637505237865069   -0.04576344933366136   0.00045730966637195364
-0.3715474229428552   -0.025326672308914083   -0.1132294983690327
-0.3715474229428552   -0.025326672308914083   -0.1132294983690327
-0.3715474229428552   -0.025326672308914083   -0.1132294983690327
-0.3715474229428552   -0.025326672308914083   -0.1132294983690327
0.13428167329092364   0.03357041832273091   0.03357041832273091
0.13428167329092364   0.03357041832273091   0.03357041832273091
0.13428167329092364   0.03357041832273091   0.03357041832273091
0.13428167329092364   0.03357041832273091   0.03357041832273091
1.2907386253583504   0.11841118535446835   0.03971946400529353
1.2907386253583504   0.11841118535446835   0.03971946400529353
1.2907386253583504   0.11841118535446835   0.03971946400529353
1.2907386253583504   0.11841118535446835   0.03971946400529353
1.4013205755103768   0.3503301438775942   0.3503301438775942
1.4013205755103768   0.3503301438775942   0.3503301438775942
1.4013205755103768   0.3503301438775942   0.3503301438775942
1.4013205755103768   0.3503301438775942   0.3503301438775942
0.12137017133128385   -0.09090094220188981   -0.019056202370872584
0.12137017133128385   -0.09090094220188981   -0.019056202370872584
0.12137017133128385   -0.09090094220188981   -0.019056202370872584
0.12137017133128385   -0.09090094220188981   -0.019056202370872584
0.7360992405108211   0.09163572923646301   0.13375541351471654
0.7360992405108211   0.09163572923646301   0.13375541351471654
0.7360992405108211   0.09163572923646301   0.13375541351471654
0.7360992405108211   0.09163572923646301   0.13375541351471654
0.15929066693981814   0.039822666734954534   0.039822666734954534
0.15929066693981814   0.039822666734954534   0.039822666734954534
0.15929066693981814   0.039822666734954534   0.039822666734954534
0.15929066693981814   0.039822666734954534   0.039822666734954534
1.305879799436198   0.16208625447510533   0.06137015290918903
1.305879799436198   0.16208625447510533   0.06137015290918903
1.305879799436198   0.16208625447510533   0.06137015290918903
1.305879799436198   0.16208625447510533   0.06137015290918903
1.3951629486059114   0.34879073715147785   0.34879073715147785
1.3951629486059114   0.34879073715147785   0.34879073715147785
1.3951629486059114   0.34879073715147785   0.34879073715147785
1.3951629486059114   0.34879073715147785   0.34879073715147785
0.15323402838503847   -0.03945710212712918   7.074165285460288e-05
0.15323402838503847   -0.03945710212712918   7.074165285460288e-05
0.15323402838503847   -0.03945710212712918   7.074165285460288e-05
0.15323402838503847   -0.03945710212712918   7.074165285460288e-05
0.7305080121899891   0.1202049240057974   0.03481450196625681
0.7305080121899891   0.1202049240057974   0.03481450196625681
0.7305080121899891   0.1202049240057974   0.03481450196625681
0.7305080121899891   0.1202049240057974   0.03481450196625681
0.17901255608877026   0.044753139022192565   0.044753139022192565
0.17901255608877026   0.044753139022192565   0.044753139022192565
0.17901255608877026   0.044753139022192565   0.044753139022192565
0.17901255608877026   0.044753139022192565   0.044753139022192565
1.3124160446341027   0.2076121197340794   0.07623483470983317
1.3124160446341027   0.2076121197340794   0.07623483470983317
1.3124160446341027   0.2076121197340794   0.07623483470983317
1.3124160446341027   0.2076121197340794   0.07623483470983317
1.4220331864115006   0.35550829660287514   0.35550829660287514
1.4220331864115006   0.35550829660287514   0.35550829660287514
1.4220331864115006   0.35550829660287514   0.35550829660287514
1.4220331864115006   0.35550829660287514   0.35550829660287514
0.1950464480867672   0.028616377637265666   0.021458027381154484
0.1950464480867672   0.028616377637265666   0.021458027381154484
0.1950464480867672   0.028616377637265666   0.021458027381154484
0.1950464480867672   0.028616377637265666   0.021458027381154484
0.7416914323028212   0.16303093081947773   -0.05692668993097913
0.7416914323028212   0.16303093081947773   -0.05692668993097913
0.7416914323028212   0.16303093081947773   -0.05692668993097913
0.7416914323028212   0.16303093081947773   -0.05692668993097913
1.3990138838737756   0.3497534709684439   0.3497534709684439
1.3990138838737756   0.3497534709684439   0.3497534709684439
1.3990138838737756   0.3497534709684439   0.3497534709684439
1.3990138838737756   0.3497534709684439   0.3497534709684439
2.9011114734092764   0.22109095813483787   0.07564147460036393
2.9011114734092764   0.22109095813483787   0.07564147460036393
2.9011114734092764   0.22109095813483787   0.07564147460036393
2.9011114734092764   0.22109095813483787   0.07564147460036393
2.965182598353253   0.7412956495883133   0.7412956495883133
2.965182598353253   0.7412956495883133   0.7412956495883133
2.965182598353253   0.7412956495883133   0.7412956495883133
2.965182598353253   0.7412956495883133   0.7412956495883133
1.245589485307287   -0.07083546848703987   -0.007159694773220995
1.245589485307287   -0.07083546848703987   -0.007159694773220995
1.245589485307287   -0.07083546848703987   -0.007159694773220995
1.245589485307287   -0.07083546848703987   -0.007159694773220995
2.0691771673393076   0.2928070709988041   0.233636680686919
2.0691771673393076   0.2928070709988041   0.233636680686919
2.0691771673393076   0.2928070709988041   0.233636680686919
2.0691771673393076   0.2928070709988041   0.233636680686919
1.4013205755103757   0.3503301438775939   0.3503301438775939
1.4013205755103757   0.3503301438775939   0.3503301438775939
1.4013205755103757   0.3503301438775939   0.3503301438775939
1.4013205755103757   0.3503301438775939   0.3503301438775939
2.74780167843619   0.25848020750971407   0.13720649208164182
2.74780167843619   0.25848020750971407   0.13720649208164182
2.74780167843619   0.25848020750971407   0.13720649208164182
2.74780167843619   0.25848020750971407   0.13720649208164182
2.8764192238685564   0.7191048059671391   0.7191048059671391
2.8764192238685564   0.7191048059671391   0.7191048059671391
2.8764192238685564   0.7191048059671391   0.7191048059671391
2.8764192238685564   0.7191048059671391   0.7191048059671391
1.249798933987084   -0.03914610642960514   0.009907507638423935
1.249798933987084   -0.03914610642960514   0.009907507638423935
1.249798933987084   -0.03914610642960514   0.009907507638423935
1.249798933987084   -0.03914610642960514   0.009907507638423935
2.0076334361695602   0.30121317123094515   0.11203946101426274
2.0076334361695602   0.30121317123094515   0.11203946101426274
2.0076334361695602   0.30121317123094515   0.11203946101426274
2.0076334361695602   0.30121317123094515   0.11203946101426274
1.3951629486059114   0.34879073715147785   0.34879073715147785
1.3951629486059114   0.34879073715147785   0.34879073715147785
1.3951629486059114   0.34879073715147785   0.34879073715147785
1.3951629486059114   0.34879073715147785   0.34879073715147785
2.6591728574428593   0.2592856105791944   0.09269216922664245
2.6591728574428593   0.2592856105791944   0.09269216922664245
2.6591728574428593   0.2592856105791944   0.09269216922664245
2.6591728574428593   0.2592856105791944   0.09269216922664245
2.7443845437435006   0.6860961359358752   0.6860961359358752
2.7443845437435006   0.6860961359358752   0.6860961359358752
2.7443845437435006   0.6860961359358752   0.6860961359358752
2.7443845437435006   0.6860961359358752   0.6860961359358752
1.2958909470216087   0.04074833751314433   0.03955705874314695
1.2958909470216087   0.04074833751314433   0.03955705874314695
1.2958909470216087   0.04074833751314433   0.03955705874314695
1.2958909470216087   0.04074833751314433   0.03955705874314695
1.9222316030842566   0.32653994228035804   -0.0293637846452646
1.9222316030842566   0.32653994228035804   -0.0293637846452646
1.9222316030842566   0.32653994228035804   -0.0293637846452646
1.9222316030842566   0.32653994228035804   -0.0293637846452646
-2.8133533081638142   -0.2014355127201572   0.03154018032980445
-2.8133533081638142   -0.2014355127201572   0.03154018032980445
-2.8133533081638142   -0.2014355127201572   0.03154018032980445
-2.8133533081638142   -0.2014355127201572   0.03154018032980445
-1.790613012967418   -0.04118414744869958   -0.01153421995859455
-1.790613012967418   -0.04118414744869958   -0.01153421995859455
-1.790613012967418   -0.04118414744869958   -0.01153421995859455
-1.790613012967418   -0.04118414744869958   -0.01153421995859455
-1.802854732821524   0.0727812121983249   0.0375698466328646
-1.802854732821524   0.0727812121983249   0.0375698466328646
-1.802854732821524   0.0727812121983249   0.0375698466328646
-1.802854732821524   0.0727812121983249   0.0375698466328646
-2.8552951320257063   -0.1947020464469324   -0.03375203788712529
-2.8552951320257063   -0.1947020464469324   -0.03375203788712529
-2.8552951320257063   -0.1947020464469324   -0.03375203788712529
-2.8552951320257063   -0.1947020464469324   -0.03375203788712529
-2.2243974714873658   -0.07592530829203137   -0.008750368281718157
-2.2243974714873658   -0.07592530829203137   -0.008750368281718157
-2.2243974714873658   -0.07592530829203137   -0.008750368281718157
-2.2243974714873658   -0.07592530829203137   -0.008750368281718157
-2.834599210976631   -0.1383971238141714   0.013422644725490249
-2.834599210976631   -0.1383971238141714   0.013422644725490249
-2.834599210976631   -0.1383971238141714   0.013422644725490249
-2.834599210976631   -0.1383971238141714   0.013422644725490249
-1.8265529384824437   0.013474004953726637   -0.02161397442710042
-1.8265529384824437   0.013474004953726637   -0.02161397442710042
-1.8265529384824437   0.013474004953726637   -0.02161397442710042
-1.8265529384824437   0.013474004953726637   -0.02161397442710042
-1.8050861744186877   0.10373936272342199   0.042801752819869726
-1.8050861744186877   0.10373936272342199   0.042801752819869726
-1.8050861744186877   0.10373936272342199   0.042801752819869726
-1.8050861744186877   0.10373936272342199   0.042801752819869726
-2.872719548013057   -0.1715290309536356   -0.04456459185801945
-2.872719548013057   -0.1715290309536356   -0.04456459185801945
-2.872719548013057   -0.1715290309536356   -0.04456459185801945
-2.872719548013057   -0.1715290309536356   -0.04456459185801945
-2.2869663019382576   -0.050861780098815534   -0.02165554103456037
-2.2869663019382576   -0.050861780098815534   -0.02165554103456037
-2.2869663019382576   -0.050861780098815534   -0.02165554103456037
-2.2869663019382576   -0.050861780098815534   -0.02165554103456037
-2.8212130103987882   -0.08313211832053247   0.12457118358019767
-2.8212130103987882   -0.08313211832053247   0.12457118358019767
-2.8212130103987882   -0.08313211832053247   0.12457118358019767
-2.8212130103987882   -0.08313211832053247   0.12457118358019767
-1.8351197779917063   0.036815384131567375   -0.04044228645335604
-1.8351197779917063   0.036815384131567375   -0.04044228645335604
-1.8351197779917063   0.036815384131567375   -0.04044228645335604
-1.8351197779917063   0.036815384131567375   -0.04044228645335604
-1.772345541427411   0.18071802361356848   0.07782386772869518
-1.772345541427411   0.18071802361356848   0.07782386772869518
-1.772345541427411   0.18071802361356848   0.07782386772869518
-1.772345541427411   0.18071802361356848   0.07782386772869518
-2.7935013101995025   -0.13847438773399812   -0.0729356323179193
-2.7935013101995025   -0.13847438773399812   -0.0729356323179193
-2.7935013101995025   -0.13847438773399812   -0.0729356323179193
-2.7935013101995025   -0.13847438773399812   -0.0729356323179193
-2.1996334571012994   0.02043877181264042   0.048722419589369015
-2.1996334571012994   0.02043877181264042   0.048722419589369015
-2.1996334571012994   0.02043877181264042   0.048722419589369015
-2.1996334571012994   0.02043877181264042   0.048722419589369015
-1.8351339229817214   -0.2432339030333096   -0.03208901444550179
-1.8351339229817214   -0.2432339030333096   -0.03208901444550179
-1.8351339229817214   -0.2432339030333096   -0.03208901444550179
-1.8351339229817214   -0.2432339030333096   -0.03208901444550179
-0.845267512152005   -0.018707473195843788   0.008991639358983165
-0.845267512152005   -0.018707473195843788   0.008991639358983165
-0.845267512152005   -0.018707473195843788   0.008991639358983165
-0.845267512152005   -0.018707473195843788   0.008991639358983165
-0.8577282991744483   0.01632303463204518   0.012764145112305877
-0.8577282991744483   0.01632303463204518   0.012764145112305877
-0.8577282991744483   0.01632303463204518   0.012764145112305877
-0.8577282991744483   0.01632303463204518   0.012764145112305877
-1.8715555906704393   -0.17805610366994035   -0.05509712674344698
-1.8715555906704393   -0.17805610366994035   -0.05509712674344698
-1.8715555906704393   -0.17805610366994035   -0.05509712674344698
-1.8715555906704393   -0.17805610366994035   -0.05509712674344698
-1.352377651940164   -0.10976382630125486   -0.030966867106063944
-1.352377651940164   -0.10976382630125486   -0.030966867106063944
-1.352377651940164   -0.10976382630125486   -0.030966867106063944
-1.352377651940164   -0.10976382630125486   -0.030966867106063944
-1.869809110485457   -0.19460843545859535   -0.029812394029887626
-1.869809110485457   -0.19460843545859535   -0.029812394029887626
-1.869809110485457   -0.19460843545859535   -0.029812394029887626
-1.869809110485457   -0.19460843545859535   -0.029812394029887626
-0.8561377848389065   0.036212360941224264   0.0008273904808432514
-0.8561377848389065   0.036212360941224264   0.0008273904808432514
-0.8561377848389065   0.036212360941224264   0.0008273904808432514
-0.8561377848389065   0.036212360941224264   0.0008273904808432514
-0.8545736723455458   0.05959729480121678   0.01736055040346479
-0.8545736723455458   0.05959729480121678   0.01736055040346479
-0.8545736723455458   0.05959729480121678   0.01736055040346479
-0.8545736723455458   0.05959729480121678   0.01736055040346479
-1.8724163618563483   -0.1305236346269864   -0.05958618701802512
-1.8724163618563483   -0.1305236346269864   -0.05958618701802512
-1.8724163618563483   -0.1305236346269864   -0.05958618701802512
-1.8724163618563483   -0.1305236346269864   -0.05958618701802512
-1.34983355543202   -0.06110344590138722   -0.014719381587518232
-1.34983355543202   -0.06110344590138722   -0.014719381587518232
-1.34983355543202   -0.06110344590138722   -0.014719381587518232
-1.34983355543202   -0.06110344590138722   -0.014719381587518232
-1.865107861007858   -0.14724593041037515   -0.006321386992182931
-1.865107861007858   -0.14724593041037515   -0.006321386992182931
-1.865107861007858   -0.14724593041037515   -0.006321386992182931
-1.865107861007858   -0.14724593041037515   -0.006321386992182931
-0.8556868093916963   0.0825149543869492   -0.011122794413006704
-0.8556868093916963   0.0825149543869492   -0.011122794413006704
-0.8556868093916963   0.0825149543869492   -0.011122794413006704
-0.8556868093916963   0.0825149543869492   -0.011122794413006704
-0.8403361094014618   0.10307466056320791   0.034907814522754835
-0.8403361094014618   0.10307466056320791   0.034907814522754835
-0.8403361094014618   0.10307466056320791   0.034907814522754835
-0.8403361094014618   0.10307466056320791   0.034907814522754835
-1.852453451319513   -0.07560463347751989   -0.06639302464073518
-1.852453451319513   -0.07560463347751989   -0.06639302464073518
-1.852453451319513   -0.07560463347751989   -0.06639302464073518
-1.852453451319513   -0.07560463347751989   -0.06639302464073518
-1.3442791528201377   -0.015057156137493644   0.006752411731853536
-1.3442791528201377   -0.015057156137493644   0.006752411731853536
-1.3442791528201377   -0.015057156137493644   0.006752411731853536
-1.3442791528201377   -0.015057156137493644   0.006752411731853536
-0.8913627651706979   -0.20247061993081572   -0.03772147899951661
-0.8913627651706979   -0.20247061993081572   -0.03772147899951661
-0.8913627651706979   -0.20247061993081572   -0.03772147899951661
-0.8913627651706979   -0.20247061993081572   -0.03772147899951661
0.09278054624180501   0.021093925044067197   0.0347251334875257
0.09278054624180501   0.021093925044067197   0.0347251334875257
0.09278054624180501   0.021093925044067197   0.0347251334875257
0.09278054624180501   0.021093925044067197   0.0347251334875257
0.08849842358180372   0.051094921406829134   0.0027686208009751814
0.08849842358180372   0.051094921406829134   0.0027686208009751814
0.08849842358180372   0.051094921406829134   0.0027686208009751814
0.08849842358180372   0.051094921406829134   0.0027686208009751814
-0.8951940850770281   -0.13415797431808008   -0.02408377545046872
-0.8951940850770281   -0.13415797431808008   -0.02408377545046872
-0.8951940850770281   -0.13415797431808008   -0.02408377545046872
-0.8951940850770281   -0.13415797431808008   -0.02408377545046872
-0.4051993653218093   -0.06710492667069706   -0.012801305280156515
-0.4051993653218093   -0.06710492667069706   -0.012801305280156515
-0.4051993653218093   -0.06710492667069706   -0.012801305280156515
-0.4051993653218093   -0.06710492667069706   -0.012801305280156515
-0.9013848894585194   -0.15439551641385962   -0.03480025526214542
-0.9013848894585194   -0.15439551641385962   -0.03480025526214542
-0.9013848894585194   -0.15439551641385962   -0.03480025526214542
-0.9013848894585194   -0.15439551641385962   -0.03480025526214542
0.098134308874554   0.07477754441386641   0.027265424257689273
0.098134308874554   0.07477754441386641   0.027265424257689273
0.098134308874554   0.07477754441386641   0.027265424257689273
0.098134308874554   0.07477754441386641   0.027265424257689273
0.09542893535515383   0.0987322474227932   0.01614759295686215
0.09542893535515383   0.0987322474227932   0.01614759295686215
0.09542893535515383   0.0987322474227932   0.01614759295686215
0.09542893535515383   0.0987322474227932   0.01614759295686215
-0.892358027758165   -0.08192066797263442   -0.0300432638857802
-0.892358027758165   -0.08192066797263442   -0.0300432638857802
-0.892358027758165   -0.08192066797263442   -0.0300432638857802
-0.892358027758165   -0.08192066797263442   -0.0300432638857802
-0.39891219522220117   -0.016475285059485686   0.004783202702274513
-0.39891219522220117   -0.016475285059485686   0.004783202702274513
-0.39891219522220117   -0.016475285059485686   0.004783202702274513
-0.39891219522220117   -0.016475285059485686   0.004783202702274513
-0.8947455331930925   -0.10609371390403242   -0.017807745129019583
-0.8947455331930925   -0.10609371390403242   -0.017807745129019583
-0.8947455331930925   -0.10609371390403242   -0.017807745129019583
-0.8947455331930925   -0.10609371390403242   -0.017807745129019583
0.10152280007767629   0.1266116526417861   0.018737511350481
0.10152280007767629   0.1266116526417861   0.018737511350481
0.10152280007767629   0.1266116526417861   0.018737511350481
0.10152280007767629   0.1266116526417861   0.018737511350481
0.09759491056778957   0.1517323588269845   0.026590916115302725
0.09759491056778957   0.1517323588269845   0.026590916115302725
0.09759491056778957   0.1517323588269845   0.026590916115302725
0.09759491056778957   0.1517323588269845   0.026590916115302725
-0.8807164822994715   -0.02607305794344314   -0.037846331460640224
-0.8807164822994715   -0.02607305794344314   -0.037846331460640224
-0.8807164822994715   -0.02607305794344314   -0.037846331460640224
-0.8807164822994715   -0.02607305794344314   -0.037846331460640224
-0.38896354794431587   0.03647187042692662   0.02403380997280507
-0.38896354794431587   0.03647187042692662   0.02403380997280507
-0.38896354794431587   0.03647187042692662   0.02403380997280507
-0.38896354794431587   0.03647187042692662   0.02403380997280507
0.042676793729704135   -0.14840417881508428   -0.04629552521382723
0.042676793729704135   -0.14840417881508428   -0.04629552521382723
0.042676793729704135   -0.14840417881508428   -0.04629552521382723
0.042676793729704135   -0.14840417881508428   -0.04629552521382723
1.062197694413844   0.07334588561065858   0.06371178880031539
1.062197694413844   0.07334588561065858   0.06371178880031539
1.062197694413844   0.07334588561065858   0.06371178880031539
1.062197694413844   0.07334588561065858   0.06371178880031539
1.0608850176130362   0.0987776756309411   -0.010177959488474327
1.0608850176130362   0.0987776756309411   -0.010177959488474327
1.0608850176130362   0.0987776756309411   -0.010177959488474327
1.0608850176130362   0.0987776756309411   -0.010177959488474327
0.06115707456935149   -0.08918738083223206   0.0063441779777751416
0.06115707456935149   -0.08918738083223206   0.0063441779777751416
0.06115707456935149   -0.08918738083223206   0.0063441779777751416
0.06115707456935149   -0.08918738083223206   0.0063441779777751416
0.5498719044910717   -0.012695465383081389   0.001180645066021474
0.5498719044910717   -0.012695465383081389   0.001180645066021474
0.5498719044910717   -0.012695465383081389   0.001180645066021474
0.5498719044910717   -0.012695465383081389   0.001180645066021474
0.04912624471340887   -0.10844829789843646   -0.034549054235732776
0.04912624471340887   -0.10844829789843646   -0.034549054235732776
0.04912624471340887   -0.10844829789843646   -0.034549054235732776
0.04912624471340887   -0.10844829789843646   -0.034549054235732776
1.0791046266240436   0.12422737185220821   0.055470389345284324
1.0791046266240436   0.12422737185220821   0.055470389345284324
1.0791046266240436   0.12422737185220821   0.055470389345284324
1.0791046266240436   0.12422737185220821   0.055470389345284324
1.0692385600727206   0.14589019448763674   0.010802693039000222
1.0692385600727206   0.14589019448763674   0.010802693039000222
1.0692385600727206   0.14589019448763674   0.010802693039000222
1.0692385600727206   0.14589019448763674   0.010802693039000222
0.06332154240289797   -0.04250373871850728   -0.0031533856631166743
0.06332154240289797   -0.04250373871850728   -0.0031533856631166743
0.06332154240289797   -0.04250373871850728   -0.0031533856631166743
0.06332154240289797   -0.04250373871850728   -0.0031533856631166743
0.5571933658008438   0.03233971914300682   0.02279177671230633
0.5571933658008438   0.03233971914300682   0.02279177671230633
0.5571933658008438   0.03233971914300682   0.02279177671230633
0.5571933658008438   0.03233971914300682   0.02279177671230633
0.05456090978292526   -0.06424827639535016   -0.025212011086137066
0.05456090978292526   -0.06424827639535016   -0.025212011086137066
0.05456090978292526   -0.06424827639535016   -0.025212011086137066
0.05456090978292526   -0.06424827639535016   -0.025212011086137066
1.0824771635251338   0.17211270299691545   0.050773201791768766
1.0824771635251338   0.17211270299691545   0.050773201791768766
1.0824771635251338   0.17211270299691545   0.050773201791768766
1.0824771635251338   0.17211270299691545   0.050773201791768766
1.0520581839585597   0.2002659240218489   0.022694023432278054
1.0520581839585597   0.2002659240218489   0.022694023432278054
1.0520581839585597   0.2002659240218489   0.022694023432278054
1.0520581839585597   0.2002659240218489   0.022694023432278054
0.06273859809491139   0.015319476793604271   -0.01127776421570796
0.06273859809491139   0.015319476793604271   -0.01127776421570796
0.06273859809491139   0.015319476793604271   -0.01127776421570796
0.06273859809491139   0.015319476793604271   -0.01127776421570796
0.5654152162775048   0.08382688165675095   0.042793926808773995
0.5654152162775048   0.08382688165675095   0.042793926808773995
0.5654152162775048   0.08382688165675095   0.042793926808773995
0.5654152162775048   0.08382688165675095   0.042793926808773995
0.9785484745895102   -0.19565635124277253   -0.08553207346792206
0.9785484745895102   -0.19565635124277253   -0.08553207346792206
0.9785484745895102   -0.19565635124277253   -0.08553207346792206
0.9785484745895102   -0.19565635124277253   -0.08553207346792206
2.0147037329385706   0.13307191909938748   0.062015983490656526
2.0147037329385706   0.13307191909938748   0.062015983490656526
2.0147037329385706   0.13307191909938748   0.062015983490656526
2.0147037329385706   0.13307191909938748   0.062015983490656526
2.0374700245290898   0.06324122599108017   -0.12865676160442574
2.0374700245290898   0.06324122599108017   -0.12865676160442574
2.0374700245290898   0.06324122599108017   -0.12865676160442574
2.0374700245290898   0.06324122599108017   -0.12865676160442574
1.0425350769002737   -0.040216729664028644   0.0370667422426639
1.0425350769002737   -0.040216729664028644   0.0370667422426639
1.0425350769002737   -0.040216729664028644   0.0370667422426639
1.0425350769002737   -0.040216729664028644   0.0370667422426639
1.4428416516318996   -0.025146493738397502   -0.036051799017483704
1.4428416516318996   -0.025146493738397502   -0.036051799017483704
1.4428416516318996   -0.025146493738397502   -0.036051799017483704
1.4428416516318996   -0.025146493738397502   -0.036051799017483704
1.0060877258531258   -0.12865102496220493   -0.05673571769488707
1.0060877258531258   -0.12865102496220493   -0.05673571769488707
1.0060877258531258   -0.12865102496220493   -0.05673571769488707
1.0060877258531258   -0.12865102496220493   -0.05673571769488707
2.0924067160172086   0.1701648617302291   0.03910306009701808
2.0924067160172086   0.1701648617302291   0.03910306009701808
2.0924067160172086   0.1701648617302291   0.03910306009701808
2.0924067160172086   0.1701648617302291   0.03910306009701808
2.059872533523169   0.11507503778056871   -0.029060370846792166
2.059872533523169   0.11507503778056871   -0.029060370846792166
2.059872533523169   0.11507503778056871   -0.029060370846792166
2.059872533523169   0.11507503778056871   -0.029060370846792166
1.0383271457530907   -0.016944669060152767   0.019080484988621138
1.0383271457530907   -0.016944669060152767   0.019080484988621138
1.0383271457530907   -0.016944669060152767   0.019080484988621138
1.0383271457530907   -0.016944669060152767   0.019080484988621138
1.518316863631236   0.037922674154578895   0.02493788975473142
1.518316863631236   0.037922674154578895   0.02493788975473142
1.518316863631236   0.037922674154578895   0.02493788975473142
1.518316863631236   0.037922674154578895   0.02493788975473142
1.0090949270419647   -0.09839455405978642   -0.04563072356736722
1.0090949270419647   -0.09839455405978642   -0.04563072356736722
1.0090949270419647   -0.09839455405978642   -0.04563072356736722
1.0090949270419647   -0.09839455405978642   -0.04563072356736722
2.086651188941666   0.19407135948757503   0.025836584538684898
2.086651188941666   0.19407135948757503   0.025836584538684898
2.086651188941666   0.19407135948757503   0.025836584538684898
2.086651188941666   0.19407135948757503   0.025836584538684898
2.0563777666351584   0.17603072445528883   -0.04451782615967971
2.0563777666351584   0.17603072445528883   -0.04451782615967971
2.0563777666351584   0.17603072445528883   -0.04451782615967971
2.0563777666351584   0.17603072445528883   -0.04451782615967971
1.016925582515533   0.03671382937375792   0.010583110865217127
1.016925582515533   0.03671382937375792   0.010583110865217127
1.016925582515533   0.03671382937375792   0.010583110865217127
1.016925582515533   0.03671382937375792   0.010583110865217127
1.4794592777374698   0.06644092196197826   0.018453608210727585
1.4794592777374698   0.06644092196197826   0.018453608210727585
1.4794592777374698   0.06644092196197826   0.018453608210727585
1.4794592777374698   0.06644092196197826   0.018453608210727585
-2.2122657860199118   -0.1004677186945786   0.1137006968645044
-2.2122657860199118   -0.1004677186945786   0.1137006968645044
-2.2122657860199118   -0.1004677186945786   0.1137006968645044
-2.2122657860199118   -0.1004677186945786   0.1137006968645044
-1.4689174881396845   -0.055688240928750965   -0.0295854333814302
-1.4689174881396845   -0.055688240928750965   -0.0295854333814302
-1.4689174881396845   -0.055688240928750965   -0.0295854333814302
-1.4689174881396845   -0.055688240928750965   -0.0295854333814302
-1.4160509687729002   0.11897937234902461   0.09541089283985342
-1.4160509687729002   0.11897937234902461   0.09541089283985342
-1.4160509687729002   0.11897937234902461   0.09541089283985342
-1.4160509687729002   0.11897937234902461   0.09541089283985342
-2.222488890749206   -0.15862819458480365   -0.046369365499922224
-2.222488890749206   -0.15862819458480365   -0.046369365499922224
-2.222488890749206   -0.15862819458480365   -0.046369365499922224
-2.222488890749206   -0.15862819458480365   -0.046369365499922224
-1.7556068433640173   -0.02714765786044404   -0.003155506047273049
-1.7556068433640173   -0.02714765786044404   -0.003155506047273049
-1.7556068433640173   -0.02714765786044404   -0.003155506047273049
-1.7556068433640173   -0.02714765786044404   -0.003155506047273049
-2.1607125009605808   -0.0235485290706684   0.12743291792906924
-2.1607125009605808   -0.0235485290706684   0.12743291792906924
-2.1607125009605808   -0.0235485290706684   0.12743291792906924
-2.1607125009605808   -0.0235485290706684   0.12743291792906924
-1.4680957312225449   -0.006368665826130049   -0.039464881233215524
-1.4680957312225449   -0.006368665826130049   -0.039464881233215524
-1.4680957312225449   -0.006368665826130049   -0.039464881233215524
-1.4680957312225449   -0.006368665826130049   -0.039464881233215524
-1.4102990131612299   0.14755874616418024   0.08845375887923193
-1.4102990131612299   0.14755874616418024   0.08845375887923193
-1.4102990131612299   0.14755874616418024   0.08845375887923193
-1.4102990131612299   0.14755874616418024   0.08845375887923193
-2.1881296577048692   -0.1327248071286648   -0.06350050845546366
-2.1881296577048692   -0.1327248071286648   -0.06350050845546366
-2.1881296577048692   -0.1327248071286648   -0.06350050845546366
-2.1881296577048692   -0.1327248071286648   -0.06350050845546366
-1.7593952067622216   0.00643140404222492   0.02031956286378385
-1.7593952067622216   0.00643140404222492   0.02031956286378385
-1.7593952067622216   0.00643140404222492   0.02031956286378385
-1.7593952067622216   0.00643140404222492   0.02031956286378385
-2.130597520573004   0.0034128057675155143   0.08802256430768238
-2.130597520573004   0.0034128057675155143   0.08802256430768238
-2.130597520573004   0.0034128057675155143   0.08802256430768238
-2.130597520573004   0.0034128057675155143   0.08802256430768238
-1.4646234826388076   0.01462880092228952   -0.0502386432667538
-1.4646234826388076   0.01462880092228952   -0.0502386432667538
-1.4646234826388076   0.01462880092228952   -0.0502386432667538
-1.4646234826388076   0.01462880092228952   -0.0502386432667538
-1.4116847721668913   0.1665128894928819   0.07018421578386955
-1.4116847721668913   0.1665128894928819   0.07018421578386955
-1.4116847721668913   0.1665128894928819   0.07018421578386955
-1.4116847721668913   0.1665128894928819   0.07018421578386955
-2.1435133124060575   -0.10521706209958664   -0.08098809041675191
-2.1435133124060575   -0.10521706209958664   -0.08098809041675191
-2.1435133124060575   -0.10521706209958664   -0.08098809041675191
-2.1435133124060575   -0.10521706209958664   -0.08098809041675191
-1.7088724443764844   0.03649360745868496   0.04221035780194575
-1.7088724443764844   0.03649360745868496   0.04221035780194575
-1.7088724443764844   0.03649360745868496   0.04221035780194575
-1.7088724443764844   0.03649360745868496   0.04221035780194575
-1.4733550276731122   -0.13967964880610487   0.032218276828785135
-1.4733550276731122   -0.13967964880610487   0.032218276828785135
-1.4733550276731122   -0.13967964880610487   0.032218276828785135
-1.4733550276731122   -0.13967964880610487   0.032218276828785135
-0.7437904682474552   -0.026827238982224527   0.001438514029278297
-0.7437904682474552   -0.026827238982224527   0.001438514029278297
-0.7437904682474552   -0.026827238982224527   0.001438514029278297
-0.7437904682474552   -0.026827238982224527   0.001438514029278297
-0.7227340494349361   0.07309957836891959   0.05185974221534963
-0.7227340494349361   0.07309957836891959   0.05185974221534963
-0.7227340494349361   0.07309957836891959   0.05185974221534963
-0.7227340494349361   0.07309957836891959   0.05185974221534963
-1.4967934269104568   -0.13774921045756866   -0.05157281504134745
-1.4967934269104568   -0.13774921045756866   -0.05157281504134745
-1.4967934269104568   -0.13774921045756866   -0.05157281504134745
-1.4967934269104568   -0.13774921045756866   -0.05157281504134745
-1.105219324581454   -0.054234309663739044   -0.02235630480743217
-1.105219324581454   -0.054234309663739044   -0.02235630480743217
-1.105219324581454   -0.054234309663739044   -0.02235630480743217
-1.105219324581454   -0.054234309663739044   -0.02235630480743217
-1.468733287542005   -0.08023040285574579   0.031209074199091677
-1.468733287542005   -0.08023040285574579   0.031209074199091677
-1.468733287542005   -0.08023040285574579   0.031209074199091677
-1.468733287542005   -0.08023040285574579   0.031209074199091677
-0.7451048001668826   0.021270159403605993   -0.00816459247906385
-0.7451048001668826   0.021270159403605993   -0.00816459247906385
-0.7451048001668826   0.021270159403605993   -0.00816459247906385
-0.7451048001668826   0.021270159403605993   -0.00816459247906385
-0.720458424243908   0.120759737897319   0.044872737991061507
-0.720458424243908   0.120759737897319   0.044872737991061507
-0.720458424243908   0.120759737897319   0.044872737991061507
-0.720458424243908   0.120759737897319   0.044872737991061507
-1.4883312595591234   -0.09325872767562499   -0.06088999927043101
-1.4883312595591234   -0.09325872767562499   -0.06088999927043101
-1.4883312595591234   -0.09325872767562499   -0.06088999927043101
-1.4883312595591234   -0.09325872767562499   -0.06088999927043101
-1.0931687131617085   -0.00600472803195326   -5.936665141467734e-05
-1.0931687131617085   -0.00600472803195326   -5.936665141467734e-05
-1.0931687131617085   -0.00600472803195326   -5.936665141467734e-05
-1.0931687131617085   -0.00600472803195326   -5.936665141467734e-05
-1.4596973858925244   -0.03188206146102268   0.020902702847961974
-1.4596973858925244   -0.03188206146102268   0.020902702847961974
-1.4596973858925244   -0.03188206146102268   0.020902702847961974
-1.4596973858925244   -0.03188206146102268   0.020902702847961974
-0.7444593537794543   0.06401601581377589   -0.018388187603111096
-0.7444593537794543   0.06401601581377589   -0.018388187603111096
-0.7444593537794543   0.06401601581377589   -0.018388187603111096
-0.7444593537794543   0.06401601581377589   -0.018388187603111096
-0.7202579372521133   0.17083861676209658   0.03362771248993977
-0.7202579372521133   0.17083861676209658   0.03362771248993977
-0.7202579372521133   0.17083861676209658   0.03362771248993977
-0.7202579372521133   0.17083861676209658   0.03362771248993977
-1.481181023015748   -0.04525686453411765   -0.06552728443342255
-1.481181023015748   -0.04525686453411765   -0.06552728443342255
-1.481181023015748   -0.04525686453411765   -0.06552728443342255
-1.481181023015748   -0.04525686453411765   -0.06552728443342255
-1.0938959888122306   0.0382162857069388   0.01697868040215786
-1.0938959888122306   0.0382162857069388   0.01697868040215786
-1.0938959888122306   0.0382162857069388   0.01697868040215786
-1.0938959888122306   0.0382162857069388   0.01697868040215786
-0.7715198520835298   -0.15959859178764274   -0.00443705234568158
-0.7715198520835298   -0.15959859178764274   -0.00443705234568158
-0.7715198520835298   -0.15959859178764274   -0.00443705234568158
-0.7715198520835298   -0.15959859178764274   -0.00443705234568158
-0.02539833520740082   0.007980906386938014   0.032949749698385954
-0.02539833520740082   0.007980906386938014   0.032949749698385954
-0.02539833520740082   0.007980906386938014   0.032949749698385954
-0.02539833520740082   0.007980906386938014   0.032949749698385954
-0.028232856652171567   0.047199750038508716   0.015743617907618683
-0.028232856652171567   0.047199750038508716   0.015743617907618683
-0.028232856652171567   0.047199750038508716   0.015743617907618683
-0.028232856652171567   0.047199750038508716   0.015743617907618683
-0.7720513440190204   -0.10231578250630223   -0.019311369829850277
-0.7720513440190204   -0.10231578250630223   -0.019311369829850277
-0.7720513440190204   -0.10231578250630223   -0.019311369829850277
-0.7720513440190204   -0.10231578250630223   -0.019311369829850277
-0.40052364730936607   -0.05000903027219827   -0.012505479340364238
-0.40052364730936607   -0.05000903027219827   -0.012505479340364238
-0.40052364730936607   -0.05000903027219827   -0.012505479340364238
-0.40052364730936607   -0.05000903027219827   -0.012505479340364238
-0.7712204392109335   -0.10670084642825917   -0.010771781867458865
-0.7712204392109335   -0.10670084642825917   -0.010771781867458865
-0.7712204392109335   -0.10670084642825917   -0.010771781867458865
-0.7712204392109335   -0.10670084642825917   -0.010771781867458865
-0.02482192531355931   0.05582665010716489   0.024171374532024174
-0.02482192531355931   0.05582665010716489   0.024171374532024174
-0.02482192531355931   0.05582665010716489   0.024171374532024174
-0.02482192531355931   0.05582665010716489   0.024171374532024174
-0.024727247423383683   0.09912673093181623   0.007562950301691698
-0.024727247423383683   0.09912673093181623   0.007562950301691698
-0.024727247423383683   0.09912673093181623   0.007562950301691698
-0.024727247423383683   0.09912673093181623   0.007562950301691698
-0.7701229867662218   -0.05439006253627181   -0.02830027418690725
-0.7701229867662218   -0.05439006253627181   -0.02830027418690725
-0.7701229867662218   -0.05439006253627181   -0.02830027418690725
-0.7701229867662218   -0.05439006253627181   -0.02830027418690725
-0.39664593627863465   -0.00199086182047295   0.005509001620184958
-0.39664593627863465   -0.00199086182047295   0.005509001620184958
-0.39664593627863465   -0.00199086182047295   0.005509001620184958
-0.39664593627863465   -0.00199086182047295   0.005509001620184958
-0.7689634752061796   -0.05550971705806243   -0.021383061864905697
-0.7689634752061796   -0.05550971705806243   -0.021383061864905697
-0.7689634752061796   -0.05550971705806243   -0.021383061864905697
-0.7689634752061796   -0.05550971705806243   -0.021383061864905697
-0.022383996137543227   0.10374914829948954   0.014656789363220912
-0.022383996137543227   0.10374914829948954   0.014656789363220912
-0.022383996137543227   0.10374914829948954   0.014656789363220912
-0.022383996137543227   0.10374914829948954   0.014656789363220912
-0.023992369529342576   0.15260777112797372   -0.0011662988736848637
-0.023992369529342576   0.15260777112797372   -0.0011662988736848637
-0.023992369529342576   0.15260777112797372   -0.0011662988736848637
-0.023992369529342576   0.15260777112797372   -0.0011662988736848637
-0.769756688190764   -0.005647139827577891   -0.03738028561364382
-0.769756688190764   -0.005647139827577891   -0.03738028561364382
-0.769756688190764   -0.005647139827577891   -0.03738028561364382
-0.769756688190764   -0.005647139827577891   -0.03738028561364382
-0.39363742142441355   0.046072773814512705   0.022028404840615162
-0.39363742142441355   0.046072773814512705   0.022028404840615162
-0.39363742142441355   0.046072773814512705   0.022028404840615162
-0.39363742142441355   0.046072773814512705   0.022028404840615162
-0.07617323263880132   -0.1747161864785577   -0.038227644593120544
-0.07617323263880132   -0.1747161864785577   -0.038227644593120544
-0.07617323263880132   -0.1747161864785577   -0.038227644593120544
-0.07617323263880132   -0.1747161864785577   -0.038227644593120544
0.690322795365068   0.04873384837469508   0.06263785002108868
0.690322795365068   0.04873384837469508   0.06263785002108868
0.690322795365068   0.04873384837469508   0.06263785002108868
0.690322795365068   0.04873384837469508   0.06263785002108868
0.6677488480201866   0.025929902856531586   -0.024661177029241855
0.6677488480201866   0.025929902856531586   -0.024661177029241855
0.6677488480201866   0.025929902856531586   -0.024661177029241855
0.6677488480201866   0.025929902856531586   -0.024661177029241855
-0.05093386986534107   -0.0640067996742757   0.013445101554555926
-0.05093386986534107   -0.0640067996742757   0.013445101554555926
-0.05093386986534107   -0.0640067996742757   0.013445101554555926
-0.05093386986534107   -0.0640067996742757   0.013445101554555926
0.30338622104801855   -0.04039219023210458   -0.007047951696145912
0.30338622104801855   -0.04039219023210458   -0.007047951696145912
0.30338622104801855   -0.04039219023210458   -0.007047951696145912
0.30338622104801855   -0.04039219023210458   -0.007047951696145912
-0.07591408297423352   -0.1274691672244504   -0.0479935964397316
-0.07591408297423352   -0.1274691672244504   -0.0479935964397316
-0.07591408297423352   -0.1274691672244504   -0.0479935964397316
-0.07591408297423352   -0.1274691672244504   -0.0479935964397316
0.6975532569511681   0.09421646622879273   0.05607430425340424
0.6975532569511681   0.09421646622879273   0.05607430425340424
0.6975532569511681   0.09421646622879273   0.05607430425340424
0.6975532569511681   0.09421646622879273   0.05607430425340424
0.6785104507940382   0.07423535005636546   -0.03464685017988535
0.6785104507940382   0.07423535005636546   -0.03464685017988535
0.6785104507940382   0.07423535005636546   -0.03464685017988535
0.6785104507940382   0.07423535005636546   -0.03464685017988535
-0.04950791828840265   -0.02106876583933994   0.0038550927477537748
-0.04950791828840265   -0.02106876583933994   0.0038550927477537748
-0.04950791828840265   -0.02106876583933994   0.0038550927477537748
-0.04950791828840265   -0.02106876583933994   0.0038550927477537748
0.3060213479810218   0.0030394960463553528   0.010848963425909047
0.3060213479810218   0.0030394960463553528   0.010848963425909047
0.3060213479810218   0.0030394960463553528   0.010848963425909047
0.3060213479810218   0.0030394960463553528   0.010848963425909047
-0.0738020788722827   -0.08086223420259919   -0.05782224180838785
-0.0738020788722827   -0.08086223420259919   -0.05782224180838785
-0.0738020788722827   -0.08086223420259919   -0.05782224180838785
-0.0738020788722827   -0.08086223420259919   -0.05782224180838785
0.708061604664409   0.13928581170611556   0.048058457522219614
0.708061604664409   0.13928581170611556   0.048058457522219614
0.708061604664409   0.13928581170611556   0.048058457522219614
0.708061604664409   0.13928581170611556   0.048058457522219614
0.6851316628481998   0.1348228695820868   -0.03615386502658375
0.6851316628481998   0.1348228695820868   -0.03615386502658375
0.6851316628481998   0.1348228695820868   -0.03615386502658375
0.6851316628481998   0.1348228695820868   -0.03615386502658375
-0.049598281124170265   0.02912317631179443   -0.005711262031643519
-0.049598281124170265   0.02912317631179443   -0.005711262031643519
-0.049598281124170265   0.02912317631179443   -0.005711262031643519
-0.049598281124170265   0.02912317631179443   -0.005711262031643519
0.3165610745700934   0.051485335148019874   0.03210866447973919
0.3165610745700934   0.051485335148019874   0.03210866447973919
0.3165610745700934   0.051485335148019874   0.03210866447973919
0.3165610745700934   0.051485335148019874   0.03210866447973919
0.6184791309312765   -0.1734546022956964   -0.07439202147746911
0.6184791309312765   -0.1734546022956964   -0.07439202147746911
0.6184791309312765   -0.1734546022956964   -0.07439202147746911
0.6184791309312765   -0.1734546022956964   -0.07439202147746911
1.3593987946101176   0.1009934930059973   0.06959994670399493
1.3593987946101176   0.1009934930059973   0.06959994670399493
1.3593987946101176   0.1009934930059973   0.06959994670399493
1.3593987946101176   0.1009934930059973   0.06959994670399493
1.348790913088215   -0.0061823997237825945   -0.09901744424404707
1.348790913088215   -0.0061823997237825945   -0.09901744424404707
1.348790913088215   -0.0061823997237825945   -0.09901744424404707
1.348790913088215   -0.0061823997237825945   -0.09901744424404707
0.6739212553411917   -0.014566674924211431   0.04669743735653212
0.6739212553411917   -0.014566674924211431   0.04669743735653212
0.6739212553411917   -0.014566674924211431   0.04669743735653212
0.6739212553411917   -0.014566674924211431   0.04669743735653212
0.9516021176329156   -0.03378410942529486   -0.031182130231958635
0.9516021176329156   -0.03378410942529486   -0.031182130231958635
0.9516021176329156   -0.03378410942529486   -0.031182130231958635
0.9516021176329156   -0.03378410942529486   -0.031182130231958635
0.6190686965489788   -0.1506248004071417   -0.09150723112159866
0.6190686965489788   -0.1506248004071417   -0.09150723112159866
0.6190686965489788   -0.1506248004071417   -0.09150723112159866
0.6190686965489788   -0.1506248004071417   -0.09150723112159866
1.40758563469951   0.13381788857822902   0.05495587551041589
1.40758563469951   0.13381788857822902   0.05495587551041589
1.40758563469951   0.13381788857822902   0.05495587551041589
1.40758563469951   0.13381788857822902   0.05495587551041589
1.381766511748956   0.021370329709125557   -0.1327838871608524
1.381766511748956   0.021370329709125557   -0.1327838871608524
1.381766511748956   0.021370329709125557   -0.1327838871608524
1.381766511748956   0.021370329709125557   -0.1327838871608524
0.6788383784588845   0.006450085742947087   0.03477805245777838
0.6788383784588845   0.006450085742947087   0.03477805245777838
0.6788383784588845   0.006450085742947087   0.03477805245777838
0.6788383784588845   0.006450085742947087   0.03477805245777838
0.9945819675516305   -0.004007084072578798   -0.009534862103321731
0.9945819675516305   -0.004007084072578798   -0.009534862103321731
0.9945819675516305   -0.004007084072578798   -0.009534862103321731
0.9945819675516305   -0.004007084072578798   -0.009534862103321731
0.6260555657093962   -0.12312688931330018   -0.0995590362334215
0.6260555657093962   -0.12312688931330018   -0.0995590362334215
0.6260555657093962   -0.12312688931330018   -0.0995590362334215
0.6260555657093962   -0.12312688931330018   -0.0995590362334215
1.443255529016875   0.15965350928380398   0.03637801960407246
1.443255529016875   0.15965350928380398   0.03637801960407246
1.443255529016875   0.15965350928380398   0.03637801960407246
1.443255529016875   0.15965350928380398   0.03637801960407246
1.4341324180385064   0.09306488124730927   -0.12486846528999937
1.4341324180385064   0.09306488124730927   -0.12486846528999937
1.4341324180385064   0.09306488124730927   -0.12486846528999937
1.4341324180385064   0.09306488124730927   -0.12486846528999937
0.6810580811507722   0.052917087991755346   0.02538400807662096
0.6810580811507722   0.052917087991755346   0.02538400807662096
0.6810580811507722   0.052917087991755346   0.02538400807662096
0.6810580811507722   0.052917087991755346   0.02538400807662096
1.0018475190090805   0.03005806311734871   0.014402445759329537
1.0018475190090805   0.03005806311734871   0.014402445759329537
1.0018475190090805   0.03005806311734871   0.014402445759329537
1.0018475190090805   0.03005806311734871   0.014402445759329537
-1.5821227805222082   -0.051798243371335484   0.10306984678817106
-1.5821227805222082   -0.051798243371335484   0.10306984678817106
-1.5821227805222082   -0.051798243371335484   0.10306984678817106
-1.5821227805222082   -0.051798243371335484   0.10306984678817106
-1.1065305364277382   -0.07380435580867356   -0.03895439561448702
-1.1065305364277382   -0.07380435580867356   -0.03895439561448702
-1.1065305364277382   -0.07380435580867356   -0.03895439561448702
-1.1065305364277382   -0.07380435580867356   -0.03895439561448702
-1.0415761028898622   0.10440868172698589   0.08790222819968162
-1.0415761028898622   0.10440868172698589   0.08790222819968162
-1.0415761028898622   0.10440868172698589   0.08790222819968162
-1.0415761028898622   0.10440868172698589   0.08790222819968162
-1.5822509050314055   -0.1302144188529609   -0.05697550535233976
-1.5822509050314055   -0.1302144188529609   -0.05697550535233976
-1.5822509050314055   -0.1302144188529609   -0.05697550535233976
-1.5822509050314055   -0.1302144188529609   -0.05697550535233976
-1.2736865304598877   -0.020324377553532558   -0.002719086656392797
-1.2736865304598877   -0.020324377553532558   -0.002719086656392797
-1.2736865304598877   -0.020324377553532558   -0.002719086656392797
-1.2736865304598877   -0.020324377553532558   -0.002719086656392797
-1.5231771776625322   0.010119803050273879   0.09805890958879142
-1.5231771776625322   0.010119803050273879   0.09805890958879142
-1.5231771776625322   0.010119803050273879   0.09805890958879142
-1.5231771776625322   0.010119803050273879   0.09805890958879142
-1.095845717306617   -0.031121427224133386   -0.04791573493296022
-1.095845717306617   -0.031121427224133386   -0.04791573493296022
-1.095845717306617   -0.031121427224133386   -0.04791573493296022
-1.095845717306617   -0.031121427224133386   -0.04791573493296022
-1.0317708417248357   0.12610606637994282   0.07429504310754088
-1.0317708417248357   0.12610606637994282   0.07429504310754088
-1.0317708417248357   0.12610606637994282   0.07429504310754088
-1.0317708417248357   0.12610606637994282   0.07429504310754088
-1.5448608090931155   -0.10603111753411476   -0.0720403348494369
-1.5448608090931155   -0.10603111753411476   -0.0720403348494369
-1.5448608090931155   -0.10603111753411476   -0.0720403348494369
-1.5448608090931155   -0.10603111753411476   -0.0720403348494369
-1.2648255971386893   0.008299628938502002   0.013425304620075046
-1.2648255971386893   0.008299628938502002   0.013425304620075046
-1.2648255971386893   0.008299628938502002   0.013425304620075046
-1.2648255971386893   0.008299628938502002   0.013425304620075046
-1.4862852399660675   0.03608788063377166   0.07871851261791703
-1.4862852399660675   0.03608788063377166   0.07871851261791703
-1.4862852399660675   0.03608788063377166   0.07871851261791703
-1.4862852399660675   0.03608788063377166   0.07871851261791703
-1.086001363613557   -0.011667884549615759   -0.0590836154065002
-1.086001363613557   -0.011667884549615759   -0.0590836154065002
-1.086001363613557   -0.011667884549615759   -0.0590836154065002
-1.086001363613557   -0.011667884549615759   -0.0590836154065002
-1.0263396659489141   0.14720183047140195   0.06393272598104739
-1.0263396659489141   0.14720183047140195   0.06393272598104739
-1.0263396659489141   0.14720183047140195   0.06393272598104739
-1.0263396659489141   0.14720183047140195   0.06393272598104739
-1.4947651018435537   -0.07407343845088549   -0.086261228804155
-1.4947651018435537   -0.07407343845088549   -0.086261228804155
-1.4947651018435537   -0.07407343845088549   -0.086261228804155
-1.4947651018435537   -0.07407343845088549   -0.086261228804155
-1.2173932521540902   0.03510436914341303   0.036093806686967614
-1.2173932521540902   0.03510436914341303   0.036093806686967614
-1.2173932521540902   0.03510436914341303   0.036093806686967614
-1.2173932521540902   0.03510436914341303   0.036093806686967614
-1.0941489667440971   -0.08946401840700113   0.03861311540203723
-1.0941489667440971   -0.08946401840700113   0.03861311540203723
-1.0941489667440971   -0.08946401840700113   0.03861311540203723
-1.0941489667440971   -0.08946401840700113   0.03861311540203723
-0.6340677211957814   -0.047826690009071915   -0.006285489021866486
-0.6340677211957814   -0.047826690009071915   -0.006285489021866486
-0.6340677211957814   -0.047826690009071915   -0.006285489021866486
-0.6340677211957814   -0.047826690009071915   -0.006285489021866486
-0.6018599417006801   0.06103131564549166   0.04739633026417733
-0.6018599417006801   0.06103131564549166   0.04739633026417733
-0.6018599417006801   0.06103131564549166   0.04739633026417733
-0.6018599417006801   0.06103131564549166   0.04739633026417733
-1.1105846058411426   -0.10643938874525005   -0.046292216084483986
-1.1105846058411426   -0.10643938874525005   -0.046292216084483986
-1.1105846058411426   -0.10643938874525005   -0.046292216084483986
-1.1105846058411426   -0.10643938874525005   -0.046292216084483986
-0.8566933309231654   -0.04180106121126806   -0.017453305073008976
-0.8566933309231654   -0.04180106121126806   -0.017453305073008976
-0.8566933309231654   -0.04180106121126806   -0.017453305073008976
-0.8566933309231654   -0.04180106121126806   -0.017453305073008976
-1.0813336398309634   -0.03803170415764073   0.03155492937879864
-1.0813336398309634   -0.03803170415764073   0.03155492937879864
-1.0813336398309634   -0.03803170415764073   0.03155492937879864
-1.0813336398309634   -0.03803170415764073   0.03155492937879864
-0.6273595386292048   -0.003624999860463718   -0.015445338872490236
-0.6273595386292048   -0.003624999860463718   -0.015445338872490236
-0.6273595386292048   -0.003624999860463718   -0.015445338872490236
-0.6273595386292048   -0.003624999860463718   -0.015445338872490236
-0.5942033722736966   0.10551789779095522   0.0388652407770432
-0.5942033722736966   0.10551789779095522   0.0388652407770432
-0.5942033722736966   0.10551789779095522   0.0388652407770432
-0.5942033722736966   0.10551789779095522   0.0388652407770432
-1.0956477952589827   -0.06444316092053753   -0.054540497262714226
-1.0956477952589827   -0.06444316092053753   -0.054540497262714226
-1.0956477952589827   -0.06444316092053753   -0.054540497262714226
-1.0956477952589827   -0.06444316092053753   -0.054540497262714226
-0.8402456508177596   0.001941210292539991   0.0013371495958096752
-0.8402456508177596   0.001941210292539991   0.0013371495958096752
-0.8402456508177596   0.001941210292539991   0.0013371495958096752
-0.8402456508177596   0.001941210292539991   0.0013371495958096752
-1.0641828992562485   0.009514257170933571   0.028826564659486825
-1.0641828992562485   0.009514257170933571   0.028826564659486825
-1.0641828992562485   0.009514257170933571   0.028826564659486825
-1.0641828992562485   0.009514257170933571   0.028826564659486825
-0.6210096620088139   0.036219085967097   -0.025867396074679985
-0.6210096620088139   0.036219085967097   -0.025867396074679985
-0.6210096620088139   0.036219085967097   -0.025867396074679985
-0.6210096620088139   0.036219085967097   -0.025867396074679985
-0.5868061903109645   0.1529077159157186   0.030920785110975388
-0.5868061903109645   0.1529077159157186   0.030920785110975388
-0.5868061903109645   0.1529077159157186   0.030920785110975388
-0.5868061903109645   0.1529077159157186   0.030920785110975388
-1.0844628082402528   -0.01919902298526993   -0.06028213201897016
-1.0844628082402528   -0.01919902298526993   -0.06028213201897016
-1.0844628082402528   -0.01919902298526993   -0.06028213201897016
-1.0844628082402528   -0.01919902298526993   -0.06028213201897016
-0.8338800678299055   0.04308471611762704   0.01922445864011383
-0.8338800678299055   0.04308471611762704   0.01922445864011383
-0.8338800678299055   0.04308471611762704   0.01922445864011383
-0.8338800678299055   0.04308471611762704   0.01922445864011383
-0.6474856840540034   -0.12272242665539254   0.0015204333333358271
-0.6474856840540034   -0.12272242665539254   0.0015204333333358271
-0.6474856840540034   -0.12272242665539254   0.0015204333333358271
-0.6474856840540034   -0.12272242665539254   0.0015204333333358271
-0.16651818609249278   -0.014233556360467033   0.026407867166987117
-0.16651818609249278   -0.014233556360467033   0.026407867166987117
-0.16651818609249278   -0.014233556360467033   0.026407867166987117
-0.16651818609249278   -0.014233556360467033   0.026407867166987117
-0.1624133212767592   0.02527521900994313   0.009005615009115304
-0.1624133212767592   0.02527521900994313   0.009005615009115304
-0.1624133212767592   0.02527521900994313   0.009005615009115304
-0.1624133212767592   0.02527521900994313   0.009005615009115304
-0.6403816819832098   -0.07183176027120497   -0.012349295231779543
-0.6403816819832098   -0.07183176027120497   -0.012349295231779543
-0.6403816819832098   -0.07183176027120497   -0.012349295231779543
-0.6403816819832098   -0.07183176027120497   -0.012349295231779543
-0.40488697600457757   -0.043920523947560346   -0.012399645406291035
-0.40488697600457757   -0.043920523947560346   -0.012399645406291035
-0.40488697600457757   -0.043920523947560346   -0.012399645406291035
-0.40488697600457757   -0.043920523947560346   -0.012399645406291035
-0.6393396632203856   -0.0730878039319816   -0.005883157756881956
-0.6393396632203856   -0.0730878039319816   -0.005883157756881956
-0.6393396632203856   -0.0730878039319816   -0.005883157756881956
-0.6393396632203856   -0.0730878039319816   -0.005883157756881956
-0.15969459393132499   0.030292008778978148   0.017582461967251328
-0.15969459393132499   0.030292008778978148   0.017582461967251328
-0.15969459393132499   0.030292008778978148   0.017582461967251328
-0.15969459393132499   0.030292008778978148   0.017582461967251328
-0.15316876173177135   0.07513351328478073   0.002363379883904934
-0.15316876173177135   0.07513351328478073   0.002363379883904934
-0.15316876173177135   0.07513351328478073   0.002363379883904934
-0.15316876173177135   0.07513351328478073   0.002363379883904934
-0.6327179393325641   -0.026998064737725008   -0.021191631988614373
-0.6327179393325641   -0.026998064737725008   -0.021191631988614373
-0.6327179393325641   -0.026998064737725008   -0.021191631988614373
-0.6327179393325641   -0.026998064737725008   -0.021191631988614373
-0.39501358804964987   0.0008910874486751097   0.0053066974588067035
-0.39501358804964987   0.0008910874486751097   0.0053066974588067035
-0.39501358804964987   0.0008910874486751097   0.0053066974588067035
-0.39501358804964987   0.0008910874486751097   0.0053066974588067035
-0.6303680361957795   -0.023389211494404358   -0.013050969548012211
-0.6303680361957795   -0.023389211494404358   -0.013050969548012211
-0.6303680361957795   -0.023389211494404358   -0.013050969548012211
-0.6303680361957795   -0.023389211494404358   -0.013050969548012211
-0.1520464437117344   0.07499688119828182   0.008111602070590102
-0.1520464437117344   0.07499688119828182   0.008111602070590102
-0.1520464437117344   0.07499688119828182   0.008111602070590102
-0.1520464437117344   0.07499688119828182   0.008111602070590102
-0.1448780000055418   0.1257148819980625   -0.005448864670664216
-0.1448780000055418   0.1257148819980625   -0.005448864670664216
-0.1448780000055418   0.1257148819980625   -0.005448864670664216
-0.1448780000055418   0.1257148819980625   -0.005448864670664216
-0.6259876611845611   0.018356633134965133   -0.030435486476255776
-0.6259876611845611   0.018356633134965133   -0.030435486476255776
-0.6259876611845611   0.018356633134965133   -0.030435486476255776
-0.6259876611845611   0.018356633134965133   -0.030435486476255776
-0.38599859707925877   0.04591738820812814   0.022364953887054492
-0.38599859707925877   0.04591738820812814   0.022364953887054492
-0.38599859707925877   0.04591738820812814   0.022364953887054492
-0.38599859707925877   0.04591738820812814   0.022364953887054492
-0.2058992328486786   -0.1499869265559617   -0.03474399641844878
-0.2058992328486786   -0.1499869265559617   -0.03474399641844878
-0.2058992328486786   -0.1499869265559617   -0.03474399641844878
-0.2058992328486786   -0.1499869265559617   -0.03474399641844878
0.29493002538362106   0.023444795735728316   0.057271308208152474
0.29493002538362106   0.023444795735728316   0.057271308208152474
0.29493002538362106   0.023444795735728316   0.057271308208152474
0.29493002538362106   0.023444795735728316   0.057271308208152474
0.2744711803508198   -0.00799026924301531   -0.031877296505303035
0.2744711803508198   -0.00799026924301531   -0.031877296505303035
0.2744711803508198   -0.00799026924301531   -0.031877296505303035
0.2744711803508198   -0.00799026924301531   -0.031877296505303035
-0.17200228717873026   -0.03485146142719158   0.021187465936394707
-0.17200228717873026   -0.03485146142719158   0.021187465936394707
-0.17200228717873026   -0.03485146142719158   0.021187465936394707
-0.17200228717873026   -0.03485146142719158   0.021187465936394707
0.04600764254257807   -0.04117221727810923   -0.008822616682781942
0.04600764254257807   -0.04117221727810923   -0.008822616682781942
0.04600764254257807   -0.04117221727810923   -0.008822616682781942
0.04600764254257807   -0.04117221727810923   -0.008822616682781942
-0.19878238021141664   -0.10481534515437313   -0.04274911549985566
-0.19878238021141664   -0.10481534515437313   -0.04274911549985566
-0.19878238021141664   -0.10481534515437313   -0.04274911549985566
-0.19878238021141664   -0.10481534515437313   -0.04274911549985566
0.3057272895278793   0.06644963062853873   0.04996334950843673
0.3057272895278793   0.06644963062853873   0.04996334950843673
0.3057272895278793   0.06644963062853873   0.04996334950843673
0.3057272895278793   0.06644963062853873   0.04996334950843673
0.29166302512611686   0.0391718721068128   -0.036112660936002
0.29166302512611686   0.0391718721068128   -0.036112660936002
0.29166302512611686   0.0391718721068128   -0.036112660936002
0.29166302512611686   0.0391718721068128   -0.036112660936002
-0.16533032585007623   0.005243465624547791   0.011445606952615012
-0.16533032585007623   0.005243465624547791   0.011445606952615012
-0.16533032585007623   0.005243465624547791   0.011445606952615012
-0.16533032585007623   0.005243465624547791   0.011445606952615012
0.05514692715935753   -0.0005496637158154041   0.009186580012902849
0.05514692715935753   -0.0005496637158154041   0.009186580012902849
0.05514692715935753   -0.0005496637158154041   0.009186580012902849
0.05514692715935753   -0.0005496637158154041   0.009186580012902849
-0.19117416757289252   -0.060565884544310465   -0.05196425149260896
-0.19117416757289252   -0.060565884544310465   -0.05196425149260896
-0.19117416757289252   -0.060565884544310465   -0.05196425149260896
-0.19117416757289252   -0.060565884544310465   -0.05196425149260896
0.3213883499131475   0.10886270533988973   0.042823129766070334
0.3213883499131475   0.10886270533988973   0.042823129766070334
0.3213883499131475   0.10886270533988973   0.042823129766070334
0.3213883499131475   0.10886270533988973   0.042823129766070334
0.30550351685453464   0.09294137899757465   -0.04172204658146269
0.30550351685453464   0.09294137899757465   -0.04172204658146269
0.30550351685453464   0.09294137899757465   -0.04172204658146269
0.30550351685453464   0.09294137899757465   -0.04172204658146269
-0.15819880678260623   0.05148352518776286   0.0021784582543119407
-0.15819880678260623   0.05148352518776286   0.0021784582543119407
-0.15819880678260623   0.05148352518776286   0.0021784582543119407
-0.15819880678260623   0.05148352518776286   0.0021784582543119407
0.06928291762506414   0.043661897183057255   0.02784275980139959
0.06928291762506414   0.043661897183057255   0.02784275980139959
0.06928291762506414   0.043661897183057255   0.02784275980139959
0.06928291762506414   0.043661897183057255   0.02784275980139959
0.2347687456654681   -0.15155880421092588   -0.06853149043595624
0.2347687456654681   -0.15155880421092588   -0.06853149043595624
0.2347687456654681   -0.15155880421092588   -0.06853149043595624
0.2347687456654681   -0.15155880421092588   -0.06853149043595624
0.7053801767379054   0.06949106728262612   0.07411260872591
0.7053801767379054   0.06949106728262612   0.07411260872591
0.7053801767379054   0.06949106728262612   0.07411260872591
0.7053801767379054   0.06949106728262612   0.07411260872591
0.6983864596097356   -0.03705558887631813   -0.09021233667254533
0.6983864596097356   -0.03705558887631813   -0.09021233667254533
0.6983864596097356   -0.03705558887631813   -0.09021233667254533
0.6983864596097356   -0.03705558887631813   -0.09021233667254533
0.2960032497176817   0.01249648929847362   0.055296291787513656
0.2960032497176817   0.01249648929847362   0.055296291787513656
0.2960032497176817   0.01249648929847362   0.055296291787513656
0.2960032497176817   0.01249648929847362   0.055296291787513656
0.45843061677310926   -0.03128853867898691   -0.024164304756064674
0.45843061677310926   -0.03128853867898691   -0.024164304756064674
0.45843061677310926   -0.03128853867898691   -0.024164304756064674
0.45843061677310926   -0.03128853867898691   -0.024164304756064674
0.24133575559877554   -0.12627683353809113   -0.07926785597045029
0.24133575559877554   -0.12627683353809113   -0.07926785597045029
0.24133575559877554   -0.12627683353809113   -0.07926785597045029
0.24133575559877554   -0.12627683353809113   -0.07926785597045029
0.7576175962746982   0.10628137650630534   0.06260638126965579
0.7576175962746982   0.10628137650630534   0.06260638126965579
0.7576175962746982   0.10628137650630534   0.06260638126965579
0.7576175962746982   0.10628137650630534   0.06260638126965579
0.7363862446327477   -0.010630695372450455   -0.10817371929307246
0.7363862446327477   -0.010630695372450455   -0.10817371929307246
0.7363862446327477   -0.010630695372450455   -0.10817371929307246
0.7363862446327477   -0.010630695372450455   -0.10817371929307246
0.3060428762216584   0.03185160493919134   0.04310686170932306
0.3060428762216584   0.03185160493919134   0.04310686170932306
0.3060428762216584   0.03185160493919134   0.04310686170932306
0.3060428762216584   0.03185160493919134   0.04310686170932306
0.49685617939894333   -0.004653691618056219   -0.002937666235805412
0.49685617939894333   -0.004653691618056219   -0.002937666235805412
0.49685617939894333   -0.004653691618056219   -0.002937666235805412
0.49685617939894333   -0.004653691618056219   -0.002937666235805412
0.25181125149320865   -0.10429240128374215   -0.09190725570999203
0.25181125149320865   -0.10429240128374215   -0.09190725570999203
0.25181125149320865   -0.10429240128374215   -0.09190725570999203
0.25181125149320865   -0.10429240128374215   -0.09190725570999203
0.7953715169998529   0.13026695848913591   0.0458549886808823
0.7953715169998529   0.13026695848913591   0.0458549886808823
0.7953715169998529   0.13026695848913591   0.0458549886808823
0.7953715169998529   0.13026695848913591   0.0458549886808823
0.7947126257207718   0.04741556532088771   -0.11577814984773216
0.7947126257207718   0.04741556532088771   -0.11577814984773216
0.7947126257207718   0.04741556532088771   -0.11577814984773216
0.7947126257207718   0.04741556532088771   -0.11577814984773216
0.31631857474982134   0.07104832352259856   0.034246298369946866
0.31631857474982134   0.07104832352259856   0.034246298369946866
0.31631857474982134   0.07104832352259856   0.034246298369946866
0.31631857474982134   0.07104832352259856   0.034246298369946866
0.5159565667581599   0.024719109548828194   0.01531353721900304
0.5159565667581599   0.024719109548828194   0.01531353721900304
0.5159565667581599   0.024719109548828194   0.01531353721900304
0.5159565667581599   0.024719109548828194   0.01531353721900304
-0.9491963121714166   -0.016053096287981072   0.09246767773265399
-0.9491963121714166   -0.016053096287981072   0.09246767773265399
-0.9491963121714166   -0.016053096287981072   0.09246767773265399
-0.9491963121714166   -0.016053096287981072   0.09246767773265399
-0.7397831633556167   -0.09379636683166372   -0.04579457064263491
-0.7397831633556167   -0.09379636683166372   -0.04579457064263491
-0.7397831633556167   -0.09379636683166372   -0.04579457064263491
-0.7397831633556167   -0.09379636683166372   -0.04579457064263491
-0.6696590766725659   0.07951583478013755   0.07908393445431275
-0.6696590766725659   0.07951583478013755   0.07908393445431275
-0.6696590766725659   0.07951583478013755   0.07908393445431275
-0.6696590766725659   0.07951583478013755   0.07908393445431275
-0.9451570233071322   -0.10293475109207734   -0.06231277116667254
-0.9451570233071322   -0.10293475109207734   -0.06231277116667254
-0.9451570233071322   -0.10293475109207734   -0.06231277116667254
-0.9451570233071322   -0.10293475109207734   -0.06231277116667254
-0.7943090324024598   -0.021893154374979407   -0.011596437931907927
-0.7943090324024598   -0.021893154374979407   -0.011596437931907927
-0.7943090324024598   -0.021893154374979407   -0.011596437931907927
-0.7943090324024598   -0.021893154374979407   -0.011596437931907927
-0.8868503227004811   0.03793166236549414   0.08835431840901103
-0.8868503227004811   0.03793166236549414   0.08835431840901103
-0.8868503227004811   0.03793166236549414   0.08835431840901103
-0.8868503227004811   0.03793166236549414   0.08835431840901103
-0.7239203336630022   -0.05730513506121876   -0.05540138065650958
-0.7239203336630022   -0.05730513506121876   -0.05540138065650958
-0.7239203336630022   -0.05730513506121876   -0.05540138065650958
-0.7239203336630022   -0.05730513506121876   -0.05540138065650958
-0.6530125489704766   0.10012670655845857   0.06690052549079087
-0.6530125489704766   0.10012670655845857   0.06690052549079087
-0.6530125489704766   0.10012670655845857   0.06690052549079087
-0.6530125489704766   0.10012670655845857   0.06690052549079087
-0.9018086776470691   -0.07958032773761567   -0.07787133638578062
-0.9018086776470691   -0.07958032773761567   -0.07787133638578062
-0.9018086776470691   -0.07958032773761567   -0.07787133638578062
-0.9018086776470691   -0.07958032773761567   -0.07787133638578062
-0.7716495279190034   0.005092636806917544   0.005614419710352654
-0.7716495279190034   0.005092636806917544   0.005614419710352654
-0.7716495279190034   0.005092636806917544   0.005614419710352654
-0.7716495279190034   0.005092636806917544   0.005614419710352654
-0.8434493857723402   0.0629401609583132   0.07140463429192745
-0.8434493857723402   0.0629401609583132   0.07140463429192745
-0.8434493857723402   0.0629401609583132   0.07140463429192745
-0.8434493857723402   0.0629401609583132   0.07140463429192745
-0.7075404517020604   -0.03856239299432576   -0.0670498886143398
-0.7075404517020604   -0.03856239299432576   -0.0670498886143398
-0.7075404517020604   -0.03856239299432576   -0.0670498886143398
-0.7075404517020604   -0.03856239299432576   -0.0670498886143398
-0.6395189228041684   0.12576805526133025   0.05770006071756903
-0.6395189228041684   0.12576805526133025   0.05770006071756903
-0.6395189228041684   0.12576805526133025   0.05770006071756903
-0.6395189228041684   0.12576805526133025   0.05770006071756903
-0.8435666310502236   -0.04219641814602043   -0.09012483957520959
-0.8435666310502236   -0.04219641814602043   -0.09012483957520959
-0.8435666310502236   -0.04219641814602043   -0.09012483957520959
-0.8435666310502236   -0.04219641814602043   -0.09012483957520959
-0.7258904860551284   0.03168496013702979   0.02698119320681177
-0.7258904860551284   0.03168496013702979   0.02698119320681177
-0.7258904860551284   0.03168496013702979   0.02698119320681177
-0.7258904860551284   0.03168496013702979   0.02698119320681177
-0.7139176023821601   -0.05382682913614789   0.043563696529132195
-0.7139176023821601   -0.05382682913614789   0.043563696529132195
-0.7139176023821601   -0.05382682913614789   0.043563696529132195
-0.7139176023821601   -0.05382682913614789   0.043563696529132195
-0.5235836505079667   -0.07112270649195973   -0.01356189339737388
-0.5235836505079667   -0.07112270649195973   -0.01356189339737388
-0.5235836505079667   -0.07112270649195973   -0.01356189339737388
-0.5235836505079667   -0.07112270649195973   -0.01356189339737388
-0.4844586832079836   0.03612976074352073   0.04042760872621083
-0.4844586832079836   0.03612976074352073   0.04042760872621083
-0.4844586832079836   0.03612976074352073   0.04042760872621083
-0.4844586832079836   0.03612976074352073   0.04042760872621083
-0.7244124701197674   -0.07600503281035106   -0.039162165191202525
-0.7244124701197674   -0.07600503281035106   -0.039162165191202525
-0.7244124701197674   -0.07600503281035106   -0.039162165191202525
-0.7244124701197674   -0.07600503281035106   -0.039162165191202525
-0.6098905531854677   -0.037967152973455126   -0.01639441787759316
-0.6098905531854677   -0.037967152973455126   -0.01639441787759316
-0.6098905531854677   -0.037967152973455126   -0.01639441787759316
-0.6098905531854677   -0.037967152973455126   -0.01639441787759316
-0.6953062367957669   -0.006710398329663331   0.03707436694810459
-0.6953062367957669   -0.006710398329663331   0.03707436694810459
-0.6953062367957669   -0.006710398329663331   0.03707436694810459
-0.6953062367957669   -0.006710398329663331   0.03707436694810459
-0.5103019090347276   -0.02990186623991692   -0.02275689342407157
-0.5103019090347276   -0.02990186623991692   -0.02275689342407157
-0.5103019090347276   -0.02990186623991692   -0.02275689342407157
-0.5103019090347276   -0.02990186623991692   -0.02275689342407157
-0.47010062632930816   0.07804235523943401   0.032339914607468635
-0.47010062632930816   0.07804235523943401   0.032339914607468635
-0.47010062632930816   0.07804235523943401   0.032339914607468635
-0.47010062632930816   0.07804235523943401   0.032339914607468635
-0.7029324085771843   -0.0356910811309788   -0.04688098485329876
-0.7029324085771843   -0.0356910811309788   -0.04688098485329876
-0.7029324085771843   -0.0356910811309788   -0.04688098485329876
-0.7029324085771843   -0.0356910811309788   -0.04688098485329876
-0.5891457281781278   0.0024629355465702607   0.0017139783229408387
-0.5891457281781278   0.0024629355465702607   0.0017139783229408387
-0.5891457281781278   0.0024629355465702607   0.0017139783229408387
-0.5891457281781278   0.0024629355465702607   0.0017139783229408387
-0.6721186804753826   0.0378917303280526   0.03360484419666682
-0.6721186804753826   0.0378917303280526   0.03360484419666682
-0.6721186804753826   0.0378917303280526   0.03360484419666682
-0.6721186804753826   0.0378917303280526   0.03360484419666682
-0.49714726814110555   0.008226630070399213   -0.033077569282487555
-0.49714726814110555   0.008226630070399213   -0.033077569282487555
-0.49714726814110555   0.008226630070399213   -0.033077569282487555
-0.49714726814110555   0.008226630070399213   -0.033077569282487555
-0.45578896136171254   0.12351953975676695   0.024636834812674285
-0.45578896136171254   0.12351953975676695   0.024636834812674285
-0.45578896136171254   0.12351953975676695   0.024636834812674285
-0.45578896136171254   0.12351953975676695   0.024636834812674285
-0.6851881785269431   0.008323993954570535   -0.053202156589537086
-0.6851881785269431   0.008323993954570535   -0.053202156589537086
-0.6851881785269431   0.008323993954570535   -0.053202156589537086
-0.6851881785269431   0.008323993954570535   -0.053202156589537086
-0.5741384114442459   0.042077485730584036   0.019419107028524958
-0.5741384114442459   0.042077485730584036   0.019419107028524958
-0.5741384114442459   0.042077485730584036   0.019419107028524958
-0.5741384114442459   0.042077485730584036   0.019419107028524958
-0.5229736170768495   -0.0892775854479053   0.007643152714152442
-0.5229736170768495   -0.0892775854479053   0.007643152714152442
-0.5229736170768495   -0.0892775854479053   0.007643152714152442
-0.5229736170768495   -0.0892775854479053   0.007643152714152442
-0.31034341522102915   -0.03744543853198379   0.019229676835353784
-0.31034341522102915   -0.03744543853198379   0.019229676835353784
-0.31034341522102915   -0.03744543853198379   0.019229676835353784
-0.31034341522102915   -0.03744543853198379   0.019229676835353784
-0.29964203275664725   -0.0007166766232152566   0.002486473781606567
-0.29964203275664725   -0.0007166766232152566   0.002486473781606567
-0.29964203275664725   -0.0007166766232152566   0.002486473781606567
-0.29964203275664725   -0.0007166766232152566   0.002486473781606567
-0.5088278686597477   -0.0407519683831251   -0.0045365894059639054
-0.5088278686597477   -0.0407519683831251   -0.0045365894059639054
-0.5088278686597477   -0.0407519683831251   -0.0045365894059639054
-0.5088278686597477   -0.0407519683831251   -0.0045365894059639054
-0.41109847233003083   -0.040083129391025436   -0.011934012635050657
-0.41109847233003083   -0.040083129391025436   -0.011934012635050657
-0.41109847233003083   -0.040083129391025436   -0.011934012635050657
-0.41109847233003083   -0.040083129391025436   -0.011934012635050657
-0.5082262845584665   -0.04282245766369849   0.0005418203810096736
-0.5082262845584665   -0.04282245766369849   0.0005418203810096736
-0.5082262845584665   -0.04282245766369849   0.0005418203810096736
-0.5082262845584665   -0.04282245766369849   0.0005418203810096736
-0.2969990678037536   0.004598361711532009   0.01038626021132755
-0.2969990678037536   0.004598361711532009   0.01038626021132755
-0.2969990678037536   0.004598361711532009   0.01038626021132755
-0.2969990678037536   0.004598361711532009   0.01038626021132755
-0.28405100395070687   0.046150212893624004   -0.0041171792136958756
-0.28405100395070687   0.046150212893624004   -0.0041171792136958756
-0.28405100395070687   0.046150212893624004   -0.0041171792136958756
-0.28405100395070687   0.046150212893624004   -0.0041171792136958756
-0.4944441986710488   0.0018911552012896848   -0.013226747063094492
-0.4944441986710488   0.0018911552012896848   -0.013226747063094492
-0.4944441986710488   0.0018911552012896848   -0.013226747063094492
-0.4944441986710488   0.0018911552012896848   -0.013226747063094492
-0.3946554622776913   0.0020605912650242253   0.005623521804138838
-0.3946554622776913   0.0020605912650242253   0.005623521804138838
-0.3946554622776913   0.0020605912650242253   0.005623521804138838
-0.3946554622776913   0.0020605912650242253   0.005623521804138838
-0.49273159792626975   0.00390251026139439   -0.006675098399311671
-0.49273159792626975   0.00390251026139439   -0.006675098399311671
-0.49273159792626975   0.00390251026139439   -0.006675098399311671
-0.49273159792626975   0.00390251026139439   -0.006675098399311671
-0.2828296533736888   0.0470728091553206   0.001066977409700083
-0.2828296533736888   0.0470728091553206   0.001066977409700083
-0.2828296533736888   0.0470728091553206   0.001066977409700083
-0.2828296533736888   0.0470728091553206   0.001066977409700083
-0.26932553294617934   0.09344524757781413   -0.011654542500392433
-0.26932553294617934   0.09344524757781413   -0.011654542500392433
-0.26932553294617934   0.09344524757781413   -0.011654542500392433
-0.26932553294617934   0.09344524757781413   -0.011654542500392433
-0.48094963404339   0.04486364969840066   -0.022510638537344148
-0.48094963404339   0.04486364969840066   -0.022510638537344148
-0.48094963404339   0.04486364969840066   -0.022510638537344148
-0.48094963404339   0.04486364969840066   -0.022510638537344148
-0.37909937727526394   0.0443554305255469   0.022474819035958396
-0.37909937727526394   0.0443554305255469   0.022474819035958396
-0.37909937727526394   0.0443554305255469   0.022474819035958396
-0.37909937727526394   0.0443554305255469   0.022474819035958396
-0.33645508523662654   -0.12003442532073015   -0.02873968645389226
-0.33645508523662654   -0.12003442532073015   -0.02873968645389226
-0.33645508523662654   -0.12003442532073015   -0.02873968645389226
-0.33645508523662654   -0.12003442532073015   -0.02873968645389226
-0.10298802790201256   -0.0016858330729407657   0.050427182620605075
-0.10298802790201256   -0.0016858330729407657   0.050427182620605075
-0.10298802790201256   -0.0016858330729407657   0.050427182620605075
-0.10298802790201256   -0.0016858330729407657   0.050427182620605075
-0.11722531613676108   -0.03552427526529633   -0.03695357429612889
-0.11722531613676108   -0.03552427526529633   -0.03695357429612889
-0.11722531613676108   -0.03552427526529633   -0.03695357429612889
-0.11722531613676108   -0.03552427526529633   -0.03695357429612889
-0.2951450332431276   -0.0045863718427856595   0.02884116656877296
-0.2951450332431276   -0.0045863718427856595   0.02884116656877296
-0.2951450332431276   -0.0045863718427856595   0.02884116656877296
-0.2951450332431276   -0.0045863718427856595   0.02884116656877296
-0.21292740441077973   -0.03869072593267879   -0.008611028743870628
-0.21292740441077973   -0.03869072593267879   -0.008611028743870628
-0.21292740441077973   -0.03869072593267879   -0.008611028743870628
-0.21292740441077973   -0.03869072593267879   -0.008611028743870628
-0.32255819081508386   -0.07646861164041714   -0.0363423814933795
-0.32255819081508386   -0.07646861164041714   -0.0363423814933795
-0.32255819081508386   -0.07646861164041714   -0.0363423814933795
-0.32255819081508386   -0.07646861164041714   -0.0363423814933795
-0.0861760059732578   0.03999411712387662   0.042774584132214584
-0.0861760059732578   0.03999411712387662   0.042774584132214584
-0.0861760059732578   0.03999411712387662   0.042774584132214584
-0.0861760059732578   0.03999411712387662   0.042774584132214584
-0.09444766085319505   0.008811004056983172   -0.041599365882089255
-0.09444766085319505   0.008811004056983172   -0.041599365882089255
-0.09444766085319505   0.008811004056983172   -0.041599365882089255
-0.09444766085319505   0.008811004056983172   -0.041599365882089255
-0.2818701582940553   0.03370407682685422   0.019233185136331658
-0.2818701582940553   0.03370407682685422   0.019233185136331658
-0.2818701582940553   0.03370407682685422   0.019233185136331658
-0.2818701582940553   0.03370407682685422   0.019233185136331658
-0.1954453166422967   0.0005528526302961759   0.009279179187206865
-0.1954453166422967   0.0005528526302961759   0.009279179187206865
-0.1954453166422967   0.0005528526302961759   0.009279179187206865
-0.1954453166422967   0.0005528526302961759   0.009279179187206865
-0.3084134774359572   -0.03468179402701414   -0.045097539719313656
-0.3084134774359572   -0.03468179402701414   -0.045097539719313656
-0.3084134774359572   -0.03468179402701414   -0.045097539719313656
-0.3084134774359572   -0.03468179402701414   -0.045097539719313656
-0.06451972237426697   0.08058149424787735   0.036269836321658915
-0.06451972237426697   0.08058149424787735   0.036269836321658915
-0.06451972237426697   0.08058149424787735   0.036269836321658915
-0.06451972237426697   0.08058149424787735   0.036269836321658915
-0.07517873217138296   0.058332586370183764   -0.04659631044477618
-0.07517873217138296   0.058332586370183764   -0.04659631044477618
-0.07517873217138296   0.058332586370183764   -0.04659631044477618
-0.07517873217138296   0.058332586370183764   -0.04659631044477618
-0.26828051491866584   0.07704462662112398   0.009971168593865355
-0.26828051491866584   0.07704462662112398   0.009971168593865355
-0.26828051491866584   0.07704462662112398   0.009971168593865355
-0.26828051491866584   0.07704462662112398   0.009971168593865355
-0.1773385366412224   0.041478374871036144   0.02717795444221594
-0.1773385366412224   0.041478374871036144   0.02717795444221594
-0.1773385366412224   0.041478374871036144   0.02717795444221594
-0.1773385366412224   0.041478374871036144   0.02717795444221594
-0.15104342696445364   -0.1291027536299472   -0.06243289213459757
-0.15104342696445364   -0.1291027536299472   -0.06243289213459757
-0.15104342696445364   -0.1291027536299472   -0.06243289213459757
-0.15104342696445364   -0.1291027536299472   -0.06243289213459757
0.05398829617403436   0.038342899180748014   0.0768355771303617
0.05398829617403436   0.038342899180748014   0.0768355771303617
0.05398829617403436   0.038342899180748014   0.0768355771303617
0.05398829617403436   0.038342899180748014   0.0768355771303617
0.05442773668831139   -0.06340946897188554   -0.08265798653491191
0.05442773668831139   -0.06340946897188554   -0.08265798653491191
0.05442773668831139   -0.06340946897188554   -0.08265798653491191
0.05442773668831139   -0.06340946897188554   -0.08265798653491191
-0.08219204032051211   0.03980415230693862   0.06288437721288104
-0.08219204032051211   0.03980415230693862   0.06288437721288104
-0.08219204032051211   0.03980415230693862   0.06288437721288104
-0.08219204032051211   0.03980415230693862   0.06288437721288104
-0.03297918657440802   -0.027349556637516644   -0.014654290888726027
-0.03297918657440802   -0.027349556637516644   -0.014654290888726027
-0.03297918657440802   -0.027349556637516644   -0.014654290888726027
-0.03297918657440802   -0.027349556637516644   -0.014654290888726027
-0.13698734400647636   -0.09951540465488452   -0.07177258425511907
-0.13698734400647636   -0.09951540465488452   -0.07177258425511907
-0.13698734400647636   -0.09951540465488452   -0.07177258425511907
-0.13698734400647636   -0.09951540465488452   -0.07177258425511907
0.11311131677320001   0.07979836438885654   0.06755208052878917
0.11311131677320001   0.07979836438885654   0.06755208052878917
0.11311131677320001   0.07979836438885654   0.06755208052878917
0.11311131677320001   0.07979836438885654   0.06755208052878917
0.09800386838860958   -0.03801260092817461   -0.0981751597944579
0.09800386838860958   -0.03801260092817461   -0.0981751597944579
0.09800386838860958   -0.03801260092817461   -0.0981751597944579
0.09800386838860958   -0.03801260092817461   -0.0981751597944579
-0.06615846635356426   0.058231951701393836   0.05042565897165596
-0.06615846635356426   0.058231951701393836   0.05042565897165596
-0.06615846635356426   0.058231951701393836   0.05042565897165596
-0.06615846635356426   0.058231951701393836   0.05042565897165596
0.002887576196067042   -0.001227800935145107   0.00474231032390945
0.002887576196067042   -0.001227800935145107   0.00474231032390945
0.002887576196067042   -0.001227800935145107   0.00474231032390945
0.002887576196067042   -0.001227800935145107   0.00474231032390945
-0.1202126049678435   -0.07861956676686943   -0.08299351563147894
-0.1202126049678435   -0.07861956676686943   -0.08299351563147894
-0.1202126049678435   -0.07861956676686943   -0.08299351563147894
-0.1202126049678435   -0.07861956676686943   -0.08299351563147894
0.15594843010655235   0.1027293406437525   0.05080570722333264
0.15594843010655235   0.1027293406437525   0.05080570722333264
0.15594843010655235   0.1027293406437525   0.05080570722333264
0.15594843010655235   0.1027293406437525   0.05080570722333264
0.1590358856857348   0.011718146020664602   -0.10512190007563635
0.1590358856857348   0.011718146020664602   -0.10512190007563635
0.1590358856857348   0.011718146020664602   -0.10512190007563635
0.1590358856857348   0.011718146020664602   -0.10512190007563635
-0.051176801130867144   0.09076984117268536   0.04097608995530125
-0.051176801130867144   0.09076984117268536   0.04097608995530125
-0.051176801130867144   0.09076984117268536   0.04097608995530125
-0.051176801130867144   0.09076984117268536   0.04097608995530125
0.03514438475966775   0.026233389822202413   0.023688671774694185
0.03514438475966775   0.026233389822202413   0.023688671774694185
0.03514438475966775   0.026233389822202413   0.023688671774694185
0.03514438475966775   0.026233389822202413   0.023688671774694185
-0.31543980629688106   0.017786190832676053   0.08777486062032837
-0.31543980629688106   0.017786190832676053   0.08777486062032837
-0.31543980629688106   0.017786190832676053   0.08777486062032837
-0.31543980629688106   0.017786190832676053   0.08777486062032837
-0.3738038377403275   -0.11448721554913366   -0.05178619001526019
-0.3738038377403275   -0.11448721554913366   -0.05178619001526019
-0.3738038377403275   -0.11448721554913366   -0.05178619001526019
-0.3738038377403275   -0.11448721554913366   -0.05178619001526019
-0.29843425079084074   0.05324922363733326   0.07188432996411966
-0.29843425079084074   0.05324922363733326   0.07188432996411966
-0.29843425079084074   0.05324922363733326   0.07188432996411966
-0.29843425079084074   0.05324922363733326   0.07188432996411966
-0.3062816096086818   -0.07544897975228161   -0.06670800748495136
-0.3062816096086818   -0.07544897975228161   -0.06670800748495136
-0.3062816096086818   -0.07544897975228161   -0.06670800748495136
-0.3062816096086818   -0.07544897975228161   -0.06670800748495136
-0.3152737092312781   -0.024257286321550546   -0.0239544816732458
-0.3152737092312781   -0.024257286321550546   -0.0239544816732458
-0.3152737092312781   -0.024257286321550546   -0.0239544816732458
-0.3152737092312781   -0.024257286321550546   -0.0239544816732458
-0.248454215597528   0.06522030103906461   0.08175968177946365
-0.248454215597528   0.06522030103906461   0.08175968177946365
-0.248454215597528   0.06522030103906461   0.08175968177946365
-0.248454215597528   0.06522030103906461   0.08175968177946365
-0.3526459272696063   -0.08380433962163113   -0.06212048917074376
-0.3526459272696063   -0.08380433962163113   -0.06212048917074376
-0.3526459272696063   -0.08380433962163113   -0.06212048917074376
-0.3526459272696063   -0.08380433962163113   -0.06212048917074376
-0.2751240999228244   0.07343191010953057   0.0605052751256751
-0.2751240999228244   0.07343191010953057   0.0605052751256751
-0.2751240999228244   0.07343191010953057   0.0605052751256751
-0.2751240999228244   0.07343191010953057   0.0605052751256751
-0.25644033908195635   -0.052639923190910126   -0.08311626917775726
-0.25644033908195635   -0.052639923190910126   -0.08311626917775726
-0.25644033908195635   -0.052639923190910126   -0.08311626917775726
-0.25644033908195635   -0.052639923190910126   -0.08311626917775726
-0.2785022575325029   0.0015373211948286197   -0.0049329782719157445
-0.2785022575325029   0.0015373211948286197   -0.0049329782719157445
-0.2785022575325029   0.0015373211948286197   -0.0049329782719157445
-0.2785022575325029   0.0015373211948286197   -0.0049329782719157445
-0.1982702658610794   0.08976704720323878   0.06532712653247108
-0.1982702658610794   0.08976704720323878   0.06532712653247108
-0.1982702658610794   0.08976704720323878   0.06532712653247108
-0.1982702658610794   0.08976704720323878   0.06532712653247108
-0.32988179500163717   -0.06556268214255413   -0.07428860801629646
-0.32988179500163717   -0.06556268214255413   -0.07428860801629646
-0.32988179500163717   -0.06556268214255413   -0.07428860801629646
-0.32988179500163717   -0.06556268214255413   -0.07428860801629646
-0.2537899013423064   0.10423587054364614   0.052259874165206145
-0.2537899013423064   0.10423587054364614   0.052259874165206145
-0.2537899013423064   0.10423587054364614   0.052259874165206145
-0.2537899013423064   0.10423587054364614   0.052259874165206145
-0.189915671845088   -0.009280878126993214   -0.09363873996723658
-0.189915671845088   -0.009280878126993214   -0.09363873996723658
-0.189915671845088   -0.009280878126993214   -0.09363873996723658
-0.189915671845088   -0.009280878126993214   -0.09363873996723658
-0.23426950077579486   0.028472608549431067   0.015442911206061519
-0.23426950077579486   0.028472608549431067   0.015442911206061519
-0.23426950077579486   0.028472608549431067   0.015442911206061519
-0.23426950077579486   0.028472608549431067   0.015442911206061519
-0.3347135802294036   -0.02066728113226885   0.049845163122486665
-0.3347135802294036   -0.02066728113226885   0.049845163122486665
-0.3347135802294036   -0.02066728113226885   0.049845163122486665
-0.3347135802294036   -0.02066728113226885   0.049845163122486665
-0.41469727418779917   -0.09338076611778222   -0.020234615705283957
-0.41469727418779917   -0.09338076611778222   -0.020234615705283957
-0.41469727418779917   -0.09338076611778222   -0.020234615705283957
-0.41469727418779917   -0.09338076611778222   -0.020234615705283957
-0.36959292200380484   0.009461946428595713   0.03335318288756882
-0.36959292200380484   0.009461946428595713   0.03335318288756882
-0.36959292200380484   0.009461946428595713   0.03335318288756882
-0.36959292200380484   0.009461946428595713   0.03335318288756882
-0.33844165984262725   -0.044239316942988494   -0.030664174714491114
-0.33844165984262725   -0.044239316942988494   -0.030664174714491114
-0.33844165984262725   -0.044239316942988494   -0.030664174714491114
-0.33844165984262725   -0.044239316942988494   -0.030664174714491114
-0.3646079798309698   -0.03436182164470702   -0.016888523821526738
-0.3646079798309698   -0.03436182164470702   -0.016888523821526738
-0.3646079798309698   -0.03436182164470702   -0.016888523821526738
-0.3646079798309698   -0.03436182164470702   -0.016888523821526738
-0.31008062186231555   0.023395091273500077   0.043506606970570766
-0.31008062186231555   0.023395091273500077   0.043506606970570766
-0.31008062186231555   0.023395091273500077   0.043506606970570766
-0.31008062186231555   0.023395091273500077   0.043506606970570766
-0.39512296358461835   -0.055341465388386434   -0.029493613199520402
-0.39512296358461835   -0.055341465388386434   -0.029493613199520402
-0.39512296358461835   -0.055341465388386434   -0.029493613199520402
-0.39512296358461835   -0.055341465388386434   -0.029493613199520402
-0.3487738639657791   0.0496069193015649   0.025450472698014488
-0.3487738639657791   0.0496069193015649   0.025450472698014488
-0.3487738639657791   0.0496069193015649   0.025450472698014488
-0.3487738639657791   0.0496069193015649   0.025450472698014488
-0.31062893636455785   -0.00552564492337243   -0.038061352050081564
-0.31062893636455785   -0.00552564492337243   -0.038061352050081564
-0.31062893636455785   -0.00552564492337243   -0.038061352050081564
-0.31062893636455785   -0.00552564492337243   -0.038061352050081564
-0.3397517511418999   0.0031177481439593063   0.0006744293931063676
-0.3397517511418999   0.0031177481439593063   0.0006744293931063676
-0.3397517511418999   0.0031177481439593063   0.0006744293931063676
-0.3397517511418999   0.0031177481439593063   0.0006744293931063676
-0.28088996388872395   0.06592931488209554   0.039178550523612514
-0.28088996388872395   0.06592931488209554   0.039178550523612514
-0.28088996388872395   0.06592931488209554   0.039178550523612514
-0.28088996388872395   0.06592931488209554   0.039178550523612514
-0.37549557620963164   -0.0188307802719236   -0.03972038894776361
-0.37549557620963164   -0.0188307802719236   -0.03972038894776361
-0.37549557620963164   -0.0188307802719236   -0.03972038894776361
-0.37549557620963164   -0.0188307802719236   -0.03972038894776361
-0.3278552417935265   0.09401886938932391   0.017939283850813184
-0.3278552417935265   0.09401886938932391   0.017939283850813184
-0.3278552417935265   0.09401886938932391   0.017939283850813184
-0.3278552417935265   0.09401886938932391   0.017939283850813184
-0.2866127331561413   0.03741987071530417   -0.04503828507562638
-0.2866127331561413   0.03741987071530417   -0.04503828507562638
-0.2866127331561413   0.03741987071530417   -0.04503828507562638
-0.2866127331561413   0.03741987071530417   -0.04503828507562638
-0.31625390627718636   0.041799632684624485   0.01854144369174365
-0.31625390627718636   0.041799632684624485   0.01854144369174365
-0.31625390627718636   0.041799632684624485   0.01854144369174365
-0.31625390627718636   0.041799632684624485   0.01854144369174365
-0.4004833622624949   -0.05652377312222032   0.013977950925667601
-0.4004833622624949   -0.05652377312222032   0.013977950925667601
-0.4004833622624949   -0.05652377312222032   0.013977950925667601
-0.4004833622624949   -0.05652377312222032   0.013977950925667601
-0.45550267075331485   -0.05886085929599661   0.012250346280346892
-0.45550267075331485   -0.05886085929599661   0.012250346280346892
-0.45550267075331485   -0.05886085929599661   0.012250346280346892
-0.45550267075331485   -0.05886085929599661   0.012250346280346892
-0.4388008526163896   -0.026701866542422042   -0.004313096245806721
-0.4388008526163896   -0.026701866542422042   -0.004313096245806721
-0.4388008526163896   -0.026701866542422042   -0.004313096245806721
-0.4388008526163896   -0.026701866542422042   -0.004313096245806721
-0.3789658884625173   -0.008031264700609178   0.00398156172320779
-0.3789658884625173   -0.008031264700609178   0.00398156172320779
-0.3789658884625173   -0.008031264700609178   0.00398156172320779
-0.3789658884625173   -0.008031264700609178   0.00398156172320779
-0.41906556223222635   -0.03540135906587213   -0.011197137725443179
-0.41906556223222635   -0.03540135906587213   -0.011197137725443179
-0.41906556223222635   -0.03540135906587213   -0.011197137725443179
-0.41906556223222635   -0.03540135906587213   -0.011197137725443179
-0.3792830573909093   -0.012552331476697445   0.006916783857335979
-0.3792830573909093   -0.012552331476697445   0.006916783857335979
-0.3792830573909093   -0.012552331476697445   0.006916783857335979
-0.3792830573909093   -0.012552331476697445   0.006916783857335979
-0.4358157143766595   -0.01951283045499501   0.003423558865420836
-0.4358157143766595   -0.01951283045499501   0.003423558865420836
-0.4358157143766595   -0.01951283045499501   0.003423558865420836
-0.4358157143766595   -0.01951283045499501   0.003423558865420836
-0.41693659355833973   0.017847752270907485   -0.010951366827714575
-0.41693659355833973   0.017847752270907485   -0.010951366827714575
-0.41693659355833973   0.017847752270907485   -0.010951366827714575
-0.41693659355833973   0.017847752270907485   -0.010951366827714575
-0.35821719995438545   0.032404066210286867   -0.0045633541537391555
-0.35821719995438545   0.032404066210286867   -0.0045633541537391555
-0.35821719995438545   0.032404066210286867   -0.0045633541537391555
-0.35821719995438545   0.032404066210286867   -0.0045633541537391555
-0.3962280559618375   0.004429191344766992   0.006138818371172982
-0.3962280559618375   0.004429191344766992   0.006138818371172982
-0.3962280559618375   0.004429191344766992   0.006138818371172982
-0.3962280559618375   0.004429191344766992   0.006138818371172982
-0.35750262966194774   0.03183960926622431   -0.000426045747491742
-0.35750262966194774   0.03183960926622431   -0.000426045747491742
-0.35750262966194774   0.03183960926622431   -0.000426045747491742
-0.35750262966194774   0.03183960926622431   -0.000426045747491742
-0.4153247191805002   0.020738653885241612   -0.005782896552850737
-0.4153247191805002   0.020738653885241612   -0.005782896552850737
-0.4153247191805002   0.020738653885241612   -0.005782896552850737
-0.4153247191805002   0.020738653885241612   -0.005782896552850737
-0.39600163707751773   0.06266560475689371   -0.018448860210751074
-0.39600163707751773   0.06266560475689371   -0.018448860210751074
-0.39600163707751773   0.06266560475689371   -0.018448860210751074
-0.39600163707751773   0.06266560475689371   -0.018448860210751074
-0.33843407638854067   0.07300492766185573   -0.013940947396789548
-0.33843407638854067   0.07300492766185573   -0.013940947396789548
-0.33843407638854067   0.07300492766185573   -0.013940947396789548
-0.33843407638854067   0.07300492766185573   -0.013940947396789548
-0.3744424869758193   0.044331841856812534   0.02266406267728687
-0.3744424869758193   0.044331841856812534   0.02266406267728687
-0.3744424869758193   0.044331841856812534   0.02266406267728687
-0.3744424869758193   0.044331841856812534   0.02266406267728687
-0.4686412469531768   -0.08946882684190671   -0.02283456717306034
-0.4686412469531768   -0.08946882684190671   -0.02283456717306034
-0.4686412469531768   -0.08946882684190671   -0.02283456717306034
-0.4686412469531768   -0.08946882684190671   -0.02283456717306034
-0.4997308835866787   -0.025056002473713798   0.04330566051805712
-0.4997308835866787   -0.025056002473713798   0.04330566051805712
-0.4997308835866787   -0.025056002473713798   0.04330566051805712
-0.4997308835866787   -0.025056002473713798   0.04330566051805712
-0.5077162290869839   -0.06135948179757469   -0.04245318736131597
-0.5077162290869839   -0.06135948179757469   -0.04245318736131597
-0.5077162290869839   -0.06135948179757469   -0.04245318736131597
-0.5077162290869839   -0.06135948179757469   -0.04245318736131597
-0.41992841727647967   0.026841537563673065   0.036505676347647856
-0.41992841727647967   0.026841537563673065   0.036505676347647856
-0.41992841727647967   0.026841537563673065   0.036505676347647856
-0.41992841727647967   0.026841537563673065   0.036505676347647856
-0.4720432992216668   -0.03484315959169798   -0.007033135625485409
-0.4720432992216668   -0.03484315959169798   -0.007033135625485409
-0.4720432992216668   -0.03484315959169798   -0.007033135625485409
-0.4720432992216668   -0.03484315959169798   -0.007033135625485409
-0.4480140659203098   -0.04695384796128616   -0.03012718134654732
-0.4480140659203098   -0.04695384796128616   -0.03012718134654732
-0.4480140659203098   -0.04695384796128616   -0.03012718134654732
-0.4480140659203098   -0.04695384796128616   -0.03012718134654732
-0.47683285507508194   0.015233629095450563   0.035370571805168324
-0.47683285507508194   0.015233629095450563   0.035370571805168324
-0.47683285507508194   0.015233629095450563   0.035370571805168324
-0.47683285507508194   0.015233629095450563   0.035370571805168324
-0.47909080352703104   -0.019112634382996332   -0.04762972567991467
-0.47909080352703104   -0.019112634382996332   -0.04762972567991467
-0.47909080352703104   -0.019112634382996332   -0.04762972567991467
-0.47909080352703104   -0.019112634382996332   -0.04762972567991467
-0.400232102609843   0.06331332739657496   0.02710551278909814
-0.400232102609843   0.06331332739657496   0.02710551278909814
-0.400232102609843   0.06331332739657496   0.02710551278909814
-0.400232102609843   0.06331332739657496   0.02710551278909814
-0.4461151138210845   0.0035067446192700025   0.01085838795935505
-0.4461151138210845   0.0035067446192700025   0.01085838795935505
-0.4461151138210845   0.0035067446192700025   0.01085838795935505
-0.4461151138210845   0.0035067446192700025   0.01085838795935505
-0.4274482402433706   -0.006992121822224362   -0.03866972615974602
-0.4274482402433706   -0.006992121822224362   -0.03866972615974602
-0.4274482402433706   -0.006992121822224362   -0.03866972615974602
-0.4274482402433706   -0.006992121822224362   -0.03866972615974602
-0.4490471721509542   0.05402030857835197   0.029455488239125117
-0.4490471721509542   0.05402030857835197   0.029455488239125117
-0.4490471721509542   0.05402030857835197   0.029455488239125117
-0.4490471721509542   0.05402030857835197   0.029455488239125117
-0.45403710340701786   0.02744696610186162   -0.05226054551409442
-0.45403710340701786   0.02744696610186162   -0.05226054551409442
-0.45403710340701786   0.02744696610186162   -0.05226054551409442
-0.45403710340701786   0.02744696610186162   -0.05226054551409442
-0.38048124792702287   0.10398385281485095   0.017834837483765825
-0.38048124792702287   0.10398385281485095   0.017834837483765825
-0.38048124792702287   0.10398385281485095   0.017834837483765825
-0.38048124792702287   0.10398385281485095   0.017834837483765825
-0.42406693379121085   0.04158305757460094   0.027972775292984725
-0.42406693379121085   0.04158305757460094   0.027972775292984725
-0.42406693379121085   0.04158305757460094   0.027972775292984725
-0.42406693379121085   0.04158305757460094   0.027972775292984725
-0.5361064392907552   -0.10647398952790967   -0.05715413094813722
-0.5361064392907552   -0.10647398952790967   -0.05715413094813722
-0.5361064392907552   -0.10647398952790967   -0.05715413094813722
-0.5361064392907552   -0.10647398952790967   -0.05715413094813722
-0.5920711867888695   0.008412104963175543   0.07783244409729553
-0.5920711867888695   0.008412104963175543   0.07783244409729553
-0.5920711867888695   0.008412104963175543   0.07783244409729553
-0.5920711867888695   0.008412104963175543   0.07783244409729553
-0.5839765559559716   -0.08834877175946598   -0.07609572748368232
-0.5839765559559716   -0.08834877175946598   -0.07609572748368232
-0.5839765559559716   -0.08834877175946598   -0.07609572748368232
-0.5839765559559716   -0.08834877175946598   -0.07609572748368232
-0.4595794756071446   0.06710329635966283   0.06976780188063851
-0.4595794756071446   0.06710329635966283   0.06976780188063851
-0.4595794756071446   0.06710329635966283   0.06976780188063851
-0.4595794756071446   0.06710329635966283   0.06976780188063851
-0.5211948176604279   -0.022806181461778235   -0.0035475065189991377
-0.5211948176604279   -0.022806181461778235   -0.0035475065189991377
-0.5211948176604279   -0.022806181461778235   -0.0035475065189991377
-0.5211948176604279   -0.022806181461778235   -0.0035475065189991377
-0.5144828150528513   -0.07229999823313293   -0.0653456007551068
-0.5144828150528513   -0.07229999823313293   -0.0653456007551068
-0.5144828150528513   -0.07229999823313293   -0.0653456007551068
-0.5144828150528513   -0.07229999823313293   -0.0653456007551068
-0.5261153452356042   0.054012394107983475   0.07084916025070138
-0.5261153452356042   0.054012394107983475   0.07084916025070138
-0.5261153452356042   0.054012394107983475   0.07084916025070138
-0.5261153452356042   0.054012394107983475   0.07084916025070138
-0.5345961509530318   -0.06367763978299003   -0.0906846138508265
-0.5345961509530318   -0.06367763978299003   -0.0906846138508265
-0.5345961509530318   -0.06367763978299003   -0.0906846138508265
-0.5345961509530318   -0.06367763978299003   -0.0906846138508265
-0.43742608460397214   0.0844800287267369   0.057101205825646796
-0.43742608460397214   0.0844800287267369   0.057101205825646796
-0.43742608460397214   0.0844800287267369   0.057101205825646796
-0.43742608460397214   0.0844800287267369   0.057101205825646796
-0.48771029299992075   0.0029682894720044067   0.013628460894246196
-0.48771029299992075   0.0029682894720044067   0.013628460894246196
-0.48771029299992075   0.0029682894720044067   0.013628460894246196
-0.48771029299992075   0.0029682894720044067   0.013628460894246196
-0.49125925859252034   -0.05199188801566222   -0.0755927473746989
-0.49125925859252034   -0.05199188801566222   -0.0755927473746989
-0.49125925859252034   -0.05199188801566222   -0.0755927473746989
-0.49125925859252034   -0.05199188801566222   -0.0755927473746989
-0.477663825106665   0.07589342881722705   0.05440594678079037
-0.477663825106665   0.07589342881722705   0.05440594678079037
-0.477663825106665   0.07589342881722705   0.05440594678079037
-0.477663825106665   0.07589342881722705   0.05440594678079037
-0.46982647480144984   -0.020973270760307222   -0.09908979603907897
-0.46982647480144984   -0.020973270760307222   -0.09908979603907897
-0.46982647480144984   -0.020973270760307222   -0.09908979603907897
-0.46982647480144984   -0.020973270760307222   -0.09908979603907897
-0.41757920466076265   0.11044241191461959   0.04703350240441771
-0.41757920466076265   0.11044241191461959   0.04703350240441771
-0.41757920466076265   0.11044241191461959   0.04703350240441771
-0.41757920466076265   0.11044241191461959   0.04703350240441771
-0.4420287989271241   0.028738027780157147   0.033497180714507996
-0.4420287989271241   0.028738027780157147   0.033497180714507996
-0.4420287989271241   0.028738027780157147   0.033497180714507996
-0.4420287989271241   0.028738027780157147   0.033497180714507996
0.3242555172474497   0.052478891894604085   0.08498499221565133
0.3242555172474497   0.052478891894604085   0.08498499221565133
0.3242555172474497   0.052478891894604085   0.08498499221565133
0.3242555172474497   0.052478891894604085   0.08498499221565133
-0.008210152366142899   -0.13663525376079133   -0.05617562454485037
-0.008210152366142899   -0.13663525376079133   -0.05617562454485037
-0.008210152366142899   -0.13663525376079133   -0.05617562454485037
-0.008210152366142899   -0.13663525376079133   -0.05617562454485037
0.0722688944404932   0.026737377563212143   0.0656732750433731
0.0722688944404932   0.026737377563212143   0.0656732750433731
0.0722688944404932   0.026737377563212143   0.0656732750433731
0.0722688944404932   0.026737377563212143   0.0656732750433731
0.33846208552876633   -0.04805402386598677   -0.07028448906139795
0.33846208552876633   -0.04805402386598677   -0.07028448906139795
0.33846208552876633   -0.04805402386598677   -0.07028448906139795
0.33846208552876633   -0.04805402386598677   -0.07028448906139795
0.16543009495692612   -0.026618113421714704   -0.040446816465207015
0.16543009495692612   -0.026618113421714704   -0.040446816465207015
0.16543009495692612   -0.026618113421714704   -0.040446816465207015
0.16543009495692612   -0.026618113421714704   -0.040446816465207015
0.3962132998333967   0.09372926279355968   0.07668829580220732
0.3962132998333967   0.09372926279355968   0.07668829580220732
0.3962132998333967   0.09372926279355968   0.07668829580220732
0.3962132998333967   0.09372926279355968   0.07668829580220732
0.018060043885539445   -0.11150354534665774   -0.06713005482152586
0.018060043885539445   -0.11150354534665774   -0.06713005482152586
0.018060043885539445   -0.11150354534665774   -0.06713005482152586
0.018060043885539445   -0.11150354534665774   -0.06713005482152586
0.10168572784148744   0.04657279790051093   0.05482126935590417
0.10168572784148744   0.04657279790051093   0.05482126935590417
0.10168572784148744   0.04657279790051093   0.05482126935590417
0.10168572784148744   0.04657279790051093   0.05482126935590417
0.3946801036179734   -0.025643933300860552   -0.0879567607648532
0.3946801036179734   -0.025643933300860552   -0.0879567607648532
0.3946801036179734   -0.025643933300860552   -0.0879567607648532
0.3946801036179734   -0.025643933300860552   -0.0879567607648532
0.21614944514186646   -0.0018758218919059377   -0.01897823337283937
0.21614944514186646   -0.0018758218919059377   -0.01897823337283937
0.21614944514186646   -0.0018758218919059377   -0.01897823337283937
0.21614944514186646   -0.0018758218919059377   -0.01897823337283937
0.45307581617019   0.11796844619511904   0.060409422500242234
0.45307581617019   0.11796844619511904   0.060409422500242234
0.45307581617019   0.11796844619511904   0.060409422500242234
0.45307581617019   0.11796844619511904   0.060409422500242234
0.04675953090683526   -0.09357006597789536   -0.07966685143895047
0.04675953090683526   -0.09357006597789536   -0.07966685143895047
0.04675953090683526   -0.09357006597789536   -0.07966685143895047
0.04675953090683526   -0.09357006597789536   -0.07966685143895047
0.1302392611443087   0.08296612957563958   0.047441365556530696
0.1302392611443087   0.08296612957563958   0.047441365556530696
0.1302392611443087   0.08296612957563958   0.047441365556530696
0.1302392611443087   0.08296612957563958   0.047441365556530696
0.4692945518040461   0.024522239194677845   -0.09701132021401847
0.4692945518040461   0.024522239194677845   -0.09701132021401847
0.4692945518040461   0.024522239194677845   -0.09701132021401847
0.4692945518040461   0.024522239194677845   -0.09701132021401847
0.2587822841820557   0.025835494380673913   0.0013357258013214678
0.2587822841820557   0.025835494380673913   0.0013357258013214678
0.2587822841820557   0.025835494380673913   0.0013357258013214678
0.2587822841820557   0.025835494380673913   0.0013357258013214678
0.044690479356503984   0.0140684698280499   0.057623810479542806
0.044690479356503984   0.0140684698280499   0.057623810479542806
0.044690479356503984   0.0140684698280499   0.057623810479542806
0.044690479356503984   0.0140684698280499   0.057623810479542806
-0.309116367259966   -0.11597719489171984   -0.0257650544385613
-0.309116367259966   -0.11597719489171984   -0.0257650544385613
-0.309116367259966   -0.11597719489171984   -0.0257650544385613
-0.309116367259966   -0.11597719489171984   -0.0257650544385613
-0.25828938628581527   -0.01680354611353528   0.026362405875962974
-0.25828938628581527   -0.01680354611353528   0.026362405875962974
-0.25828938628581527   -0.01680354611353528   0.026362405875962974
-0.25828938628581527   -0.01680354611353528   0.026362405875962974
0.04699535868946476   -0.013457962139156033   -0.020499064009401005
0.04699535868946476   -0.013457962139156033   -0.020499064009401005
0.04699535868946476   -0.013457962139156033   -0.020499064009401005
0.04699535868946476   -0.013457962139156033   -0.020499064009401005
-0.12147123257002418   -0.030072147427473328   -0.019459522711536996
-0.12147123257002418   -0.030072147427473328   -0.019459522711536996
-0.12147123257002418   -0.030072147427473328   -0.019459522711536996
-0.12147123257002418   -0.030072147427473328   -0.019459522711536996
0.07497179718129009   0.0548010355556726   0.05112413075489704
0.07497179718129009   0.0548010355556726   0.05112413075489704
0.07497179718129009   0.0548010355556726   0.05112413075489704
0.07497179718129009   0.0548010355556726   0.05112413075489704
-0.283690200606802   -0.08248691963751505   -0.03495829220499075
-0.283690200606802   -0.08248691963751505   -0.03495829220499075
-0.283690200606802   -0.08248691963751505   -0.03495829220499075
-0.283690200606802   -0.08248691963751505   -0.03495829220499075
-0.2314606799899171   0.02164760841770584   0.018636658280638308
-0.2314606799899171   0.02164760841770584   0.018636658280638308
-0.2314606799899171   0.02164760841770584   0.018636658280638308
-0.2314606799899171   0.02164760841770584   0.018636658280638308
0.08047155272655548   0.02305852972145537   -0.027735338039700026
0.08047155272655548   0.02305852972145537   -0.027735338039700026
0.08047155272655548   0.02305852972145537   -0.027735338039700026
0.08047155272655548   0.02305852972145537   -0.027735338039700026
-0.09303790624139671   0.0038682649384649236   -0.002348651465120831
-0.09303790624139671   0.0038682649384649236   -0.002348651465120831
-0.09303790624139671   0.0038682649384649236   -0.002348651465120831
-0.09303790624139671   0.0038682649384649236   -0.002348651465120831
0.10962232159247617   0.09529357023360203   0.04578346577775669
0.10962232159247617   0.09529357023360203   0.04578346577775669
0.10962232159247617   0.09529357023360203   0.04578346577775669
0.10962232159247617   0.09529357023360203   0.04578346577775669
-0.25813409572215007   -0.048110078960758265   -0.044972733002062566
-0.25813409572215007   -0.048110078960758265   -0.044972733002062566
-0.25813409572215007   -0.048110078960758265   -0.044972733002062566
-0.25813409572215007   -0.048110078960758265   -0.044972733002062566
-0.20447496036419668   0.06510943785828527   0.011271777847365154
-0.20447496036419668   0.06510943785828527   0.011271777847365154
-0.20447496036419668   0.06510943785828527   0.011271777847365154
-0.20447496036419668   0.06510943785828527   0.011271777847365154
0.10996141494724967   0.06444227131847033   -0.035424007171595204
0.10996141494724967   0.06444227131847033   -0.035424007171595204
0.10996141494724967   0.06444227131847033   -0.035424007171595204
0.10996141494724967   0.06444227131847033   -0.035424007171595204
-0.061616381733606895   0.041318503473546896   0.015884936784094805
-0.061616381733606895   0.041318503473546896   0.015884936784094805
-0.061616381733606895   0.041318503473546896   0.015884936784094805
-0.061616381733606895   0.041318503473546896   0.015884936784094805
-0.2810836310058941   -0.02228569517880967   0.02070712711889157
-0.2810836310058941   -0.02228569517880967   0.02070712711889157
-0.2810836310058941   -0.02228569517880967   0.02070712711889157
-0.2810836310058941   -0.02228569517880967   0.02070712711889157
-0.6045884498265856   -0.08228811834064298   0.005372860185875234
-0.6045884498265856   -0.08228811834064298   0.005372860185875234
-0.6045884498265856   -0.08228811834064298   0.005372860185875234
-0.6045884498265856   -0.08228811834064298   0.005372860185875234
-0.5810756178000337   -0.0515291012153266   -0.011397891512862874
-0.5810756178000337   -0.0515291012153266   -0.011397891512862874
-0.5810756178000337   -0.0515291012153266   -0.011397891512862874
-0.5810756178000337   -0.0515291012153266   -0.011397891512862874
-0.2533349377065006   0.021453693507107255   0.012877409151897171
-0.2533349377065006   0.021453693507107255   0.012877409151897171
-0.2533349377065006   0.021453693507107255   0.012877409151897171
-0.2533349377065006   0.021453693507107255   0.012877409151897171
-0.4306498463511673   -0.03090183841911523   -0.011314027389190361
-0.4306498463511673   -0.03090183841911523   -0.011314027389190361
-0.4306498463511673   -0.03090183841911523   -0.011314027389190361
-0.4306498463511673   -0.03090183841911523   -0.011314027389190361
-0.253677711030798   0.018961254707163866   0.013655981330353725
-0.253677711030798   0.018961254707163866   0.013655981330353725
-0.253677711030798   0.018961254707163866   0.013655981330353725
-0.253677711030798   0.018961254707163866   0.013655981330353725
-0.5785263906007322   -0.04683020854038927   -0.00335064819129257
-0.5785263906007322   -0.04683020854038927   -0.00335064819129257
-0.5785263906007322   -0.04683020854038927   -0.00335064819129257
-0.5785263906007322   -0.04683020854038927   -0.00335064819129257
-0.5528700671988657   -0.009198734926526689   -0.01792449259332674
-0.5528700671988657   -0.009198734926526689   -0.01792449259332674
-0.5528700671988657   -0.009198734926526689   -0.01792449259332674
-0.5528700671988657   -0.009198734926526689   -0.01792449259332674
-0.2267709019878597   0.05900850438527543   0.004724652323355807
-0.2267709019878597   0.05900850438527543   0.004724652323355807
-0.2267709019878597   0.05900850438527543   0.004724652323355807
-0.2267709019878597   0.05900850438527543   0.004724652323355807
-0.40153216721595836   0.006287003433783703   0.005918893783444453
-0.40153216721595836   0.006287003433783703   0.005918893783444453
-0.40153216721595836   0.006287003433783703   0.005918893783444453
-0.40153216721595836   0.006287003433783703   0.005918893783444453
-0.22610140942719012   0.06096334920739129   0.006117270304587672
-0.22610140942719012   0.06096334920739129   0.006117270304587672
-0.22610140942719012   0.06096334920739129   0.006117270304587672
-0.22610140942719012   0.06096334920739129   0.006117270304587672
-0.5517783850848886   -0.009392405074006918   -0.01227241187596563
-0.5517783850848886   -0.009392405074006918   -0.01227241187596563
-0.5517783850848886   -0.009392405074006918   -0.01227241187596563
-0.5517783850848886   -0.009392405074006918   -0.01227241187596563
-0.52580419862486   0.03324352921895357   -0.025377817374981085
-0.52580419862486   0.03324352921895357   -0.025377817374981085
-0.52580419862486   0.03324352921895357   -0.025377817374981085
-0.52580419862486   0.03324352921895357   -0.025377817374981085
-0.2013481533611872   0.09667398288201619   -0.004658732161314329
-0.2013481533611872   0.09667398288201619   -0.004658732161314329
-0.2013481533611872   0.09667398288201619   -0.004658732161314329
-0.2013481533611872   0.09667398288201619   -0.004658732161314329
-0.37392805906831617   0.043371619181500135   0.022026752976885194
-0.37392805906831617   0.043371619181500135   0.022026752976885194
-0.37392805906831617   0.043371619181500135   0.022026752976885194
-0.37392805906831617   0.043371619181500135   0.022026752976885194
-0.6042970828756422   -0.0581017159292727   -0.017356707470773804
-0.6042970828756422   -0.0581017159292727   -0.017356707470773804
-0.6042970828756422   -0.0581017159292727   -0.017356707470773804
-0.6042970828756422   -0.0581017159292727   -0.017356707470773804
-0.8968346783178748   -0.05063108347599882   0.03595742672110583
-0.8968346783178748   -0.05063108347599882   0.03595742672110583
-0.8968346783178748   -0.05063108347599882   0.03595742672110583
-0.8968346783178748   -0.05063108347599882   0.03595742672110583
-0.8969879221268893   -0.08551917501561147   -0.04823838169836528
-0.8969879221268893   -0.08551917501561147   -0.04823838169836528
-0.8969879221268893   -0.08551917501561147   -0.04823838169836528
-0.8969879221268893   -0.08551917501561147   -0.04823838169836528
-0.5487562672956693   0.05472736619453786   0.04394239359909464
-0.5487562672956693   0.05472736619453786   0.04394239359909464
-0.5487562672956693   0.05472736619453786   0.04394239359909464
-0.5487562672956693   0.05472736619453786   0.04394239359909464
-0.7326060721143555   -0.03128120978980628   -0.0047511155772361965
-0.7326060721143555   -0.03128120978980628   -0.0047511155772361965
-0.7326060721143555   -0.03128120978980628   -0.0047511155772361965
-0.7326060721143555   -0.03128120978980628   -0.0047511155772361965
-0.5766515342878875   -0.01663794678469087   -0.024168628382763954
-0.5766515342878875   -0.01663794678469087   -0.024168628382763954
-0.5766515342878875   -0.01663794678469087   -0.024168628382763954
-0.5766515342878875   -0.01663794678469087   -0.024168628382763954
-0.8672724251781925   -0.012333632079902318   0.02715356010941703
-0.8672724251781925   -0.012333632079902318   0.02715356010941703
-0.8672724251781925   -0.012333632079902318   0.02715356010941703
-0.8672724251781925   -0.012333632079902318   0.02715356010941703
-0.8616803628079801   -0.04513183157601927   -0.053672021875705266
-0.8616803628079801   -0.04513183157601927   -0.053672021875705266
-0.8616803628079801   -0.04513183157601927   -0.053672021875705266
-0.8616803628079801   -0.04513183157601927   -0.053672021875705266
-0.5226692949342334   0.0889115176276857   0.03496911617562218
-0.5226692949342334   0.0889115176276857   0.03496911617562218
-0.5226692949342334   0.0889115176276857   0.03496911617562218
-0.5226692949342334   0.0889115176276857   0.03496911617562218
-0.6977179188894276   0.00620212497012923   0.012999595941402861
-0.6977179188894276   0.00620212497012923   0.012999595941402861
-0.6977179188894276   0.00620212497012923   0.012999595941402861
-0.6977179188894276   0.00620212497012923   0.012999595941402861
-0.5496413124757388   0.021512076737271374   -0.03249153064149327
-0.5496413124757388   0.021512076737271374   -0.03249153064149327
-0.5496413124757388   0.021512076737271374   -0.03249153064149327
-0.5496413124757388   0.021512076737271374   -0.03249153064149327
-0.832660448483378   0.024315506097501438   0.021980212073784082
-0.832660448483378   0.024315506097501438   0.021980212073784082
-0.832660448483378   0.024315506097501438   0.021980212073784082
-0.832660448483378   0.024315506097501438   0.021980212073784082
-0.8300895136017151   -0.0010585168439376513   -0.057768745135484995
-0.8300895136017151   -0.0010585168439376513   -0.057768745135484995
-0.8300895136017151   -0.0010585168439376513   -0.057768745135484995
-0.8300895136017151   -0.0010585168439376513   -0.057768745135484995
-0.49685254585093425   0.12669394893997915   0.025930026773622467
-0.49685254585093425   0.12669394893997915   0.025930026773622467
-0.49685254585093425   0.12669394893997915   0.025930026773622467
-0.49685254585093425   0.12669394893997915   0.025930026773622467
-0.6715489381205065   0.0411850361743378   0.028916188545595432
-0.6715489381205065   0.0411850361743378   0.028916188545595432
-0.6715489381205065   0.0411850361743378   0.028916188545595432
-0.6715489381205065   0.0411850361743378   0.028916188545595432
-0.9211324712877664   -0.08349930423077756   -0.05266331737357316
-0.9211324712877664   -0.08349930423077756   -0.05266331737357316
-0.9211324712877664   -0.08349930423077756   -0.05266331737357316
-0.9211324712877664   -0.08349930423077756   -0.05266331737357316
-1.229821626594372   -0.021461850515008873   0.07775860783474406
-1.229821626594372   -0.021461850515008873   0.07775860783474406
-1.229821626594372   -0.021461850515008873   0.07775860783474406
-1.229821626594372   -0.021461850515008873   0.07775860783474406
-1.212489327718216   -0.11147807859887582   -0.07022922080098327
-1.212489327718216   -0.11147807859887582   -0.07022922080098327
-1.212489327718216   -0.11147807859887582   -0.07022922080098327
-1.212489327718216   -0.11147807859887582   -0.07022922080098327
-0.8364170872640051   0.09244121331113675   0.07665540428930687
-0.8364170872640051   0.09244121331113675   0.07665540428930687
-0.8364170872640051   0.09244121331113675   0.07665540428930687
-0.8364170872640051   0.09244121331113675   0.07665540428930687
-1.0047168103308426   -0.017806148085304313   0.008277554124876005
-1.0047168103308426   -0.017806148085304313   0.008277554124876005
-1.0047168103308426   -0.017806148085304313   0.008277554124876005
-1.0047168103308426   -0.017806148085304313   0.008277554124876005
-0.8911637763973111   -0.04507874148976221   -0.05955808657632007
-0.8911637763973111   -0.04507874148976221   -0.05955808657632007
-0.8911637763973111   -0.04507874148976221   -0.05955808657632007
-0.8911637763973111   -0.04507874148976221   -0.05955808657632007
-1.1560933576407437   0.027691157146186973   0.07258139384129653
-1.1560933576407437   0.027691157146186973   0.07258139384129653
-1.1560933576407437   0.027691157146186973   0.07258139384129653
-1.1560933576407437   0.027691157146186973   0.07258139384129653
-1.1566952842566887   -0.08750824337912308   -0.08357095505093678
-1.1566952842566887   -0.08750824337912308   -0.08357095505093678
-1.1566952842566887   -0.08750824337912308   -0.08357095505093678
-1.1566952842566887   -0.08750824337912308   -0.08357095505093678
-0.8076425123117323   0.10819927494234846   0.06318612408715922
-0.8076425123117323   0.10819927494234846   0.06318612408715922
-0.8076425123117323   0.10819927494234846   0.06318612408715922
-0.8076425123117323   0.10819927494234846   0.06318612408715922
-0.9729805466645768   0.0073378410006113   0.022622310374805707
-0.9729805466645768   0.0073378410006113   0.022622310374805707
-0.9729805466645768   0.0073378410006113   0.022622310374805707
-0.9729805466645768   0.0073378410006113   0.022622310374805707
-0.8607423619540259   -0.02535519812066156   -0.06875865106129192
-0.8607423619540259   -0.02535519812066156   -0.06875865106129192
-0.8607423619540259   -0.02535519812066156   -0.06875865106129192
-0.8607423619540259   -0.02535519812066156   -0.06875865106129192
-1.1015756117959574   0.048066052502323764   0.05645311137126073
-1.1015756117959574   0.048066052502323764   0.05645311137126073
-1.1015756117959574   0.048066052502323764   0.05645311137126073
-1.1015756117959574   0.048066052502323764   0.05645311137126073
-1.0880040551042771   -0.051684807970217156   -0.09317774657622091
-1.0880040551042771   -0.051684807970217156   -0.09317774657622091
-1.0880040551042771   -0.051684807970217156   -0.09317774657622091
-1.0880040551042771   -0.051684807970217156   -0.09317774657622091
-0.7823420940960274   0.1272742115143849   0.05263562403463089
-0.7823420940960274   0.1272742115143849   0.05263562403463089
-0.7823420940960274   0.1272742115143849   0.05263562403463089
-0.7823420940960274   0.1272742115143849   0.05263562403463089
-0.9138092861373909   0.030908932078733603   0.042806461769053845
-0.9138092861373909   0.030908932078733603   0.042806461769053845
-0.9138092861373909   0.030908932078733603   0.042806461769053845
-0.9138092861373909   0.030908932078733603   0.042806461769053845
0.9779469967413411   0.08882912558388126   0.08498912307108988
0.9779469967413411   0.08882912558388126   0.08498912307108988
0.9779469967413411   0.08882912558388126   0.08498912307108988
0.9779469967413411   0.08882912558388126   0.08498912307108988
0.3583578807392183   -0.16288095314037393   -0.05595072160779262
0.3583578807392183   -0.16288095314037393   -0.05595072160779262
0.3583578807392183   -0.16288095314037393   -0.05595072160779262
0.3583578807392183   -0.16288095314037393   -0.05595072160779262
0.44276536954005563   -0.000903294930978793   0.061165871602352616
0.44276536954005563   -0.000903294930978793   0.061165871602352616
0.44276536954005563   -0.000903294930978793   0.061165871602352616
0.44276536954005563   -0.000903294930978793   0.061165871602352616
0.9958412510008626   -0.022830074275075746   -0.07142026936378813
0.9958412510008626   -0.022830074275075746   -0.07142026936378813
0.9958412510008626   -0.022830074275075746   -0.07142026936378813
0.9958412510008626   -0.022830074275075746   -0.07142026936378813
0.6510543983057269   -0.029546912384323554   -0.06293247527583645
0.6510543983057269   -0.029546912384323554   -0.06293247527583645
0.6510543983057269   -0.029546912384323554   -0.06293247527583645
0.6510543983057269   -0.029546912384323554   -0.06293247527583645
1.0542532613685587   0.1239358756284776   0.0738738325711315
1.0542532613685587   0.1239358756284776   0.0738738325711315
1.0542532613685587   0.1239358756284776   0.0738738325711315
1.0542532613685587   0.1239358756284776   0.0738738325711315
0.3884813597996398   -0.1435412442072525   -0.06761622782344916
0.3884813597996398   -0.1435412442072525   -0.06761622782344916
0.3884813597996398   -0.1435412442072525   -0.06761622782344916
0.3884813597996398   -0.1435412442072525   -0.06761622782344916
0.4761336353538322   0.018328333028736432   0.050451039147211545
0.4761336353538322   0.018328333028736432   0.050451039147211545
0.4761336353538322   0.018328333028736432   0.050451039147211545
0.4761336353538322   0.018328333028736432   0.050451039147211545
1.0565891698772023   -0.0009669061179403415   -0.09000195125196261
1.0565891698772023   -0.0009669061179403415   -0.09000195125196261
1.0565891698772023   -0.0009669061179403415   -0.09000195125196261
1.0565891698772023   -0.0009669061179403415   -0.09000195125196261
0.7144575130544655   -0.005922360603408172   -0.038096540840802356
0.7144575130544655   -0.005922360603408172   -0.038096540840802356
0.7144575130544655   -0.005922360603408172   -0.038096540840802356
0.7144575130544655   -0.005922360603408172   -0.038096540840802356
1.1156579125331951   0.1475149598476478   0.056859896062405345
1.1156579125331951   0.1475149598476478   0.056859896062405345
1.1156579125331951   0.1475149598476478   0.056859896062405345
1.1156579125331951   0.1475149598476478   0.056859896062405345
0.42146292181595824   -0.1257555038187329   -0.07881869169468142
0.42146292181595824   -0.1257555038187329   -0.07881869169468142
0.42146292181595824   -0.1257555038187329   -0.07881869169468142
0.42146292181595824   -0.1257555038187329   -0.07881869169468142
0.5094541638417993   0.06070171178516283   0.04372643070065321
0.5094541638417993   0.06070171178516283   0.04372643070065321
0.5094541638417993   0.06070171178516283   0.04372643070065321
0.5094541638417993   0.06070171178516283   0.04372643070065321
1.1363447261545043   0.05605639216276298   -0.09709806876345212
1.1363447261545043   0.05605639216276298   -0.09709806876345212
1.1363447261545043   0.05605639216276298   -0.09709806876345212
1.1363447261545043   0.05605639216276298   -0.09709806876345212
0.753665825952989   0.022801997516849   -0.016593554224432448
0.753665825952989   0.022801997516849   -0.016593554224432448
0.753665825952989   0.022801997516849   -0.016593554224432448
0.753665825952989   0.022801997516849   -0.016593554224432448
0.425635946912206   0.049698341711494565   0.06786031440527736
0.425635946912206   0.049698341711494565   0.06786031440527736
0.425635946912206   0.049698341711494565   0.06786031440527736
0.425635946912206   0.049698341711494565   0.06786031440527736
-0.20703433881408076   -0.1519636394694028   -0.02929808055594426
-0.20703433881408076   -0.1519636394694028   -0.02929808055594426
-0.20703433881408076   -0.1519636394694028   -0.02929808055594426
-0.20703433881408076   -0.1519636394694028   -0.02929808055594426
-0.14894078236622899   -0.04442945546323794   0.02057961042588323
-0.14894078236622899   -0.04442945546323794   0.02057961042588323
-0.14894078236622899   -0.04442945546323794   0.02057961042588323
-0.14894078236622899   -0.04442945546323794   0.02057961042588323
0.42911503488825514   0.001028336301904631   -0.00901743288952954
0.42911503488825514   0.001028336301904631   -0.00901743288952954
0.42911503488825514   0.001028336301904631   -0.00901743288952954
0.42911503488825514   0.001028336301904631   -0.00901743288952954
0.1190966041420882   -0.03218986220155087   -0.02683901388896526
0.1190966041420882   -0.03218986220155087   -0.02683901388896526
0.1190966041420882   -0.03218986220155087   -0.02683901388896526
0.1190966041420882   -0.03218986220155087   -0.02683901388896526
0.4599035670051813   0.0853451709377232   0.060608393059278697
0.4599035670051813   0.0853451709377232   0.060608393059278697
0.4599035670051813   0.0853451709377232   0.060608393059278697
0.4599035670051813   0.0853451709377232   0.060608393059278697
-0.1772480344793575   -0.12626501009525953   -0.039121095507737666
-0.1772480344793575   -0.12626501009525953   -0.039121095507737666
-0.1772480344793575   -0.12626501009525953   -0.039121095507737666
-0.1772480344793575   -0.12626501009525953   -0.039121095507737666
-0.11785011056743248   -0.008455534774284084   0.013016002775529341
-0.11785011056743248   -0.008455534774284084   0.013016002775529341
-0.11785011056743248   -0.008455534774284084   0.013016002775529341
-0.11785011056743248   -0.008455534774284084   0.013016002775529341
0.4656807908145057   0.03331936854862283   -0.016804219069300144
0.4656807908145057   0.03331936854862283   -0.016804219069300144
0.4656807908145057   0.03331936854862283   -0.016804219069300144
0.4656807908145057   0.03331936854862283   -0.016804219069300144
0.14914408653082173   -0.0037561803474778083   -0.010676477033569349
0.14914408653082173   -0.0037561803474778083   -0.010676477033569349
0.14914408653082173   -0.0037561803474778083   -0.010676477033569349
0.14914408653082173   -0.0037561803474778083   -0.010676477033569349
0.49769932945386547   0.12281060100840015   0.053797241667713915
0.49769932945386547   0.12281060100840015   0.053797241667713915
0.49769932945386547   0.12281060100840015   0.053797241667713915
0.49769932945386547   0.12281060100840015   0.053797241667713915
-0.14738090521795588   -0.0954590232452365   -0.04763448200613519
-0.14738090521795588   -0.0954590232452365   -0.04763448200613519
-0.14738090521795588   -0.0954590232452365   -0.04763448200613519
-0.14738090521795588   -0.0954590232452365   -0.04763448200613519
-0.08715431028495212   0.03320101633526537   0.005485443144581749
-0.08715431028495212   0.03320101633526537   0.005485443144581749
-0.08715431028495212   0.03320101633526537   0.005485443144581749
-0.08715431028495212   0.03320101633526537   0.005485443144581749
0.4981220308871598   0.07175270569109413   -0.02398522797847571
0.4981220308871598   0.07175270569109413   -0.02398522797847571
0.4981220308871598   0.07175270569109413   -0.02398522797847571
0.4981220308871598   0.07175270569109413   -0.02398522797847571
0.186222972019162   0.031097424028671765   0.008187960119237255
0.186222972019162   0.031097424028671765   0.008187960119237255
0.186222972019162   0.031097424028671765   0.008187960119237255
0.186222972019162   0.031097424028671765   0.008187960119237255
-0.16286647823799155   0.01074768375910044   0.02882989909599839
-0.16286647823799155   0.01074768375910044   0.02882989909599839
-0.16286647823799155   0.01074768375910044   0.02882989909599839
-0.16286647823799155   0.01074768375910044   0.02882989909599839
-0.7611950516632299   -0.1341394657524099   -0.003846400262390486
-0.7611950516632299   -0.1341394657524099   -0.003846400262390486
-0.7611950516632299   -0.1341394657524099   -0.003846400262390486
-0.7611950516632299   -0.1341394657524099   -0.003846400262390486
-0.7243112046096594   -0.07889568242127719   -0.017893203586866382
-0.7243112046096594   -0.07889568242127719   -0.017893203586866382
-0.7243112046096594   -0.07889568242127719   -0.017893203586866382
-0.7243112046096594   -0.07889568242127719   -0.017893203586866382
-0.13637230074827664   0.01980459008442502   0.01918797296798213
-0.13637230074827664   0.01980459008442502   0.01918797296798213
-0.13637230074827664   0.01980459008442502   0.01918797296798213
-0.13637230074827664   0.01980459008442502   0.01918797296798213
-0.44697328666140534   -0.041260668512923884   -0.016750234388802764
-0.44697328666140534   -0.041260668512923884   -0.016750234388802764
-0.44697328666140534   -0.041260668512923884   -0.016750234388802764
-0.44697328666140534   -0.041260668512923884   -0.016750234388802764
-0.13023914510364767   0.047857532043674   0.02180080923187792
-0.13023914510364767   0.047857532043674   0.02180080923187792
-0.13023914510364767   0.047857532043674   0.02180080923187792
-0.13023914510364767   0.047857532043674   0.02180080923187792
-0.728791929878093   -0.10529619400433099   -0.013896318345981437
-0.728791929878093   -0.10529619400433099   -0.013896318345981437
-0.728791929878093   -0.10529619400433099   -0.013896318345981437
-0.728791929878093   -0.10529619400433099   -0.013896318345981437
-0.6900479215741145   -0.039426679721080604   -0.024174248622108083
-0.6900479215741145   -0.039426679721080604   -0.024174248622108083
-0.6900479215741145   -0.039426679721080604   -0.024174248622108083
-0.6900479215741145   -0.039426679721080604   -0.024174248622108083
-0.1061090034776656   0.05242190894869247   0.010844094501391111
-0.1061090034776656   0.05242190894869247   0.010844094501391111
-0.1061090034776656   0.05242190894869247   0.010844094501391111
-0.1061090034776656   0.05242190894869247   0.010844094501391111
-0.4124177103566646   -0.008235180031295655   -0.00025964675437839535
-0.4124177103566646   -0.008235180031295655   -0.00025964675437839535
-0.4124177103566646   -0.008235180031295655   -0.00025964675437839535
-0.4124177103566646   -0.008235180031295655   -0.00025964675437839535
-0.09870971122723164   0.08644025417765044   0.013822210524602856
-0.09870971122723164   0.08644025417765044   0.013822210524602856
-0.09870971122723164   0.08644025417765044   0.013822210524602856
-0.09870971122723164   0.08644025417765044   0.013822210524602856
-0.6959113474595191   -0.07190915858499891   -0.02100889918521233
-0.6959113474595191   -0.07190915858499891   -0.02100889918521233
-0.6959113474595191   -0.07190915858499891   -0.02100889918521233
-0.6959113474595191   -0.07190915858499891   -0.02100889918521233
-0.6581560242066528   -9.347561659345249e-05   -0.03168815380883576
-0.6581560242066528   -9.347561659345249e-05   -0.03168815380883576
-0.6581560242066528   -9.347561659345249e-05   -0.03168815380883576
-0.6581560242066528   -9.347561659345249e-05   -0.03168815380883576
-0.07721608539261358   0.08573941444463268   0.002638169496907105
-0.07721608539261358   0.08573941444463268   0.002638169496907105
-0.07721608539261358   0.08573941444463268   0.002638169496907105
-0.07721608539261358   0.08573941444463268   0.002638169496907105
-0.38067050172423317   0.02466496805495942   0.01543438404640611
-0.38067050172423317   0.02466496805495942   0.01543438404640611
-0.38067050172423317   0.02466496805495942   0.01543438404640611
-0.38067050172423317   0.02466496805495942   0.01543438404640611
-0.7416941592162245   -0.029075621463202805   -0.011405782316564528
-0.7416941592162245   -0.029075621463202805   -0.011405782316564528
-0.7416941592162245   -0.029075621463202805   -0.011405782316564528
-0.7416941592162245   -0.029075621463202805   -0.011405782316564528
-1.3025559725251428   -0.10861011592336378   0.025243153648832478
-1.3025559725251428   -0.10861011592336378   0.025243153648832478
-1.3025559725251428   -0.10861011592336378   0.025243153648832478
-1.3025559725251428   -0.10861011592336378   0.025243153648832478
-1.2845316755384857   -0.11198681810354963   -0.05385311964852651
-1.2845316755384857   -0.11198681810354963   -0.05385311964852651
-1.2845316755384857   -0.11198681810354963   -0.05385311964852651
-1.2845316755384857   -0.11198681810354963   -0.05385311964852651
-0.6852162211573225   0.05042397688689515   0.048262054366652
-0.6852162211573225   0.05042397688689515   0.048262054366652
-0.6852162211573225   0.05042397688689515   0.048262054366652
-0.6852162211573225   0.05042397688689515   0.048262054366652
-0.9965563332810556   -0.04352140038905028   -0.0058337302438590186
-0.9965563332810556   -0.04352140038905028   -0.0058337302438590186
-0.9965563332810556   -0.04352140038905028   -0.0058337302438590186
-0.9965563332810556   -0.04352140038905028   -0.0058337302438590186
-0.7062230269614844   0.01097994665675281   -0.017327944424015383
-0.7062230269614844   0.01097994665675281   -0.017327944424015383
-0.7062230269614844   0.01097994665675281   -0.017327944424015383
-0.7062230269614844   0.01097994665675281   -0.017327944424015383
-1.263453934462811   -0.07247185260189265   0.01202062022820126
-1.263453934462811   -0.07247185260189265   0.01202062022820126
-1.263453934462811   -0.07247185260189265   0.01202062022820126
-1.263453934462811   -0.07247185260189265   0.01202062022820126
-1.2397777440108322   -0.07341682382394221   -0.05956414200591886
-1.2397777440108322   -0.07341682382394221   -0.05956414200591886
-1.2397777440108322   -0.07341682382394221   -0.05956414200591886
-1.2397777440108322   -0.07341682382394221   -0.05956414200591886
-0.6533078552325147   0.08153305665068145   0.03856634671413596
-0.6533078552325147   0.08153305665068145   0.03856634671413596
-0.6533078552325147   0.08153305665068145   0.03856634671413596
-0.6533078552325147   0.08153305665068145   0.03856634671413596
-0.9510481688333765   -0.007013775488060869   0.010697111114602136
-0.9510481688333765   -0.007013775488060869   0.010697111114602136
-0.9510481688333765   -0.007013775488060869   0.010697111114602136
-0.9510481688333765   -0.007013775488060869   0.010697111114602136
-0.6730271233574139   0.046788951046657645   -0.025285888306337767
-0.6730271233574139   0.046788951046657645   -0.025285888306337767
-0.6730271233574139   0.046788951046657645   -0.025285888306337767
-0.6730271233574139   0.046788951046657645   -0.025285888306337767
-1.2190295998642962   -0.037643842198281874   0.008403597101100654
-1.2190295998642962   -0.037643842198281874   0.008403597101100654
-1.2190295998642962   -0.037643842198281874   0.008403597101100654
-1.2190295998642962   -0.037643842198281874   0.008403597101100654
-1.1997577268297475   -0.0315974599724021   -0.0626218368094705
-1.1997577268297475   -0.0315974599724021   -0.0626218368094705
-1.1997577268297475   -0.0315974599724021   -0.0626218368094705
-1.1997577268297475   -0.0315974599724021   -0.0626218368094705
-0.6224033872318463   0.1157558590594075   0.031225696389203514
-0.6224033872318463   0.1157558590594075   0.031225696389203514
-0.6224033872318463   0.1157558590594075   0.031225696389203514
-0.6224033872318463   0.1157558590594075   0.031225696389203514
-0.9202072373461929   0.024209479093172476   0.024961925167230718
-0.9202072373461929   0.024209479093172476   0.024961925167230718
-0.9202072373461929   0.024209479093172476   0.024961925167230718
-0.9202072373461929   0.024209479093172476   0.024961925167230718
-1.3080913855455958   -0.06239694112296812   -0.04864708625382844
-1.3080913855455958   -0.06239694112296812   -0.04864708625382844
-1.3080913855455958   -0.06239694112296812   -0.04864708625382844
-1.3080913855455958   -0.06239694112296812   -0.04864708625382844
-1.8640397914208577   -0.06717290207895082   0.08432044777901228
-1.8640397914208577   -0.06717290207895082   0.08432044777901228
-1.8640397914208577   -0.06717290207895082   0.08432044777901228
-1.8640397914208577   -0.06717290207895082   0.08432044777901228
-1.8279811721007175   -0.13408215702788723   -0.06439736256910072
-1.8279811721007175   -0.13408215702788723   -0.06439736256910072
-1.8279811721007175   -0.13408215702788723   -0.06439736256910072
-1.8279811721007175   -0.13408215702788723   -0.06439736256910072
-1.2133528213321243   0.10437377183968533   0.08568056144004522
-1.2133528213321243   0.10437377183968533   0.08568056144004522
-1.2133528213321243   0.10437377183968533   0.08568056144004522
-1.2133528213321243   0.10437377183968533   0.08568056144004522
-1.484481723286669   -0.01835578354176487   0.017128773325044977
-1.484481723286669   -0.01835578354176487   0.017128773325044977
-1.484481723286669   -0.01835578354176487   0.017128773325044977
-1.484481723286669   -0.01835578354176487   0.017128773325044977
-1.2661073418014361   -0.019642976889646113   -0.054075292177176604
-1.2661073418014361   -0.019642976889646113   -0.054075292177176604
-1.2661073418014361   -0.019642976889646113   -0.054075292177176604
-1.2661073418014361   -0.019642976889646113   -0.054075292177176604
-1.7743684840738512   -0.009207240741003486   0.07879116127832832
-1.7743684840738512   -0.009207240741003486   0.07879116127832832
-1.7743684840738512   -0.009207240741003486   0.07879116127832832
-1.7743684840738512   -0.009207240741003486   0.07879116127832832
-1.760316979236964   -0.11013870379329832   -0.0758293026658431
-1.760316979236964   -0.11013870379329832   -0.0758293026658431
-1.760316979236964   -0.11013870379329832   -0.0758293026658431
-1.760316979236964   -0.11013870379329832   -0.0758293026658431
-1.1757769718014384   0.11914375994687804   0.06787913527022992
-1.1757769718014384   0.11914375994687804   0.06787913527022992
-1.1757769718014384   0.11914375994687804   0.06787913527022992
-1.1757769718014384   0.11914375994687804   0.06787913527022992
-1.4494463473877501   0.007773713238421132   0.030906449464457753
-1.4494463473877501   0.007773713238421132   0.030906449464457753
-1.4494463473877501   0.007773713238421132   0.030906449464457753
-1.4494463473877501   0.007773713238421132   0.030906449464457753
-1.2255517917336705   -0.00032503887356805095   -0.06152616557048525
-1.2255517917336705   -0.00032503887356805095   -0.06152616557048525
-1.2255517917336705   -0.00032503887356805095   -0.06152616557048525
-1.2255517917336705   -0.00032503887356805095   -0.06152616557048525
-1.7096893571648697   0.010182897167004712   0.056987206734294735
-1.7096893571648697   0.010182897167004712   0.056987206734294735
-1.7096893571648697   0.010182897167004712   0.056987206734294735
-1.7096893571648697   0.010182897167004712   0.056987206734294735
-1.6863970746102557   -0.08134248722270782   -0.08639288913660449
-1.6863970746102557   -0.08134248722270782   -0.08639288913660449
-1.6863970746102557   -0.08134248722270782   -0.08639288913660449
-1.6863970746102557   -0.08134248722270782   -0.08639288913660449
-1.1427359057640476   0.13308225348818298   0.057807555058443316
-1.1427359057640476   0.13308225348818298   0.057807555058443316
-1.1427359057640476   0.13308225348818298   0.057807555058443316
-1.1427359057640476   0.13308225348818298   0.057807555058443316
-1.3749254595035787   0.029511424823641996   0.0516932132100745
-1.3749254595035787   0.029511424823641996   0.0516932132100745
-1.3749254595035787   0.029511424823641996   0.0516932132100745
-1.3749254595035787   0.029511424823641996   0.0516932132100745
1.6434378218775274   0.12276894931473553   0.08721884952950705
1.6434378218775274   0.12276894931473553   0.08721884952950705
1.6434378218775274   0.12276894931473553   0.08721884952950705
1.6434378218775274   0.12276894931473553   0.08721884952950705
0.7251978431757823   -0.19383993610307143   -0.04001367244936113
0.7251978431757823   -0.19383993610307143   -0.04001367244936113
0.7251978431757823   -0.19383993610307143   -0.04001367244936113
0.7251978431757823   -0.19383993610307143   -0.04001367244936113
0.8088531546634813   -0.03395701552996605   0.05993312069914156
0.8088531546634813   -0.03395701552996605   0.05993312069914156
0.8088531546634813   -0.03395701552996605   0.05993312069914156
0.8088531546634813   -0.03395701552996605   0.05993312069914156
1.6617033424103125   -0.0033447156361802732   -0.0627630148189118
1.6617033424103125   -0.0033447156361802732   -0.0627630148189118
1.6617033424103125   -0.0033447156361802732   -0.0627630148189118
1.6617033424103125   -0.0033447156361802732   -0.0627630148189118
1.1389236846321578   -0.03464958462936088   -0.08919002220073602
1.1389236846321578   -0.03464958462936088   -0.08919002220073602
1.1389236846321578   -0.03464958462936088   -0.08919002220073602
1.1389236846321578   -0.03464958462936088   -0.08919002220073602
1.7196830220552841   0.15081705613543167   0.07297361163432732
1.7196830220552841   0.15081705613543167   0.07297361163432732
1.7196830220552841   0.15081705613543167   0.07297361163432732
1.7196830220552841   0.15081705613543167   0.07297361163432732
0.7564385943791653   -0.18255366794092234   -0.053543028311474894
0.7564385943791653   -0.18255366794092234   -0.053543028311474894
0.7564385943791653   -0.18255366794092234   -0.053543028311474894
0.7564385943791653   -0.18255366794092234   -0.053543028311474894
0.84161949540692   -0.016267209514284175   0.048466206236600556
0.84161949540692   -0.016267209514284175   0.048466206236600556
0.84161949540692   -0.016267209514284175   0.048466206236600556
0.84161949540692   -0.016267209514284175   0.048466206236600556
1.7188854554213964   0.01616618016378729   -0.0784535563288396
1.7188854554213964   0.01616618016378729   -0.0784535563288396
1.7188854554213964   0.01616618016378729   -0.0784535563288396
1.7188854554213964   0.01616618016378729   -0.0784535563288396
1.210678606900523   -0.013786248965813819   -0.060649155765173365
1.210678606900523   -0.013786248965813819   -0.060649155765173365
1.210678606900523   -0.013786248965813819   -0.060649155765173365
1.210678606900523   -0.013786248965813819   -0.060649155765173365
1.7765303000965929   0.17184089968209687   0.054095947528833094
1.7765303000965929   0.17184089968209687   0.054095947528833094
1.7765303000965929   0.17184089968209687   0.054095947528833094
1.7765303000965929   0.17184089968209687   0.054095947528833094
0.7888483845936471   -0.16706819517067015   -0.06458836217337777
0.7888483845936471   -0.16706819517067015   -0.06458836217337777
0.7888483845936471   -0.16706819517067015   -0.06458836217337777
0.7888483845936471   -0.16706819517067015   -0.06458836217337777
0.8712951767656478   0.030964445884877984   0.04249174923597945
0.8712951767656478   0.030964445884877984   0.04249174923597945
0.8712951767656478   0.030964445884877984   0.04249174923597945
0.8712951767656478   0.030964445884877984   0.04249174923597945
1.789211514536897   0.07324334180085113   -0.08216844171795191
1.789211514536897   0.07324334180085113   -0.08216844171795191
1.789211514536897   0.07324334180085113   -0.08216844171795191
1.789211514536897   0.07324334180085113   -0.08216844171795191
1.2376134720659306   0.014282309031736107   -0.04087575018111929
1.2376134720659306   0.014282309031736107   -0.04087575018111929
1.2376134720659306   0.014282309031736107   -0.04087575018111929
1.2376134720659306   0.014282309031736107   -0.04087575018111929
0.8022586102283655   0.07170384316031003   0.07974638355017362
0.8022586102283655   0.07170384316031003   0.07974638355017362
0.8022586102283655   0.07170384316031003   0.07974638355017362
0.8022586102283655   0.07170384316031003   0.07974638355017362
-0.0986692145206213   -0.23895524858895711   -0.022768157936167432
-0.0986692145206213   -0.23895524858895711   -0.022768157936167432
-0.0986692145206213   -0.23895524858895711   -0.022768157936167432
-0.0986692145206213   -0.23895524858895711   -0.022768157936167432
-0.026565906502460105   -0.08423614441487545   0.020341104917285337
-0.026565906502460105   -0.08423614441487545   0.020341104917285337
-0.026565906502460105   -0.08423614441487545   0.020341104917285337
-0.026565906502460105   -0.08423614441487545   0.020341104917285337
0.7955337279756456   -0.044535433334357444   0.003914405064354323
0.7955337279756456   -0.044535433334357444   0.003914405064354323
0.7955337279756456   -0.044535433334357444   0.003914405064354323
0.7955337279756456   -0.044535433334357444   0.003914405064354323
0.35816652832591145   -0.06674154439289698   -0.042564727994898015
0.35816652832591145   -0.06674154439289698   -0.042564727994898015
0.35816652832591145   -0.06674154439289698   -0.042564727994898015
0.35816652832591145   -0.06674154439289698   -0.042564727994898015
0.8375100831885596   0.09863581841565466   0.07062492937891623
0.8375100831885596   0.09863581841565466   0.07062492937891623
0.8375100831885596   0.09863581841565466   0.07062492937891623
0.8375100831885596   0.09863581841565466   0.07062492937891623
-0.06561505895894021   -0.224480193408453   -0.0346606083715376
-0.06561505895894021   -0.224480193408453   -0.0346606083715376
-0.06561505895894021   -0.224480193408453   -0.0346606083715376
-0.06561505895894021   -0.224480193408453   -0.0346606083715376
0.006849693897544168   -0.052599704774552634   0.012431511231784043
0.006849693897544168   -0.052599704774552634   0.012431511231784043
0.006849693897544168   -0.052599704774552634   0.012431511231784043
0.006849693897544168   -0.052599704774552634   0.012431511231784043
0.8297412752414224   -0.02068362129527751   -0.0065084828098945086
0.8297412752414224   -0.02068362129527751   -0.0065084828098945086
0.8297412752414224   -0.02068362129527751   -0.0065084828098945086
0.8297412752414224   -0.02068362129527751   -0.0065084828098945086
0.3872128038683489   -0.04732222361401159   -0.02760264376905082
0.3872128038683489   -0.04732222361401159   -0.02760264376905082
0.3872128038683489   -0.04732222361401159   -0.02760264376905082
0.3872128038683489   -0.04732222361401159   -0.02760264376905082
0.8739729619875785   0.13094326043518256   0.0630230691904257
0.8739729619875785   0.13094326043518256   0.0630230691904257
0.8739729619875785   0.13094326043518256   0.0630230691904257
0.8739729619875785   0.13094326043518256   0.0630230691904257
-0.03564569132360382   -0.20249028498001548   -0.05015483466849686
-0.03564569132360382   -0.20249028498001548   -0.05015483466849686
-0.03564569132360382   -0.20249028498001548   -0.05015483466849686
-0.03564569132360382   -0.20249028498001548   -0.05015483466849686
0.03307668572122336   -0.015572447479438218   0.004434351334860315
0.03307668572122336   -0.015572447479438218   0.004434351334860315
0.03307668572122336   -0.015572447479438218   0.004434351334860315
0.03307668572122336   -0.015572447479438218   0.004434351334860315
0.8553630295440741   0.009722710968446208   -0.015927251955469124
0.8553630295440741   0.009722710968446208   -0.015927251955469124
0.8553630295440741   0.009722710968446208   -0.015927251955469124
0.8553630295440741   0.009722710968446208   -0.015927251955469124
0.4227346228665846   -0.01828503641874872   -0.011565499785331949
0.4227346228665846   -0.01828503641874872   -0.011565499785331949
0.4227346228665846   -0.01828503641874872   -0.011565499785331949
0.4227346228665846   -0.01828503641874872   -0.011565499785331949
-0.03442438698025525   0.0199034112266702   0.039597319950035445
-0.03442438698025525   0.0199034112266702   0.039597319950035445
-0.03442438698025525   0.0199034112266702   0.039597319950035445
-0.03442438698025525   0.0199034112266702   0.039597319950035445
-0.9162003219490005   -0.30001559104683284   -0.018344170311718304
-0.9162003219490005   -0.30001559104683284   -0.018344170311718304
-0.9162003219490005   -0.30001559104683284   -0.018344170311718304
-0.9162003219490005   -0.30001559104683284   -0.018344170311718304
-0.8431967889833173   -0.12925174278268436   -0.019269203132462862
-0.8431967889833173   -0.12925174278268436   -0.019269203132462862
-0.8431967889833173   -0.12925174278268436   -0.019269203132462862
-0.8431967889833173   -0.12925174278268436   -0.019269203132462862
-0.03095551408711767   -0.10367392440766889   0.017830846986790938
-0.03095551408711767   -0.10367392440766889   0.017830846986790938
-0.03095551408711767   -0.10367392440766889   0.017830846986790938
-0.03095551408711767   -0.10367392440766889   0.017830846986790938
-0.45828043864511087   -0.1213864235278968   -0.03803913630022034
-0.45828043864511087   -0.1213864235278968   -0.03803913630022034
-0.45828043864511087   -0.1213864235278968   -0.03803913630022034
-0.45828043864511087   -0.1213864235278968   -0.03803913630022034
0.002687604065528147   0.050211232601716484   0.032161280740634665
0.002687604065528147   0.050211232601716484   0.032161280740634665
0.002687604065528147   0.050211232601716484   0.032161280740634665
0.002687604065528147   0.050211232601716484   0.032161280740634665
-0.8747280935829707   -0.28102508623907735   -0.025152382674337014
-0.8747280935829707   -0.28102508623907735   -0.025152382674337014
-0.8747280935829707   -0.28102508623907735   -0.025152382674337014
-0.8747280935829707   -0.28102508623907735   -0.025152382674337014
-0.8017553653316163   -0.09412722463493736   -0.026255211562807343
-0.8017553653316163   -0.09412722463493736   -0.026255211562807343
-0.8017553653316163   -0.09412722463493736   -0.026255211562807343
-0.8017553653316163   -0.09412722463493736   -0.026255211562807343
0.00018057069475359636   -0.0807569714980142   0.007243161941288913
0.00018057069475359636   -0.0807569714980142   0.007243161941288913
0.00018057069475359636   -0.0807569714980142   0.007243161941288913
0.00018057069475359636   -0.0807569714980142   0.007243161941288913
-0.4180510149060519   -0.09614273690243696   -0.021143249831930645
-0.4180510149060519   -0.09614273690243696   -0.021143249831930645
-0.4180510149060519   -0.09614273690243696   -0.021143249831930645
-0.4180510149060519   -0.09614273690243696   -0.021143249831930645
0.036650479126345906   0.0838101109078865   0.025025621693349768
0.036650479126345906   0.0838101109078865   0.025025621693349768
0.036650479126345906   0.0838101109078865   0.025025621693349768
0.036650479126345906   0.0838101109078865   0.025025621693349768
-0.8382504563886937   -0.25871948966631164   -0.044138401816812424
-0.8382504563886937   -0.25871948966631164   -0.044138401816812424
-0.8382504563886937   -0.25871948966631164   -0.044138401816812424
-0.8382504563886937   -0.25871948966631164   -0.044138401816812424
-0.7724729787709035   -0.06065362174635913   -0.03407011807976203
-0.7724729787709035   -0.06065362174635913   -0.03407011807976203
-0.7724729787709035   -0.06065362174635913   -0.03407011807976203
-0.7724729787709035   -0.06065362174635913   -0.03407011807976203
0.020632639576908196   -0.062464346144801994   -0.010893980721351757
0.020632639576908196   -0.062464346144801994   -0.010893980721351757
0.020632639576908196   -0.062464346144801994   -0.010893980721351757
0.020632639576908196   -0.062464346144801994   -0.010893980721351757
-0.38854096507926245   -0.07260920264905166   -0.010579861741771954
-0.38854096507926245   -0.07260920264905166   -0.010579861741771954
-0.38854096507926245   -0.07260920264905166   -0.010579861741771954
-0.38854096507926245   -0.07260920264905166   -0.010579861741771954
-0.8577890354545882   -0.02497168751359935   -0.0013316413729000387
-0.8577890354545882   -0.02497168751359935   -0.0013316413729000387
-0.8577890354545882   -0.02497168751359935   -0.0013316413729000387
-0.8577890354545882   -0.02497168751359935   -0.0013316413729000387
-1.7373895896609823   -0.3225527143113241   -0.014784383374508022
-1.7373895896609823   -0.3225527143113241   -0.014784383374508022
-1.7373895896609823   -0.3225527143113241   -0.014784383374508022
-1.7373895896609823   -0.3225527143113241   -0.014784383374508022
-1.6589240493011757   -0.16544967429120663   -0.05739837337994267
-1.6589240493011757   -0.16544967429120663   -0.05739837337994267
-1.6589240493011757   -0.16544967429120663   -0.05739837337994267
-1.6589240493011757   -0.16544967429120663   -0.05739837337994267
-0.8274559821720742   -0.10768727309330997   0.037870361234370736
-0.8274559821720742   -0.10768727309330997   0.037870361234370736
-0.8274559821720742   -0.10768727309330997   0.037870361234370736
-0.8274559821720742   -0.10768727309330997   0.037870361234370736
-1.259245108750314   -0.1458618024596428   -0.026820200604643935
-1.259245108750314   -0.1458618024596428   -0.026820200604643935
-1.259245108750314   -0.1458618024596428   -0.026820200604643935
-1.259245108750314   -0.1458618024596428   -0.026820200604643935
-0.8120095229237847   0.01407998544730138   -0.006664601064793281
-0.8120095229237847   0.01407998544730138   -0.006664601064793281
-0.8120095229237847   0.01407998544730138   -0.006664601064793281
-0.8120095229237847   0.01407998544730138   -0.006664601064793281
-1.6750588049722976   -0.2879052292546481   -0.015616596772096565
-1.6750588049722976   -0.2879052292546481   -0.015616596772096565
-1.6750588049722976   -0.2879052292546481   -0.015616596772096565
-1.6750588049722976   -0.2879052292546481   -0.015616596772096565
-1.5997031870013083   -0.12875651145596717   -0.06648616205031384
-1.5997031870013083   -0.12875651145596717   -0.06648616205031384
-1.5997031870013083   -0.12875651145596717   -0.06648616205031384
-1.5997031870013083   -0.12875651145596717   -0.06648616205031384
-0.7871970626698168   -0.08012480303737421   0.0325338801486344
-0.7871970626698168   -0.08012480303737421   0.0325338801486344
-0.7871970626698168   -0.08012480303737421   0.0325338801486344
-0.7871970626698168   -0.08012480303737421   0.0325338801486344
-1.1984150733747574   -0.11065904163724732   -0.008852574926146217
-1.1984150733747574   -0.11065904163724732   -0.008852574926146217
-1.1984150733747574   -0.11065904163724732   -0.008852574926146217
-1.1984150733747574   -0.11065904163724732   -0.008852574926146217
-0.7704663755528383   0.04800048815251487   -0.011937975456373415
-0.7704663755528383   0.04800048815251487   -0.011937975456373415
-0.7704663755528383   0.04800048815251487   -0.011937975456373415
-0.7704663755528383   0.04800048815251487   -0.011937975456373415
-1.6193038377012396   -0.25975176622880897   -0.033494160777116616
-1.6193038377012396   -0.25975176622880897   -0.033494160777116616
-1.6193038377012396   -0.25975176622880897   -0.033494160777116616
-1.6193038377012396   -0.25975176622880897   -0.033494160777116616
-1.5516246232119781   -0.09005297420855779   -0.06859723397049096
-1.5516246232119781   -0.09005297420855779   -0.06859723397049096
-1.5516246232119781   -0.09005297420855779   -0.06859723397049096
-1.5516246232119781   -0.09005297420855779   -0.06859723397049096
-0.7640641730713407   -0.06260205342351798   0.009922342095216915
-0.7640641730713407   -0.06260205342351798   0.009922342095216915
-0.7640641730713407   -0.06260205342351798   0.009922342095216915
-0.7640641730713407   -0.06260205342351798   0.009922342095216915
-1.1647755615807964   -0.0891924099740665   -0.002997280684032551
-1.1647755615807964   -0.0891924099740665   -0.002997280684032551
-1.1647755615807964   -0.0891924099740665   -0.002997280684032551
-1.1647755615807964   -0.0891924099740665   -0.002997280684032551
-1.6898448173631395   -0.057600536718777906   -0.042012699477841295
-1.6898448173631395   -0.057600536718777906   -0.042012699477841295
-1.6898448173631395   -0.057600536718777906   -0.042012699477841295
-1.6898448173631395   -0.057600536718777906   -0.042012699477841295
-2.548010913070607   -0.21781137358394093   0.09664169814263658
-2.548010913070607   -0.21781137358394093   0.09664169814263658
-2.548010913070607   -0.21781137358394093   0.09664169814263658
-2.548010913070607   -0.21781137358394093   0.09664169814263658
-2.460194144537573   -0.17336018080741805   -0.05614787859002267
-2.460194144537573   -0.17336018080741805   -0.05614787859002267
-2.460194144537573   -0.17336018080741805   -0.05614787859002267
-2.460194144537573   -0.17336018080741805   -0.05614787859002267
-1.5875222589804565   0.04538439859047627   0.08877650534195644
-1.5875222589804565   0.04538439859047627   0.08877650534195644
-1.5875222589804565   0.04538439859047627   0.08877650534195644
-1.5875222589804565   0.04538439859047627   0.08877650534195644
-1.978752748902096   -0.06843420683163898   0.00930635412017862
-1.978752748902096   -0.06843420683163898   0.00930635412017862
-1.978752748902096   -0.06843420683163898   0.00930635412017862
-1.978752748902096   -0.06843420683163898   0.00930635412017862
-1.6245288215579272   -0.0043099352370536415   -0.046561973717846525
-1.6245288215579272   -0.0043099352370536415   -0.046561973717846525
-1.6245288215579272   -0.0043099352370536415   -0.046561973717846525
-1.6245288215579272   -0.0043099352370536415   -0.046561973717846525
-2.4172178985935995   -0.11769616361338209   0.10306933393580756
-2.4172178985935995   -0.11769616361338209   0.10306933393580756
-2.4172178985935995   -0.11769616361338209   0.10306933393580756
-2.4172178985935995   -0.11769616361338209   0.10306933393580756
-2.3660097755864995   -0.14585183087435433   -0.06686601505087066
-2.3660097755864995   -0.14585183087435433   -0.06686601505087066
-2.3660097755864995   -0.14585183087435433   -0.06686601505087066
-2.3660097755864995   -0.14585183087435433   -0.06686601505087066
-1.5289407040439498   0.07281806001334085   0.08575168126717
-1.5289407040439498   0.07281806001334085   0.08575168126717
-1.5289407040439498   0.07281806001334085   0.08575168126717
-1.5289407040439498   0.07281806001334085   0.08575168126717
-1.9230075197719665   -0.02760733561242218   0.03936620424975601
-1.9230075197719665   -0.02760733561242218   0.03936620424975601
-1.9230075197719665   -0.02760733561242218   0.03936620424975601
-1.9230075197719665   -0.02760733561242218   0.03936620424975601
-1.567265832342632   0.017215817285013146   -0.05027171749790062
-1.567265832342632   0.017215817285013146   -0.05027171749790062
-1.567265832342632   0.017215817285013146   -0.05027171749790062
-1.567265832342632   0.017215817285013146   -0.05027171749790062
-2.3264870576764674   -0.08905199853466711   0.07394774215958605
-2.3264870576764674   -0.08905199853466711   0.07394774215958605
-2.3264870576764674   -0.08905199853466711   0.07394774215958605
-2.3264870576764674   -0.08905199853466711   0.07394774215958605
-2.268619652668969   -0.11981572215049496   -0.08079857623002501
-2.268619652668969   -0.11981572215049496   -0.08079857623002501
-2.268619652668969   -0.11981572215049496   -0.08079857623002501
-2.268619652668969   -0.11981572215049496   -0.08079857623002501
-1.4854745765767494   0.10573165025296172   0.0663683747441348
-1.4854745765767494   0.10573165025296172   0.0663683747441348
-1.4854745765767494   0.10573165025296172   0.0663683747441348
-1.4854745765767494   0.10573165025296172   0.0663683747441348
-1.818374572082019   0.007312210514079209   0.06943236431346488
-1.818374572082019   0.007312210514079209   0.06943236431346488
-1.818374572082019   0.007312210514079209   0.06943236431346488
-1.818374572082019   0.007312210514079209   0.06943236431346488
2.2454670858012755   0.13452956490541956   0.0815645899676008
2.2454670858012755   0.13452956490541956   0.0815645899676008
2.2454670858012755   0.13452956490541956   0.0815645899676008
2.2454670858012755   0.13452956490541956   0.0815645899676008
1.0707508006809625   -0.2007258645714462   0.01841568415537055
1.0707508006809625   -0.2007258645714462   0.01841568415537055
1.0707508006809625   -0.2007258645714462   0.01841568415537055
1.0707508006809625   -0.2007258645714462   0.01841568415537055
1.1299864227126994   -0.0845761359127013   0.06279680349609632
1.1299864227126994   -0.0845761359127013   0.06279680349609632
1.1299864227126994   -0.0845761359127013   0.06279680349609632
1.1299864227126994   -0.0845761359127013   0.06279680349609632
2.2573929647280973   0.018847496540016606   -0.018010067228369675
2.2573929647280973   0.018847496540016606   -0.018010067228369675
2.2573929647280973   0.018847496540016606   -0.018010067228369675
2.2573929647280973   0.018847496540016606   -0.018010067228369675
1.5788917512551874   -0.04321362654223593   -0.10502837376044241
1.5788917512551874   -0.04321362654223593   -0.10502837376044241
1.5788917512551874   -0.04321362654223593   -0.10502837376044241
1.5788917512551874   -0.04321362654223593   -0.10502837376044241
2.300084791906315   0.14978624188945844   0.06451032331327913
2.300084791906315   0.14978624188945844   0.06451032331327913
2.300084791906315   0.14978624188945844   0.06451032331327913
2.300084791906315   0.14978624188945844   0.06451032331327913
1.0975494406772475   -0.20526003611937677   0.021295793525512835
1.0975494406772475   -0.20526003611937677   0.021295793525512835
1.0975494406772475   -0.20526003611937677   0.021295793525512835
1.0975494406772475   -0.20526003611937677   0.021295793525512835
1.152461246092891   -0.07186823261693215   0.047798589096068295
1.152461246092891   -0.07186823261693215   0.047798589096068295
1.152461246092891   -0.07186823261693215   0.047798589096068295
1.152461246092891   -0.07186823261693215   0.047798589096068295
2.297058491975605   0.03318097178711965   -0.005366883730305527
2.297058491975605   0.03318097178711965   -0.005366883730305527
2.297058491975605   0.03318097178711965   -0.005366883730305527
2.297058491975605   0.03318097178711965   -0.005366883730305527
1.6441324273585325   -0.034197486594616966   -0.07171828929327019
1.6441324273585325   -0.034197486594616966   -0.07171828929327019
1.6441324273585325   -0.034197486594616966   -0.07171828929327019
1.6441324273585325   -0.034197486594616966   -0.07171828929327019
2.3331675235602067   0.16365429521106778   0.04470495076875264
2.3331675235602067   0.16365429521106778   0.04470495076875264
2.3331675235602067   0.16365429521106778   0.04470495076875264
2.3331675235602067   0.16365429521106778   0.04470495076875264
1.123486081192439   -0.19520768935673116   0.026262221333606978
1.123486081192439   -0.19520768935673116   0.026262221333606978
1.123486081192439   -0.19520768935673116   0.026262221333606978
1.123486081192439   -0.19520768935673116   0.026262221333606978
1.1855207347159447   -0.022322058794497945   0.04369533512631618
1.1855207347159447   -0.022322058794497945   0.04369533512631618
1.1855207347159447   -0.022322058794497945   0.04369533512631618
1.1855207347159447   -0.022322058794497945   0.04369533512631618
2.338286614775692   0.06596309818758539   -0.0007255208862991802
2.338286614775692   0.06596309818758539   -0.0007255208862991802
2.338286614775692   0.06596309818758539   -0.0007255208862991802
2.338286614775692   0.06596309818758539   -0.0007255208862991802
1.6523345141759211   -0.01583718674803597   -0.05356485192900773
1.6523345141759211   -0.01583718674803597   -0.05356485192900773
1.6523345141759211   -0.01583718674803597   -0.05356485192900773
1.6523345141759211   -0.01583718674803597   -0.05356485192900773
1.129971755304221   0.028404579586063267   0.0853900131141535
1.129971755304221   0.028404579586063267   0.0853900131141535
1.129971755304221   0.028404579586063267   0.0853900131141535
1.129971755304221   0.028404579586063267   0.0853900131141535
0.06019975059660042   -0.4002348146749729   0.04123833466045927
0.06019975059660042   -0.4002348146749729   0.04123833466045927
0.06019975059660042   -0.4002348146749729   0.04123833466045927
0.06019975059660042   -0.4002348146749729   0.04123833466045927
0.13745406388314665   -0.169254935076292   0.03839656044711918
0.13745406388314665   -0.169254935076292   0.03839656044711918
0.13745406388314665   -0.169254935076292   0.03839656044711918
0.13745406388314665   -0.169254935076292   0.03839656044711918
1.1009414497112169   -0.19300265358311608   0.02599845615908747
1.1009414497112169   -0.19300265358311608   0.02599845615908747
1.1009414497112169   -0.19300265358311608   0.02599845615908747
1.1009414497112169   -0.19300265358311608   0.02599845615908747
0.5874000397426374   -0.17964154817822067   -0.06726010502371628
0.5874000397426374   -0.17964154817822067   -0.06726010502371628
0.5874000397426374   -0.17964154817822067   -0.06726010502371628
0.5874000397426374   -0.17964154817822067   -0.06726010502371628
1.156840023122947   0.0412005655076432   0.07128810412699457
1.156840023122947   0.0412005655076432   0.07128810412699457
1.156840023122947   0.0412005655076432   0.07128810412699457
1.156840023122947   0.0412005655076432   0.07128810412699457
0.09631156177903924   -0.3887020828594362   0.05213119770972627
0.09631156177903924   -0.3887020828594362   0.05213119770972627
0.09631156177903924   -0.3887020828594362   0.05213119770972627
0.09631156177903924   -0.3887020828594362   0.05213119770972627
0.16853560184002633   -0.14605202804125084   0.02785515686169613
0.16853560184002633   -0.14605202804125084   0.02785515686169613
0.16853560184002633   -0.14605202804125084   0.02785515686169613
0.16853560184002633   -0.14605202804125084   0.02785515686169613
1.1275360384781423   -0.1808673349201445   0.032171653325537494
1.1275360384781423   -0.1808673349201445   0.032171653325537494
1.1275360384781423   -0.1808673349201445   0.032171653325537494
1.1275360384781423   -0.1808673349201445   0.032171653325537494
0.6138795918083131   -0.1707726171609601   -0.033629480053395736
0.6138795918083131   -0.1707726171609601   -0.033629480053395736
0.6138795918083131   -0.1707726171609601   -0.033629480053395736
0.6138795918083131   -0.1707726171609601   -0.033629480053395736
1.181896144263524   0.06305834878130814   0.060046498550993276
1.181896144263524   0.06305834878130814   0.060046498550993276
1.181896144263524   0.06305834878130814   0.060046498550993276
1.181896144263524   0.06305834878130814   0.060046498550993276
0.12837370603337933   -0.3757795017639682   0.0567731515511823
0.12837370603337933   -0.3757795017639682   0.0567731515511823
0.12837370603337933   -0.3757795017639682   0.0567731515511823
0.12837370603337933   -0.3757795017639682   0.0567731515511823
0.21622744416056017   -0.11122436024197391   0.01847297737594425
0.21622744416056017   -0.11122436024197391   0.01847297737594425
0.21622744416056017   -0.11122436024197391   0.01847297737594425
0.21622744416056017   -0.11122436024197391   0.01847297737594425
1.156654369964531   -0.16241330365384726   0.03945475622860141
1.156654369964531   -0.16241330365384726   0.03945475622860141
1.156654369964531   -0.16241330365384726   0.03945475622860141
1.156654369964531   -0.16241330365384726   0.03945475622860141
0.6602343365424891   -0.14926566755837406   0.005499636775680258
0.6602343365424891   -0.14926566755837406   0.005499636775680258
0.6602343365424891   -0.14926566755837406   0.005499636775680258
0.6602343365424891   -0.14926566755837406   0.005499636775680258
0.12767950791363106   -0.07657527474819578   0.05497758131883531
0.12767950791363106   -0.07657527474819578   0.05497758131883531
0.12767950791363106   -0.07657527474819578   0.05497758131883531
0.12767950791363106   -0.07657527474819578   0.05497758131883531
-0.9587855474484441   -0.6877806961215844   0.059639658334326495
-0.9587855474484441   -0.6877806961215844   0.059639658334326495
-0.9587855474484441   -0.6877806961215844   0.059639658334326495
-0.9587855474484441   -0.6877806961215844   0.059639658334326495
-0.8365966717496077   -0.26755457265628335   0.004068763406270121
-0.8365966717496077   -0.26755457265628335   0.004068763406270121
-0.8365966717496077   -0.26755457265628335   0.004068763406270121
-0.8365966717496077   -0.26755457265628335   0.004068763406270121
0.06792269469719128   -0.501120922478768   0.022605701919818394
0.06792269469719128   -0.501120922478768   0.022605701919818394
0.06792269469719128   -0.501120922478768   0.022605701919818394
0.06792269469719128   -0.501120922478768   0.022605701919818394
-0.4125329784912973   -0.38601173873849737   -0.08071353277087284
-0.4125329784912973   -0.38601173873849737   -0.08071353277087284
-0.4125329784912973   -0.38601173873849737   -0.08071353277087284
-0.4125329784912973   -0.38601173873849737   -0.08071353277087284
0.16022566843062502   -0.06033660639987251   0.04333625450809153
0.16022566843062502   -0.06033660639987251   0.04333625450809153
0.16022566843062502   -0.06033660639987251   0.04333625450809153
0.16022566843062502   -0.06033660639987251   0.04333625450809153
-0.9075611485485705   -0.687000391800717   0.06869219855589656
-0.9075611485485705   -0.687000391800717   0.06869219855589656
-0.9075611485485705   -0.687000391800717   0.06869219855589656
-0.9075611485485705   -0.687000391800717   0.06869219855589656
-0.7894684357407885   -0.24011926244269302   8.071365337552344e-05
-0.7894684357407885   -0.24011926244269302   8.071365337552344e-05
-0.7894684357407885   -0.24011926244269302   8.071365337552344e-05
-0.7894684357407885   -0.24011926244269302   8.071365337552344e-05
0.10068374362289265   -0.4901685107630036   0.03271234849778423
0.10068374362289265   -0.4901685107630036   0.03271234849778423
0.10068374362289265   -0.4901685107630036   0.03271234849778423
0.10068374362289265   -0.4901685107630036   0.03271234849778423
-0.3648146103802862   -0.3729012060310284   -0.030138458125120338
-0.3648146103802862   -0.3729012060310284   -0.030138458125120338
-0.3648146103802862   -0.3729012060310284   -0.030138458125120338
-0.3648146103802862   -0.3729012060310284   -0.030138458125120338
0.18998070746410073   -0.03869987095352172   0.027728527894342804
0.18998070746410073   -0.03869987095352172   0.027728527894342804
0.18998070746410073   -0.03869987095352172   0.027728527894342804
0.18998070746410073   -0.03869987095352172   0.027728527894342804
-0.8594901778834813   -0.6723126805536679   0.08216542105089811
-0.8594901778834813   -0.6723126805536679   0.08216542105089811
-0.8594901778834813   -0.6723126805536679   0.08216542105089811
-0.8594901778834813   -0.6723126805536679   0.08216542105089811
-0.7117025008733582   -0.20850995900695993   -0.00878690458187499
-0.7117025008733582   -0.20850995900695993   -0.00878690458187499
-0.7117025008733582   -0.20850995900695993   -0.00878690458187499
-0.7117025008733582   -0.20850995900695993   -0.00878690458187499
0.15182836730245677   -0.45947229276194834   0.044725525605401745
0.15182836730245677   -0.45947229276194834   0.044725525605401745
0.15182836730245677   -0.45947229276194834   0.044725525605401745
0.15182836730245677   -0.45947229276194834   0.044725525605401745
-0.30287162790462596   -0.3434451748390661   0.022836743665742093
-0.30287162790462596   -0.3434451748390661   0.022836743665742093
-0.30287162790462596   -0.3434451748390661   0.022836743665742093
-0.30287162790462596   -0.3434451748390661   0.022836743665742093
-0.8555134074946512   -0.1379805573390132   0.02620021932071545
-0.8555134074946512   -0.1379805573390132   0.02620021932071545
-0.8555134074946512   -0.1379805573390132   0.02620021932071545
-0.8555134074946512   -0.1379805573390132   0.02620021932071545
-2.134575906731689   -1.0710391416096816   -0.05073246221952926
-2.134575906731689   -1.0710391416096816   -0.05073246221952926
-2.134575906731689   -1.0710391416096816   -0.05073246221952926
-2.134575906731689   -1.0710391416096816   -0.05073246221952926
-1.93287402645385   -0.34814489559448186   -0.0589997069897131
-1.93287402645385   -0.34814489559448186   -0.0589997069897131
-1.93287402645385   -0.34814489559448186   -0.0589997069897131
-1.93287402645385   -0.34814489559448186   -0.0589997069897131
-0.9595232634402318   -0.895972518386182   0.017853750683048675
-0.9595232634402318   -0.895972518386182   0.017853750683048675
-0.9595232634402318   -0.895972518386182   0.017853750683048675
-0.9595232634402318   -0.895972518386182   0.017853750683048675
-1.4689499255855276   -0.6334815118546611   -0.084755385625944
-1.4689499255855276   -0.6334815118546611   -0.084755385625944
-1.4689499255855276   -0.6334815118546611   -0.084755385625944
-1.4689499255855276   -0.6334815118546611   -0.084755385625944
-0.7998249820039216   -0.10471718117572512   0.025089820654142475
-0.7998249820039216   -0.10471718117572512   0.025089820654142475
-0.7998249820039216   -0.10471718117572512   0.025089820654142475
-0.7998249820039216   -0.10471718117572512   0.025089820654142475
-2.0877842792192247   -1.1346122041339934   -0.04708366227707725
-2.0877842792192247   -1.1346122041339934   -0.04708366227707725
-2.0877842792192247   -1.1346122041339934   -0.04708366227707725
-2.0877842792192247   -1.1346122041339934   -0.04708366227707725
-1.870167692392624   -0.3152470528049054   -0.06010673896621413
-1.870167692392624   -0.3152470528049054   -0.06010673896621413
-1.870167692392624   -0.3152470528049054   -0.06010673896621413
-1.870167692392624   -0.3152470528049054   -0.06010673896621413
-0.913854473301327   -0.8890019571312439   0.027033220539239122
-0.913854473301327   -0.8890019571312439   0.027033220539239122
-0.913854473301327   -0.8890019571312439   0.027033220539239122
-0.913854473301327   -0.8890019571312439   0.027033220539239122
-1.4031967386375197   -0.6164351111849926   -0.059577016494731475
-1.4031967386375197   -0.6164351111849926   -0.059577016494731475
-1.4031967386375197   -0.6164351111849926   -0.059577016494731475
-1.4031967386375197   -0.6164351111849926   -0.059577016494731475
-0.7554943008529588   -0.07860383464480203   0.008435960294637251
-0.7554943008529588   -0.07860383464480203   0.008435960294637251
-0.7554943008529588   -0.07860383464480203   0.008435960294637251
-0.7554943008529588   -0.07860383464480203   0.008435960294637251
-2.028477406831404   -1.1255947172817455   -0.04130764668325329
-2.028477406831404   -1.1255947172817455   -0.04130764668325329
-2.028477406831404   -1.1255947172817455   -0.04130764668325329
-2.028477406831404   -1.1255947172817455   -0.04130764668325329
-1.7723768951599528   -0.2798757813176077   -0.06813357528661979
-1.7723768951599528   -0.2798757813176077   -0.06813357528661979
-1.7723768951599528   -0.2798757813176077   -0.06813357528661979
-1.7723768951599528   -0.2798757813176077   -0.06813357528661979
-0.815055073006073   -0.7996455853245918   0.06558586107219416
-0.815055073006073   -0.7996455853245918   0.06558586107219416
-0.815055073006073   -0.7996455853245918   0.06558586107219416
-0.815055073006073   -0.7996455853245918   0.06558586107219416
-1.3298045273659767   -0.5589013543392378   -0.03330099845401187
-1.3298045273659767   -0.5589013543392378   -0.03330099845401187
-1.3298045273659767   -0.5589013543392378   -0.03330099845401187
-1.3298045273659767   -0.5589013543392378   -0.03330099845401187
-1.936449943622717   -0.11754656414980025   -0.013595224134550207
-1.936449943622717   -0.11754656414980025   -0.013595224134550207
-1.936449943622717   -0.11754656414980025   -0.013595224134550207
-1.936449943622717   -0.11754656414980025   -0.013595224134550207
-3.418579509960369   -0.6767439169183758   0.0348599253684897
-3.418579509960369   -0.6767439169183758   0.0348599253684897
-3.418579509960369   -0.6767439169183758   0.0348599253684897
-3.418579509960369   -0.6767439169183758   0.0348599253684897
-3.283804556191438   -0.32606074278443686   -0.0721669043216274
-3.283804556191438   -0.32606074278443686   -0.0721669043216274
-3.283804556191438   -0.32606074278443686   -0.0721669043216274
-3.283804556191438   -0.32606074278443686   -0.0721669043216274
-1.8931638545275795   -0.3502929329134065   0.14169918996054698
-1.8931638545275795   -0.3502929329134065   0.14169918996054698
-1.8931638545275795   -0.3502929329134065   0.14169918996054698
-1.8931638545275795   -0.3502929329134065   0.14169918996054698
-2.5263116559966727   -0.3926313482431226   0.03633194752571137
-2.5263116559966727   -0.3926313482431226   0.03633194752571137
-2.5263116559966727   -0.3926313482431226   0.03633194752571137
-2.5263116559966727   -0.3926313482431226   0.03633194752571137
-1.8565751845434881   -0.026092971830823042   0.00044257879843033476
-1.8565751845434881   -0.026092971830823042   0.00044257879843033476
-1.8565751845434881   -0.026092971830823042   0.00044257879843033476
-1.8565751845434881   -0.026092971830823042   0.00044257879843033476
-3.3332610049686906   -0.6631284826601744   0.017618591667818317
-3.3332610049686906   -0.6631284826601744   0.017618591667818317
-3.3332610049686906   -0.6631284826601744   0.017618591667818317
-3.3332610049686906   -0.6631284826601744   0.017618591667818317
-3.2094669570109327   -0.29875601649841044   -0.09159244832466468
-3.2094669570109327   -0.29875601649841044   -0.09159244832466468
-3.2094669570109327   -0.29875601649841044   -0.09159244832466468
-3.2094669570109327   -0.29875601649841044   -0.09159244832466468
-1.8286089171555697   -0.3326948054568994   0.16513488987107267
-1.8286089171555697   -0.3326948054568994   0.16513488987107267
-1.8286089171555697   -0.3326948054568994   0.16513488987107267
-1.8286089171555697   -0.3326948054568994   0.16513488987107267
-2.486990886616014   -0.32331697686892596   0.03489697384897851
-2.486990886616014   -0.32331697686892596   0.03489697384897851
-2.486990886616014   -0.32331697686892596   0.03489697384897851
-2.486990886616014   -0.32331697686892596   0.03489697384897851
-1.7990596976600042   -0.0019323654874096596   -0.017881452620589655
-1.7990596976600042   -0.0019323654874096596   -0.017881452620589655
-1.7990596976600042   -0.0019323654874096596   -0.017881452620589655
-1.7990596976600042   -0.0019323654874096596   -0.017881452620589655
-3.243768978717939   -0.6342712586793455   0.07241268532121148
-3.243768978717939   -0.6342712586793455   0.07241268532121148
-3.243768978717939   -0.6342712586793455   0.07241268532121148
-3.243768978717939   -0.6342712586793455   0.07241268532121148
-3.0551089893532257   -0.24193974598429852   -0.10235419366569033
-3.0551089893532257   -0.24193974598429852   -0.10235419366569033
-3.0551089893532257   -0.24193974598429852   -0.10235419366569033
-3.0551089893532257   -0.24193974598429852   -0.10235419366569033
-1.7282203658936286   -0.30924117936103684   0.18201446908844432
-1.7282203658936286   -0.30924117936103684   0.18201446908844432
-1.7282203658936286   -0.30924117936103684   0.18201446908844432
-1.7282203658936286   -0.30924117936103684   0.18201446908844432
-2.3378638223833557   -0.24713878838151307   0.07140298041238874
-2.3378638223833557   -0.24713878838151307   0.07140298041238874
-2.3378638223833557   -0.24713878838151307   0.07140298041238874
-2.3378638223833557   -0.24713878838151307   0.07140298041238874
2.4594424279577054   0.08026603049451869   0.0346835322084524
2.4594424279577054   0.08026603049451869   0.0346835322084524
2.4594424279577054   0.08026603049451869   0.0346835322084524
2.4594424279577054   0.08026603049451869   0.0346835322084524
1.256290911980133   -0.0659627125004344   0.025658509466639695
1.256290911980133   -0.0659627125004344   0.025658509466639695
1.256290911980133   -0.0659627125004344   0.025658509466639695
1.256290911980133   -0.0659627125004344   0.025658509466639695
1.2070453252993785   -0.1775584015639422   0.05030808168055456
1.2070453252993785   -0.1775584015639422   0.05030808168055456
1.2070453252993785   -0.1775584015639422   0.05030808168055456
1.2070453252993785   -0.1775584015639422   0.05030808168055456
2.441568451885954   0.13758893473354195   0.01861895256951937
2.441568451885954   0.13758893473354195   0.01861895256951937
2.441568451885954   0.13758893473354195   0.01861895256951937
2.441568451885954   0.13758893473354195   0.01861895256951937
1.742960839490561   -0.024838650370459625   -0.06433188141340629
1.742960839490561   -0.024838650370459625   -0.06433188141340629
1.742960839490561   -0.024838650370459625   -0.06433188141340629
1.742960839490561   -0.024838650370459625   -0.06433188141340629
2.4280176772940525   0.06188771280632677   0.026566301537225334
2.4280176772940525   0.06188771280632677   0.026566301537225334
2.4280176772940525   0.06188771280632677   0.026566301537225334
2.4280176772940525   0.06188771280632677   0.026566301537225334
1.2165574934172618   -0.10589578611074546   0.026206306816774744
1.2165574934172618   -0.10589578611074546   0.026206306816774744
1.2165574934172618   -0.10589578611074546   0.026206306816774744
1.2165574934172618   -0.10589578611074546   0.026206306816774744
1.1756688422343669   -0.18169713041969227   0.04163225497687359
1.1756688422343669   -0.18169713041969227   0.04163225497687359
1.1756688422343669   -0.18169713041969227   0.04163225497687359
1.1756688422343669   -0.18169713041969227   0.04163225497687359
2.4128729944653604   0.131586459374675   0.03213365473983233
2.4128729944653604   0.131586459374675   0.03213365473983233
2.4128729944653604   0.131586459374675   0.03213365473983233
2.4128729944653604   0.131586459374675   0.03213365473983233
1.7376362194938684   -0.03427089057445459   -0.07455274510677701
1.7376362194938684   -0.03427089057445459   -0.07455274510677701
1.7376362194938684   -0.03427089057445459   -0.07455274510677701
1.7376362194938684   -0.03427089057445459   -0.07455274510677701
2.3927175203413795   0.05497891908772096   0.007963824406865397
2.3927175203413795   0.05497891908772096   0.007963824406865397
2.3927175203413795   0.05497891908772096   0.007963824406865397
2.3927175203413795   0.05497891908772096   0.007963824406865397
1.1885824145189776   -0.11233149197210085   0.03683447795233567
1.1885824145189776   -0.11233149197210085   0.03683447795233567
1.1885824145189776   -0.11233149197210085   0.03683447795233567
1.1885824145189776   -0.11233149197210085   0.03683447795233567
1.142550277530233   -0.16584973478098375   0.03594665151631449
1.142550277530233   -0.16584973478098375   0.03594665151631449
1.142550277530233   -0.16584973478098375   0.03594665151631449
1.142550277530233   -0.16584973478098375   0.03594665151631449
2.368634864189093   0.13295407540051996   0.0461414180910118
2.368634864189093   0.13295407540051996   0.0461414180910118
2.368634864189093   0.13295407540051996   0.0461414180910118
2.368634864189093   0.13295407540051996   0.0461414180910118
1.6722252311875954   -0.03458020411456375   -0.10073222878693225
1.6722252311875954   -0.03458020411456375   -0.10073222878693225
1.6722252311875954   -0.03458020411456375   -0.10073222878693225
1.6722252311875954   -0.03458020411456375   -0.10073222878693225
1.2448042432096256   -0.15925757705143867   0.061520030165105447
1.2448042432096256   -0.15925757705143867   0.061520030165105447
1.2448042432096256   -0.15925757705143867   0.061520030165105447
1.2448042432096256   -0.15925757705143867   0.061520030165105447
0.24299235667834226   -0.14826076052131465   0.013324360094125604
0.24299235667834226   -0.14826076052131465   0.013324360094125604
0.24299235667834226   -0.14826076052131465   0.013324360094125604
0.24299235667834226   -0.14826076052131465   0.013324360094125604
0.15808357837273643   -0.37354323588802685   0.06615341597307567
0.15808357837273643   -0.37354323588802685   0.06615341597307567
0.15808357837273643   -0.37354323588802685   0.06615341597307567
0.15808357837273643   -0.37354323588802685   0.06615341597307567
1.2516491037048438   0.048204901526892774   0.047563670617047304
1.2516491037048438   0.048204901526892774   0.047563670617047304
1.2516491037048438   0.048204901526892774   0.047563670617047304
1.2516491037048438   0.048204901526892774   0.047563670617047304
0.7132543457014192   -0.15884564979819188   -0.002714371477575292
0.7132543457014192   -0.15884564979819188   -0.002714371477575292
0.7132543457014192   -0.15884564979819188   -0.002714371477575292
0.7132543457014192   -0.15884564979819188   -0.002714371477575292
1.2095635652669412   -0.1661747880940868   0.05151566804850957
1.2095635652669412   -0.1661747880940868   0.05151566804850957
1.2095635652669412   -0.1661747880940868   0.05151566804850957
1.2095635652669412   -0.1661747880940868   0.05151566804850957
0.18954290592723294   -0.16978975715044387   0.019696575007975198
0.18954290592723294   -0.16978975715044387   0.019696575007975198
0.18954290592723294   -0.16978975715044387   0.019696575007975198
0.18954290592723294   -0.16978975715044387   0.019696575007975198
0.12007246631379424   -0.37694752185459246   0.059234290817646015
0.12007246631379424   -0.37694752185459246   0.059234290817646015
0.12007246631379424   -0.37694752185459246   0.059234290817646015
0.12007246631379424   -0.37694752185459246   0.059234290817646015
1.2227112214110805   0.038775675669218246   0.05637134477153122
1.2227112214110805   0.038775675669218246   0.05637134477153122
1.2227112214110805   0.038775675669218246   0.05637134477153122
1.2227112214110805   0.038775675669218246   0.05637134477153122
0.6616487659817758   -0.1693222164775133   -0.03425798034750785
0.6616487659817758   -0.1693222164775133   -0.03425798034750785
0.6616487659817758   -0.1693222164775133   -0.03425798034750785
0.6616487659817758   -0.1693222164775133   -0.03425798034750785
1.178479149715921   -0.1685964257872568   0.042583087752197504
1.178479149715921   -0.1685964257872568   0.042583087752197504
1.178479149715921   -0.1685964257872568   0.042583087752197504
1.178479149715921   -0.1685964257872568   0.042583087752197504
0.15275882268334603   -0.181121135723727   0.02683968653453958
0.15275882268334603   -0.181121135723727   0.02683968653453958
0.15275882268334603   -0.181121135723727   0.02683968653453958
0.15275882268334603   -0.181121135723727   0.02683968653453958
0.07753330532089138   -0.3768502848708331   0.04639091478731171
0.07753330532089138   -0.3768502848708331   0.04639091478731171
0.07753330532089138   -0.3768502848708331   0.04639091478731171
0.07753330532089138   -0.3768502848708331   0.04639091478731171
1.1898698041583273   0.039280246334317065   0.06741430354148922
1.1898698041583273   0.039280246334317065   0.06741430354148922
1.1898698041583273   0.039280246334317065   0.06741430354148922
1.1898698041583273   0.039280246334317065   0.06741430354148922
0.6300908172005644   -0.16809255494624376   -0.061105925383595355
0.6300908172005644   -0.16809255494624376   -0.061105925383595355
0.6300908172005644   -0.16809255494624376   -0.061105925383595355
0.6300908172005644   -0.16809255494624376   -0.061105925383595355
0.18922566006458225   -0.4590503024875358   0.05528041899154304
0.18922566006458225   -0.4590503024875358   0.05528041899154304
0.18922566006458225   -0.4590503024875358   0.05528041899154304
0.18922566006458225   -0.4590503024875358   0.05528041899154304
-0.7310497919272814   -0.2302381553211505   0.0009518370197269289
-0.7310497919272814   -0.2302381553211505   0.0009518370197269289
-0.7310497919272814   -0.2302381553211505   0.0009518370197269289
-0.7310497919272814   -0.2302381553211505   0.0009518370197269289
-0.8846640351521496   -0.6809951966969081   0.07582106067852065
-0.8846640351521496   -0.6809951966969081   0.07582106067852065
-0.8846640351521496   -0.6809951966969081   0.07582106067852065
-0.8846640351521496   -0.6809951966969081   0.07582106067852065
0.21768996978322158   -0.039394914734911246   0.030037051872382155
0.21768996978322158   -0.039394914734911246   0.030037051872382155
0.21768996978322158   -0.039394914734911246   0.030037051872382155
0.21768996978322158   -0.039394914734911246   0.030037051872382155
-0.29813189582292704   -0.3474612997963345   0.013036366885515502
-0.29813189582292704   -0.3474612997963345   0.013036366885515502
-0.29813189582292704   -0.3474612997963345   0.013036366885515502
-0.29813189582292704   -0.3474612997963345   0.013036366885515502
0.13045246376292863   -0.4852043230353186   0.039658930071328424
0.13045246376292863   -0.4852043230353186   0.039658930071328424
0.13045246376292863   -0.4852043230353186   0.039658930071328424
0.13045246376292863   -0.4852043230353186   0.039658930071328424
-0.8122848025589716   -0.25004406182360617   0.006766088771100694
-0.8122848025589716   -0.25004406182360617   0.006766088771100694
-0.8122848025589716   -0.25004406182360617   0.006766088771100694
-0.8122848025589716   -0.25004406182360617   0.006766088771100694
-0.9376323518493658   -0.6920402003185919   0.06166999619216254
-0.9376323518493658   -0.6920402003185919   0.06166999619216254
-0.9376323518493658   -0.6920402003185919   0.06166999619216254
-0.9376323518493658   -0.6920402003185919   0.06166999619216254
0.18207980746690325   -0.049865360014499586   0.04218883474309812
0.18207980746690325   -0.049865360014499586   0.04218883474309812
0.18207980746690325   -0.049865360014499586   0.04218883474309812
0.18207980746690325   -0.049865360014499586   0.04218883474309812
-0.3643086170748794   -0.3686479174524848   -0.03118119306491983
-0.3643086170748794   -0.3686479174524848   -0.03118119306491983
-0.3643086170748794   -0.3686479174524848   -0.03118119306491983
-0.3643086170748794   -0.3686479174524848   -0.03118119306491983
0.0899630643319145   -0.4937559704250203   0.025495729478678897
0.0899630643319145   -0.4937559704250203   0.025495729478678897
0.0899630643319145   -0.4937559704250203   0.025495729478678897
0.0899630643319145   -0.4937559704250203   0.025495729478678897
-0.8631706648552282   -0.26580464604891274   0.007742876893163605
-0.8631706648552282   -0.26580464604891274   0.007742876893163605
-0.8631706648552282   -0.26580464604891274   0.007742876893163605
-0.8631706648552282   -0.26580464604891274   0.007742876893163605
-0.9950089430723582   -0.6873750199304379   0.0520492001377687
-0.9950089430723582   -0.6873750199304379   0.0520492001377687
-0.9950089430723582   -0.6873750199304379   0.0520492001377687
-0.9950089430723582   -0.6873750199304379   0.0520492001377687
0.14245230422801003   -0.0557224879467882   0.049858112398860135
0.14245230422801003   -0.0557224879467882   0.049858112398860135
0.14245230422801003   -0.0557224879467882   0.049858112398860135
0.14245230422801003   -0.0557224879467882   0.049858112398860135
-0.4179799380247764   -0.37672571133119676   -0.07531011708418063
-0.4179799380247764   -0.37672571133119676   -0.07531011708418063
-0.4179799380247764   -0.37672571133119676   -0.07531011708418063
-0.4179799380247764   -0.37672571133119676   -0.07531011708418063
-0.8293874093997498   -0.7867081923601161   0.06573378669635901
-0.8293874093997498   -0.7867081923601161   0.06573378669635901
-0.8293874093997498   -0.7867081923601161   0.06573378669635901
-0.8293874093997498   -0.7867081923601161   0.06573378669635901
-1.8391111581853972   -0.2867033884460782   -0.042690798058740195
-1.8391111581853972   -0.2867033884460782   -0.042690798058740195
-1.8391111581853972   -0.2867033884460782   -0.042690798058740195
-1.8391111581853972   -0.2867033884460782   -0.042690798058740195
-2.1075073624712686   -1.141002368060509   -0.059311398657610676
-2.1075073624712686   -1.141002368060509   -0.059311398657610676
-2.1075073624712686   -1.141002368060509   -0.059311398657610676
-2.1075073624712686   -1.141002368060509   -0.059311398657610676
-0.7714127816711265   -0.06487061562372326   0.02595274701044334
-0.7714127816711265   -0.06487061562372326   0.02595274701044334
-0.7714127816711265   -0.06487061562372326   0.02595274701044334
-0.7714127816711265   -0.06487061562372326   0.02595274701044334
-1.3736026344101269   -0.5478002030263402   -0.047410134754275704
-1.3736026344101269   -0.5478002030263402   -0.047410134754275704
-1.3736026344101269   -0.5478002030263402   -0.047410134754275704
-1.3736026344101269   -0.5478002030263402   -0.047410134754275704
-0.9373752613896855   -0.8907164346282362   0.021986167422169717
-0.9373752613896855   -0.8907164346282362   0.021986167422169717
-0.9373752613896855   -0.8907164346282362   0.021986167422169717
-0.9373752613896855   -0.8907164346282362   0.021986167422169717
-1.9372570687618347   -0.3108687350651195   -0.038193563105829526
-1.9372570687618347   -0.3108687350651195   -0.038193563105829526
-1.9372570687618347   -0.3108687350651195   -0.038193563105829526
-1.9372570687618347   -0.3108687350651195   -0.038193563105829526
-2.1704858747742533   -1.1594533225478347   -0.06859220507085115
-2.1704858747742533   -1.1594533225478347   -0.06859220507085115
-2.1704858747742533   -1.1594533225478347   -0.06859220507085115
-2.1704858747742533   -1.1594533225478347   -0.06859220507085115
-0.8202062133824544   -0.08202510896917145   0.03878559717729109
-0.8202062133824544   -0.08202510896917145   0.03878559717729109
-0.8202062133824544   -0.08202510896917145   0.03878559717729109
-0.8202062133824544   -0.08202510896917145   0.03878559717729109
-1.4505374380908815   -0.6068302267061061   -0.06688503504280237
-1.4505374380908815   -0.6068302267061061   -0.06688503504280237
-1.4505374380908815   -0.6068302267061061   -0.06688503504280237
-1.4505374380908815   -0.6068302267061061   -0.06688503504280237
-0.991484710538002   -0.9082175401669598   0.008585542597334767
-0.991484710538002   -0.9082175401669598   0.008585542597334767
-0.991484710538002   -0.9082175401669598   0.008585542597334767
-0.991484710538002   -0.9082175401669598   0.008585542597334767
-1.9994139775387083   -0.33346749127006275   -0.039218550170911845
-1.9994139775387083   -0.33346749127006275   -0.039218550170911845
-1.9994139775387083   -0.33346749127006275   -0.039218550170911845
-1.9994139775387083   -0.33346749127006275   -0.039218550170911845
-2.224231651803606   -1.110068733065423   -0.07735329883442918
-2.224231651803606   -1.110068733065423   -0.07735329883442918
-2.224231651803606   -1.110068733065423   -0.07735329883442918
-2.224231651803606   -1.110068733065423   -0.07735329883442918
-0.8820139808914271   -0.10623845981977952   0.03588745093175047
-0.8820139808914271   -0.10623845981977952   0.03588745093175047
-0.8820139808914271   -0.10623845981977952   0.03588745093175047
-0.8820139808914271   -0.10623845981977952   0.03588745093175047
-1.521336846746908   -0.6269995523123526   -0.0854506617512632
-1.521336846746908   -0.6269995523123526   -0.0854506617512632
-1.521336846746908   -0.6269995523123526   -0.0854506617512632
-1.521336846746908   -0.6269995523123526   -0.0854506617512632
-1.8062607600247134   -0.32856715928769015   0.16342496358626268
-1.8062607600247134   -0.32856715928769015   0.16342496358626268
-1.8062607600247134   -0.32856715928769015   0.16342496358626268
-1.8062607600247134   -0.32856715928769015   0.16342496358626268
-3.1831592711878836   -0.2384813870430268   -0.05680467684882093
-3.1831592711878836   -0.2384813870430268   -0.05680467684882093
-3.1831592711878836   -0.2384813870430268   -0.05680467684882093
-3.1831592711878836   -0.2384813870430268   -0.05680467684882093
-3.378480793922317   -0.6667192379088628   0.04488460437800268
-3.378480793922317   -0.6667192379088628   0.04488460437800268
-3.378480793922317   -0.6667192379088628   0.04488460437800268
-3.378480793922317   -0.6667192379088628   0.04488460437800268
-1.858933326976251   0.02655913740387844   0.01599727335307964
-1.858933326976251   0.02655913740387844   0.01599727335307964
-1.858933326976251   0.02655913740387844   0.01599727335307964
-1.858933326976251   0.02655913740387844   0.01599727335307964
-2.4349457030224984   -0.23422295927535458   0.04899924971175208
-2.4349457030224984   -0.23422295927535458   0.04899924971175208
-2.4349457030224984   -0.23422295927535458   0.04899924971175208
-2.4349457030224984   -0.23422295927535458   0.04899924971175208
-1.9089952228102762   -0.35279138187057624   0.14503831345739526
-1.9089952228102762   -0.35279138187057624   0.14503831345739526
-1.9089952228102762   -0.35279138187057624   0.14503831345739526
-1.9089952228102762   -0.35279138187057624   0.14503831345739526
-3.3198239798295845   -0.2787738003756995   -0.049776762691476475
-3.3198239798295845   -0.2787738003756995   -0.049776762691476475
-3.3198239798295845   -0.2787738003756995   -0.049776762691476475
-3.3198239798295845   -0.2787738003756995   -0.049776762691476475
-3.4615311968734432   -0.6951960306363627   -0.014448956308369842
-3.4615311968734432   -0.6951960306363627   -0.014448956308369842
-3.4615311968734432   -0.6951960306363627   -0.014448956308369842
-3.4615311968734432   -0.6951960306363627   -0.014448956308369842
-1.9175274693956241   0.007350329578341475   0.029396169696103203
-1.9175274693956241   0.007350329578341475   0.029396169696103203
-1.9175274693956241   0.007350329578341475   0.029396169696103203
-1.9175274693956241   0.007350329578341475   0.029396169696103203
-2.581015190084216   -0.30930433156026893   0.020239930708101567
-2.581015190084216   -0.30930433156026893   0.020239930708101567
-2.581015190084216   -0.30930433156026893   0.020239930708101567
-2.581015190084216   -0.30930433156026893   0.020239930708101567
-1.9750000830174101   -0.3709361086419824   0.1203195398074981
-1.9750000830174101   -0.3709361086419824   0.1203195398074981
-1.9750000830174101   -0.3709361086419824   0.1203195398074981
-1.9750000830174101   -0.3709361086419824   0.1203195398074981
-3.386849970068995   -0.2997009792333558   -0.03653787368907421
-3.386849970068995   -0.2997009792333558   -0.03653787368907421
-3.386849970068995   -0.2997009792333558   -0.03653787368907421
-3.386849970068995   -0.2997009792333558   -0.03653787368907421
-3.533957225249692   -0.7068183203122838   -0.00013437631172674713
-3.533957225249692   -0.7068183203122838   -0.00013437631172674713
-3.533957225249692   -0.7068183203122838   -0.00013437631172674713
-3.533957225249692   -0.7068183203122838   -0.00013437631172674713
-1.9997735413994728   -0.07711209599178015   0.011980616112592476
-1.9997735413994728   -0.07711209599178015   0.011980616112592476
-1.9997735413994728   -0.07711209599178015   0.011980616112592476
-1.9997735413994728   -0.07711209599178015   0.011980616112592476
-2.6127228001997844   -0.37382296462680176   0.03197018580049051
-2.6127228001997844   -0.37382296462680176   0.03197018580049051
-2.6127228001997844   -0.37382296462680176   0.03197018580049051
-2.6127228001997844   -0.37382296462680176   0.03197018580049051
2.1525681485208947   0.09877213948369767   -0.04694446715346143
2.1525681485208947   0.09877213948369767   -0.04694446715346143
2.1525681485208947   0.09877213948369767   -0.04694446715346143
2.1525681485208947   0.09877213948369767   -0.04694446715346143
1.0839281495984934   -0.021549709032499836   0.02317879686061032
1.0839281495984934   -0.021549709032499836   0.02317879686061032
1.0839281495984934   -0.021549709032499836   0.02317879686061032
1.0839281495984934   -0.021549709032499836   0.02317879686061032
1.014718185979816   -0.1597891745919343   -0.041421328151723696
1.014718185979816   -0.1597891745919343   -0.041421328151723696
1.014718185979816   -0.1597891745919343   -0.041421328151723696
1.014718185979816   -0.1597891745919343   -0.041421328151723696
2.1275737558615595   0.15551925980664028   0.027118968631445167
2.1275737558615595   0.15551925980664028   0.027118968631445167
2.1275737558615595   0.15551925980664028   0.027118968631445167
2.1275737558615595   0.15551925980664028   0.027118968631445167
1.5111017004777676   0.003701331135093855   -0.05837824191083217
1.5111017004777676   0.003701331135093855   -0.05837824191083217
1.5111017004777676   0.003701331135093855   -0.05837824191083217
1.5111017004777676   0.003701331135093855   -0.05837824191083217
2.0924937940305632   0.05458158042098693   -0.04734316113786466
2.0924937940305632   0.05458158042098693   -0.04734316113786466
2.0924937940305632   0.05458158042098693   -0.04734316113786466
2.0924937940305632   0.05458158042098693   -0.04734316113786466
1.0478428482245568   -0.06080679479253462   0.025219603272573582
1.0478428482245568   -0.06080679479253462   0.025219603272573582
1.0478428482245568   -0.06080679479253462   0.025219603272573582
1.0478428482245568   -0.06080679479253462   0.025219603272573582
0.9774634995370807   -0.16875920573580191   -0.034185175884272764
0.9774634995370807   -0.16875920573580191   -0.034185175884272764
0.9774634995370807   -0.16875920573580191   -0.034185175884272764
0.9774634995370807   -0.16875920573580191   -0.034185175884272764
2.075800383114096   0.1428255938303814   0.03958867845090509
2.075800383114096   0.1428255938303814   0.03958867845090509
2.075800383114096   0.1428255938303814   0.03958867845090509
2.075800383114096   0.1428255938303814   0.03958867845090509
1.4906432300211432   -0.015203461959770237   -0.06977043387638547
1.4906432300211432   -0.015203461959770237   -0.06977043387638547
1.4906432300211432   -0.015203461959770237   -0.06977043387638547
1.4906432300211432   -0.015203461959770237   -0.06977043387638547
2.0404663539828003   0.0431893547126318   -0.037445228087823565
2.0404663539828003   0.0431893547126318   -0.037445228087823565
2.0404663539828003   0.0431893547126318   -0.037445228087823565
2.0404663539828003   0.0431893547126318   -0.037445228087823565
1.0100930879396706   -0.0718274073467581   0.03203096773963289
1.0100930879396706   -0.0718274073467581   0.03203096773963289
1.0100930879396706   -0.0718274073467581   0.03203096773963289
1.0100930879396706   -0.0718274073467581   0.03203096773963289
0.9413652103326569   -0.16641319988236586   -0.02342530446698146
0.9413652103326569   -0.16641319988236586   -0.02342530446698146
0.9413652103326569   -0.16641319988236586   -0.02342530446698146
0.9413652103326569   -0.16641319988236586   -0.02342530446698146
2.0116800692025993   0.13410461274201346   0.05145920239495472
2.0116800692025993   0.13410461274201346   0.05145920239495472
2.0116800692025993   0.13410461274201346   0.05145920239495472
2.0116800692025993   0.13410461274201346   0.05145920239495472
1.416715155663973   -0.026551336223922806   -0.09169361691232053
1.416715155663973   -0.026551336223922806   -0.09169361691232053
1.416715155663973   -0.026551336223922806   -0.09169361691232053
1.416715155663973   -0.026551336223922806   -0.09169361691232053
1.0895772482851065   0.02030521836120558   0.00956936289996238
1.0895772482851065   0.02030521836120558   0.00956936289996238
1.0895772482851065   0.02030521836120558   0.00956936289996238
1.0895772482851065   0.02030521836120558   0.00956936289996238
0.10569915481141946   -0.06511829339545303   -0.0023800222443404496
0.10569915481141946   -0.06511829339545303   -0.0023800222443404496
0.10569915481141946   -0.06511829339545303   -0.0023800222443404496
0.10569915481141946   -0.06511829339545303   -0.0023800222443404496
0.04048442688522782   -0.2115060236588532   -0.039826278492004985
0.04048442688522782   -0.2115060236588532   -0.039826278492004985
0.04048442688522782   -0.2115060236588532   -0.039826278492004985
0.04048442688522782   -0.2115060236588532   -0.039826278492004985
1.0909211641151864   0.12576420530228086   0.054040182630905056
1.0909211641151864   0.12576420530228086   0.054040182630905056
1.0909211641151864   0.12576420530228086   0.054040182630905056
1.0909211641151864   0.12576420530228086   0.054040182630905056
0.5709942832563693   -0.02985160750155219   -0.022704209270544534
0.5709942832563693   -0.02985160750155219   -0.022704209270544534
0.5709942832563693   -0.02985160750155219   -0.022704209270544534
0.5709942832563693   -0.02985160750155219   -0.022704209270544534
1.0589659605922688   0.003467677370563582   0.01656069294803795
1.0589659605922688   0.003467677370563582   0.01656069294803795
1.0589659605922688   0.003467677370563582   0.01656069294803795
1.0589659605922688   0.003467677370563582   0.01656069294803795
0.07364535525857   -0.08800377087671073   0.0024761105925634533
0.07364535525857   -0.08800377087671073   0.0024761105925634533
0.07364535525857   -0.08800377087671073   0.0024761105925634533
0.07364535525857   -0.08800377087671073   0.0024761105925634533
0.0045638590667618426   -0.22166283577161008   -0.027673850088353026
0.0045638590667618426   -0.22166283577161008   -0.027673850088353026
0.0045638590667618426   -0.22166283577161008   -0.027673850088353026
0.0045638590667618426   -0.22166283577161008   -0.027673850088353026
1.051483688299811   0.10753952662287189   0.059617035570705745
1.051483688299811   0.10753952662287189   0.059617035570705745
1.051483688299811   0.10753952662287189   0.059617035570705745
1.051483688299811   0.10753952662287189   0.059617035570705745
0.5296869301999276   -0.04661219150426697   -0.03214749195161014
0.5296869301999276   -0.04661219150426697   -0.03214749195161014
0.5296869301999276   -0.04661219150426697   -0.03214749195161014
0.5296869301999276   -0.04661219150426697   -0.03214749195161014
1.0213202664777863   -0.007924078045878635   0.024263531129341098
1.0213202664777863   -0.007924078045878635   0.024263531129341098
1.0213202664777863   -0.007924078045878635   0.024263531129341098
1.0213202664777863   -0.007924078045878635   0.024263531129341098
0.034552774119597215   -0.10637373787205776   0.006981627276271468
0.034552774119597215   -0.10637373787205776   0.006981627276271468
0.034552774119597215   -0.10637373787205776   0.006981627276271468
0.034552774119597215   -0.10637373787205776   0.006981627276271468
-0.03400818434955968   -0.22274594752190593   -0.018838677231677356
-0.03400818434955968   -0.22274594752190593   -0.018838677231677356
-0.03400818434955968   -0.22274594752190593   -0.018838677231677356
-0.03400818434955968   -0.22274594752190593   -0.018838677231677356
1.0116956106745731   0.0959137863368929   0.06589971102334433
1.0116956106745731   0.0959137863368929   0.06589971102334433
1.0116956106745731   0.0959137863368929   0.06589971102334433
1.0116956106745731   0.0959137863368929   0.06589971102334433
0.4973121440879078   -0.053346247691820434   -0.04028337259605613
0.4973121440879078   -0.053346247691820434   -0.04028337259605613
0.4973121440879078   -0.053346247691820434   -0.04028337259605613
0.4973121440879078   -0.053346247691820434   -0.04028337259605613
0.10748743007794251   -0.06202705515457224   0.0034701158473941437
0.10748743007794251   -0.06202705515457224   0.0034701158473941437
0.10748743007794251   -0.06202705515457224   0.0034701158473941437
0.10748743007794251   -0.06202705515457224   0.0034701158473941437
-0.8397695894643176   -0.09711340770868351   -0.026439524859348383
-0.8397695894643176   -0.09711340770868351   -0.026439524859348383
-0.8397695894643176   -0.09711340770868351   -0.026439524859348383
-0.8397695894643176   -0.09711340770868351   -0.026439524859348383
-0.9122695846292841   -0.2804615980033098   -0.04533681005710471
-0.9122695846292841   -0.2804615980033098   -0.04533681005710471
-0.9122695846292841   -0.2804615980033098   -0.04533681005710471
-0.9122695846292841   -0.2804615980033098   -0.04533681005710471
0.115352265377277   0.09202719313455505   0.030979697174832677
0.115352265377277   0.09202719313455505   0.030979697174832677
0.115352265377277   0.09202719313455505   0.030979697174832677
0.115352265377277   0.09202719313455505   0.030979697174832677
-0.3834440746152838   -0.08272879020633413   -0.022556788749890058
-0.3834440746152838   -0.08272879020633413   -0.022556788749890058
-0.3834440746152838   -0.08272879020633413   -0.022556788749890058
-0.3834440746152838   -0.08272879020633413   -0.022556788749890058
0.08050254873560622   -0.06924012324891998   0.017998430349953874
0.08050254873560622   -0.06924012324891998   0.017998430349953874
0.08050254873560622   -0.06924012324891998   0.017998430349953874
0.08050254873560622   -0.06924012324891998   0.017998430349953874
-0.8747582965874756   -0.11653271021969708   -0.021709257631675236
-0.8747582965874756   -0.11653271021969708   -0.021709257631675236
-0.8747582965874756   -0.11653271021969708   -0.021709257631675236
-0.8747582965874756   -0.11653271021969708   -0.021709257631675236
-0.9544017830380874   -0.2915928583917893   -0.029967066638359827
-0.9544017830380874   -0.2915928583917893   -0.029967066638359827
-0.9544017830380874   -0.2915928583917893   -0.029967066638359827
-0.9544017830380874   -0.2915928583917893   -0.029967066638359827
0.07594153884144222   0.07251300960746561   0.03503870340597316
0.07594153884144222   0.07251300960746561   0.03503870340597316
0.07594153884144222   0.07251300960746561   0.03503870340597316
0.07594153884144222   0.07251300960746561   0.03503870340597316
-0.4182915291751332   -0.09436828307908741   -0.027063349716162404
-0.4182915291751332   -0.09436828307908741   -0.027063349716162404
-0.4182915291751332   -0.09436828307908741   -0.027063349716162404
-0.4182915291751332   -0.09436828307908741   -0.027063349716162404
0.04319940156698161   -0.08109250234573033   0.02493352898686602
0.04319940156698161   -0.08109250234573033   0.02493352898686602
0.04319940156698161   -0.08109250234573033   0.02493352898686602
0.04319940156698161   -0.08109250234573033   0.02493352898686602
-0.9211052433566641   -0.13743294403163203   -0.01764428259140859
-0.9211052433566641   -0.13743294403163203   -0.01764428259140859
-0.9211052433566641   -0.13743294403163203   -0.01764428259140859
-0.9211052433566641   -0.13743294403163203   -0.01764428259140859
-1.0011596760919514   -0.2997451101243956   -0.02664301816927685
-1.0011596760919514   -0.2997451101243956   -0.02664301816927685
-1.0011596760919514   -0.2997451101243956   -0.02664301816927685
-1.0011596760919514   -0.2997451101243956   -0.02664301816927685
0.03331412566284882   0.05584856679093819   0.03917835851752098
0.03331412566284882   0.05584856679093819   0.03917835851752098
0.03331412566284882   0.05584856679093819   0.03917835851752098
0.03331412566284882   0.05584856679093819   0.03917835851752098
-0.4635744199661407   -0.10830465410519688   -0.03790927774705653
-0.4635744199661407   -0.10830465410519688   -0.03790927774705653
-0.4635744199661407   -0.10830465410519688   -0.03790927774705653
-0.4635744199661407   -0.10830465410519688   -0.03790927774705653
-0.8270471062585232   -0.07311710146398541   0.013176584924910802
-0.8270471062585232   -0.07311710146398541   0.013176584924910802
-0.8270471062585232   -0.07311710146398541   0.013176584924910802
-0.8270471062585232   -0.07311710146398541   0.013176584924910802
-1.762259878514632   -0.11363878717245268   -0.04665835598684345
-1.762259878514632   -0.11363878717245268   -0.04665835598684345
-1.762259878514632   -0.11363878717245268   -0.04665835598684345
-1.762259878514632   -0.11363878717245268   -0.04665835598684345
-1.8446995264218142   -0.2937625758117824   -0.04522030917916445
-1.8446995264218142   -0.2937625758117824   -0.04522030917916445
-1.8446995264218142   -0.2937625758117824   -0.04522030917916445
-1.8446995264218142   -0.2937625758117824   -0.04522030917916445
-0.8313242042105348   0.07021355025014703   0.008714943783173515
-0.8313242042105348   0.07021355025014703   0.008714943783173515
-0.8313242042105348   0.07021355025014703   0.008714943783173515
-0.8313242042105348   0.07021355025014703   0.008714943783173515
-1.3054737338426297   -0.09782013749629728   -0.01899463859326809
-1.3054737338426297   -0.09782013749629728   -0.01899463859326809
-1.3054737338426297   -0.09782013749629728   -0.01899463859326809
-1.3054737338426297   -0.09782013749629728   -0.01899463859326809
-0.8569406553090995   -0.08083124337107825   0.03167748191157998
-0.8569406553090995   -0.08083124337107825   0.03167748191157998
-0.8569406553090995   -0.08083124337107825   0.03167748191157998
-0.8569406553090995   -0.08083124337107825   0.03167748191157998
-1.8138558194799441   -0.13749052634724374   -0.047273823934371115
-1.8138558194799441   -0.13749052634724374   -0.047273823934371115
-1.8138558194799441   -0.13749052634724374   -0.047273823934371115
-1.8138558194799441   -0.13749052634724374   -0.047273823934371115
-1.903007437792412   -0.3126838034025056   -0.03170665057942222
-1.903007437792412   -0.3126838034025056   -0.03170665057942222
-1.903007437792412   -0.3126838034025056   -0.03170665057942222
-1.903007437792412   -0.3126838034025056   -0.03170665057942222
-0.8781858298667367   0.04884005255848731   0.01067978826810944
-0.8781858298667367   0.04884005255848731   0.01067978826810944
-0.8781858298667367   0.04884005255848731   0.01067978826810944
-0.8781858298667367   0.04884005255848731   0.01067978826810944
-1.342392734385079   -0.10832963990130581   -0.019071278664821632
-1.342392734385079   -0.10832963990130581   -0.019071278664821632
-1.342392734385079   -0.10832963990130581   -0.019071278664821632
-1.342392734385079   -0.10832963990130581   -0.019071278664821632
-0.90348951077288   -0.09986550051961629   0.032866936815492534
-0.90348951077288   -0.09986550051961629   0.032866936815492534
-0.90348951077288   -0.09986550051961629   0.032866936815492534
-0.90348951077288   -0.09986550051961629   0.032866936815492534
-1.8742022675073875   -0.16047676094552135   -0.039887841611283344
-1.8742022675073875   -0.16047676094552135   -0.039887841611283344
-1.8742022675073875   -0.16047676094552135   -0.039887841611283344
-1.8742022675073875   -0.16047676094552135   -0.039887841611283344
-1.9690024488181241   -0.3376064508604431   -0.03396403634487036
-1.9690024488181241   -0.3376064508604431   -0.03396403634487036
-1.9690024488181241   -0.3376064508604431   -0.03396403634487036
-1.9690024488181241   -0.3376064508604431   -0.03396403634487036
-0.9288268022218722   0.02248187217902642   0.012794368877680713
-0.9288268022218722   0.02248187217902642   0.012794368877680713
-0.9288268022218722   0.02248187217902642   0.012794368877680713
-0.9288268022218722   0.02248187217902642   0.012794368877680713
-1.4077852676937408   -0.13384761643459844   -0.03095069975122814
-1.4077852676937408   -0.13384761643459844   -0.03095069975122814
-1.4077852676937408   -0.13384761643459844   -0.03095069975122814
-1.4077852676937408   -0.13384761643459844   -0.03095069975122814
-1.7024495238053394   0.08064368656723275   0.05811094381993279
-1.7024495238053394   0.08064368656723275   0.05811094381993279
-1.7024495238053394   0.08064368656723275   0.05811094381993279
-1.7024495238053394   0.08064368656723275   0.05811094381993279
-2.6399274751484385   -0.13155305364313208   -0.035655944481362584
-2.6399274751484385   -0.13155305364313208   -0.035655944481362584
-2.6399274751484385   -0.13155305364313208   -0.035655944481362584
-2.6399274751484385   -0.13155305364313208   -0.035655944481362584
-2.705157302167267   -0.13394449315849905   0.059703095732207875
-2.705157302167267   -0.13394449315849905   0.059703095732207875
-2.705157302167267   -0.13394449315849905   0.059703095732207875
-2.705157302167267   -0.13394449315849905   0.059703095732207875
-1.7688398441577302   0.05463509834202179   -0.014319572012567491
-1.7688398441577302   0.05463509834202179   -0.014319572012567491
-1.7688398441577302   0.05463509834202179   -0.014319572012567491
-1.7688398441577302   0.05463509834202179   -0.014319572012567491
-2.101390269794971   0.0016613695104774062   0.0532990996326283
-2.101390269794971   0.0016613695104774062   0.0532990996326283
-2.101390269794971   0.0016613695104774062   0.0532990996326283
-2.101390269794971   0.0016613695104774062   0.0532990996326283
-1.7502871810851157   0.059753900208317445   0.07332494148420084
-1.7502871810851157   0.059753900208317445   0.07332494148420084
-1.7502871810851157   0.059753900208317445   0.07332494148420084
-1.7502871810851157   0.059753900208317445   0.07332494148420084
-2.7224982322780478   -0.13785156206296267   -0.023094485917233426
-2.7224982322780478   -0.13785156206296267   -0.023094485917233426
-2.7224982322780478   -0.13785156206296267   -0.023094485917233426
-2.7224982322780478   -0.13785156206296267   -0.023094485917233426
-2.7875349540066874   -0.15629504247233683   0.08117679405377481
-2.7875349540066874   -0.15629504247233683   0.08117679405377481
-2.7875349540066874   -0.15629504247233683   0.08117679405377481
-2.7875349540066874   -0.15629504247233683   0.08117679405377481
-1.829230669376498   0.03945339728488384   -0.014960009187256346
-1.829230669376498   0.03945339728488384   -0.014960009187256346
-1.829230669376498   0.03945339728488384   -0.014960009187256346
-1.829230669376498   0.03945339728488384   -0.014960009187256346
-2.2075126611739373   -0.02451348323914443   0.02902077013820757
-2.2075126611739373   -0.02451348323914443   0.02902077013820757
-2.2075126611739373   -0.02451348323914443   0.02902077013820757
-2.2075126611739373   -0.02451348323914443   0.02902077013820757
-1.8122730707986126   0.03698187629661165   0.07229950469044216
-1.8122730707986126   0.03698187629661165   0.07229950469044216
-1.8122730707986126   0.03698187629661165   0.07229950469044216
-1.8122730707986126   0.03698187629661165   0.07229950469044216
-2.8076857594484195   -0.15701672834791147   -0.01885554727931113
-2.8076857594484195   -0.15701672834791147   -0.01885554727931113
-2.8076857594484195   -0.15701672834791147   -0.01885554727931113
-2.8076857594484195   -0.15701672834791147   -0.01885554727931113
-2.9046062808485864   -0.24635891156645678   0.0705792776883843
-2.9046062808485864   -0.24635891156645678   0.0705792776883843
-2.9046062808485864   -0.24635891156645678   0.0705792776883843
-2.9046062808485864   -0.24635891156645678   0.0705792776883843
-1.8988565347853275   -0.006764645136331016   -0.014076271905034826
-1.8988565347853275   -0.006764645136331016   -0.014076271905034826
-1.8988565347853275   -0.006764645136331016   -0.014076271905034826
-1.8988565347853275   -0.006764645136331016   -0.014076271905034826
-2.2529323575013143   -0.057430566747857514   0.007605641816064532
-2.2529323575013143   -0.057430566747857514   0.007605641816064532
-2.2529323575013143   -0.057430566747857514   0.007605641816064532
-2.2529323575013143   -0.057430566747857514   0.007605641816064532
1.742650137749336   0.09308854982819664   -0.06235189698668872
1.742650137749336   0.09308854982819664   -0.06235189698668872
1.742650137749336   0.09308854982819664   -0.06235189698668872
1.742650137749336   0.09308854982819664   -0.06235189698668872
0.8642703953470501   -0.0006381045899609694   0.02265620156893839
0.8642703953470501   -0.0006381045899609694   0.02265620156893839
0.8642703953470501   -0.0006381045899609694   0.02265620156893839
0.8642703953470501   -0.0006381045899609694   0.02265620156893839
0.7896633444942893   -0.12891610485816316   -0.05714744332536312
0.7896633444942893   -0.12891610485816316   -0.05714744332536312
0.7896633444942893   -0.12891610485816316   -0.05714744332536312
0.7896633444942893   -0.12891610485816316   -0.05714744332536312
1.709709750451637   0.14102989150091672   0.028405718213002612
1.709709750451637   0.14102989150091672   0.028405718213002612
1.709709750451637   0.14102989150091672   0.028405718213002612
1.709709750451637   0.14102989150091672   0.028405718213002612
1.2105762803685396   0.01070418047825139   -0.039834239563165355
1.2105762803685396   0.01070418047825139   -0.039834239563165355
1.2105762803685396   0.01070418047825139   -0.039834239563165355
1.2105762803685396   0.01070418047825139   -0.039834239563165355
1.6732596422237396   0.04722471422307406   -0.060039645648626905
1.6732596422237396   0.04722471422307406   -0.060039645648626905
1.6732596422237396   0.04722471422307406   -0.060039645648626905
1.6732596422237396   0.04722471422307406   -0.060039645648626905
0.8245464581556046   -0.0366779221469028   0.025029942269937183
0.8245464581556046   -0.0366779221469028   0.025029942269937183
0.8245464581556046   -0.0366779221469028   0.025029942269937183
0.8245464581556046   -0.0366779221469028   0.025029942269937183
0.7523458124142812   -0.13971535936035956   -0.04966151680304652
0.7523458124142812   -0.13971535936035956   -0.04966151680304652
0.7523458124142812   -0.13971535936035956   -0.04966151680304652
0.7523458124142812   -0.13971535936035956   -0.04966151680304652
1.653884066406296   0.12619808179870878   0.038805162464875614
1.653884066406296   0.12619808179870878   0.038805162464875614
1.653884066406296   0.12619808179870878   0.038805162464875614
1.653884066406296   0.12619808179870878   0.038805162464875614
1.1812944428915495   -0.00873400044469691   -0.05239883346300116
1.1812944428915495   -0.00873400044469691   -0.05239883346300116
1.1812944428915495   -0.00873400044469691   -0.05239883346300116
1.1812944428915495   -0.00873400044469691   -0.05239883346300116
1.6182176993715855   0.033938002674758716   -0.04726659358469819
1.6182176993715855   0.033938002674758716   -0.04726659358469819
1.6182176993715855   0.033938002674758716   -0.04726659358469819
1.6182176993715855   0.033938002674758716   -0.04726659358469819
0.7866104682709038   -0.04885699141450428   0.030803394534202444
0.7866104682709038   -0.04885699141450428   0.030803394534202444
0.7866104682709038   -0.04885699141450428   0.030803394534202444
0.7866104682709038   -0.04885699141450428   0.030803394534202444
0.7182600318827773   -0.14298465375147973   -0.040567092752689354
0.7182600318827773   -0.14298465375147973   -0.040567092752689354
0.7182600318827773   -0.14298465375147973   -0.040567092752689354
0.7182600318827773   -0.14298465375147973   -0.040567092752689354
1.5909492285898137   0.11314365864263592   0.048260973952148664
1.5909492285898137   0.11314365864263592   0.048260973952148664
1.5909492285898137   0.11314365864263592   0.048260973952148664
1.5909492285898137   0.11314365864263592   0.048260973952148664
1.1133128639012275   -0.02214189534125796   -0.0711998083609227
1.1133128639012275   -0.02214189534125796   -0.0711998083609227
1.1133128639012275   -0.02214189534125796   -0.0711998083609227
1.1133128639012275   -0.02214189534125796   -0.0711998083609227
0.8789966924009927   0.09095594585090003   0.00469363639779017
0.8789966924009927   0.09095594585090003   0.00469363639779017
0.8789966924009927   0.09095594585090003   0.00469363639779017
0.8789966924009927   0.09095594585090003   0.00469363639779017
0.030589653751942968   -0.0286223394475353   -0.0035201824871445367
0.030589653751942968   -0.0286223394475353   -0.0035201824871445367
0.030589653751942968   -0.0286223394475353   -0.0035201824871445367
0.030589653751942968   -0.0286223394475353   -0.0035201824871445367
-0.02564298674841907   -0.11612668726258006   -0.038850129329732794
-0.02564298674841907   -0.11612668726258006   -0.038850129329732794
-0.02564298674841907   -0.11612668726258006   -0.038850129329732794
-0.02564298674841907   -0.11612668726258006   -0.038850129329732794
0.8619806246430511   0.12766415351178045   0.0478586990484869
0.8619806246430511   0.12766415351178045   0.0478586990484869
0.8619806246430511   0.12766415351178045   0.0478586990484869
0.8619806246430511   0.12766415351178045   0.0478586990484869
0.4296828534954976   0.018181804032629117   -0.004944889742512511
0.4296828534954976   0.018181804032629117   -0.004944889742512511
0.4296828534954976   0.018181804032629117   -0.004944889742512511
0.4296828534954976   0.018181804032629117   -0.004944889742512511
0.8422468180731166   0.06716005292483793   0.009693766785760047
0.8422468180731166   0.06716005292483793   0.009693766785760047
0.8422468180731166   0.06716005292483793   0.009693766785760047
0.8422468180731166   0.06716005292483793   0.009693766785760047
-0.005560743662505686   -0.05527415015964789   0.0007085489969019532
-0.005560743662505686   -0.05527415015964789   0.0007085489969019532
-0.005560743662505686   -0.05527415015964789   0.0007085489969019532
-0.005560743662505686   -0.05527415015964789   0.0007085489969019532
-0.060994524376957585   -0.13359348464423246   -0.03356980808804718
-0.060994524376957585   -0.13359348464423246   -0.03356980808804718
-0.060994524376957585   -0.13359348464423246   -0.03356980808804718
-0.060994524376957585   -0.13359348464423246   -0.03356980808804718
0.8219362155652016   0.10560971784162522   0.052965421749562175
0.8219362155652016   0.10560971784162522   0.052965421749562175
0.8219362155652016   0.10560971784162522   0.052965421749562175
0.8219362155652016   0.10560971784162522   0.052965421749562175
0.3865269259682785   -0.003543139248666047   -0.017293878175457883
0.3865269259682785   -0.003543139248666047   -0.017293878175457883
0.3865269259682785   -0.003543139248666047   -0.017293878175457883
0.3865269259682785   -0.003543139248666047   -0.017293878175457883
0.8029394344604605   0.048854596295288516   0.014736637772200918
0.8029394344604605   0.048854596295288516   0.014736637772200918
0.8029394344604605   0.048854596295288516   0.014736637772200918
0.8029394344604605   0.048854596295288516   0.014736637772200918
-0.04196298167974042   -0.07680360150542864   0.004798022259234855
-0.04196298167974042   -0.07680360150542864   0.004798022259234855
-0.04196298167974042   -0.07680360150542864   0.004798022259234855
-0.04196298167974042   -0.07680360150542864   0.004798022259234855
-0.0959918211273279   -0.14413974069573834   -0.026680492337849672
-0.0959918211273279   -0.14413974069573834   -0.026680492337849672
-0.0959918211273279   -0.14413974069573834   -0.026680492337849672
-0.0959918211273279   -0.14413974069573834   -0.026680492337849672
0.7838512607358616   0.08698453870929038   0.057419859051952966
0.7838512607358616   0.08698453870929038   0.057419859051952966
0.7838512607358616   0.08698453870929038   0.057419859051952966
0.7838512607358616   0.08698453870929038   0.057419859051952966
0.35457629553516423   -0.01747443476532208   -0.026407692498946617
0.35457629553516423   -0.01747443476532208   -0.026407692498946617
0.35457629553516423   -0.01747443476532208   -0.026407692498946617
0.35457629553516423   -0.01747443476532208   -0.026407692498946617
0.059362459217786795   0.09195434006542909   0.019767165329110208
0.059362459217786795   0.09195434006542909   0.019767165329110208
0.059362459217786795   0.09195434006542909   0.019767165329110208
0.059362459217786795   0.09195434006542909   0.019767165329110208
-0.7771550847997459   -0.05018937812335919   -0.02675390867750229
-0.7771550847997459   -0.05018937812335919   -0.02675390867750229
-0.7771550847997459   -0.05018937812335919   -0.02675390867750229
-0.7771550847997459   -0.05018937812335919   -0.02675390867750229
-0.8210280566162103   -0.1063526229673903   -0.02453906134146826
-0.8210280566162103   -0.1063526229673903   -0.02453906134146826
-0.8210280566162103   -0.1063526229673903   -0.02453906134146826
-0.8210280566162103   -0.1063526229673903   -0.02453906134146826
0.030891749644831525   0.10452680066083324   0.023170064713106883
0.030891749644831525   0.10452680066083324   0.023170064713106883
0.030891749644831525   0.10452680066083324   0.023170064713106883
0.030891749644831525   0.10452680066083324   0.023170064713106883
-0.376511675441881   0.011768714926923746   0.001416316934489386
-0.376511675441881   0.011768714926923746   0.001416316934489386
-0.376511675441881   0.011768714926923746   0.001416316934489386
-0.376511675441881   0.011768714926923746   0.001416316934489386
0.024866139061253054   0.07270649243967131   0.02486232001637647
0.024866139061253054   0.07270649243967131   0.02486232001637647
0.024866139061253054   0.07270649243967131   0.02486232001637647
0.024866139061253054   0.07270649243967131   0.02486232001637647
-0.8140394543252185   -0.07356932303881517   -0.022379349815085055
-0.8140394543252185   -0.07356932303881517   -0.022379349815085055
-0.8140394543252185   -0.07356932303881517   -0.022379349815085055
-0.8140394543252185   -0.07356932303881517   -0.022379349815085055
-0.8589685462542956   -0.12554760541365506   -0.020354286603830832
-0.8589685462542956   -0.12554760541365506   -0.020354286603830832
-0.8589685462542956   -0.12554760541365506   -0.020354286603830832
-0.8589685462542956   -0.12554760541365506   -0.020354286603830832
-0.005568496990902623   0.08183751319570255   0.028129331002292656
-0.005568496990902623   0.08183751319570255   0.028129331002292656
-0.005568496990902623   0.08183751319570255   0.028129331002292656
-0.005568496990902623   0.08183751319570255   0.028129331002292656
-0.41285866554658157   -0.007000970331854747   -0.00787363306486268
-0.41285866554658157   -0.007000970331854747   -0.00787363306486268
-0.41285866554658157   -0.007000970331854747   -0.00787363306486268
-0.41285866554658157   -0.007000970331854747   -0.00787363306486268
-0.01071796726035015   0.05418105523005335   0.03003843762070422
-0.01071796726035015   0.05418105523005335   0.03003843762070422
-0.01071796726035015   0.05418105523005335   0.03003843762070422
-0.01071796726035015   0.05418105523005335   0.03003843762070422
-0.8529899972634376   -0.09706206872658449   -0.01894707833660752
-0.8529899972634376   -0.09706206872658449   -0.01894707833660752
-0.8529899972634376   -0.09706206872658449   -0.01894707833660752
-0.8529899972634376   -0.09706206872658449   -0.01894707833660752
-0.8966558497227429   -0.14066110729306677   -0.013400036516912066
-0.8966558497227429   -0.14066110729306677   -0.013400036516912066
-0.8966558497227429   -0.14066110729306677   -0.013400036516912066
-0.8966558497227429   -0.14066110729306677   -0.013400036516912066
-0.04333985357837378   0.06046353044215445   0.03197607426902442
-0.04333985357837378   0.06046353044215445   0.03197607426902442
-0.04333985357837378   0.06046353044215445   0.03197607426902442
-0.04333985357837378   0.06046353044215445   0.03197607426902442
-0.45196620697879664   -0.026090989940213402   -0.01802080357444336
-0.45196620697879664   -0.026090989940213402   -0.01802080357444336
-0.45196620697879664   -0.026090989940213402   -0.01802080357444336
-0.45196620697879664   -0.026090989940213402   -0.01802080357444336
-0.7327732709597847   0.10881946834638759   0.036146314052572404
-0.7327732709597847   0.10881946834638759   0.036146314052572404
-0.7327732709597847   0.10881946834638759   0.036146314052572404
-0.7327732709597847   0.10881946834638759   0.036146314052572404
-1.5578472688438658   -0.06906130359252194   -0.04387164934770088
-1.5578472688438658   -0.06906130359252194   -0.04387164934770088
-1.5578472688438658   -0.06906130359252194   -0.04387164934770088
-1.5578472688438658   -0.06906130359252194   -0.04387164934770088
-1.5920618230157138   -0.08505745808128867   -0.006902479068826281
-1.5920618230157138   -0.08505745808128867   -0.006902479068826281
-1.5920618230157138   -0.08505745808128867   -0.006902479068826281
-1.5920618230157138   -0.08505745808128867   -0.006902479068826281
-0.7793139975281753   0.07902202227486688   -0.001343411143542944
-0.7793139975281753   0.07902202227486688   -0.001343411143542944
-0.7793139975281753   0.07902202227486688   -0.001343411143542944
-0.7793139975281753   0.07902202227486688   -0.001343411143542944
-1.1570842228085338   0.012027520179947404   0.008420034214187314
-1.1570842228085338   0.012027520179947404   0.008420034214187314
-1.1570842228085338   0.012027520179947404   0.008420034214187314
-1.1570842228085338   0.012027520179947404   0.008420034214187314
-0.7689207035978838   0.08906689814383234   0.04057818263894901
-0.7689207035978838   0.08906689814383234   0.04057818263894901
-0.7689207035978838   0.08906689814383234   0.04057818263894901
-0.7689207035978838   0.08906689814383234   0.04057818263894901
-1.6011413433075918   -0.09378856031184268   -0.04356897829767442
-1.6011413433075918   -0.09378856031184268   -0.04356897829767442
-1.6011413433075918   -0.09378856031184268   -0.04356897829767442
-1.6011413433075918   -0.09378856031184268   -0.04356897829767442
-1.638790512365621   -0.10663476358679477   -0.0060896099594167155
-1.638790512365621   -0.10663476358679477   -0.0060896099594167155
-1.638790512365621   -0.10663476358679477   -0.0060896099594167155
-1.638790512365621   -0.10663476358679477   -0.0060896099594167155
-0.817698813893472   0.05737010575634052   0.003076664030295391
-0.817698813893472   0.05737010575634052   0.003076664030295391
-0.817698813893472   0.05737010575634052   0.003076664030295391
-0.817698813893472   0.05737010575634052   0.003076664030295391
-1.189837360099866   -0.005163514601078334   0.0007959923488554954
-1.189837360099866   -0.005163514601078334   0.0007959923488554954
-1.189837360099866   -0.005163514601078334   0.0007959923488554954
-1.189837360099866   -0.005163514601078334   0.0007959923488554954
-0.8063189043440918   0.0704556195967509   0.04689069793678246
-0.8063189043440918   0.0704556195967509   0.04689069793678246
-0.8063189043440918   0.0704556195967509   0.04689069793678246
-0.8063189043440918   0.0704556195967509   0.04689069793678246
-1.6475099867111231   -0.11705984222333007   -0.039261903050406576
-1.6475099867111231   -0.11705984222333007   -0.039261903050406576
-1.6475099867111231   -0.11705984222333007   -0.039261903050406576
-1.6475099867111231   -0.11705984222333007   -0.039261903050406576
-1.681824360169479   -0.12972905705931081   0.004737280633539731
-1.681824360169479   -0.12972905705931081   0.004737280633539731
-1.681824360169479   -0.12972905705931081   0.004737280633539731
-1.681824360169479   -0.12972905705931081   0.004737280633539731
-0.8583760198485948   0.03162489555758258   0.005713110003194466
-0.8583760198485948   0.03162489555758258   0.005713110003194466
-0.8583760198485948   0.03162489555758258   0.005713110003194466
-0.8583760198485948   0.03162489555758258   0.005713110003194466
-1.2408624846064722   -0.029241596849593182   -0.009435865635194628
-1.2408624846064722   -0.029241596849593182   -0.009435865635194628
-1.2408624846064722   -0.029241596849593182   -0.009435865635194628
-1.2408624846064722   -0.029241596849593182   -0.009435865635194628
-1.5024882515527431   0.11319867222946306   0.05066346128591745
-1.5024882515527431   0.11319867222946306   0.05066346128591745
-1.5024882515527431   0.11319867222946306   0.05066346128591745
-1.5024882515527431   0.11319867222946306   0.05066346128591745
-2.2993791255349905   -0.10632254495664345   -0.04056823522395585
-2.2993791255349905   -0.10632254495664345   -0.04056823522395585
-2.2993791255349905   -0.10632254495664345   -0.04056823522395585
-2.2993791255349905   -0.10632254495664345   -0.04056823522395585
-2.331119004111598   -0.0463266116201167   0.04315103813060785
-2.331119004111598   -0.0463266116201167   0.04315103813060785
-2.331119004111598   -0.0463266116201167   0.04315103813060785
-2.331119004111598   -0.0463266116201167   0.04315103813060785
-1.5688070453060199   0.04713774609998428   -0.022823794701629666
-1.5688070453060199   0.04713774609998428   -0.022823794701629666
-1.5688070453060199   0.04713774609998428   -0.022823794701629666
-1.5688070453060199   0.04713774609998428   -0.022823794701629666
-1.8403919043690269   0.023629365535176916   0.042212787543529404
-1.8403919043690269   0.023629365535176916   0.042212787543529404
-1.8403919043690269   0.023629365535176916   0.042212787543529404
-1.8403919043690269   0.023629365535176916   0.042212787543529404
-1.5390046987598904   0.11510931554158405   0.05821636858740438
-1.5390046987598904   0.11510931554158405   0.05821636858740438
-1.5390046987598904   0.11510931554158405   0.05821636858740438
-1.5390046987598904   0.11510931554158405   0.05821636858740438
-2.3591614907028604   -0.11253832110684542   -0.03084968533893785
-2.3591614907028604   -0.11253832110684542   -0.03084968533893785
-2.3591614907028604   -0.11253832110684542   -0.03084968533893785
-2.3591614907028604   -0.11253832110684542   -0.03084968533893785
-2.3891499810939036   -0.05761392486948813   0.05962269175828963
-2.3891499810939036   -0.05761392486948813   0.05962269175828963
-2.3891499810939036   -0.05761392486948813   0.05962269175828963
-2.3891499810939036   -0.05761392486948813   0.05962269175828963
-1.6133708220090746   0.03469270017676879   -0.02031862194024789
-1.6133708220090746   0.03469270017676879   -0.02031862194024789
-1.6133708220090746   0.03469270017676879   -0.02031862194024789
-1.6133708220090746   0.03469270017676879   -0.02031862194024789
-1.920067686102164   0.01164221433132312   0.02704794887490168
-1.920067686102164   0.01164221433132312   0.02704794887490168
-1.920067686102164   0.01164221433132312   0.02704794887490168
-1.920067686102164   0.01164221433132312   0.02704794887490168
-1.5804564037634952   0.10665790511484935   0.0722882643495685
-1.5804564037634952   0.10665790511484935   0.0722882643495685
-1.5804564037634952   0.10665790511484935   0.0722882643495685
-1.5804564037634952   0.10665790511484935   0.0722882643495685
-2.4203676552249216   -0.12788238569299926   -0.02619721807324124
-2.4203676552249216   -0.12788238569299926   -0.02619721807324124
-2.4203676552249216   -0.12788238569299926   -0.02619721807324124
-2.4203676552249216   -0.12788238569299926   -0.02619721807324124
-2.4678539946342375   -0.10588130464010098   0.059337890425086595
-2.4678539946342375   -0.10588130464010098   0.059337890425086595
-2.4678539946342375   -0.10588130464010098   0.059337890425086595
-2.4678539946342375   -0.10588130464010098   0.059337890425086595
-1.6611439971649815   -0.002511020588978008   -0.019078940814306722
-1.6611439971649815   -0.002511020588978008   -0.019078940814306722
-1.6611439971649815   -0.002511020588978008   -0.019078940814306722
-1.6611439971649815   -0.002511020588978008   -0.019078940814306722
-1.9434793663908647   -0.00556087030645358   0.02197913529583395
-1.9434793663908647   -0.00556087030645358   0.02197913529583395
-1.9434793663908647   -0.00556087030645358   0.02197913529583395
-1.9434793663908647   -0.00556087030645358   0.02197913529583395
1.319329941628259   0.07319512498137706   -0.06323719685558052
1.319329941628259   0.07319512498137706   -0.06323719685558052
1.319329941628259   0.07319512498137706   -0.06323719685558052
1.319329941628259   0.07319512498137706   -0.06323719685558052
0.6276516621911182   0.012825366047983316   0.024166873531121125
0.6276516621911182   0.012825366047983316   0.024166873531121125
0.6276516621911182   0.012825366047983316   0.024166873531121125
0.6276516621911182   0.012825366047983316   0.024166873531121125
0.5573668894636259   -0.1071241667471216   -0.060021712039178166
0.5573668894636259   -0.1071241667471216   -0.060021712039178166
0.5573668894636259   -0.1071241667471216   -0.060021712039178166
0.5573668894636259   -0.1071241667471216   -0.060021712039178166
1.2906056288665548   0.12139376808341942   0.029875533277113196
1.2906056288665548   0.12139376808341942   0.029875533277113196
1.2906056288665548   0.12139376808341942   0.029875533277113196
1.2906056288665548   0.12139376808341942   0.029875533277113196
0.8997404123076397   0.012177443243861164   -0.026599384542982003
0.8997404123076397   0.012177443243861164   -0.026599384542982003
0.8997404123076397   0.012177443243861164   -0.026599384542982003
0.8997404123076397   0.012177443243861164   -0.026599384542982003
1.2548896124915676   0.03243547013617473   -0.059746250650576864
1.2548896124915676   0.03243547013617473   -0.059746250650576864
1.2548896124915676   0.03243547013617473   -0.059746250650576864
1.2548896124915676   0.03243547013617473   -0.059746250650576864
0.5923772764323275   -0.018871498206173176   0.026777554263377308
0.5923772764323275   -0.018871498206173176   0.026777554263377308
0.5923772764323275   -0.018871498206173176   0.026777554263377308
0.5923772764323275   -0.018871498206173176   0.026777554263377308
0.5245207626249526   -0.11767034784572661   -0.05117368197595798
0.5245207626249526   -0.11767034784572661   -0.05117368197595798
0.5245207626249526   -0.11767034784572661   -0.05117368197595798
0.5245207626249526   -0.11767034784572661   -0.05117368197595798
1.2395363067876546   0.10632844755840817   0.0392633026780364
1.2395363067876546   0.10632844755840817   0.0392633026780364
1.2395363067876546   0.10632844755840817   0.0392633026780364
1.2395363067876546   0.10632844755840817   0.0392633026780364
0.8702605076216114   -0.006088489120856411   -0.037418684884439724
0.8702605076216114   -0.006088489120856411   -0.037418684884439724
0.8702605076216114   -0.006088489120856411   -0.037418684884439724
0.8702605076216114   -0.006088489120856411   -0.037418684884439724
1.204659572080997   0.019028138151089335   -0.04782006144792281
1.204659572080997   0.019028138151089335   -0.04782006144792281
1.204659572080997   0.019028138151089335   -0.04782006144792281
1.204659572080997   0.019028138151089335   -0.04782006144792281
0.5585111697580325   -0.03125636601198464   0.032364371855694636
0.5585111697580325   -0.03125636601198464   0.032364371855694636
0.5585111697580325   -0.03125636601198464   0.032364371855694636
0.5585111697580325   -0.03125636601198464   0.032364371855694636
0.49490747844248356   -0.12423963250726662   -0.042613731650034056
0.49490747844248356   -0.12423963250726662   -0.042613731650034056
0.49490747844248356   -0.12423963250726662   -0.042613731650034056
0.49490747844248356   -0.12423963250726662   -0.042613731650034056
1.1819566822704564   0.08996487433283037   0.04661770205073513
1.1819566822704564   0.08996487433283037   0.04661770205073513
1.1819566822704564   0.08996487433283037   0.04661770205073513
1.1819566822704564   0.08996487433283037   0.04661770205073513
0.8122237323406484   -0.019916812914503562   -0.05338709433179939
0.8122237323406484   -0.019916812914503562   -0.05338709433179939
0.8122237323406484   -0.019916812914503562   -0.05338709433179939
0.8122237323406484   -0.019916812914503562   -0.05338709433179939
0.6380295463383943   0.09278833969191258   -0.003906679376417669
0.6380295463383943   0.09278833969191258   -0.003906679376417669
0.6380295463383943   0.09278833969191258   -0.003906679376417669
0.6380295463383943   0.09278833969191258   -0.003906679376417669
-0.04142561327305486   -0.008878986786670017   -0.0002586019188597639
-0.04142561327305486   -0.008878986786670017   -0.0002586019188597639
-0.04142561327305486   -0.008878986786670017   -0.0002586019188597639
-0.04142561327305486   -0.008878986786670017   -0.0002586019188597639
-0.09093592840369889   -0.08011569074272926   -0.0381239691773117
-0.09093592840369889   -0.08011569074272926   -0.0381239691773117
-0.09093592840369889   -0.08011569074272926   -0.0381239691773117
-0.09093592840369889   -0.08011569074272926   -0.0381239691773117
0.6213371424872138   0.11030540829241   0.04239997803922558
0.6213371424872138   0.11030540829241   0.04239997803922558
0.6213371424872138   0.11030540829241   0.04239997803922558
0.6213371424872138   0.11030540829241   0.04239997803922558
0.2774131325945197   0.027250558567975973   0.0019602372529243742
0.2774131325945197   0.027250558567975973   0.0019602372529243742
0.2774131325945197   0.027250558567975973   0.0019602372529243742
0.2774131325945197   0.027250558567975973   0.0019602372529243742
0.6045379957570065   0.0669548487175064   0.001754803963099778
0.6045379957570065   0.0669548487175064   0.001754803963099778
0.6045379957570065   0.0669548487175064   0.001754803963099778
0.6045379957570065   0.0669548487175064   0.001754803963099778
-0.0738478687070137   -0.03647621820133634   0.0036768567647213046
-0.0738478687070137   -0.03647621820133634   0.0036768567647213046
-0.0738478687070137   -0.03647621820133634   0.0036768567647213046
-0.0738478687070137   -0.03647621820133634   0.0036768567647213046
-0.12187688161033584   -0.10004787047452249   -0.031509422655639
-0.12187688161033584   -0.10004787047452249   -0.031509422655639
-0.12187688161033584   -0.10004787047452249   -0.031509422655639
-0.12187688161033584   -0.10004787047452249   -0.031509422655639
0.5848662961945386   0.08652831680765524   0.04635532121858519
0.5848662961945386   0.08652831680765524   0.04635532121858519
0.5848662961945386   0.08652831680765524   0.04635532121858519
0.5848662961945386   0.08652831680765524   0.04635532121858519
0.23930372715361725   0.003746671385686552   -0.009842377932057505
0.23930372715361725   0.003746671385686552   -0.009842377932057505
0.23930372715361725   0.003746671385686552   -0.009842377932057505
0.23930372715361725   0.003746671385686552   -0.009842377932057505
0.5686223233052092   0.045572174796361664   0.006091598783236733
0.5686223233052092   0.045572174796361664   0.006091598783236733
0.5686223233052092   0.045572174796361664   0.006091598783236733
0.5686223233052092   0.045572174796361664   0.006091598783236733
-0.10586647357935489   -0.05932529332157652   0.00782004034631977
-0.10586647357935489   -0.05932529332157652   0.00782004034631977
-0.10586647357935489   -0.05932529332157652   0.00782004034631977
-0.10586647357935489   -0.05932529332157652   0.00782004034631977
-0.15241651178279778   -0.11681185447592743   -0.025294334355476754
-0.15241651178279778   -0.11681185447592743   -0.025294334355476754
-0.15241651178279778   -0.11681185447592743   -0.025294334355476754
-0.15241651178279778   -0.11681185447592743   -0.025294334355476754
0.551193787065043   0.06452167536333347   0.050056503592160344
0.551193787065043   0.06452167536333347   0.050056503592160344
0.551193787065043   0.06452167536333347   0.050056503592160344
0.551193787065043   0.06452167536333347   0.050056503592160344
0.21003912760991594   -0.014097805063919146   -0.01968460987574397
0.21003912760991594   -0.014097805063919146   -0.01968460987574397
0.21003912760991594   -0.014097805063919146   -0.01968460987574397
0.21003912760991594   -0.014097805063919146   -0.01968460987574397
-0.014364890806592007   0.11079387261344081   0.01537215101334369
-0.014364890806592007   0.11079387261344081   0.01537215101334369
-0.014364890806592007   0.11079387261344081   0.01537215101334369
-0.014364890806592007   0.11079387261344081   0.01537215101334369
-0.6962379998126275   -0.03005949807711117   -0.023095166393048226
-0.6962379998126275   -0.03005949807711117   -0.023095166393048226
-0.6962379998126275   -0.03005949807711117   -0.023095166393048226
-0.6962379998126275   -0.03005949807711117   -0.023095166393048226
-0.7281497342194333   -0.055519272543744475   -0.018018817445516817
-0.7281497342194333   -0.055519272543744475   -0.018018817445516817
-0.7281497342194333   -0.055519272543744475   -0.018018817445516817
-0.7281497342194333   -0.055519272543744475   -0.018018817445516817
-0.045777349211542154   0.08908865649163797   0.018464579549104757
-0.045777349211542154   0.08908865649163797   0.018464579549104757
-0.045777349211542154   0.08908865649163797   0.018464579549104757
-0.045777349211542154   0.08908865649163797   0.018464579549104757
-0.3702540243678799   0.028772967165590954   0.0072657222758235294
-0.3702540243678799   0.028772967165590954   0.0072657222758235294
-0.3702540243678799   0.028772967165590954   0.0072657222758235294
-0.3702540243678799   0.028772967165590954   0.0072657222758235294
-0.04515611670227349   0.08901257847184006   0.021646820115245984
-0.04515611670227349   0.08901257847184006   0.021646820115245984
-0.04515611670227349   0.08901257847184006   0.021646820115245984
-0.04515611670227349   0.08901257847184006   0.021646820115245984
-0.7281724107529208   -0.05484463854816535   -0.018806834108533205
-0.7281724107529208   -0.05484463854816535   -0.018806834108533205
-0.7281724107529208   -0.05484463854816535   -0.018806834108533205
-0.7281724107529208   -0.05484463854816535   -0.018806834108533205
-0.7598416102687836   -0.07709183222868665   -0.012244282841772362
-0.7598416102687836   -0.07709183222868665   -0.012244282841772362
-0.7598416102687836   -0.07709183222868665   -0.012244282841772362
-0.7598416102687836   -0.07709183222868665   -0.012244282841772362
-0.07803325517351366   0.06460484661855068   0.023055992435398718
-0.07803325517351366   0.06460484661855068   0.023055992435398718
-0.07803325517351366   0.06460484661855068   0.023055992435398718
-0.07803325517351366   0.06460484661855068   0.023055992435398718
-0.40227198845526746   0.007500700418187692   -0.002314923134728652
-0.40227198845526746   0.007500700418187692   -0.002314923134728652
-0.40227198845526746   0.007500700418187692   -0.002314923134728652
-0.40227198845526746   0.007500700418187692   -0.002314923134728652
-0.0767736129576447   0.06730202819046203   0.02665702194283213
-0.0767736129576447   0.06730202819046203   0.02665702194283213
-0.0767736129576447   0.06730202819046203   0.02665702194283213
-0.0767736129576447   0.06730202819046203   0.02665702194283213
-0.7609237106428277   -0.07961147195877309   -0.015135144981906056
-0.7609237106428277   -0.07961147195877309   -0.015135144981906056
-0.7609237106428277   -0.07961147195877309   -0.015135144981906056
-0.7609237106428277   -0.07961147195877309   -0.015135144981906056
-0.7911637140261346   -0.09680243551038402   -0.006529895045907199
-0.7911637140261346   -0.09680243551038402   -0.006529895045907199
-0.7911637140261346   -0.09680243551038402   -0.006529895045907199
-0.7911637140261346   -0.09680243551038402   -0.006529895045907199
-0.11041839739224066   0.040924724061106   0.026959659060279115
-0.11041839739224066   0.040924724061106   0.026959659060279115
-0.11041839739224066   0.040924724061106   0.026959659060279115
-0.11041839739224066   0.040924724061106   0.026959659060279115
-0.4357541372110301   -0.013952254751795734   -0.012982368604592977
-0.4357541372110301   -0.013952254751795734   -0.012982368604592977
-0.4357541372110301   -0.013952254751795734   -0.012982368604592977
-0.4357541372110301   -0.013952254751795734   -0.012982368604592977
-0.6534530010337414   0.12728828810324713   0.033482041321019895
-0.6534530010337414   0.12728828810324713   0.033482041321019895
-0.6534530010337414   0.12728828810324713   0.033482041321019895
-0.6534530010337414   0.12728828810324713   0.033482041321019895
-1.3359067173363026   -0.051684309808842865   -0.04166778343899259
-1.3359067173363026   -0.051684309808842865   -0.04166778343899259
-1.3359067173363026   -0.051684309808842865   -0.04166778343899259
-1.3359067173363026   -0.051684309808842865   -0.04166778343899259
-1.3533535235830079   -0.034738883982079194   0.0038915836265592807
-1.3533535235830079   -0.034738883982079194   0.0038915836265592807
-1.3533535235830079   -0.034738883982079194   0.0038915836265592807
-1.3533535235830079   -0.034738883982079194   0.0038915836265592807
-0.7017295296988008   0.06395375447397517   -0.005390821860065599
-0.7017295296988008   0.06395375447397517   -0.005390821860065599
-0.7017295296988008   0.06395375447397517   -0.005390821860065599
-0.7017295296988008   0.06395375447397517   -0.005390821860065599
-1.004552289917012   0.02749278793350801   0.012316261968834535
-1.004552289917012   0.02749278793350801   0.012316261968834535
-1.004552289917012   0.02749278793350801   0.012316261968834535
-1.004552289917012   0.02749278793350801   0.012316261968834535
-0.6842979320053869   0.10619841818693943   0.03952250289403142
-0.6842979320053869   0.10619841818693943   0.03952250289403142
-0.6842979320053869   0.10619841818693943   0.03952250289403142
-0.6842979320053869   0.10619841818693943   0.03952250289403142
-1.3706196329743363   -0.07681805939295935   -0.040359787919202535
-1.3706196329743363   -0.07681805939295935   -0.040359787919202535
-1.3706196329743363   -0.07681805939295935   -0.040359787919202535
-1.3706196329743363   -0.07681805939295935   -0.040359787919202535
-1.3902550460477427   -0.05654507795545807   0.0060569776255730914
-1.3902550460477427   -0.05654507795545807   0.0060569776255730914
-1.3902550460477427   -0.05654507795545807   0.0060569776255730914
-1.3902550460477427   -0.05654507795545807   0.0060569776255730914
-0.7338627023552096   0.041278657680646896   -0.0007202331832285233
-0.7338627023552096   0.041278657680646896   -0.0007202331832285233
-0.7338627023552096   0.041278657680646896   -0.0007202331832285233
-0.7338627023552096   0.041278657680646896   -0.0007202331832285233
-1.0316550778044238   0.008502258661437445   0.003395477480688587
-1.0316550778044238   0.008502258661437445   0.003395477480688587
-1.0316550778044238   0.008502258661437445   0.003395477480688587
-1.0316550778044238   0.008502258661437445   0.003395477480688587
-0.7157054662301106   0.08618530292294649   0.045159302199963704
-0.7157054662301106   0.08618530292294649   0.045159302199963704
-0.7157054662301106   0.08618530292294649   0.045159302199963704
-0.7157054662301106   0.08618530292294649   0.045159302199963704
-1.4074762187446408   -0.1005156597695572   -0.036078304044817926
-1.4074762187446408   -0.1005156597695572   -0.036078304044817926
-1.4074762187446408   -0.1005156597695572   -0.036078304044817926
-1.4074762187446408   -0.1005156597695572   -0.036078304044817926
-1.4237344366341576   -0.08000872366483142   0.012903430676687033
-1.4237344366341576   -0.08000872366483142   0.012903430676687033
-1.4237344366341576   -0.08000872366483142   0.012903430676687033
-1.4237344366341576   -0.08000872366483142   0.012903430676687033
-0.7668947648629845   0.015349563911374486   0.0026628513480924723
-0.7668947648629845   0.015349563911374486   0.0026628513480924723
-0.7668947648629845   0.015349563911374486   0.0026628513480924723
-0.7668947648629845   0.015349563911374486   0.0026628513480924723
-1.0728672309606395   -0.015285364048600064   -0.00791956352180146
-1.0728672309606395   -0.015285364048600064   -0.00791956352180146
-1.0728672309606395   -0.015285364048600064   -0.00791956352180146
-1.0728672309606395   -0.015285364048600064   -0.00791956352180146
-1.284935611781172   0.11415040978706226   0.047353024740754715
-1.284935611781172   0.11415040978706226   0.047353024740754715
-1.284935611781172   0.11415040978706226   0.047353024740754715
-1.284935611781172   0.11415040978706226   0.047353024740754715
-1.9439027634368988   -0.08965086716577503   -0.04600078146876482
-1.9439027634368988   -0.08965086716577503   -0.04600078146876482
-1.9439027634368988   -0.08965086716577503   -0.04600078146876482
-1.9439027634368988   -0.08965086716577503   -0.04600078146876482
-1.9656353035631737   -0.01893139476954281   0.04365875920782754
-1.9656353035631737   -0.01893139476954281   0.04365875920782754
-1.9656353035631737   -0.01893139476954281   0.04365875920782754
-1.9656353035631737   -0.01893139476954281   0.04365875920782754
-1.346150178449163   0.03212419917791687   -0.026954773864211898
-1.346150178449163   0.03212419917791687   -0.026954773864211898
-1.346150178449163   0.03212419917791687   -0.026954773864211898
-1.346150178449163   0.03212419917791687   -0.026954773864211898
-1.5628418153326145   0.025731080312858368   0.03822719308044219
-1.5628418153326145   0.025731080312858368   0.03822719308044219
-1.5628418153326145   0.025731080312858368   0.03822719308044219
-1.5628418153326145   0.025731080312858368   0.03822719308044219
-1.313293149311075   0.11391349870011575   0.0555410723040214
-1.313293149311075   0.11391349870011575   0.0555410723040214
-1.313293149311075   0.11391349870011575   0.0555410723040214
-1.313293149311075   0.11391349870011575   0.0555410723040214
-1.9979338073229884   -0.10016216891346563   -0.03660298544729888
-1.9979338073229884   -0.10016216891346563   -0.03660298544729888
-1.9979338073229884   -0.10016216891346563   -0.03660298544729888
-1.9979338073229884   -0.10016216891346563   -0.03660298544729888
-2.0139337075439605   -0.030432755665955158   0.05461698438101861
-2.0139337075439605   -0.030432755665955158   0.05461698438101861
-2.0139337075439605   -0.030432755665955158   0.05461698438101861
-2.0139337075439605   -0.030432755665955158   0.05461698438101861
-1.3808394254763754   0.019691780889975585   -0.023101778363023365
-1.3808394254763754   0.019691780889975585   -0.023101778363023365
-1.3808394254763754   0.019691780889975585   -0.023101778363023365
-1.3808394254763754   0.019691780889975585   -0.023101778363023365
-1.6302023339770688   0.012887857653190504   0.023191790500516285
-1.6302023339770688   0.012887857653190504   0.023191790500516285
-1.6302023339770688   0.012887857653190504   0.023191790500516285
-1.6302023339770688   0.012887857653190504   0.023191790500516285
-1.3459852922844293   0.10533805350590336   0.06552261498077963
-1.3459852922844293   0.10533805350590336   0.06552261498077963
-1.3459852922844293   0.10533805350590336   0.06552261498077963
-1.3459852922844293   0.10533805350590336   0.06552261498077963
-2.047870107247415   -0.11516129479338882   -0.030336475008805833
-2.047870107247415   -0.11516129479338882   -0.030336475008805833
-2.047870107247415   -0.11516129479338882   -0.030336475008805833
-2.047870107247415   -0.11516129479338882   -0.030336475008805833
-2.077675851755467   -0.07126883270037943   0.05366385321917205
-2.077675851755467   -0.07126883270037943   0.05366385321917205
-2.077675851755467   -0.07126883270037943   0.05366385321917205
-2.077675851755467   -0.07126883270037943   0.05366385321917205
-1.4174599678853905   -0.014800856104378257   -0.020932093139932093
-1.4174599678853905   -0.014800856104378257   -0.020932093139932093
-1.4174599678853905   -0.014800856104378257   -0.020932093139932093
-1.4174599678853905   -0.014800856104378257   -0.020932093139932093
-1.64771245840454   -0.0030624610251225315   0.018151622158649766
-1.64771245840454   -0.0030624610251225315   0.018151622158649766
-1.64771245840454   -0.0030624610251225315   0.018151622158649766
-1.64771245840454   -0.0030624610251225315   0.018151622158649766
0.9046791497090689   0.05112477667825363   -0.061363560835416754
0.9046791497090689   0.05112477667825363   -0.061363560835416754
0.9046791497090689   0.05112477667825363   -0.061363560835416754
0.9046791497090689   0.05112477667825363   -0.061363560835416754
0.3864388660259169   0.02491150541460542   0.026377481809164684
0.3864388660259169   0.02491150541460542   0.026377481809164684
0.3864388660259169   0.02491150541460542   0.026377481809164684
0.3864388660259169   0.02491150541460542   0.026377481809164684
0.3231588270065243   -0.08951047113238349   -0.05719886094187102
0.3231588270065243   -0.08951047113238349   -0.05719886094187102
0.3231588270065243   -0.08951047113238349   -0.05719886094187102
0.3231588270065243   -0.08951047113238349   -0.05719886094187102
0.8833305197983576   0.1029303602994372   0.03204326280132093
0.8833305197983576   0.1029303602994372   0.03204326280132093
0.8833305197983576   0.1029303602994372   0.03204326280132093
0.8833305197983576   0.1029303602994372   0.03204326280132093
0.5913289473404211   0.013124729772160462   -0.016160538637705123
0.5913289473404211   0.013124729772160462   -0.016160538637705123
0.5913289473404211   0.013124729772160462   -0.016160538637705123
0.5913289473404211   0.013124729772160462   -0.016160538637705123
0.8479808522712059   0.01544896933493764   -0.05722368386994706
0.8479808522712059   0.01544896933493764   -0.05722368386994706
0.8479808522712059   0.01544896933493764   -0.05722368386994706
0.8479808522712059   0.01544896933493764   -0.05722368386994706
0.3578447173987825   -0.0026928573027778374   0.029412977189820916
0.3578447173987825   -0.0026928573027778374   0.029412977189820916
0.3578447173987825   -0.0026928573027778374   0.029412977189820916
0.3578447173987825   -0.0026928573027778374   0.029412977189820916
0.29619273576711985   -0.09992701877811667   -0.04867045798405293
0.29619273576711985   -0.09992701877811667   -0.04867045798405293
0.29619273576711985   -0.09992701877811667   -0.04867045798405293
0.29619273576711985   -0.09992701877811667   -0.04867045798405293
0.8389718774158169   0.08815264682636939   0.041273097290921074
0.8389718774158169   0.08815264682636939   0.041273097290921074
0.8389718774158169   0.08815264682636939   0.041273097290921074
0.8389718774158169   0.08815264682636939   0.041273097290921074
0.5633953768399164   -0.004042367683335643   -0.026375471071714566
0.5633953768399164   -0.004042367683335643   -0.026375471071714566
0.5633953768399164   -0.004042367683335643   -0.026375471071714566
0.5633953768399164   -0.004042367683335643   -0.026375471071714566
0.8042080085457745   0.002109506106532738   -0.04650310633946043
0.8042080085457745   0.002109506106532738   -0.04650310633946043
0.8042080085457745   0.002109506106532738   -0.04650310633946043
0.8042080085457745   0.002109506106532738   -0.04650310633946043
0.3299797195738786   -0.014860763121564188   0.035198205393191545
0.3299797195738786   -0.014860763121564188   0.035198205393191545
0.3299797195738786   -0.014860763121564188   0.035198205393191545
0.3299797195738786   -0.014860763121564188   0.035198205393191545
0.2720807602635737   -0.10944576859047211   -0.04055959055889461
0.2720807602635737   -0.10944576859047211   -0.04055959055889461
0.2720807602635737   -0.10944576859047211   -0.04055959055889461
0.2720807602635737   -0.10944576859047211   -0.04055959055889461
0.7872018840087749   0.06868557507732444   0.047087877990900626
0.7872018840087749   0.06868557507732444   0.047087877990900626
0.7872018840087749   0.06868557507732444   0.047087877990900626
0.7872018840087749   0.06868557507732444   0.047087877990900626
0.5162989772201344   -0.01815006252741369   -0.04037468307839822
0.5162989772201344   -0.01815006252741369   -0.04037468307839822
0.5162989772201344   -0.01815006252741369   -0.04037468307839822
0.5162989772201344   -0.01815006252741369   -0.04037468307839822
0.38895933290546414   0.0750233226309213   -0.011132001009422108
0.38895933290546414   0.0750233226309213   -0.011132001009422108
0.38895933290546414   0.0750233226309213   -0.011132001009422108
0.38895933290546414   0.0750233226309213   -0.011132001009422108
-0.11970303545030732   0.006620336198847304   0.003621808576296799
-0.11970303545030732   0.006620336198847304   0.003621808576296799
-0.11970303545030732   0.006620336198847304   0.003621808576296799
-0.11970303545030732   0.006620336198847304   0.003621808576296799
-0.16296314984954235   -0.06207573766474054   -0.03520545940977099
-0.16296314984954235   -0.06207573766474054   -0.03520545940977099
-0.16296314984954235   -0.06207573766474054   -0.03520545940977099
-0.16296314984954235   -0.06207573766474054   -0.03520545940977099
0.3781001029586544   0.09022468297800981   0.03777236470839306
0.3781001029586544   0.09022468297800981   0.03777236470839306
0.3781001029586544   0.09022468297800981   0.03777236470839306
0.3781001029586544   0.09022468297800981   0.03777236470839306
0.1184395160761059   0.026117113967358864   0.004535128117506418
0.1184395160761059   0.026117113967358864   0.004535128117506418
0.1184395160761059   0.026117113967358864   0.004535128117506418
0.1184395160761059   0.026117113967358864   0.004535128117506418
0.3610103212474389   0.04855806355223857   -0.006009924421918065
0.3610103212474389   0.04855806355223857   -0.006009924421918065
0.3610103212474389   0.04855806355223857   -0.006009924421918065
0.3610103212474389   0.04855806355223857   -0.006009924421918065
-0.14612397283297157   -0.020659722933614195   0.007574410941960415
-0.14612397283297157   -0.020659722933614195   0.007574410941960415
-0.14612397283297157   -0.020659722933614195   0.007574410941960415
-0.14612397283297157   -0.020659722933614195   0.007574410941960415
-0.18804667633527364   -0.08301966058974677   -0.028471593238612765
-0.18804667633527364   -0.08301966058974677   -0.028471593238612765
-0.18804667633527364   -0.08301966058974677   -0.028471593238612765
-0.18804667633527364   -0.08301966058974677   -0.028471593238612765
0.3473402504911353   0.06607453465755309   0.04106556220035767
0.3473402504911353   0.06607453465755309   0.04106556220035767
0.3473402504911353   0.06607453465755309   0.04106556220035767
0.3473402504911353   0.06607453465755309   0.04106556220035767
0.08752301207450311   0.0024555523160586235   -0.006831573463434995
0.08752301207450311   0.0024555523160586235   -0.006831573463434995
0.08752301207450311   0.0024555523160586235   -0.006831573463434995
0.08752301207450311   0.0024555523160586235   -0.006831573463434995
0.3307906469193702   0.02610044875726706   -0.0017083697581874637
0.3307906469193702   0.02610044875726706   -0.0017083697581874637
0.3307906469193702   0.02610044875726706   -0.0017083697581874637
0.3307906469193702   0.02610044875726706   -0.0017083697581874637
-0.17213353711966004   -0.043682039045602986   0.01175648129531136
-0.17213353711966004   -0.043682039045602986   0.01175648129531136
-0.17213353711966004   -0.043682039045602986   0.01175648129531136
-0.17213353711966004   -0.043682039045602986   0.01175648129531136
-0.2127990759852023   -0.10273800235339003   -0.022249021941212033
-0.2127990759852023   -0.10273800235339003   -0.022249021941212033
-0.2127990759852023   -0.10273800235339003   -0.022249021941212033
-0.2127990759852023   -0.10273800235339003   -0.022249021941212033
0.31958198128035087   0.042841612979773194   0.04465913295475346
0.31958198128035087   0.042841612979773194   0.04465913295475346
0.31958198128035087   0.042841612979773194   0.04465913295475346
0.31958198128035087   0.042841612979773194   0.04465913295475346
0.06267559147564987   -0.017214059152144225   -0.016880615717927528
0.06267559147564987   -0.017214059152144225   -0.016880615717927528
0.06267559147564987   -0.017214059152144225   -0.016880615717927528
0.06267559147564987   -0.017214059152144225   -0.016880615717927528
-0.10094344565673205   0.09535538731773471   0.008684706425285744
-0.10094344565673205   0.09535538731773471   0.008684706425285744
-0.10094344565673205   0.09535538731773471   0.008684706425285744
-0.10094344565673205   0.09535538731773471   0.008684706425285744
-0.6183621069795672   -0.015472799431925782   -0.018786813989715538
-0.6183621069795672   -0.015472799431925782   -0.018786813989715538
-0.6183621069795672   -0.015472799431925782   -0.018786813989715538
-0.6183621069795672   -0.015472799431925782   -0.018786813989715538
-0.6431008545659882   -0.036833466702845596   -0.013822531068866883
-0.6431008545659882   -0.036833466702845596   -0.013822531068866883
-0.6431008545659882   -0.036833466702845596   -0.013822531068866883
-0.6431008545659882   -0.036833466702845596   -0.013822531068866883
-0.1268197147235128   0.06880131089479173   0.014634667660844588
-0.1268197147235128   0.06880131089479173   0.014634667660844588
-0.1268197147235128   0.06880131089479173   0.014634667660844588
-0.1268197147235128   0.06880131089479173   0.014634667660844588
-0.3714015984580876   0.02753375177476508   0.007332207412347889
-0.3714015984580876   0.02753375177476508   0.007332207412347889
-0.3714015984580876   0.02753375177476508   0.007332207412347889
-0.3714015984580876   0.02753375177476508   0.007332207412347889
-0.12603743254667865   0.07234433483562594   0.015003054604181155
-0.12603743254667865   0.07234433483562594   0.015003054604181155
-0.12603743254667865   0.07234433483562594   0.015003054604181155
-0.12603743254667865   0.07234433483562594   0.015003054604181155
-0.6439514602323259   -0.04044481413317298   -0.014464211970227351
-0.6439514602323259   -0.04044481413317298   -0.014464211970227351
-0.6439514602323259   -0.04044481413317298   -0.014464211970227351
-0.6439514602323259   -0.04044481413317298   -0.014464211970227351
-0.6684419206271874   -0.05965254857709844   -0.007822318089173146
-0.6684419206271874   -0.05965254857709844   -0.007822318089173146
-0.6684419206271874   -0.05965254857709844   -0.007822318089173146
-0.6684419206271874   -0.05965254857709844   -0.007822318089173146
-0.15314045497855466   0.043947328213053964   0.019092524742177427
-0.15314045497855466   0.043947328213053964   0.019092524742177427
-0.15314045497855466   0.043947328213053964   0.019092524742177427
-0.15314045497855466   0.043947328213053964   0.019092524742177427
-0.3974561618539018   0.005324287083236151   -0.002443580486233228
-0.3974561618539018   0.005324287083236151   -0.002443580486233228
-0.3974561618539018   0.005324287083236151   -0.002443580486233228
-0.3974561618539018   0.005324287083236151   -0.002443580486233228
-0.1518152803849242   0.04930865689488861   0.020357069028498927
-0.1518152803849242   0.04930865689488861   0.020357069028498927
-0.1518152803849242   0.04930865689488861   0.020357069028498927
-0.1518152803849242   0.04930865689488861   0.020357069028498927
-0.6701686736986622   -0.06541545573677669   -0.010693176286868427
-0.6701686736986622   -0.06541545573677669   -0.010693176286868427
-0.6701686736986622   -0.06541545573677669   -0.010693176286868427
-0.6701686736986622   -0.06541545573677669   -0.010693176286868427
-0.6933588939383114   -0.08145342136459745   -0.0019905715221673094
-0.6933588939383114   -0.08145342136459745   -0.0019905715221673094
-0.6933588939383114   -0.08145342136459745   -0.0019905715221673094
-0.6933588939383114   -0.08145342136459745   -0.0019905715221673094
-0.17923614471762833   0.01979605371535506   0.023031578327908933
-0.17923614471762833   0.01979605371535506   0.023031578327908933
-0.17923614471762833   0.01979605371535506   0.023031578327908933
-0.17923614471762833   0.01979605371535506   0.023031578327908933
-0.4245815367137328   -0.016910931322138792   -0.013038540399392319
-0.4245815367137328   -0.016910931322138792   -0.013038540399392319
-0.4245815367137328   -0.016910931322138792   -0.013038540399392319
-0.4245815367137328   -0.016910931322138792   -0.013038540399392319
-0.5833460593471778   0.11277125285403483   0.02804937188627092
-0.5833460593471778   0.11277125285403483   0.02804937188627092
-0.5833460593471778   0.11277125285403483   0.02804937188627092
-0.5833460593471778   0.11277125285403483   0.02804937188627092
-1.1080907352510567   -0.03743621785899151   -0.03827452101675561
-1.1080907352510567   -0.03743621785899151   -0.03827452101675561
-1.1080907352510567   -0.03743621785899151   -0.03827452101675561
-1.1080907352510567   -0.03743621785899151   -0.03827452101675561
-1.1173950848512288   -0.01627803247972817   0.009115798523845912
-1.1173950848512288   -0.01627803247972817   0.009115798523845912
-1.1173950848512288   -0.01627803247972817   0.009115798523845912
-1.1173950848512288   -0.01627803247972817   0.009115798523845912
-0.6256419150505073   0.04482242960266675   -0.008183729796985423
-0.6256419150505073   0.04482242960266675   -0.008183729796985423
-0.6256419150505073   0.04482242960266675   -0.008183729796985423
-0.6256419150505073   0.04482242960266675   -0.008183729796985423
-0.8535351537396224   0.02622643831959459   0.010654311087125078
-0.8535351537396224   0.02622643831959459   0.010654311087125078
-0.8535351537396224   0.02622643831959459   0.010654311087125078
-0.8535351537396224   0.02622643831959459   0.010654311087125078
-0.6079733943080974   0.09064950552306442   0.03433179799467744
-0.6079733943080974   0.09064950552306442   0.03433179799467744
-0.6079733943080974   0.09064950552306442   0.03433179799467744
-0.6079733943080974   0.09064950552306442   0.03433179799467744
-1.1358320399749322   -0.06287354278140997   -0.036473466793005165
-1.1358320399749322   -0.06287354278140997   -0.036473466793005165
-1.1358320399749322   -0.06287354278140997   -0.036473466793005165
-1.1358320399749322   -0.06287354278140997   -0.036473466793005165
-1.1472636332156554   -0.0388775802839286   0.011899507854339804
-1.1472636332156554   -0.0388775802839286   0.011899507854339804
-1.1472636332156554   -0.0388775802839286   0.011899507854339804
-1.1472636332156554   -0.0388775802839286   0.011899507854339804
-0.6512532152070907   0.02192021714395595   -0.003451556709754895
-0.6512532152070907   0.02192021714395595   -0.003451556709754895
-0.6512532152070907   0.02192021714395595   -0.003451556709754895
-0.6512532152070907   0.02192021714395595   -0.003451556709754895
-0.875488791618094   0.006076758791300263   0.0008504657194355961
-0.875488791618094   0.006076758791300263   0.0008504657194355961
-0.875488791618094   0.006076758791300263   0.0008504657194355961
-0.875488791618094   0.006076758791300263   0.0008504657194355961
-0.6329501813469398   0.06966831205494983   0.04031551768001646
-0.6329501813469398   0.06966831205494983   0.04031551768001646
-0.6329501813469398   0.06966831205494983   0.04031551768001646
-0.6329501813469398   0.06966831205494983   0.04031551768001646
-1.1656318360541227   -0.08669084417324005   -0.03212824244870247
-1.1656318360541227   -0.08669084417324005   -0.03212824244870247
-1.1656318360541227   -0.08669084417324005   -0.03212824244870247
-1.1656318360541227   -0.08669084417324005   -0.03212824244870247
-1.1738653371333334   -0.06294554163129462   0.01815789590509604
-1.1738653371333334   -0.06294554163129462   0.01815789590509604
-1.1738653371333334   -0.06294554163129462   0.01815789590509604
-1.1738653371333334   -0.06294554163129462   0.01815789590509604
-0.6773108793650827   -0.0034711614565292592   0.00026724143589657023
-0.6773108793650827   -0.0034711614565292592   0.00026724143589657023
-0.6773108793650827   -0.0034711614565292592   0.00026724143589657023
-0.6773108793650827   -0.0034711614565292592   0.00026724143589657023
-0.908387994407719   -0.0172887588205215   -0.010519782521825803
-0.908387994407719   -0.0172887588205215   -0.010519782521825803
-0.908387994407719   -0.0172887588205215   -0.010519782521825803
-0.908387994407719   -0.0172887588205215   -0.010519782521825803
-1.063226135027291   0.10450588938208627   0.04410637286099556
-1.063226135027291   0.10450588938208627   0.04410637286099556
-1.063226135027291   0.10450588938208627   0.04410637286099556
-1.063226135027291   0.10450588938208627   0.04410637286099556
-1.5684834647388777   -0.07217194327528054   -0.04978363246684281
-1.5684834647388777   -0.07217194327528054   -0.04978363246684281
-1.5684834647388777   -0.07217194327528054   -0.04978363246684281
-1.5684834647388777   -0.07217194327528054   -0.04978363246684281
-1.5836971567611602   -0.0012501448455548014   0.043720484330426926
-1.5836971567611602   -0.0012501448455548014   0.043720484330426926
-1.5836971567611602   -0.0012501448455548014   0.043720484330426926
-1.5836971567611602   -0.0012501448455548014   0.043720484330426926
-1.1189058995310548   0.015195002454935158   -0.02991130980997024
-1.1189058995310548   0.015195002454935158   -0.02991130980997024
-1.1189058995310548   0.015195002454935158   -0.02991130980997024
-1.1189058995310548   0.015195002454935158   -0.02991130980997024
-1.2749168413498455   0.024303615563916914   0.03223781502360565
-1.2749168413498455   0.024303615563916914   0.03223781502360565
-1.2749168413498455   0.024303615563916914   0.03223781502360565
-1.2749168413498455   0.024303615563916914   0.03223781502360565
-1.0855493366792655   0.10004051973793693   0.0520259871659909
-1.0855493366792655   0.10004051973793693   0.0520259871659909
-1.0855493366792655   0.10004051973793693   0.0520259871659909
-1.0855493366792655   0.10004051973793693   0.0520259871659909
-1.6177086584673155   -0.08675060098291859   -0.040836568062978515
-1.6177086584673155   -0.08675060098291859   -0.040836568062978515
-1.6177086584673155   -0.08675060098291859   -0.040836568062978515
-1.6177086584673155   -0.08675060098291859   -0.040836568062978515
-1.6258845865396099   -0.01367608036630491   0.05510407641880859
-1.6258845865396099   -0.01367608036630491   0.05510407641880859
-1.6258845865396099   -0.01367608036630491   0.05510407641880859
-1.6258845865396099   -0.01367608036630491   0.05510407641880859
-1.1464395593494523   0.0026354658441921086   -0.025493168942788733
-1.1464395593494523   0.0026354658441921086   -0.025493168942788733
-1.1464395593494523   0.0026354658441921086   -0.025493168942788733
-1.1464395593494523   0.0026354658441921086   -0.025493168942788733
-1.3317455844669492   0.010014579832213266   0.01683536931599426
-1.3317455844669492   0.010014579832213266   0.01683536931599426
-1.3317455844669492   0.010014579832213266   0.01683536931599426
-1.3317455844669492   0.010014579832213266   0.01683536931599426
-1.1115199948897425   0.09043670543325152   0.06130341376672348
-1.1115199948897425   0.09043670543325152   0.06130341376672348
-1.1115199948897425   0.09043670543325152   0.06130341376672348
-1.1115199948897425   0.09043670543325152   0.06130341376672348
-1.6612777419080162   -0.101950910864057   -0.03358686992547032
-1.6612777419080162   -0.101950910864057   -0.03358686992547032
-1.6612777419080162   -0.101950910864057   -0.03358686992547032
-1.6612777419080162   -0.101950910864057   -0.03358686992547032
-1.6823229568790008   -0.05252707549000318   0.05529979892555377
-1.6823229568790008   -0.05252707549000318   0.05529979892555377
-1.6823229568790008   -0.05252707549000318   0.05529979892555377
-1.6823229568790008   -0.05252707549000318   0.05529979892555377
-1.175243585904297   -0.029138721664124206   -0.02254016791691451
-1.175243585904297   -0.029138721664124206   -0.02254016791691451
-1.175243585904297   -0.029138721664124206   -0.02254016791691451
-1.175243585904297   -0.029138721664124206   -0.02254016791691451
-1.347917214163567   -0.0062719241711058915   0.009491278940361697
-1.347917214163567   -0.0062719241711058915   0.009491278940361697
-1.347917214163567   -0.0062719241711058915   0.009491278940361697
-1.347917214163567   -0.0062719241711058915   0.009491278940361697
0.49644991060090526   0.029640033070998717   -0.05999092448385725
0.49644991060090526   0.029640033070998717   -0.05999092448385725
0.49644991060090526   0.029640033070998717   -0.05999092448385725
0.49644991060090526   0.029640033070998717   -0.05999092448385725
0.14396821183321298   0.03611047708054666   0.028726895023732435
0.14396821183321298   0.03611047708054666   0.028726895023732435
0.14396821183321298   0.03611047708054666   0.028726895023732435
0.14396821183321298   0.03611047708054666   0.028726895023732435
0.08810616627220687   -0.07310149459474674   -0.052891658143447956
0.08810616627220687   -0.07310149459474674   -0.052891658143447956
0.08810616627220687   -0.07310149459474674   -0.052891658143447956
0.08810616627220687   -0.07310149459474674   -0.052891658143447956
0.48267919449853136   0.08487532255337812   0.03456539367683035
0.48267919449853136   0.08487532255337812   0.03456539367683035
0.48267919449853136   0.08487532255337812   0.03456539367683035
0.48267919449853136   0.08487532255337812   0.03456539367683035
0.28509794463113186   0.01414660432304201   -0.006607481594914522
0.28509794463113186   0.01414660432304201   -0.006607481594914522
0.28509794463113186   0.01414660432304201   -0.006607481594914522
0.28509794463113186   0.01414660432304201   -0.006607481594914522
0.44746333367554086   -0.001649539218616658   -0.05498904866613154
0.44746333367554086   -0.001649539218616658   -0.05498904866613154
0.44746333367554086   -0.001649539218616658   -0.05498904866613154
0.44746333367554086   -0.001649539218616658   -0.05498904866613154
0.12222280056643214   0.0123241406484823   0.03226587808445042
0.12222280056643214   0.0123241406484823   0.03226587808445042
0.12222280056643214   0.0123241406484823   0.03226587808445042
0.12222280056643214   0.0123241406484823   0.03226587808445042
0.06701325224662837   -0.08347567348091219   -0.04490987907623678
0.06701325224662837   -0.08347567348091219   -0.04490987907623678
0.06701325224662837   -0.08347567348091219   -0.04490987907623678
0.06701325224662837   -0.08347567348091219   -0.04490987907623678
0.44476545890404606   0.07055825023900163   0.04438737413231043
0.44476545890404606   0.07055825023900163   0.04438737413231043
0.44476545890404606   0.07055825023900163   0.04438737413231043
0.44476545890404606   0.07055825023900163   0.04438737413231043
0.2585903214347401   -0.0020509674353229312   -0.01712712833764401
0.2585903214347401   -0.0020509674353229312   -0.01712712833764401
0.2585903214347401   -0.0020509674353229312   -0.01712712833764401
0.2585903214347401   -0.0020509674353229312   -0.01712712833764401
0.40975538171606696   -0.01497185340456883   -0.04513290816402002
0.40975538171606696   -0.01497185340456883   -0.04513290816402002
0.40975538171606696   -0.01497185340456883   -0.04513290816402002
0.40975538171606696   -0.01497185340456883   -0.04513290816402002
0.10055263206858572   0.000583732796646183   0.03872761375599352
0.10055263206858572   0.000583732796646183   0.03872761375599352
0.10055263206858572   0.000583732796646183   0.03872761375599352
0.10055263206858572   0.000583732796646183   0.03872761375599352
0.04814977603095187   -0.09602244609859246   -0.037400119910799466
0.04814977603095187   -0.09602244609859246   -0.037400119910799466
0.04814977603095187   -0.09602244609859246   -0.037400119910799466
0.04814977603095187   -0.09602244609859246   -0.037400119910799466
0.39782662399759083   0.047632255742124006   0.049267248267438876
0.39782662399759083   0.047632255742124006   0.049267248267438876
0.39782662399759083   0.047632255742124006   0.049267248267438876
0.39782662399759083   0.047632255742124006   0.049267248267438876
0.22203689520957265   -0.016490230978322633   -0.029972921550123495
0.22203689520957265   -0.016490230978322633   -0.029972921550123495
0.22203689520957265   -0.016490230978322633   -0.029972921550123495
0.22203689520957265   -0.016490230978322633   -0.029972921550123495
0.1383185940955941   0.05401513089667082   -0.017425847480487
0.1383185940955941   0.05401513089667082   -0.017425847480487
0.1383185940955941   0.05401513089667082   -0.017425847480487
0.1383185940955941   0.05401513089667082   -0.017425847480487
-0.20263708275697107   0.01749901285946997   0.007001011109882951
-0.20263708275697107   0.01749901285946997   0.007001011109882951
-0.20263708275697107   0.01749901285946997   0.007001011109882951
-0.20263708275697107   0.01749901285946997   0.007001011109882951
-0.23861721117579732   -0.04684403286695134   -0.03085390038196093
-0.23861721117579732   -0.04684403286695134   -0.03085390038196093
-0.23861721117579732   -0.04684403286695134   -0.03085390038196093
-0.23861721117579732   -0.04684403286695134   -0.03085390038196093
0.13327090696982194   0.06705434342911326   0.03277620732076851
0.13327090696982194   0.06705434342911326   0.03277620732076851
0.13327090696982194   0.06705434342911326   0.03277620732076851
0.13327090696982194   0.06705434342911326   0.03277620732076851
-0.04360110461306478   0.021965331594857203   0.005549097368394323
-0.04360110461306478   0.021965331594857203   0.005549097368394323
-0.04360110461306478   0.021965331594857203   0.005549097368394323
-0.04360110461306478   0.021965331594857203   0.005549097368394323
0.1162922171929419   0.027746711046893843   -0.012809609181412863
0.1162922171929419   0.027746711046893843   -0.012809609181412863
0.1162922171929419   0.027746711046893843   -0.012809609181412863
0.1162922171929419   0.027746711046893843   -0.012809609181412863
-0.2225745267740504   -0.008472405859880475   0.010987894619702863
-0.2225745267740504   -0.008472405859880475   0.010987894619702863
-0.2225745267740504   -0.008472405859880475   0.010987894619702863
-0.2225745267740504   -0.008472405859880475   0.010987894619702863
-0.2574875188485621   -0.06793479415138814   -0.024153312504712476
-0.2574875188485621   -0.06793479415138814   -0.024153312504712476
-0.2574875188485621   -0.06793479415138814   -0.024153312504712476
-0.2574875188485621   -0.06793479415138814   -0.024153312504712476
0.10851195957596911   0.04337425194407864   0.03573373214547804
0.10851195957596911   0.04337425194407864   0.03573373214547804
0.10851195957596911   0.04337425194407864   0.03573373214547804
0.10851195957596911   0.04337425194407864   0.03573373214547804
-0.06691042171842092   -0.0007720788409106474   -0.005345057815061198
-0.06691042171842092   -0.0007720788409106474   -0.005345057815061198
-0.06691042171842092   -0.0007720788409106474   -0.005345057815061198
-0.06691042171842092   -0.0007720788409106474   -0.005345057815061198
0.09203589923728557   0.005121740371626066   -0.008394057975489021
0.09203589923728557   0.005121740371626066   -0.008394057975489021
0.09203589923728557   0.005121740371626066   -0.008394057975489021
0.09203589923728557   0.005121740371626066   -0.008394057975489021
-0.24222279243603026   -0.030893616505086985   0.015129141911649324
-0.24222279243603026   -0.030893616505086985   0.015129141911649324
-0.24222279243603026   -0.030893616505086985   0.015129141911649324
-0.24222279243603026   -0.030893616505086985   0.015129141911649324
-0.27621441344101333   -0.0888689060285605   -0.018097067365550803
-0.27621441344101333   -0.0888689060285605   -0.018097067365550803
-0.27621441344101333   -0.0888689060285605   -0.018097067365550803
-0.27621441344101333   -0.0888689060285605   -0.018097067365550803
0.08683437453312257   0.020111009009908094   0.039889417491554426
0.08683437453312257   0.020111009009908094   0.039889417491554426
0.08683437453312257   0.020111009009908094   0.039889417491554426
0.08683437453312257   0.020111009009908094   0.039889417491554426
-0.0870945126472813   -0.021147231554216037   -0.015637307610566763
-0.0870945126472813   -0.021147231554216037   -0.015637307610566763
-0.0870945126472813   -0.021147231554216037   -0.015637307610566763
-0.0870945126472813   -0.021147231554216037   -0.015637307610566763
-0.19220917139301308   0.0740358888676306   0.002603691921512309
-0.19220917139301308   0.0740358888676306   0.002603691921512309
-0.19220917139301308   0.0740358888676306   0.002603691921512309
-0.19220917139301308   0.0740358888676306   0.002603691921512309
-0.5446641713832125   -0.006424995662559427   -0.014952608458493891
-0.5446641713832125   -0.006424995662559427   -0.014952608458493891
-0.5446641713832125   -0.006424995662559427   -0.014952608458493891
-0.5446641713832125   -0.006424995662559427   -0.014952608458493891
-0.5616561893007113   -0.022878262152425735   -0.008926722998044336
-0.5616561893007113   -0.022878262152425735   -0.008926722998044336
-0.5616561893007113   -0.022878262152425735   -0.008926722998044336
-0.5616561893007113   -0.022878262152425735   -0.008926722998044336
-0.21216645617630256   0.044133756578696046   0.010422085169861678
-0.21216645617630256   0.044133756578696046   0.010422085169861678
-0.21216645617630256   0.044133756578696046   0.010422085169861678
-0.21216645617630256   0.044133756578696046   0.010422085169861678
-0.3767802701540465   0.02175282596204091   0.005757737474226952
-0.3767802701540465   0.02175282596204091   0.005757737474226952
-0.3767802701540465   0.02175282596204091   0.005757737474226952
-0.3767802701540465   0.02175282596204091   0.005757737474226952
-0.2111502854726234   0.05077966855517035   0.008857026711786956
-0.2111502854726234   0.05077966855517035   0.008857026711786956
-0.2111502854726234   0.05077966855517035   0.008857026711786956
-0.2111502854726234   0.05077966855517035   0.008857026711786956
-0.5634916390742403   -0.03034345319873398   -0.01063878081938142
-0.5634916390742403   -0.03034345319873398   -0.01063878081938142
-0.5634916390742403   -0.03034345319873398   -0.01063878081938142
-0.5634916390742403   -0.03034345319873398   -0.01063878081938142
-0.5804435676181571   -0.04590263894526436   -0.0028541984098118638
-0.5804435676181571   -0.04590263894526436   -0.0028541984098118638
-0.5804435676181571   -0.04590263894526436   -0.0028541984098118638
-0.5804435676181571   -0.04590263894526436   -0.0028541984098118638
-0.23208560634639577   0.02011774664793431   0.014803709206796543
-0.23208560634639577   0.02011774664793431   0.014803709206796543
-0.23208560634639577   0.02011774664793431   0.014803709206796543
-0.23208560634639577   0.02011774664793431   0.014803709206796543
-0.396382800827195   -0.00011257655094501495   -0.004010551488737545
-0.396382800827195   -0.00011257655094501495   -0.004010551488737545
-0.396382800827195   -0.00011257655094501495   -0.004010551488737545
-0.396382800827195   -0.00011257655094501495   -0.004010551488737545
-0.23072307757796598   0.027465932236760804   0.014268167460122928
-0.23072307757796598   0.027465932236760804   0.014268167460122928
-0.23072307757796598   0.027465932236760804   0.014268167460122928
-0.23072307757796598   0.027465932236760804   0.014268167460122928
-0.5829709452205828   -0.05441567336809007   -0.00697805199910766
-0.5829709452205828   -0.05441567336809007   -0.00697805199910766
-0.5829709452205828   -0.05441567336809007   -0.00697805199910766
-0.5829709452205828   -0.05441567336809007   -0.00697805199910766
-0.5988719478167411   -0.06813288600278641   0.003022682836314237
-0.5988719478167411   -0.06813288600278641   0.003022682836314237
-0.5988719478167411   -0.06813288600278641   0.003022682836314237
-0.5988719478167411   -0.06813288600278641   0.003022682836314237
-0.25166174091715576   -0.0030189052427238433   0.018816294467896677
-0.25166174091715576   -0.0030189052427238433   0.018816294467896677
-0.25166174091715576   -0.0030189052427238433   0.018816294467896677
-0.25166174091715576   -0.0030189052427238433   0.018816294467896677
-0.41700658782454125   -0.022031033412444306   -0.014615728161691734
-0.41700658782454125   -0.022031033412444306   -0.014615728161691734
-0.41700658782454125   -0.022031033412444306   -0.014615728161691734
-0.41700658782454125   -0.022031033412444306   -0.014615728161691734
-0.5171493337635703   0.09303856953107367   0.023158014446083723
-0.5171493337635703   0.09303856953107367   0.023158014446083723
-0.5171493337635703   0.09303856953107367   0.023158014446083723
-0.5171493337635703   0.09303856953107367   0.023158014446083723
-0.8791502189401503   -0.026041483291918216   -0.03414693323862312
-0.8791502189401503   -0.026041483291918216   -0.03414693323862312
-0.8791502189401503   -0.026041483291918216   -0.03414693323862312
-0.8791502189401503   -0.026041483291918216   -0.03414693323862312
-0.8808341131428672   -0.0017150569386167047   0.014321035588957268
-0.8808341131428672   -0.0017150569386167047   0.014321035588957268
-0.8808341131428672   -0.0017150569386167047   0.014321035588957268
-0.8808341131428672   -0.0017150569386167047   0.014321035588957268
-0.5529160870314492   0.022677932209551693   -0.010782406013719006
-0.5529160870314492   0.022677932209551693   -0.010782406013719006
-0.5529160870314492   0.022677932209551693   -0.010782406013719006
-0.5529160870314492   0.022677932209551693   -0.010782406013719006
-0.7039161717283255   0.021950816931000094   0.00758913489316379
-0.7039161717283255   0.021950816931000094   0.00758913489316379
-0.7039161717283255   0.021950816931000094   0.00758913489316379
-0.7039161717283255   0.021950816931000094   0.00758913489316379
-0.535327268779842   0.07040835692247675   0.02943126053139937
-0.535327268779842   0.07040835692247675   0.02943126053139937
-0.535327268779842   0.07040835692247675   0.02943126053139937
-0.535327268779842   0.07040835692247675   0.02943126053139937
-0.8999967496492214   -0.05101929990629395   -0.03218790397514427
-0.8999967496492214   -0.05101929990629395   -0.03218790397514427
-0.8999967496492214   -0.05101929990629395   -0.03218790397514427
-0.8999967496492214   -0.05101929990629395   -0.03218790397514427
-0.9039613454797367   -0.024412522329332303   0.017592876196449884
-0.9039613454797367   -0.024412522329332303   0.017592876196449884
-0.9039613454797367   -0.024412522329332303   0.017592876196449884
-0.9039613454797367   -0.024412522329332303   0.017592876196449884
-0.5718022158513537   0.0005684391783313536   -0.006118517699391042
-0.5718022158513537   0.0005684391783313536   -0.006118517699391042
-0.5718022158513537   0.0005684391783313536   -0.006118517699391042
-0.5718022158513537   0.0005684391783313536   -0.006118517699391042
-0.7205825738344581   0.0015692109385074537   -0.0026533395851032968
-0.7205825738344581   0.0015692109385074537   -0.0026533395851032968
-0.7205825738344581   0.0015692109385074537   -0.0026533395851032968
-0.7205825738344581   0.0015692109385074537   -0.0026533395851032968
-0.5537455498502841   0.0492155932117716   0.03551765827251684
-0.5537455498502841   0.0492155932117716   0.03551765827251684
-0.5537455498502841   0.0492155932117716   0.03551765827251684
-0.5537455498502841   0.0492155932117716   0.03551765827251684
-0.9229989547415923   -0.07404061962356118   -0.027967072818614984
-0.9229989547415923   -0.07404061962356118   -0.027967072818614984
-0.9229989547415923   -0.07404061962356118   -0.027967072818614984
-0.9229989547415923   -0.07404061962356118   -0.027967072818614984
-0.9239430534499451   -0.048064070811796616   0.023934868744422133
-0.9239430534499451   -0.048064070811796616   0.023934868744422133
-0.9239430534499451   -0.048064070811796616   0.023934868744422133
-0.9239430534499451   -0.048064070811796616   0.023934868744422133
-0.5909237318158319   -0.023069707097829004   -0.002299416064105473
-0.5909237318158319   -0.023069707097829004   -0.002299416064105473
-0.5909237318158319   -0.023069707097829004   -0.002299416064105473
-0.5909237318158319   -0.023069707097829004   -0.002299416064105473
-0.7453494937125549   -0.020626272096988973   -0.01381151803724285
-0.7453494937125549   -0.020626272096988973   -0.01381151803724285
-0.7453494937125549   -0.020626272096988973   -0.01381151803724285
-0.7453494937125549   -0.020626272096988973   -0.01381151803724285
-0.8405938324347414   0.09156784406518378   0.04102567193134252
-0.8405938324347414   0.09156784406518378   0.04102567193134252
-0.8405938324347414   0.09156784406518378   0.04102567193134252
-0.8405938324347414   0.09156784406518378   0.04102567193134252
-1.1827135778393463   -0.0543904991409839   -0.05188854201201384
-1.1827135778393463   -0.0543904991409839   -0.05188854201201384
-1.1827135778393463   -0.0543904991409839   -0.05188854201201384
-1.1827135778393463   -0.0543904991409839   -0.05188854201201384
-1.191397241688472   0.015304787651150675   0.04312895832852455
-1.191397241688472   0.015304787651150675   0.04312895832852455
-1.191397241688472   0.015304787651150675   0.04312895832852455
-1.191397241688472   0.015304787651150675   0.04312895832852455
-0.890245550666467   -0.0027445883684760197   -0.03170662059919801
-0.890245550666467   -0.0027445883684760197   -0.03170662059919801
-0.890245550666467   -0.0027445883684760197   -0.03170662059919801
-0.890245550666467   -0.0027445883684760197   -0.03170662059919801
-0.982145178058506   0.021999013080333696   0.023754581133761207
-0.982145178058506   0.021999013080333696   0.023754581133761207
-0.982145178058506   0.021999013080333696   0.023754581133761207
-0.982145178058506   0.021999013080333696   0.023754581133761207
-0.8569986503917569   0.08326281060497007   0.048520481800906304
-0.8569986503917569   0.08326281060497007   0.048520481800906304
-0.8569986503917569   0.08326281060497007   0.048520481800906304
-0.8569986503917569   0.08326281060497007   0.048520481800906304
-1.2263185233486529   -0.07237699270776102   -0.04379566961343714
-1.2263185233486529   -0.07237699270776102   -0.04379566961343714
-1.2263185233486529   -0.07237699270776102   -0.04379566961343714
-1.2263185233486529   -0.07237699270776102   -0.04379566961343714
-1.227408653827729   0.002557282655623938   0.055085009592646964
-1.227408653827729   0.002557282655623938   0.055085009592646964
-1.227408653827729   0.002557282655623938   0.055085009592646964
-1.227408653827729   0.002557282655623938   0.055085009592646964
-0.9110562182402329   -0.015081726852741895   -0.02721228308263654
-0.9110562182402329   -0.015081726852741895   -0.02721228308263654
-0.9110562182402329   -0.015081726852741895   -0.02721228308263654
-0.9110562182402329   -0.015081726852741895   -0.02721228308263654
-1.0281434788218737   0.006918491590430231   0.008524930189271383
-1.0281434788218737   0.006918491590430231   0.008524930189271383
-1.0281434788218737   0.006918491590430231   0.008524930189271383
-1.0281434788218737   0.006918491590430231   0.008524930189271383
-0.8763975999758989   0.07328525648725656   0.05771382489904163
-0.8763975999758989   0.07328525648725656   0.05771382489904163
-0.8763975999758989   0.07328525648725656   0.05771382489904163
-0.8763975999758989   0.07328525648725656   0.05771382489904163
-1.2636530623397386   -0.08739549093205434   -0.03618425937969316
-1.2636530623397386   -0.08739549093205434   -0.03618425937969316
-1.2636530623397386   -0.08739549093205434   -0.03618425937969316
-1.2636530623397386   -0.08739549093205434   -0.03618425937969316
-1.2772148447372107   -0.03364766824063689   0.05688635803337478
-1.2772148447372107   -0.03364766824063689   0.05688635803337478
-1.2772148447372107   -0.03364766824063689   0.05688635803337478
-1.2772148447372107   -0.03364766824063689   0.05688635803337478
-0.9325287358990262   -0.04332725765617121   -0.02373035665662375
-0.9325287358990262   -0.04332725765617121   -0.02373035665662375
-0.9325287358990262   -0.04332725765617121   -0.02373035665662375
-0.9325287358990262   -0.04332725765617121   -0.02373035665662375
-1.0431829736884621   -0.00911111690041888   -0.0005433129280121643
-1.0431829736884621   -0.00911111690041888   -0.0005433129280121643
-1.0431829736884621   -0.00911111690041888   -0.0005433129280121643
-1.0431829736884621   -0.00911111690041888   -0.0005433129280121643
0.08831697122214317   0.007269194641418345   -0.05982827656083935
0.08831697122214317   0.007269194641418345   -0.05982827656083935
0.08831697122214317   0.007269194641418345   -0.05982827656083935
0.08831697122214317   0.007269194641418345   -0.05982827656083935
-0.09810158163958607   0.04488691368774615   0.03061314526352254
-0.09810158163958607   0.04488691368774615   0.03061314526352254
-0.09810158163958607   0.04488691368774615   0.03061314526352254
-0.09810158163958607   0.04488691368774615   0.03061314526352254
-0.14685694797443175   -0.0575802407785016   -0.0481762805096052
-0.14685694797443175   -0.0575802407785016   -0.0481762805096052
-0.14685694797443175   -0.0575802407785016   -0.0481762805096052
-0.14685694797443175   -0.0575802407785016   -0.0481762805096052
0.08092964429130041   0.06329910126356701   0.03759693646110762
0.08092964429130041   0.06329910126356701   0.03759693646110762
0.08092964429130041   0.06329910126356701   0.03759693646110762
0.08092964429130041   0.06329910126356701   0.03759693646110762
-0.02092536065113413   0.013889954491582812   0.0052042537642915925
-0.02092536065113413   0.013889954491582812   0.0052042537642915925
-0.02092536065113413   0.013889954491582812   0.0052042537642915925
-0.02092536065113413   0.013889954491582812   0.0052042537642915925
0.046041884502074616   -0.020061475354641797   -0.05348128586681255
0.046041884502074616   -0.020061475354641797   -0.05348128586681255
0.046041884502074616   -0.020061475354641797   -0.05348128586681255
0.046041884502074616   -0.020061475354641797   -0.05348128586681255
-0.11403286610260145   0.023716657922311722   0.03464723014873303
-0.11403286610260145   0.023716657922311722   0.03464723014873303
-0.11403286610260145   0.023716657922311722   0.03464723014873303
-0.11403286610260145   0.023716657922311722   0.03464723014873303
-0.16291808186638973   -0.06802224796656602   -0.040831576125122664
-0.16291808186638973   -0.06802224796656602   -0.040831576125122664
-0.16291808186638973   -0.06802224796656602   -0.040831576125122664
-0.16291808186638973   -0.06802224796656602   -0.040831576125122664
0.04785504425611939   0.049113878948407186   0.05155751129365613
0.04785504425611939   0.049113878948407186   0.05155751129365613
0.04785504425611939   0.049113878948407186   0.05155751129365613
0.04785504425611939   0.049113878948407186   0.05155751129365613
-0.0470360065468739   -0.001753517698549813   -0.006861190104194752
-0.0470360065468739   -0.001753517698549813   -0.006861190104194752
-0.0470360065468739   -0.001753517698549813   -0.006861190104194752
-0.0470360065468739   -0.001753517698549813   -0.006861190104194752
0.012162839106125818   -0.03366472970718784   -0.0441249058007167
0.012162839106125818   -0.03366472970718784   -0.0441249058007167
0.012162839106125818   -0.03366472970718784   -0.0441249058007167
0.012162839106125818   -0.03366472970718784   -0.0441249058007167
-0.1300889256907588   0.011893311714661042   0.04339864507180356
-0.1300889256907588   0.011893311714661042   0.04339864507180356
-0.1300889256907588   0.011893311714661042   0.04339864507180356
-0.1300889256907588   0.011893311714661042   0.04339864507180356
-0.17762914716494238   -0.08408067278529005   -0.033841623207098194
-0.17762914716494238   -0.08408067278529005   -0.033841623207098194
-0.17762914716494238   -0.08408067278529005   -0.033841623207098194
-0.17762914716494238   -0.08408067278529005   -0.033841623207098194
0.0019223859308543948   0.019374155573244987   0.05877362747256537
0.0019223859308543948   0.019374155573244987   0.05877362747256537
0.0019223859308543948   0.019374155573244987   0.05877362747256537
0.0019223859308543948   0.019374155573244987   0.05877362747256537
-0.07505640113519922   -0.017507551112555725   -0.020769563858511263
-0.07505640113519922   -0.017507551112555725   -0.020769563858511263
-0.07505640113519922   -0.017507551112555725   -0.020769563858511263
-0.07505640113519922   -0.017507551112555725   -0.020769563858511263
-0.11207471924707892   0.02944846460186571   -0.02381409368806117
-0.11207471924707892   0.02944846460186571   -0.02381409368806117
-0.11207471924707892   0.02944846460186571   -0.02381409368806117
-0.11207471924707892   0.02944846460186571   -0.02381409368806117
-0.2867001439231373   0.012058545432581239   0.007994995084581968
-0.2867001439231373   0.012058545432581239   0.007994995084581968
-0.2867001439231373   0.012058545432581239   0.007994995084581968
-0.2867001439231373   0.012058545432581239   0.007994995084581968
-0.31184700428456497   -0.033533995249399776   -0.02504757481740977
-0.31184700428456497   -0.033533995249399776   -0.02504757481740977
-0.31184700428456497   -0.033533995249399776   -0.02504757481740977
-0.31184700428456497   -0.033533995249399776   -0.02504757481740977
-0.11521154670710866   0.028547262946699844   0.023923222101808757
-0.11521154670710866   0.028547262946699844   0.023923222101808757
-0.11521154670710866   0.028547262946699844   0.023923222101808757
-0.11521154670710866   0.028547262946699844   0.023923222101808757
-0.2060344222011716   0.008547442254979172   0.004550381192853928
-0.2060344222011716   0.008547442254979172   0.004550381192853928
-0.2060344222011716   0.008547442254979172   0.004550381192853928
-0.2060344222011716   0.008547442254979172   0.004550381192853928
-0.12878365679299397   0.004175146780177406   -0.019565212161094823
-0.12878365679299397   0.004175146780177406   -0.019565212161094823
-0.12878365679299397   0.004175146780177406   -0.019565212161094823
-0.12878365679299397   0.004175146780177406   -0.019565212161094823
-0.29996821411205465   -0.010855198996252917   0.011667579791990979
-0.29996821411205465   -0.010855198996252917   0.011667579791990979
-0.29996821411205465   -0.010855198996252917   0.011667579791990979
-0.29996821411205465   -0.010855198996252917   0.011667579791990979
-0.3243496276502976   -0.054040980007275474   -0.018480840385025787
-0.3243496276502976   -0.054040980007275474   -0.018480840385025787
-0.3243496276502976   -0.054040980007275474   -0.018480840385025787
-0.3243496276502976   -0.054040980007275474   -0.018480840385025787
-0.1345753395659106   0.005887069615913898   0.026972817794791625
-0.1345753395659106   0.005887069615913898   0.026972817794791625
-0.1345753395659106   0.005887069615913898   0.026972817794791625
-0.1345753395659106   0.005887069615913898   0.026972817794791625
-0.22182889797845906   -0.012028688247299517   -0.005771715907135565
-0.22182889797845906   -0.012028688247299517   -0.005771715907135565
-0.22182889797845906   -0.012028688247299517   -0.005771715907135565
-0.22182889797845906   -0.012028688247299517   -0.005771715907135565
-0.14765661494707516   -0.017929589407207472   -0.014616900087908231
-0.14765661494707516   -0.017929589407207472   -0.014616900087908231
-0.14765661494707516   -0.017929589407207472   -0.014616900087908231
-0.14765661494707516   -0.017929589407207472   -0.014616900087908231
-0.3130858506667535   -0.03204181938177427   0.015838883907193672
-0.3130858506667535   -0.03204181938177427   0.015838883907193672
-0.3130858506667535   -0.03204181938177427   0.015838883907193672
-0.3130858506667535   -0.03204181938177427   0.015838883907193672
-0.3369346827041695   -0.07515373802505565   -0.012665260445972245
-0.3369346827041695   -0.07515373802505565   -0.012665260445972245
-0.3369346827041695   -0.07515373802505565   -0.012665260445972245
-0.3369346827041695   -0.07515373802505565   -0.012665260445972245
-0.15076849888026445   -0.01708593554997568   0.03346688098097509
-0.15076849888026445   -0.01708593554997568   0.03346688098097509
-0.15076849888026445   -0.01708593554997568   0.03346688098097509
-0.15076849888026445   -0.01708593554997568   0.03346688098097509
-0.23761175845687937   -0.03239186775827909   -0.01627242102073178
-0.23761175845687937   -0.03239186775827909   -0.01627242102073178
-0.23761175845687937   -0.03239186775827909   -0.01627242102073178
-0.23761175845687937   -0.03239186775827909   -0.01627242102073178
-0.28147678408642174   0.0486975595238657   -0.002527219823128219
-0.28147678408642174   0.0486975595238657   -0.002527219823128219
-0.28147678408642174   0.0486975595238657   -0.002527219823128219
-0.28147678408642174   0.0486975595238657   -0.002527219823128219
-0.47362537592893217   -0.016209429299099104   -0.013374084995938184
-0.47362537592893217   -0.016209429299099104   -0.013374084995938184
-0.47362537592893217   -0.016209429299099104   -0.013374084995938184
-0.47362537592893217   -0.016209429299099104   -0.013374084995938184
-0.47859716707123706   -0.011799629507264958   -0.0028141343650395327
-0.47859716707123706   -0.011799629507264958   -0.0028141343650395327
-0.47859716707123706   -0.011799629507264958   -0.0028141343650395327
-0.47859716707123706   -0.011799629507264958   -0.0028141343650395327
-0.2988551171027983   0.002687978733238644   0.0036898871087812576
-0.2988551171027983   0.002687978733238644   0.0036898871087812576
-0.2988551171027983   0.002687978733238644   0.0036898871087812576
-0.2988551171027983   0.002687978733238644   0.0036898871087812576
-0.38233894362137705   0.005472367670597583   0.0015423065248410632
-0.38233894362137705   0.005472367670597583   0.0015423065248410632
-0.38233894362137705   0.005472367670597583   0.0015423065248410632
-0.38233894362137705   0.005472367670597583   0.0015423065248410632
-0.2941230136550916   0.026388087220902273   0.003650295859651171
-0.2941230136550916   0.026388087220902273   0.003650295859651171
-0.2941230136550916   0.026388087220902273   0.003650295859651171
-0.2941230136550916   0.026388087220902273   0.003650295859651171
-0.48495781244033526   -0.03712827991632012   -0.009288710801475607
-0.48495781244033526   -0.03712827991632012   -0.009288710801475607
-0.48495781244033526   -0.03712827991632012   -0.009288710801475607
-0.48495781244033526   -0.03712827991632012   -0.009288710801475607
-0.49031916353606225   -0.03383002671433773   0.0032983995851334456
-0.49031916353606225   -0.03383002671433773   0.0032983995851334456
-0.49031916353606225   -0.03383002671433773   0.0032983995851334456
-0.49031916353606225   -0.03383002671433773   0.0032983995851334456
-0.3121158098500948   -0.01896819319576709   0.007615461804480122
-0.3121158098500948   -0.01896819319576709   0.007615461804480122
-0.3121158098500948   -0.01896819319576709   0.007615461804480122
-0.3121158098500948   -0.01896819319576709   0.007615461804480122
-0.39504768455965095   -0.014563466302386044   -0.007937983915915221
-0.39504768455965095   -0.014563466302386044   -0.007937983915915221
-0.39504768455965095   -0.014563466302386044   -0.007937983915915221
-0.39504768455965095   -0.014563466302386044   -0.007937983915915221
-0.3072373623643414   0.003945462342063125   0.009094043695416939
-0.3072373623643414   0.003945462342063125   0.009094043695416939
-0.3072373623643414   0.003945462342063125   0.009094043695416939
-0.3072373623643414   0.003945462342063125   0.009094043695416939
-0.49716076702456646   -0.05870683825491371   -0.00603280631681196
-0.49716076702456646   -0.05870683825491371   -0.00603280631681196
-0.49716076702456646   -0.05870683825491371   -0.00603280631681196
-0.49716076702456646   -0.05870683825491371   -0.00603280631681196
-0.5017360406499033   -0.0549652201720035   0.009159019554245943
-0.5017360406499033   -0.0549652201720035   0.009159019554245943
-0.5017360406499033   -0.0549652201720035   0.009159019554245943
-0.5017360406499033   -0.0549652201720035   0.009159019554245943
-0.3248483892097011   -0.03940189256137104   0.012014361562684796
-0.3248483892097011   -0.03940189256137104   0.012014361562684796
-0.3248483892097011   -0.03940189256137104   0.012014361562684796
-0.3248483892097011   -0.03940189256137104   0.012014361562684796
-0.40872335877594446   -0.0347249142128032   -0.01823908914621184
-0.40872335877594446   -0.0347249142128032   -0.01823908914621184
-0.40872335877594446   -0.0347249142128032   -0.01823908914621184
-0.40872335877594446   -0.0347249142128032   -0.01823908914621184
-0.4497087556070004   0.07056342790446725   0.01943615941015423
-0.4497087556070004   0.07056342790446725   0.01943615941015423
-0.4497087556070004   0.07056342790446725   0.01943615941015423
-0.4497087556070004   0.07056342790446725   0.01943615941015423
-0.653137344466152   -0.026942208703732443   -0.030010136534258967
-0.653137344466152   -0.026942208703732443   -0.030010136534258967
-0.653137344466152   -0.026942208703732443   -0.030010136534258967
-0.653137344466152   -0.026942208703732443   -0.030010136534258967
-0.6443554457799071   0.010573547159333008   0.020135027483676148
-0.6443554457799071   0.010573547159333008   0.020135027483676148
-0.6443554457799071   0.010573547159333008   0.020135027483676148
-0.6443554457799071   0.010573547159333008   0.020135027483676148
-0.48025073842629623   -0.009520290843341286   -0.013361329804259244
-0.48025073842629623   -0.009520290843341286   -0.013361329804259244
-0.48025073842629623   -0.009520290843341286   -0.013361329804259244
-0.48025073842629623   -0.009520290843341286   -0.013361329804259244
-0.5549412910461631   0.011249040837438135   0.0026605790819621347
-0.5549412910461631   0.011249040837438135   0.0026605790819621347
-0.5549412910461631   0.011249040837438135   0.0026605790819621347
-0.5549412910461631   0.011249040837438135   0.0026605790819621347
-0.46087549687036267   0.04836787405910517   0.025626713072961924
-0.46087549687036267   0.04836787405910517   0.025626713072961924
-0.46087549687036267   0.04836787405910517   0.025626713072961924
-0.46087549687036267   0.04836787405910517   0.025626713072961924
-0.6661086872146592   -0.049692617621928295   -0.028365014908831306
-0.6661086872146592   -0.049692617621928295   -0.028365014908831306
-0.6661086872146592   -0.049692617621928295   -0.028365014908831306
-0.6661086872146592   -0.049692617621928295   -0.028365014908831306
-0.6600679089149726   -0.011104844858251445   0.023780755181313985
-0.6600679089149726   -0.011104844858251445   0.023780755181313985
-0.6600679089149726   -0.011104844858251445   0.023780755181313985
-0.6600679089149726   -0.011104844858251445   0.023780755181313985
-0.4918715585409607   -0.02920649842946693   -0.009087103724230258
-0.4918715585409607   -0.02920649842946693   -0.009087103724230258
-0.4918715585409607   -0.02920649842946693   -0.009087103724230258
-0.4918715585409607   -0.02920649842946693   -0.009087103724230258
-0.5656157864392929   -0.00805889423668392   -0.007616306793367552
-0.5656157864392929   -0.00805889423668392   -0.007616306793367552
-0.5656157864392929   -0.00805889423668392   -0.007616306793367552
-0.5656157864392929   -0.00805889423668392   -0.007616306793367552
-0.4722776374538271   0.028026882545097248   0.031649120736881135
-0.4722776374538271   0.028026882545097248   0.031649120736881135
-0.4722776374538271   0.028026882545097248   0.031649120736881135
-0.4722776374538271   0.028026882545097248   0.031649120736881135
-0.6815396395846451   -0.07021603541535065   -0.024466707609964514
-0.6815396395846451   -0.07021603541535065   -0.024466707609964514
-0.6815396395846451   -0.07021603541535065   -0.024466707609964514
-0.6815396395846451   -0.07021603541535065   -0.024466707609964514
-0.6728414008098479   -0.03293629719304354   0.03028530245383781
-0.6728414008098479   -0.03293629719304354   0.03028530245383781
-0.6728414008098479   -0.03293629719304354   0.03028530245383781
-0.6728414008098479   -0.03293629719304354   0.03028530245383781
-0.5035341596691806   -0.049358898766160134   -0.005437896947984067
-0.5035341596691806   -0.049358898766160134   -0.005437896947984067
-0.5035341596691806   -0.049358898766160134   -0.005437896947984067
-0.5035341596691806   -0.049358898766160134   -0.005437896947984067
-0.5816783359323809   -0.02774426233422747   -0.01814594756006995
-0.5816783359323809   -0.02774426233422747   -0.01814594756006995
-0.5816783359323809   -0.02774426233422747   -0.01814594756006995
-0.5816783359323809   -0.02774426233422747   -0.01814594756006995
-0.6187683804547601   0.07646228641844141   0.038430188400526845
-0.6187683804547601   0.07646228641844141   0.038430188400526845
-0.6187683804547601   0.07646228641844141   0.038430188400526845
-0.6187683804547601   0.07646228641844141   0.038430188400526845
-0.7960216573544138   -0.039787627900221806   -0.05023295211377448
-0.7960216573544138   -0.039787627900221806   -0.05023295211377448
-0.7960216573544138   -0.039787627900221806   -0.05023295211377448
-0.7960216573544138   -0.039787627900221806   -0.05023295211377448
-0.7966360433268421   0.030791302253151298   0.042363325169313605
-0.7966360433268421   0.030791302253151298   0.042363325169313605
-0.7966360433268421   0.030791302253151298   0.042363325169313605
-0.7966360433268421   0.030791302253151298   0.042363325169313605
-0.6611535919277686   -0.022547676508725106   -0.030734479587581187
-0.6611535919277686   -0.022547676508725106   -0.030734479587581187
-0.6611535919277686   -0.022547676508725106   -0.030734479587581187
-0.6611535919277686   -0.022547676508725106   -0.030734479587581187
-0.6891015702804911   0.01817254235288937   0.013301005121801622
-0.6891015702804911   0.01817254235288937   0.013301005121801622
-0.6891015702804911   0.01817254235288937   0.013301005121801622
-0.6891015702804911   0.01817254235288937   0.013301005121801622
-0.6284243030592834   0.0650282024350215   0.04533608581110602
-0.6284243030592834   0.0650282024350215   0.04533608581110602
-0.6284243030592834   0.0650282024350215   0.04533608581110602
-0.6284243030592834   0.0650282024350215   0.04533608581110602
-0.8318343026712186   -0.059253547166490506   -0.043583122132927365
-0.8318343026712186   -0.059253547166490506   -0.043583122132927365
-0.8318343026712186   -0.059253547166490506   -0.043583122132927365
-0.8318343026712186   -0.059253547166490506   -0.043583122132927365
-0.8252159341163066   0.018446704107799444   0.05458958759614385
-0.8252159341163066   0.018446704107799444   0.05458958759614385
-0.8252159341163066   0.018446704107799444   0.05458958759614385
-0.8252159341163066   0.018446704107799444   0.05458958759614385
-0.6747617582448605   -0.0338635256132484   -0.02692981071313573
-0.6747617582448605   -0.0338635256132484   -0.02692981071313573
-0.6747617582448605   -0.0338635256132484   -0.02692981071313573
-0.6747617582448605   -0.0338635256132484   -0.02692981071313573
-0.7231092760613537   0.0031591600116176732   -0.0009473593592238608
-0.7231092760613537   0.0031591600116176732   -0.0009473593592238608
-0.7231092760613537   0.0031591600116176732   -0.0009473593592238608
-0.7231092760613537   0.0031591600116176732   -0.0009473593592238608
-0.6406665412366908   0.055312679089488975   0.054370069624975564
-0.6406665412366908   0.055312679089488975   0.054370069624975564
-0.6406665412366908   0.055312679089488975   0.054370069624975564
-0.6406665412366908   0.055312679089488975   0.054370069624975564
-0.8618287228055103   -0.07324707227597194   -0.03678057946607283
-0.8618287228055103   -0.07324707227597194   -0.03678057946607283
-0.8618287228055103   -0.07324707227597194   -0.03678057946607283
-0.8618287228055103   -0.07324707227597194   -0.03678057946607283
-0.8674664668710346   -0.014023230144948412   0.05772751187146799
-0.8674664668710346   -0.014023230144948412   0.05772751187146799
-0.8674664668710346   -0.014023230144948412   0.05772751187146799
-0.8674664668710346   -0.014023230144948412   0.05772751187146799
-0.6884247147250497   -0.05730587396687259   -0.02326169034834962
-0.6884247147250497   -0.05730587396687259   -0.02326169034834962
-0.6884247147250497   -0.05730587396687259   -0.02326169034834962
-0.6884247147250497   -0.05730587396687259   -0.02326169034834962
-0.736185357635321   -0.011708408879465726   -0.011067718478079774
-0.736185357635321   -0.011708408879465726   -0.011067718478079774
-0.736185357635321   -0.011708408879465726   -0.011067718478079774
-0.736185357635321   -0.011708408879465726   -0.011067718478079774
-0.33916608569558626   -0.022151064722869804   -0.06351224273355707
-0.33916608569558626   -0.022151064722869804   -0.06351224273355707
-0.33916608569558626   -0.022151064722869804   -0.06351224273355707
-0.33916608569558626   -0.022151064722869804   -0.06351224273355707
-0.33518072048347686   0.04867504361581042   0.02858031622201602
-0.33518072048347686   0.04867504361581042   0.02858031622201602
-0.33518072048347686   0.04867504361581042   0.02858031622201602
-0.33518072048347686   0.04867504361581042   0.02858031622201602
-0.3770660683676909   -0.044427974504564906   -0.043042729720560634
-0.3770660683676909   -0.044427974504564906   -0.043042729720560634
-0.3770660683676909   -0.044427974504564906   -0.043042729720560634
-0.3770660683676909   -0.044427974504564906   -0.043042729720560634
-0.34614470671528563   0.025356212249539434   0.0429682003767977
-0.34614470671528563   0.025356212249539434   0.0429682003767977
-0.34614470671528563   0.025356212249539434   0.0429682003767977
-0.34614470671528563   0.025356212249539434   0.0429682003767977
-0.3318534658425752   0.008181667447502441   0.029157502459897528
-0.3318534658425752   0.008181667447502441   0.029157502459897528
-0.3318534658425752   0.008181667447502441   0.029157502459897528
-0.3318534658425752   0.008181667447502441   0.029157502459897528
-0.3798557903323258   -0.047019645037621335   -0.05321136042123856
-0.3798557903323258   -0.047019645037621335   -0.05321136042123856
-0.3798557903323258   -0.047019645037621335   -0.05321136042123856
-0.3798557903323258   -0.047019645037621335   -0.05321136042123856
-0.34754808966181605   0.023754777871436275   0.0363644114328123
-0.34754808966181605   0.023754777871436275   0.0363644114328123
-0.34754808966181605   0.023754777871436275   0.0363644114328123
-0.34754808966181605   0.023754777871436275   0.0363644114328123
-0.3896587249957836   -0.05598399146206019   -0.0364180715067778
-0.3896587249957836   -0.05598399146206019   -0.0364180715067778
-0.3896587249957836   -0.05598399146206019   -0.0364180715067778
-0.3896587249957836   -0.05598399146206019   -0.0364180715067778
-0.3786382391108178   0.009618735451398339   0.0798526859542752
-0.3786382391108178   0.009618735451398339   0.0798526859542752
-0.3786382391108178   0.009618735451398339   0.0798526859542752
-0.3786382391108178   0.009618735451398339   0.0798526859542752
-0.3618202937808801   -0.0116739984847882   0.011645414845679401
-0.3618202937808801   -0.0116739984847882   0.011645414845679401
-0.3618202937808801   -0.0116739984847882   0.011645414845679401
-0.3618202937808801   -0.0116739984847882   0.011645414845679401
-0.4173290018215598   -0.06252575912955537   -0.041456633018477435
-0.4173290018215598   -0.06252575912955537   -0.041456633018477435
-0.4173290018215598   -0.06252575912955537   -0.041456633018477435
-0.4173290018215598   -0.06252575912955537   -0.041456633018477435
-0.3608843870450446   0.006244078358891084   0.04522554842596578
-0.3608843870450446   0.006244078358891084   0.04522554842596578
-0.3608843870450446   0.006244078358891084   0.04522554842596578
-0.3608843870450446   0.006244078358891084   0.04522554842596578
-0.3999656465207141   -0.07848880072813097   -0.028653121582745897
-0.3999656465207141   -0.07848880072813097   -0.028653121582745897
-0.3999656465207141   -0.07848880072813097   -0.028653121582745897
-0.3999656465207141   -0.07848880072813097   -0.028653121582745897
-0.4291517346850738   -0.04238761023909709   0.07473411526865925
-0.4291517346850738   -0.04238761023909709   0.07473411526865925
-0.4291517346850738   -0.04238761023909709   0.07473411526865925
-0.4291517346850738   -0.04238761023909709   0.07473411526865925
-0.3877558537106031   -0.03514972627203819   -0.016086407265719405
-0.3877558537106031   -0.03514972627203819   -0.016086407265719405
-0.3877558537106031   -0.03514972627203819   -0.016086407265719405
-0.3877558537106031   -0.03514972627203819   -0.016086407265719405
-0.3592976432638826   -0.010604836887765909   -0.032724417176439174
-0.3592976432638826   -0.010604836887765909   -0.032724417176439174
-0.3592976432638826   -0.010604836887765909   -0.032724417176439174
-0.3592976432638826   -0.010604836887765909   -0.032724417176439174
-0.36378733158870846   -0.04468085589143503   -0.0019013013399308137
-0.36378733158870846   -0.04468085589143503   -0.0019013013399308137
-0.36378733158870846   -0.04468085589143503   -0.0019013013399308137
-0.36378733158870846   -0.04468085589143503   -0.0019013013399308137
-0.36640082035822763   -0.029736047980919035   -0.016304058885135947
-0.36640082035822763   -0.029736047980919035   -0.016304058885135947
-0.36640082035822763   -0.029736047980919035   -0.016304058885135947
-0.36640082035822763   -0.029736047980919035   -0.016304058885135947
-0.37186826040485566   -0.060824553271272806   -0.0006571111396763817
-0.37186826040485566   -0.060824553271272806   -0.0006571111396763817
-0.37186826040485566   -0.060824553271272806   -0.0006571111396763817
-0.37186826040485566   -0.060824553271272806   -0.0006571111396763817
-0.36223115397509886   -0.03804408048385877   -0.001321515706244952
-0.36223115397509886   -0.03804408048385877   -0.001321515706244952
-0.36223115397509886   -0.03804408048385877   -0.001321515706244952
-0.36223115397509886   -0.03804408048385877   -0.001321515706244952
-0.37188119734391967   -0.03323381785189863   -0.0283125312543726
-0.37188119734391967   -0.03323381785189863   -0.0283125312543726
-0.37188119734391967   -0.03323381785189863   -0.0283125312543726
-0.37188119734391967   -0.03323381785189863   -0.0283125312543726
-0.3687233948391667   -0.05966229482029153   0.002009315549541176
-0.3687233948391667   -0.05966229482029153   0.002009315549541176
-0.3687233948391667   -0.05966229482029153   0.002009315549541176
-0.3687233948391667   -0.05966229482029153   0.002009315549541176
-0.3725150076336307   -0.049197474353343026   -0.010510233983742154
-0.3725150076336307   -0.049197474353343026   -0.010510233983742154
-0.3725150076336307   -0.049197474353343026   -0.010510233983742154
-0.3725150076336307   -0.049197474353343026   -0.010510233983742154
-0.38529910359827785   -0.07888934087711826   0.008285384895809036
-0.38529910359827785   -0.07888934087711826   0.008285384895809036
-0.38529910359827785   -0.07888934087711826   0.008285384895809036
-0.38529910359827785   -0.07888934087711826   0.008285384895809036
-0.37051992453056387   -0.05376058101193486   -0.010326490478962606
-0.37051992453056387   -0.05376058101193486   -0.010326490478962606
-0.37051992453056387   -0.05376058101193486   -0.010326490478962606
-0.37051992453056387   -0.05376058101193486   -0.010326490478962606
-0.38618552993636374   -0.05403062462624074   -0.021005463045497778
-0.38618552993636374   -0.05403062462624074   -0.021005463045497778
-0.38618552993636374   -0.05403062462624074   -0.021005463045497778
-0.38618552993636374   -0.05403062462624074   -0.021005463045497778
-0.3746158769426641   -0.07704348625134107   0.00683143136908127
-0.3746158769426641   -0.07704348625134107   0.00683143136908127
-0.3746158769426641   -0.07704348625134107   0.00683143136908127
-0.3746158769426641   -0.07704348625134107   0.00683143136908127
-0.3779994128588179   -0.0701797786175629   -0.004771420378376931
-0.3779994128588179   -0.0701797786175629   -0.004771420378376931
-0.3779994128588179   -0.0701797786175629   -0.004771420378376931
-0.3779994128588179   -0.0701797786175629   -0.004771420378376931
-0.3955725851400839   -0.1018464237857563   0.016669808378028447
-0.3955725851400839   -0.1018464237857563   0.016669808378028447
-0.3955725851400839   -0.1018464237857563   0.016669808378028447
-0.3955725851400839   -0.1018464237857563   0.016669808378028447
-0.381937225828413   -0.07276068677279848   -0.02178710405552258
-0.381937225828413   -0.07276068677279848   -0.02178710405552258
-0.381937225828413   -0.07276068677279848   -0.02178710405552258
-0.381937225828413   -0.07276068677279848   -0.02178710405552258
-0.35382495080588305   0.009226185051043431   -0.005996438368274539
-0.35382495080588305   0.009226185051043431   -0.005996438368274539
-0.35382495080588305   0.009226185051043431   -0.005996438368274539
-0.35382495080588305   0.009226185051043431   -0.005996438368274539
-0.3999948723982934   -0.0759345414087482   -0.019163149762969248
-0.3999948723982934   -0.0759345414087482   -0.019163149762969248
-0.3999948723982934   -0.0759345414087482   -0.019163149762969248
-0.3999948723982934   -0.0759345414087482   -0.019163149762969248
-0.3836312873515136   -0.01399157189832037   0.005068304199701466
-0.3836312873515136   -0.01399157189832037   0.005068304199701466
-0.3836312873515136   -0.01399157189832037   0.005068304199701466
-0.3836312873515136   -0.01399157189832037   0.005068304199701466
-0.3759955085362647   -0.08217231850423763   -0.011841229252002622
-0.3759955085362647   -0.08217231850423763   -0.011841229252002622
-0.3759955085362647   -0.08217231850423763   -0.011841229252002622
-0.3759955085362647   -0.08217231850423763   -0.011841229252002622
-0.37809747789712456   -0.04200642464042686   -0.00857614601012435
-0.37809747789712456   -0.04200642464042686   -0.00857614601012435
-0.37809747789712456   -0.04200642464042686   -0.00857614601012435
-0.37809747789712456   -0.04200642464042686   -0.00857614601012435
-0.3592271968873238   -0.010132343789769793   -3.964572176613085e-05
-0.3592271968873238   -0.010132343789769793   -3.964572176613085e-05
-0.3592271968873238   -0.010132343789769793   -3.964572176613085e-05
-0.3592271968873238   -0.010132343789769793   -3.964572176613085e-05
-0.4025193770449928   -0.08815132465732273   -0.015212391508699963
-0.4025193770449928   -0.08815132465732273   -0.015212391508699963
-0.4025193770449928   -0.08815132465732273   -0.015212391508699963
-0.4025193770449928   -0.08815132465732273   -0.015212391508699963
-0.3880169484739652   -0.03350676009001935   0.010823765957058563
-0.3880169484739652   -0.03350676009001935   0.010823765957058563
-0.3880169484739652   -0.03350676009001935   0.010823765957058563
-0.3880169484739652   -0.03350676009001935   0.010823765957058563
-0.3817179763737243   -0.09755450853686742   -0.008168043500685566
-0.3817179763737243   -0.09755450853686742   -0.008168043500685566
-0.3817179763737243   -0.09755450853686742   -0.008168043500685566
-0.3817179763737243   -0.09755450853686742   -0.008168043500685566
-0.38275860305644166   -0.05687473266561378   -0.016297633127200478
-0.38275860305644166   -0.05687473266561378   -0.016297633127200478
-0.38275860305644166   -0.05687473266561378   -0.016297633127200478
-0.38275860305644166   -0.05687473266561378   -0.016297633127200478
-0.36541599153738874   -0.02999487288774748   0.005782245031872173
-0.36541599153738874   -0.02999487288774748   0.005782245031872173
-0.36541599153738874   -0.02999487288774748   0.005782245031872173
-0.36541599153738874   -0.02999487288774748   0.005782245031872173
-0.4066868376450099   -0.10343430007385485   -0.01259813991433709
-0.4066868376450099   -0.10343430007385485   -0.01259813991433709
-0.4066868376450099   -0.10343430007385485   -0.01259813991433709
-0.4066868376450099   -0.10343430007385485   -0.01259813991433709
-0.3915826934744836   -0.05186124012293834   0.01645192801960007
-0.3915826934744836   -0.05186124012293834   0.01645192801960007
-0.3915826934744836   -0.05186124012293834   0.01645192801960007
-0.3915826934744836   -0.05186124012293834   0.01645192801960007
-0.38597167081226647   -0.11231788217384626   -0.002494606589340146
-0.38597167081226647   -0.11231788217384626   -0.002494606589340146
-0.38597167081226647   -0.11231788217384626   -0.002494606589340146
-0.38597167081226647   -0.11231788217384626   -0.002494606589340146
-0.38831740816228866   -0.072425945936171   -0.02478186460495773
-0.38831740816228866   -0.072425945936171   -0.02478186460495773
-0.38831740816228866   -0.072425945936171   -0.02478186460495773
-0.38831740816228866   -0.072425945936171   -0.02478186460495773
-0.3693392147527172   0.0395463032975326   0.018634293758631345
-0.3693392147527172   0.0395463032975326   0.018634293758631345
-0.3693392147527172   0.0395463032975326   0.018634293758631345
-0.3693392147527172   0.0395463032975326   0.018634293758631345
-0.43626360776498946   -0.05660712356368755   -0.02669230722106698
-0.43626360776498946   -0.05660712356368755   -0.02669230722106698
-0.43626360776498946   -0.05660712356368755   -0.02669230722106698
-0.43626360776498946   -0.05660712356368755   -0.02669230722106698
-0.4126958856776396   0.011829442770916562   0.025832485518373336
-0.4126958856776396   0.011829442770916562   0.025832485518373336
-0.4126958856776396   0.011829442770916562   0.025832485518373336
-0.4126958856776396   0.011829442770916562   0.025832485518373336
-0.39773441876593363   -0.06326231167997605   -0.016176613090743055
-0.39773441876593363   -0.06326231167997605   -0.016176613090743055
-0.39773441876593363   -0.06326231167997605   -0.016176613090743055
-0.39773441876593363   -0.06326231167997605   -0.016176613090743055
-0.4039782933199274   -0.016697276420583856   -0.005122325568543768
-0.4039782933199274   -0.016697276420583856   -0.005122325568543768
-0.4039782933199274   -0.016697276420583856   -0.005122325568543768
-0.4039782933199274   -0.016697276420583856   -0.005122325568543768
-0.37307108465959454   0.019469545852533368   0.024408199908443052
-0.37307108465959454   0.019469545852533368   0.024408199908443052
-0.37307108465959454   0.019469545852533368   0.024408199908443052
-0.37307108465959454   0.019469545852533368   0.024408199908443052
-0.4401731949502835   -0.07371638992790533   -0.02600822814602422
-0.4401731949502835   -0.07371638992790533   -0.02600822814602422
-0.4401731949502835   -0.07371638992790533   -0.02600822814602422
-0.4401731949502835   -0.07371638992790533   -0.02600822814602422
-0.4203194083114988   -0.007221223707803315   0.029287119654625784
-0.4203194083114988   -0.007221223707803315   0.029287119654625784
-0.4203194083114988   -0.007221223707803315   0.029287119654625784
-0.4203194083114988   -0.007221223707803315   0.029287119654625784
-0.4015482230025498   -0.07745955917261395   -0.012879807603269598
-0.4015482230025498   -0.07745955917261395   -0.012879807603269598
-0.4015482230025498   -0.07745955917261395   -0.012879807603269598
-0.4015482230025498   -0.07745955917261395   -0.012879807603269598
-0.4078129583687125   -0.03281087154068527   -0.014177132901664878
-0.4078129583687125   -0.03281087154068527   -0.014177132901664878
-0.4078129583687125   -0.03281087154068527   -0.014177132901664878
-0.4078129583687125   -0.03281087154068527   -0.014177132901664878
-0.3771654027296752   0.0015559169961104624   0.030018817592371128
-0.3771654027296752   0.0015559169961104624   0.030018817592371128
-0.3771654027296752   0.0015559169961104624   0.030018817592371128
-0.3771654027296752   0.0015559169961104624   0.030018817592371128
-0.4471408541435529   -0.08867532543570854   -0.023366007777739384
-0.4471408541435529   -0.08867532543570854   -0.023366007777739384
-0.4471408541435529   -0.08867532543570854   -0.023366007777739384
-0.4471408541435529   -0.08867532543570854   -0.023366007777739384
-0.42535581213985113   -0.02549270508155274   0.03571472394575406
-0.42535581213985113   -0.02549270508155274   0.03571472394575406
-0.42535581213985113   -0.02549270508155274   0.03571472394575406
-0.42535581213985113   -0.02549270508155274   0.03571472394575406
-0.40482111188370606   -0.09171939116846081   -0.009882012980997416
-0.40482111188370606   -0.09171939116846081   -0.009882012980997416
-0.40482111188370606   -0.09171939116846081   -0.009882012980997416
-0.40482111188370606   -0.09171939116846081   -0.009882012980997416
-0.4145402995889926   -0.04799449183160579   -0.022948851210431
-0.4145402995889926   -0.04799449183160579   -0.022948851210431
-0.4145402995889926   -0.04799449183160579   -0.022948851210431
-0.4145402995889926   -0.04799449183160579   -0.022948851210431
-0.40081828287195187   0.05673756346258839   0.03718963021784525
-0.40081828287195187   0.05673756346258839   0.03718963021784525
-0.40081828287195187   0.05673756346258839   0.03718963021784525
-0.40081828287195187   0.05673756346258839   0.03718963021784525
-0.42807696647430243   -0.03415139831195564   -0.03869111060938743
-0.42807696647430243   -0.03415139831195564   -0.03869111060938743
-0.42807696647430243   -0.03415139831195564   -0.03869111060938743
-0.42807696647430243   -0.03415139831195564   -0.03869111060938743
-0.4184197402622599   0.04041143866544464   0.04132724461778958
-0.4184197402622599   0.04041143866544464   0.04132724461778958
-0.4184197402622599   0.04041143866544464   0.04132724461778958
-0.4184197402622599   0.04041143866544464   0.04132724461778958
-0.4337409053381062   -0.04391402332507513   -0.023649146687968026
-0.4337409053381062   -0.04391402332507513   -0.023649146687968026
-0.4337409053381062   -0.04391402332507513   -0.023649146687968026
-0.4337409053381062   -0.04391402332507513   -0.023649146687968026
-0.4059827330625579   0.010157204257928737   0.00155177047350228
-0.4059827330625579   0.010157204257928737   0.00155177047350228
-0.4059827330625579   0.010157204257928737   0.00155177047350228
-0.4059827330625579   0.010157204257928737   0.00155177047350228
-0.40285775041365357   0.04385742386120739   0.042995180747996964
-0.40285775041365357   0.04385742386120739   0.042995180747996964
-0.40285775041365357   0.04385742386120739   0.042995180747996964
-0.40285775041365357   0.04385742386120739   0.042995180747996964
-0.451593751676395   -0.04965086501051782   -0.034480508776908024
-0.451593751676395   -0.04965086501051782   -0.034480508776908024
-0.451593751676395   -0.04965086501051782   -0.034480508776908024
-0.451593751676395   -0.04965086501051782   -0.034480508776908024
-0.43684924256680885   0.029747770342957836   0.05321415338984388
-0.43684924256680885   0.029747770342957836   0.05321415338984388
-0.43684924256680885   0.029747770342957836   0.05321415338984388
-0.43684924256680885   0.029747770342957836   0.05321415338984388
-0.4395027810640287   -0.05226675036052899   -0.02158421745529799
-0.4395027810640287   -0.05226675036052899   -0.02158421745529799
-0.4395027810640287   -0.05226675036052899   -0.02158421745529799
-0.4395027810640287   -0.05226675036052899   -0.02158421745529799
-0.42583000333484944   -0.0027663103802086503   -0.009125928190013784
-0.42583000333484944   -0.0027663103802086503   -0.009125928190013784
-0.42583000333484944   -0.0027663103802086503   -0.009125928190013784
-0.42583000333484944   -0.0027663103802086503   -0.009125928190013784
-0.40738087067640766   0.035291942389604064   0.051466641732673915
-0.40738087067640766   0.035291942389604064   0.051466641732673915
-0.40738087067640766   0.035291942389604064   0.051466641732673915
-0.40738087067640766   0.035291942389604064   0.051466641732673915
-0.4719582669040972   -0.06079803635684512   -0.03178516159679483
-0.4719582669040972   -0.06079803635684512   -0.03178516159679483
-0.4719582669040972   -0.06079803635684512   -0.03178516159679483
-0.4719582669040972   -0.06079803635684512   -0.03178516159679483
-0.4693843752533258   0.0025271592677643395   0.05686313635311114
-0.4693843752533258   0.0025271592677643395   0.05686313635311114
-0.4693843752533258   0.0025271592677643395   0.05686313635311114
-0.4693843752533258   0.0025271592677643395   0.05686313635311114
-0.4447573255681992   -0.06802609275168306   -0.018759455525863653
-0.4447573255681992   -0.06802609275168306   -0.018759455525863653
-0.4447573255681992   -0.06802609275168306   -0.018759455525863653
-0.4447573255681992   -0.06802609275168306   -0.018759455525863653
-0.43524351942557227   -0.014652660807608159   -0.018762706603037922
-0.43524351942557227   -0.014652660807608159   -0.018762706603037922
-0.43524351942557227   -0.014652660807608159   -0.018762706603037922
-0.43524351942557227   -0.014652660807608159   -0.018762706603037922
-0.862825794544765   -0.0788102983006788   -0.08120131929914191
-0.862825794544765   -0.0788102983006788   -0.08120131929914191
-0.862825794544765   -0.0788102983006788   -0.08120131929914191
-0.862825794544765   -0.0788102983006788   -0.08120131929914191
-0.5468777664719809   0.04686500351819187   0.01915734658137113
-0.5468777664719809   0.04686500351819187   0.01915734658137113
-0.5468777664719809   0.04686500351819187   0.01915734658137113
-0.5468777664719809   0.04686500351819187   0.01915734658137113
-0.5742091653944829   -0.036085829019092686   -0.03617754728716578
-0.5742091653944829   -0.036085829019092686   -0.03617754728716578
-0.5742091653944829   -0.036085829019092686   -0.03617754728716578
-0.5742091653944829   -0.036085829019092686   -0.03617754728716578
-0.9170722999838543   -0.10302395473013148   0.0911130605916521
-0.9170722999838543   -0.10302395473013148   0.0911130605916521
-0.9170722999838543   -0.10302395473013148   0.0911130605916521
-0.9170722999838543   -0.10302395473013148   0.0911130605916521
-0.6667861747181006   -0.025282226858426834   0.08830430105429765
-0.6667861747181006   -0.025282226858426834   0.08830430105429765
-0.6667861747181006   -0.025282226858426834   0.08830430105429765
-0.6667861747181006   -0.025282226858426834   0.08830430105429765
-0.9497534401170125   -0.11585207788918134   -0.05946451691507951
-0.9497534401170125   -0.11585207788918134   -0.05946451691507951
-0.9497534401170125   -0.11585207788918134   -0.05946451691507951
-0.9497534401170125   -0.11585207788918134   -0.05946451691507951
-0.564505059663635   -0.046234740262351554   0.022491892610332423
-0.564505059663635   -0.046234740262351554   0.022491892610332423
-0.564505059663635   -0.046234740262351554   0.022491892610332423
-0.564505059663635   -0.046234740262351554   0.022491892610332423
-0.5829113233800569   -0.05239401746909282   -0.025937994378941506
-0.5829113233800569   -0.05239401746909282   -0.025937994378941506
-0.5829113233800569   -0.05239401746909282   -0.025937994378941506
-0.5829113233800569   -0.05239401746909282   -0.025937994378941506
-0.9461082203476909   -0.1439937755315655   0.002331240748127659
-0.9461082203476909   -0.1439937755315655   0.002331240748127659
-0.9461082203476909   -0.1439937755315655   0.002331240748127659
-0.9461082203476909   -0.1439937755315655   0.002331240748127659
-0.7380327106388468   -0.08688913926387035   0.020374949464904583
-0.7380327106388468   -0.08688913926387035   0.020374949464904583
-0.7380327106388468   -0.08688913926387035   0.020374949464904583
-0.7380327106388468   -0.08688913926387035   0.020374949464904583
-0.9535236175632834   -0.13089731800185672   -0.047842202859534416
-0.9535236175632834   -0.13089731800185672   -0.047842202859534416
-0.9535236175632834   -0.13089731800185672   -0.047842202859534416
-0.9535236175632834   -0.13089731800185672   -0.047842202859534416
-0.5824671940255219   -0.0724617428598583   -0.0036496222155054346
-0.5824671940255219   -0.0724617428598583   -0.0036496222155054346
-0.5824671940255219   -0.0724617428598583   -0.0036496222155054346
-0.5824671940255219   -0.0724617428598583   -0.0036496222155054346
-0.583202385336086   -0.09191868417066199   -0.018870603738152865
-0.583202385336086   -0.09191868417066199   -0.018870603738152865
-0.583202385336086   -0.09191868417066199   -0.018870603738152865
-0.583202385336086   -0.09191868417066199   -0.018870603738152865
-0.9685615450236275   -0.21997267330476714   0.014554985660769173
-0.9685615450236275   -0.21997267330476714   0.014554985660769173
-0.9685615450236275   -0.21997267330476714   0.014554985660769173
-0.9685615450236275   -0.21997267330476714   0.014554985660769173
-0.7371134182421331   -0.11946673100975977   0.0014950074451677087
-0.7371134182421331   -0.11946673100975977   0.0014950074451677087
-0.7371134182421331   -0.11946673100975977   0.0014950074451677087
-0.7371134182421331   -0.11946673100975977   0.0014950074451677087
-0.5905529510215941   -0.1001036950331072   -0.05224987761539079
-0.5905529510215941   -0.1001036950331072   -0.05224987761539079
-0.5905529510215941   -0.1001036950331072   -0.05224987761539079
-0.5905529510215941   -0.1001036950331072   -0.05224987761539079
-0.4054067322329822   -0.26162835809687135   -0.04906910765821895
-0.4054067322329822   -0.26162835809687135   -0.04906910765821895
-0.4054067322329822   -0.26162835809687135   -0.04906910765821895
-0.4054067322329822   -0.26162835809687135   -0.04906910765821895
-0.3561135435241389   -0.05815443976764601   -0.0030612605022591315
-0.3561135435241389   -0.05815443976764601   -0.0030612605022591315
-0.3561135435241389   -0.05815443976764601   -0.0030612605022591315
-0.3561135435241389   -0.05815443976764601   -0.0030612605022591315
-0.6276563795130622   -0.27760672514055984   -0.061892721758595455
-0.6276563795130622   -0.27760672514055984   -0.061892721758595455
-0.6276563795130622   -0.27760672514055984   -0.061892721758595455
-0.6276563795130622   -0.27760672514055984   -0.061892721758595455
-0.48918125708443827   -0.1850922811201573   -0.014249299874270756
-0.48918125708443827   -0.1850922811201573   -0.014249299874270756
-0.48918125708443827   -0.1850922811201573   -0.014249299874270756
-0.48918125708443827   -0.1850922811201573   -0.014249299874270756
-0.5900617682512234   -0.11219759227550244   -0.03932879831445672
-0.5900617682512234   -0.11219759227550244   -0.03932879831445672
-0.5900617682512234   -0.11219759227550244   -0.03932879831445672
-0.5900617682512234   -0.11219759227550244   -0.03932879831445672
-0.39610225418701545   -0.22595767203374145   -0.03520158155055037
-0.39610225418701545   -0.22595767203374145   -0.03520158155055037
-0.39610225418701545   -0.22595767203374145   -0.03520158155055037
-0.39610225418701545   -0.22595767203374145   -0.03520158155055037
-0.36004492759341294   -0.07537509277370526   0.0006024494080091365
-0.36004492759341294   -0.07537509277370526   0.0006024494080091365
-0.36004492759341294   -0.07537509277370526   0.0006024494080091365
-0.36004492759341294   -0.07537509277370526   0.0006024494080091365
-0.62978875097132   -0.27616771017134983   -0.03655143963300425
-0.62978875097132   -0.27616771017134983   -0.03655143963300425
-0.62978875097132   -0.27616771017134983   -0.03655143963300425
-0.62978875097132   -0.27616771017134983   -0.03655143963300425
-0.4836679443246436   -0.1735001385624706   -0.015137587732643214
-0.4836679443246436   -0.1735001385624706   -0.015137587732643214
-0.4836679443246436   -0.1735001385624706   -0.015137587732643214
-0.4836679443246436   -0.1735001385624706   -0.015137587732643214
-0.5989757419486744   -0.12917713872048645   -0.029476965970635424
-0.5989757419486744   -0.12917713872048645   -0.029476965970635424
-0.5989757419486744   -0.12917713872048645   -0.029476965970635424
-0.5989757419486744   -0.12917713872048645   -0.029476965970635424
-0.3958064844954589   -0.22731421210396827   -0.026266215771957563
-0.3958064844954589   -0.22731421210396827   -0.026266215771957563
-0.3958064844954589   -0.22731421210396827   -0.026266215771957563
-0.3958064844954589   -0.22731421210396827   -0.026266215771957563
-0.3597674558675982   -0.09685145524999195   0.005839521784364377
-0.3597674558675982   -0.09685145524999195   0.005839521784364377
-0.3597674558675982   -0.09685145524999195   0.005839521784364377
-0.3597674558675982   -0.09685145524999195   0.005839521784364377
-0.6280933672060894   -0.2808014074826599   -0.05444278977617925
-0.6280933672060894   -0.2808014074826599   -0.05444278977617925
-0.6280933672060894   -0.2808014074826599   -0.05444278977617925
-0.6280933672060894   -0.2808014074826599   -0.05444278977617925
-0.4908285429965334   -0.18664929610921055   -0.028106925159288174
-0.4908285429965334   -0.18664929610921055   -0.028106925159288174
-0.4908285429965334   -0.18664929610921055   -0.028106925159288174
-0.4908285429965334   -0.18664929610921055   -0.028106925159288174
-0.3570498769856261   -0.06441295856440243   -0.004500230953907682
-0.3570498769856261   -0.06441295856440243   -0.004500230953907682
-0.3570498769856261   -0.06441295856440243   -0.004500230953907682
-0.3570498769856261   -0.06441295856440243   -0.004500230953907682
-0.2990895910065102   -0.20009096778857377   -0.03454230469697033
-0.2990895910065102   -0.20009096778857377   -0.03454230469697033
-0.2990895910065102   -0.20009096778857377   -0.03454230469697033
-0.2990895910065102   -0.20009096778857377   -0.03454230469697033
-0.25773141865641114   -0.05339163002545318   0.013798123262066114
-0.25773141865641114   -0.05339163002545318   0.013798123262066114
-0.25773141865641114   -0.05339163002545318   0.013798123262066114
-0.25773141865641114   -0.05339163002545318   0.013798123262066114
-0.39503411480216566   -0.2176247034228011   -0.03819385323724183
-0.39503411480216566   -0.2176247034228011   -0.03819385323724183
-0.39503411480216566   -0.2176247034228011   -0.03819385323724183
-0.39503411480216566   -0.2176247034228011   -0.03819385323724183
-0.3257788871642764   -0.13576553982947948   -0.01594451906500301
-0.3257788871642764   -0.13576553982947948   -0.01594451906500301
-0.3257788871642764   -0.13576553982947948   -0.01594451906500301
-0.3257788871642764   -0.13576553982947948   -0.01594451906500301
-0.35900003648493883   -0.07627884271529473   0.0006306776413860652
-0.35900003648493883   -0.07627884271529473   0.0006306776413860652
-0.35900003648493883   -0.07627884271529473   0.0006306776413860652
-0.35900003648493883   -0.07627884271529473   0.0006306776413860652
-0.2958839985358385   -0.1968559922951601   -0.03350041386536403
-0.2958839985358385   -0.1968559922951601   -0.03350041386536403
-0.2958839985358385   -0.1968559922951601   -0.03350041386536403
-0.2958839985358385   -0.1968559922951601   -0.03350041386536403
-0.25769764463972694   -0.06754207240538258   0.017873805422741317
-0.25769764463972694   -0.06754207240538258   0.017873805422741317
-0.25769764463972694   -0.06754207240538258   0.017873805422741317
-0.25769764463972694   -0.06754207240538258   0.017873805422741317
-0.39615267055755937   -0.221076023140431   -0.03423533504599713
-0.39615267055755937   -0.221076023140431   -0.03423533504599713
-0.39615267055755937   -0.221076023140431   -0.03423533504599713
-0.39615267055755937   -0.221076023140431   -0.03423533504599713
-0.32508972876754855   -0.14110447898186934   -0.020687778028096522
-0.32508972876754855   -0.14110447898186934   -0.020687778028096522
-0.32508972876754855   -0.14110447898186934   -0.020687778028096522
-0.32508972876754855   -0.14110447898186934   -0.020687778028096522
-0.3618821100653327   -0.09062119810009253   0.0066626423747973675
-0.3618821100653327   -0.09062119810009253   0.0066626423747973675
-0.3618821100653327   -0.09062119810009253   0.0066626423747973675
-0.3618821100653327   -0.09062119810009253   0.0066626423747973675
-0.29313144332589786   -0.1991601356396666   -0.027677124773829005
-0.29313144332589786   -0.1991601356396666   -0.027677124773829005
-0.29313144332589786   -0.1991601356396666   -0.027677124773829005
-0.29313144332589786   -0.1991601356396666   -0.027677124773829005
-0.25452123506687613   -0.08106719331634171   0.02230840195279229
-0.25452123506687613   -0.08106719331634171   0.02230840195279229
-0.25452123506687613   -0.08106719331634171   0.02230840195279229
-0.25452123506687613   -0.08106719331634171   0.02230840195279229
-0.3912853727028698   -0.22391863887444954   -0.024682878767536096
-0.3912853727028698   -0.22391863887444954   -0.024682878767536096
-0.3912853727028698   -0.22391863887444954   -0.024682878767536096
-0.3912853727028698   -0.22391863887444954   -0.024682878767536096
-0.3239770650738206   -0.1481183619484283   -0.023961850631761667
-0.3239770650738206   -0.1481183619484283   -0.023961850631761667
-0.3239770650738206   -0.1481183619484283   -0.023961850631761667
-0.3239770650738206   -0.1481183619484283   -0.023961850631761667
-0.2490680426682341   -0.008945546049129824   0.02442001525496629
-0.2490680426682341   -0.008945546049129824   0.02442001525496629
-0.2490680426682341   -0.008945546049129824   0.02442001525496629
-0.2490680426682341   -0.008945546049129824   0.02442001525496629
-0.23509036386288107   -0.10583200610862357   -0.020639962536662317
-0.23509036386288107   -0.10583200610862357   -0.020639962536662317
-0.23509036386288107   -0.10583200610862357   -0.020639962536662317
-0.23509036386288107   -0.10583200610862357   -0.020639962536662317
-0.20258606309855204   -0.0153379090034995   0.02829704462425812
-0.20258606309855204   -0.0153379090034995   0.02829704462425812
-0.20258606309855204   -0.0153379090034995   0.02829704462425812
-0.20258606309855204   -0.0153379090034995   0.02829704462425812
-0.2772243878322395   -0.12242273511510605   -0.014635617527422831
-0.2772243878322395   -0.12242273511510605   -0.014635617527422831
-0.2772243878322395   -0.12242273511510605   -0.014635617527422831
-0.2772243878322395   -0.12242273511510605   -0.014635617527422831
-0.24179994732346854   -0.06255812025094645   -0.008643573475194892
-0.24179994732346854   -0.06255812025094645   -0.008643573475194892
-0.24179994732346854   -0.06255812025094645   -0.008643573475194892
-0.24179994732346854   -0.06255812025094645   -0.008643573475194892
-0.24911367380328128   -0.024669830474037074   0.028165047976299474
-0.24911367380328128   -0.024669830474037074   0.028165047976299474
-0.24911367380328128   -0.024669830474037074   0.028165047976299474
-0.24911367380328128   -0.024669830474037074   0.028165047976299474
-0.23294595566349252   -0.11533999218055069   -0.02350033502339304
-0.23294595566349252   -0.11533999218055069   -0.02350033502339304
-0.23294595566349252   -0.11533999218055069   -0.02350033502339304
-0.23294595566349252   -0.11533999218055069   -0.02350033502339304
-0.20276007246460184   -0.029044200705241486   0.030408834195644874
-0.20276007246460184   -0.029044200705241486   0.030408834195644874
-0.20276007246460184   -0.029044200705241486   0.030408834195644874
-0.20276007246460184   -0.029044200705241486   0.030408834195644874
-0.27700514149366284   -0.1298769227120261   -0.016328828540302185
-0.27700514149366284   -0.1298769227120261   -0.016328828540302185
-0.27700514149366284   -0.1298769227120261   -0.016328828540302185
-0.27700514149366284   -0.1298769227120261   -0.016328828540302185
-0.2406311082373239   -0.0735744267533317   -0.01466158832321112
-0.2406311082373239   -0.0735744267533317   -0.01466158832321112
-0.2406311082373239   -0.0735744267533317   -0.01466158832321112
-0.2406311082373239   -0.0735744267533317   -0.01466158832321112
-0.2489455084430008   -0.03795380994987824   0.03204622395086005
-0.2489455084430008   -0.03795380994987824   0.03204622395086005
-0.2489455084430008   -0.03795380994987824   0.03204622395086005
-0.2489455084430008   -0.03795380994987824   0.03204622395086005
-0.23218123309918748   -0.1223288410513117   -0.0234123286312131
-0.23218123309918748   -0.1223288410513117   -0.0234123286312131
-0.23218123309918748   -0.1223288410513117   -0.0234123286312131
-0.23218123309918748   -0.1223288410513117   -0.0234123286312131
-0.20089603561120253   -0.041910801161027265   0.035235860783666834
-0.20089603561120253   -0.041910801161027265   0.035235860783666834
-0.20089603561120253   -0.041910801161027265   0.035235860783666834
-0.20089603561120253   -0.041910801161027265   0.035235860783666834
-0.2724737315082131   -0.13733976523989608   -0.011181508330338187
-0.2724737315082131   -0.13733976523989608   -0.011181508330338187
-0.2724737315082131   -0.13733976523989608   -0.011181508330338187
-0.2724737315082131   -0.13733976523989608   -0.011181508330338187
-0.23976982915541162   -0.08303061958857086   -0.018831320724939746
-0.23976982915541162   -0.08303061958857086   -0.018831320724939746
-0.23976982915541162   -0.08303061958857086   -0.018831320724939746
-0.23976982915541162   -0.08303061958857086   -0.018831320724939746
-0.19669439566273553   0.02747076036943378   0.03803711198600808
-0.19669439566273553   0.02747076036943378   0.03803711198600808
-0.19669439566273553   0.02747076036943378   0.03803711198600808
-0.19669439566273553   0.02747076036943378   0.03803711198600808
-0.13012805002679317   -0.034741122990251706   -0.012666736507440511
-0.13012805002679317   -0.034741122990251706   -0.012666736507440511
-0.13012805002679317   -0.034741122990251706   -0.012666736507440511
-0.13012805002679317   -0.034741122990251706   -0.012666736507440511
-0.11342401019157608   0.03238868448305975   0.037547497206160914
-0.11342401019157608   0.03238868448305975   0.037547497206160914
-0.11342401019157608   0.03238868448305975   0.037547497206160914
-0.11342401019157608   0.03238868448305975   0.037547497206160914
-0.2171556289469132   -0.05333506607441929   -0.006553627546627978
-0.2171556289469132   -0.05333506607441929   -0.006553627546627978
-0.2171556289469132   -0.05333506607441929   -0.006553627546627978
-0.2171556289469132   -0.05333506607441929   -0.006553627546627978
-0.16211766389775337   -0.003386100173002636   -0.006903377677262028
-0.16211766389775337   -0.003386100173002636   -0.006903377677262028
-0.16211766389775337   -0.003386100173002636   -0.006903377677262028
-0.16211766389775337   -0.003386100173002636   -0.006903377677262028
-0.19343830138362827   0.01717992970207463   0.041518014493302814
-0.19343830138362827   0.01717992970207463   0.041518014493302814
-0.19343830138362827   0.01717992970207463   0.041518014493302814
-0.19343830138362827   0.01717992970207463   0.041518014493302814
-0.13736315876658403   -0.03834813230516103   -0.01141142888065812
-0.13736315876658403   -0.03834813230516103   -0.01141142888065812
-0.13736315876658403   -0.03834813230516103   -0.01141142888065812
-0.13736315876658403   -0.03834813230516103   -0.01141142888065812
-0.11835493780163137   0.025728278315666386   0.047243082663281546
-0.11835493780163137   0.025728278315666386   0.047243082663281546
-0.11835493780163137   0.025728278315666386   0.047243082663281546
-0.11835493780163137   0.025728278315666386   0.047243082663281546
-0.21606694615067976   -0.05676100021272147   -0.008408734727264744
-0.21606694615067976   -0.05676100021272147   -0.008408734727264744
-0.21606694615067976   -0.05676100021272147   -0.008408734727264744
-0.21606694615067976   -0.05676100021272147   -0.008408734727264744
-0.1668379664279309   -0.010662473804122649   -0.009701990730620617
-0.1668379664279309   -0.010662473804122649   -0.009701990730620617
-0.1668379664279309   -0.010662473804122649   -0.009701990730620617
-0.1668379664279309   -0.010662473804122649   -0.009701990730620617
-0.19121781088035583   0.011268562874659903   0.047807378536973616
-0.19121781088035583   0.011268562874659903   0.047807378536973616
-0.19121781088035583   0.011268562874659903   0.047807378536973616
-0.19121781088035583   0.011268562874659903   0.047807378536973616
-0.14490520816890012   -0.044002419868659826   -0.01577757098873615
-0.14490520816890012   -0.044002419868659826   -0.01577757098873615
-0.14490520816890012   -0.044002419868659826   -0.01577757098873615
-0.14490520816890012   -0.044002419868659826   -0.01577757098873615
-0.13545304660935548   0.007418491762461375   0.04915918808601482
-0.13545304660935548   0.007418491762461375   0.04915918808601482
-0.13545304660935548   0.007418491762461375   0.04915918808601482
-0.13545304660935548   0.007418491762461375   0.04915918808601482
-0.21293391456735178   -0.05980603203626896   -0.007058303121837601
-0.21293391456735178   -0.05980603203626896   -0.007058303121837601
-0.21293391456735178   -0.05980603203626896   -0.007058303121837601
-0.21293391456735178   -0.05980603203626896   -0.007058303121837601
-0.16907489400097458   -0.015911641116305733   -0.014261252882166675
-0.16907489400097458   -0.015911641116305733   -0.014261252882166675
-0.16907489400097458   -0.015911641116305733   -0.014261252882166675
-0.16907489400097458   -0.015911641116305733   -0.014261252882166675
-2.032944768118476   -0.2879908276512816   -0.16905480761950126
-2.032944768118476   -0.2879908276512816   -0.16905480761950126
-2.032944768118476   -0.2879908276512816   -0.16905480761950126
-2.032944768118476   -0.2879908276512816   -0.16905480761950126
-0.7054155377513376   -1.109277145555922   -0.13233723607414521
-0.7054155377513376   -1.109277145555922   -0.13233723607414521
-0.7054155377513376   -1.109277145555922   -0.13233723607414521
-0.7054155377513376   -1.109277145555922   -0.13233723607414521
-0.5452529742092824   -0.04673004252864017   0.0007632958245444889
-0.5452529742092824   -0.04673004252864017   0.0007632958245444889
-0.5452529742092824   -0.04673004252864017   0.0007632958245444889
-0.5452529742092824   -0.04673004252864017   0.0007632958245444889
-2.170507126965629   -1.3039782982508332   -0.6948970850432924
-2.170507126965629   -1.3039782982508332   -0.6948970850432924
-2.170507126965629   -1.3039782982508332   -0.6948970850432924
-2.170507126965629   -1.3039782982508332   -0.6948970850432924
-1.3294512405212824   -0.6487195909906279   -0.09452639311759828
-1.3294512405212824   -0.6487195909906279   -0.09452639311759828
-1.3294512405212824   -0.6487195909906279   -0.09452639311759828
-1.3294512405212824   -0.6487195909906279   -0.09452639311759828
-1.8890024078208096   -0.3615857882748865   -0.22976599929515992
-1.8890024078208096   -0.3615857882748865   -0.22976599929515992
-1.8890024078208096   -0.3615857882748865   -0.22976599929515992
-1.8890024078208096   -0.3615857882748865   -0.22976599929515992
-0.7617540994932913   -0.9241189586437789   -0.20435341448035763
-0.7617540994932913   -0.9241189586437789   -0.20435341448035763
-0.7617540994932913   -0.9241189586437789   -0.20435341448035763
-0.7617540994932913   -0.9241189586437789   -0.20435341448035763
-0.5562283029556736   -0.062297085210319736   0.020934774962331218
-0.5562283029556736   -0.062297085210319736   0.020934774962331218
-0.5562283029556736   -0.062297085210319736   0.020934774962331218
-0.5562283029556736   -0.062297085210319736   0.020934774962331218
-2.031085388853026   -1.163153698783196   -0.6388478175272444
-2.031085388853026   -1.163153698783196   -0.6388478175272444
-2.031085388853026   -1.163153698783196   -0.6388478175272444
-2.031085388853026   -1.163153698783196   -0.6388478175272444
-1.2521625160376815   -0.5849631137485344   0.050689116176993884
-1.2521625160376815   -0.5849631137485344   0.050689116176993884
-1.2521625160376815   -0.5849631137485344   0.050689116176993884
-1.2521625160376815   -0.5849631137485344   0.050689116176993884
-1.7738102479580393   -0.3442713263086365   -0.17135448552688648
-1.7738102479580393   -0.3442713263086365   -0.17135448552688648
-1.7738102479580393   -0.3442713263086365   -0.17135448552688648
-1.7738102479580393   -0.3442713263086365   -0.17135448552688648
-0.7412750591774606   -0.8089510730116818   -0.1576450183452383
-0.7412750591774606   -0.8089510730116818   -0.1576450183452383
-0.7412750591774606   -0.8089510730116818   -0.1576450183452383
-0.7412750591774606   -0.8089510730116818   -0.1576450183452383
-0.6391378078560298   -0.16364291904721714   -0.03321998021907872
-0.6391378078560298   -0.16364291904721714   -0.03321998021907872
-0.6391378078560298   -0.16364291904721714   -0.03321998021907872
-0.6391378078560298   -0.16364291904721714   -0.03321998021907872
-1.851173804979576   -0.9775438149727017   -0.5657435239904556
-1.851173804979576   -0.9775438149727017   -0.5657435239904556
-1.851173804979576   -0.9775438149727017   -0.5657435239904556
-1.851173804979576   -0.9775438149727017   -0.5657435239904556
-1.1598654821528194   -0.5071381820936549   0.2147246016966966
-1.1598654821528194   -0.5071381820936549   0.2147246016966966
-1.1598654821528194   -0.5071381820936549   0.2147246016966966
-1.1598654821528194   -0.5071381820936549   0.2147246016966966
-0.5222066490688317   -0.28357375631325515   -0.04199618190428836
-0.5222066490688317   -0.28357375631325515   -0.04199618190428836
-0.5222066490688317   -0.28357375631325515   -0.04199618190428836
-0.5222066490688317   -0.28357375631325515   -0.04199618190428836
-0.24138498133153352   -0.350201571243763   -0.05963903811559629
-0.24138498133153352   -0.350201571243763   -0.05963903811559629
-0.24138498133153352   -0.350201571243763   -0.05963903811559629
-0.24138498133153352   -0.350201571243763   -0.05963903811559629
-0.2129554742216467   -0.18118607981028456   0.005509599601365343
-0.2129554742216467   -0.18118607981028456   0.005509599601365343
-0.2129554742216467   -0.18118607981028456   0.005509599601365343
-0.2129554742216467   -0.18118607981028456   0.005509599601365343
-0.6385923209863058   -0.5129552641493785   0.0002917835601698032
-0.6385923209863058   -0.5129552641493785   0.0002917835601698032
-0.6385923209863058   -0.5129552641493785   0.0002917835601698032
-0.6385923209863058   -0.5129552641493785   0.0002917835601698032
-0.34303752865748083   -0.24878868928451242   0.1098885263998465
-0.34303752865748083   -0.24878868928451242   0.1098885263998465
-0.34303752865748083   -0.24878868928451242   0.1098885263998465
-0.34303752865748083   -0.24878868928451242   0.1098885263998465
-0.5942487643790417   -0.2639464977271795   -0.026999199825714366
-0.5942487643790417   -0.2639464977271795   -0.026999199825714366
-0.5942487643790417   -0.2639464977271795   -0.026999199825714366
-0.5942487643790417   -0.2639464977271795   -0.026999199825714366
-0.27531609928148715   -0.4482119146850603   -0.03926769082305741
-0.27531609928148715   -0.4482119146850603   -0.03926769082305741
-0.27531609928148715   -0.4482119146850603   -0.03926769082305741
-0.27531609928148715   -0.4482119146850603   -0.03926769082305741
-0.2299880241170826   -0.18776533031235895   0.005659732807712696
-0.2299880241170826   -0.18776533031235895   0.005659732807712696
-0.2299880241170826   -0.18776533031235895   0.005659732807712696
-0.2299880241170826   -0.18776533031235895   0.005659732807712696
-0.6697038677721773   -0.5063504649359377   -0.10238966939456644
-0.6697038677721773   -0.5063504649359377   -0.10238966939456644
-0.6697038677721773   -0.5063504649359377   -0.10238966939456644
-0.6697038677721773   -0.5063504649359377   -0.10238966939456644
-0.40899327964926324   -0.31917565104328877   0.05018926063509689
-0.40899327964926324   -0.31917565104328877   0.05018926063509689
-0.40899327964926324   -0.31917565104328877   0.05018926063509689
-0.40899327964926324   -0.31917565104328877   0.05018926063509689
-0.6131630195870049   -0.27561621220734583   -0.050419681197299476
-0.6131630195870049   -0.27561621220734583   -0.050419681197299476
-0.6131630195870049   -0.27561621220734583   -0.050419681197299476
-0.6131630195870049   -0.27561621220734583   -0.050419681197299476
-0.2848469517372455   -0.4168176624759418   -0.039582573129518885
-0.2848469517372455   -0.4168176624759418   -0.039582573129518885
-0.2848469517372455   -0.4168176624759418   -0.039582573129518885
-0.2848469517372455   -0.4168176624759418   -0.039582573129518885
-0.25624601665180635   -0.193876703513598   0.008333379514847188
-0.25624601665180635   -0.193876703513598   0.008333379514847188
-0.25624601665180635   -0.193876703513598   0.008333379514847188
-0.25624601665180635   -0.193876703513598   0.008333379514847188
-0.7159990798811209   -0.4919747095900953   -0.08919454980165278
-0.7159990798811209   -0.4919747095900953   -0.08919454980165278
-0.7159990798811209   -0.4919747095900953   -0.08919454980165278
-0.7159990798811209   -0.4919747095900953   -0.08919454980165278
-0.4278982910368207   -0.3008167848702987   0.05310748860919941
-0.4278982910368207   -0.3008167848702987   0.05310748860919941
-0.4278982910368207   -0.3008167848702987   0.05310748860919941
-0.4278982910368207   -0.3008167848702987   0.05310748860919941
-0.19074836557743594   -0.16903813990094993   0.01238060931207459
-0.19074836557743594   -0.16903813990094993   0.01238060931207459
-0.19074836557743594   -0.16903813990094993   0.01238060931207459
-0.19074836557743594   -0.16903813990094993   0.01238060931207459
-0.11645178533185355   -0.10903610265970524   -0.029105288560962988
-0.11645178533185355   -0.10903610265970524   -0.029105288560962988
-0.11645178533185355   -0.10903610265970524   -0.029105288560962988
-0.11645178533185355   -0.10903610265970524   -0.029105288560962988
-0.1129580539707733   -0.15107320974530825   0.012487554318830078
-0.1129580539707733   -0.15107320974530825   0.012487554318830078
-0.1129580539707733   -0.15107320974530825   0.012487554318830078
-0.1129580539707733   -0.15107320974530825   0.012487554318830078
-0.21043894828900095   -0.14973694440612456   -0.013356906139561978
-0.21043894828900095   -0.14973694440612456   -0.013356906139561978
-0.21043894828900095   -0.14973694440612456   -0.013356906139561978
-0.21043894828900095   -0.14973694440612456   -0.013356906139561978
-0.13314843573652496   -0.12209355009375626   0.055096854251979195
-0.13314843573652496   -0.12209355009375626   0.055096854251979195
-0.13314843573652496   -0.12209355009375626   0.055096854251979195
-0.13314843573652496   -0.12209355009375626   0.055096854251979195
-0.20918039412243528   -0.17014617048498318   0.013345090772117318
-0.20918039412243528   -0.17014617048498318   0.013345090772117318
-0.20918039412243528   -0.17014617048498318   0.013345090772117318
-0.20918039412243528   -0.17014617048498318   0.013345090772117318
-0.11603490142215672   -0.13248227695126863   -0.02148761573212664
-0.11603490142215672   -0.13248227695126863   -0.02148761573212664
-0.11603490142215672   -0.13248227695126863   -0.02148761573212664
-0.11603490142215672   -0.13248227695126863   -0.02148761573212664
-0.11416197170538928   -0.15561226913421616   0.011092736132914664
-0.11416197170538928   -0.15561226913421616   0.011092736132914664
-0.11416197170538928   -0.15561226913421616   0.011092736132914664
-0.11416197170538928   -0.15561226913421616   0.011092736132914664
-0.2233560651820761   -0.17476041813620896   0.025814615306595234
-0.2233560651820761   -0.17476041813620896   0.025814615306595234
-0.2233560651820761   -0.17476041813620896   0.025814615306595234
-0.2233560651820761   -0.17476041813620896   0.025814615306595234
-0.1446766922083288   -0.13602186802091742   0.04673261145951128
-0.1446766922083288   -0.13602186802091742   0.04673261145951128
-0.1446766922083288   -0.13602186802091742   0.04673261145951128
-0.1446766922083288   -0.13602186802091742   0.04673261145951128
-0.2252522547045566   -0.17644518587419714   0.01801843543217712
-0.2252522547045566   -0.17644518587419714   0.01801843543217712
-0.2252522547045566   -0.17644518587419714   0.01801843543217712
-0.2252522547045566   -0.17644518587419714   0.01801843543217712
-0.12193135958930544   -0.1635930788026253   -0.01977339361825706
-0.12193135958930544   -0.1635930788026253   -0.01977339361825706
-0.12193135958930544   -0.1635930788026253   -0.01977339361825706
-0.12193135958930544   -0.1635930788026253   -0.01977339361825706
-0.11534635078098426   -0.1606790360041139   0.015576113662264253
-0.11534635078098426   -0.1606790360041139   0.015576113662264253
-0.11534635078098426   -0.1606790360041139   0.015576113662264253
-0.11534635078098426   -0.1606790360041139   0.015576113662264253
-0.26106724053640196   -0.21515528752297272   0.005505844101243815
-0.26106724053640196   -0.21515528752297272   0.005505844101243815
-0.26106724053640196   -0.21515528752297272   0.005505844101243815
-0.26106724053640196   -0.21515528752297272   0.005505844101243815
-0.16143427772157837   -0.1551205651423111   0.022163315601067324
-0.16143427772157837   -0.1551205651423111   0.022163315601067324
-0.16143427772157837   -0.1551205651423111   0.022163315601067324
-0.16143427772157837   -0.1551205651423111   0.022163315601067324
-0.09574615614376335   -0.06729818426125919   0.032684938981041876
-0.09574615614376335   -0.06729818426125919   0.032684938981041876
-0.09574615614376335   -0.06729818426125919   0.032684938981041876
-0.09574615614376335   -0.06729818426125919   0.032684938981041876
-0.06696028083825922   0.00030681363404866727   -0.006523350224740389
-0.06696028083825922   0.00030681363404866727   -0.006523350224740389
-0.06696028083825922   0.00030681363404866727   -0.006523350224740389
-0.06696028083825922   0.00030681363404866727   -0.006523350224740389
-0.06355883103166116   -0.07270411583254639   0.020291922084797104
-0.06355883103166116   -0.07270411583254639   0.020291922084797104
-0.06355883103166116   -0.07270411583254639   0.020291922084797104
-0.06355883103166116   -0.07270411583254639   0.020291922084797104
-0.08856986132681098   -0.012435840815544271   -0.0042088513911222826
-0.08856986132681098   -0.012435840815544271   -0.0042088513911222826
-0.08856986132681098   -0.012435840815544271   -0.0042088513911222826
-0.08856986132681098   -0.012435840815544271   -0.0042088513911222826
-0.07278835311680475   -0.036629303079118755   0.016213610216976364
-0.07278835311680475   -0.036629303079118755   0.016213610216976364
-0.07278835311680475   -0.036629303079118755   0.016213610216976364
-0.07278835311680475   -0.036629303079118755   0.016213610216976364
-0.09443523369006905   -0.07677674298814897   0.030805188965192104
-0.09443523369006905   -0.07677674298814897   0.030805188965192104
-0.09443523369006905   -0.07677674298814897   0.030805188965192104
-0.09443523369006905   -0.07677674298814897   0.030805188965192104
-0.05601968567597106   -0.006689440667509656   -0.008027026301789128
-0.05601968567597106   -0.006689440667509656   -0.008027026301789128
-0.05601968567597106   -0.006689440667509656   -0.008027026301789128
-0.05601968567597106   -0.006689440667509656   -0.008027026301789128
-0.05817987197799021   -0.07910617403215223   0.01869964534338702
-0.05817987197799021   -0.07910617403215223   0.01869964534338702
-0.05817987197799021   -0.07910617403215223   0.01869964534338702
-0.05817987197799021   -0.07910617403215223   0.01869964534338702
-0.08913443563773303   -0.024808987898360134   0.00542713523533982
-0.08913443563773303   -0.024808987898360134   0.00542713523533982
-0.08913443563773303   -0.024808987898360134   0.00542713523533982
-0.08913443563773303   -0.024808987898360134   0.00542713523533982
-0.06670138566576723   -0.04196919898217827   0.019375815912949658
-0.06670138566576723   -0.04196919898217827   0.019375815912949658
-0.06670138566576723   -0.04196919898217827   0.019375815912949658
-0.06670138566576723   -0.04196919898217827   0.019375815912949658
-0.094850332807351   -0.08314371914076986   0.03518238062965961
-0.094850332807351   -0.08314371914076986   0.03518238062965961
-0.094850332807351   -0.08314371914076986   0.03518238062965961
-0.094850332807351   -0.08314371914076986   0.03518238062965961
-0.05295421325010012   -0.02126168123147039   -0.013016553817844376
-0.05295421325010012   -0.02126168123147039   -0.013016553817844376
-0.05295421325010012   -0.02126168123147039   -0.013016553817844376
-0.05295421325010012   -0.02126168123147039   -0.013016553817844376
-0.048521300337757006   -0.08620405428486477   0.020544615274362285
-0.048521300337757006   -0.08620405428486477   0.020544615274362285
-0.048521300337757006   -0.08620405428486477   0.020544615274362285
-0.048521300337757006   -0.08620405428486477   0.020544615274362285
-0.09591923055135375   -0.05509580761962954   0.007128486425932478
-0.09591923055135375   -0.05509580761962954   0.007128486425932478
-0.09591923055135375   -0.05509580761962954   0.007128486425932478
-0.09591923055135375   -0.05509580761962954   0.007128486425932478
-0.06405665894128755   -0.05299979741018642   0.01681621237713384
-0.06405665894128755   -0.05299979741018642   0.01681621237713384
-0.06405665894128755   -0.05299979741018642   0.01681621237713384
-0.06405665894128755   -0.05299979741018642   0.01681621237713384
-0.061529318973958726   -0.011916979110030073   0.03285525184084086
-0.061529318973958726   -0.011916979110030073   0.03285525184084086
-0.061529318973958726   -0.011916979110030073   0.03285525184084086
-0.061529318973958726   -0.011916979110030073   0.03285525184084086
-0.010649438149040066   0.007250716626742378   -0.0006633103800763535
-0.010649438149040066   0.007250716626742378   -0.0006633103800763535
-0.010649438149040066   0.007250716626742378   -0.0006633103800763535
-0.010649438149040066   0.007250716626742378   -0.0006633103800763535
0.0037597411862057162   -0.0037806846581557568   0.02030290940157846
0.0037597411862057162   -0.0037806846581557568   0.02030290940157846
0.0037597411862057162   -0.0037806846581557568   0.02030290940157846
0.0037597411862057162   -0.0037806846581557568   0.02030290940157846
-0.0524997480070712   0.005479856467094124   -0.0025966350918935977
-0.0524997480070712   0.005479856467094124   -0.0025966350918935977
-0.0524997480070712   0.005479856467094124   -0.0025966350918935977
-0.0524997480070712   0.005479856467094124   -0.0025966350918935977
-0.03075000130243735   -0.0022948770567137794   -0.0025630154853753346
-0.03075000130243735   -0.0022948770567137794   -0.0025630154853753346
-0.03075000130243735   -0.0022948770567137794   -0.0025630154853753346
-0.03075000130243735   -0.0022948770567137794   -0.0025630154853753346
-0.04853942482187241   -0.011470110233205537   0.03415494753440001
-0.04853942482187241   -0.011470110233205537   0.03415494753440001
-0.04853942482187241   -0.011470110233205537   0.03415494753440001
-0.04853942482187241   -0.011470110233205537   0.03415494753440001
0.0016409472206448507   0.015010811261783106   -0.009082556346164731
0.0016409472206448507   0.015010811261783106   -0.009082556346164731
0.0016409472206448507   0.015010811261783106   -0.009082556346164731
0.0016409472206448507   0.015010811261783106   -0.009082556346164731
0.011079948118813257   -0.004646365231125767   0.02501754591122839
0.011079948118813257   -0.004646365231125767   0.02501754591122839
0.011079948118813257   -0.004646365231125767   0.02501754591122839
0.011079948118813257   -0.004646365231125767   0.02501754591122839
-0.04601272217653855   0.004264138155744907   -0.003834917837251808
-0.04601272217653855   0.004264138155744907   -0.003834917837251808
-0.04601272217653855   0.004264138155744907   -0.003834917837251808
-0.04601272217653855   0.004264138155744907   -0.003834917837251808
-0.020025332324495417   -0.0004923781803580838   0.003257170680831733
-0.020025332324495417   -0.0004923781803580838   0.003257170680831733
-0.020025332324495417   -0.0004923781803580838   0.003257170680831733
-0.020025332324495417   -0.0004923781803580838   0.003257170680831733
-0.04132512299977668   -0.012797871163857449   0.036665087366159914
-0.04132512299977668   -0.012797871163857449   0.036665087366159914
-0.04132512299977668   -0.012797871163857449   0.036665087366159914
-0.04132512299977668   -0.012797871163857449   0.036665087366159914
0.008057009178360762   0.014080304324785967   -0.008823818346945811
0.008057009178360762   0.014080304324785967   -0.008823818346945811
0.008057009178360762   0.014080304324785967   -0.008823818346945811
0.008057009178360762   0.014080304324785967   -0.008823818346945811
0.018593983255918   -0.007233584992974622   0.024276034271364325
0.018593983255918   -0.007233584992974622   0.024276034271364325
0.018593983255918   -0.007233584992974622   0.024276034271364325
0.018593983255918   -0.007233584992974622   0.024276034271364325
-0.03536684705355689   0.004466309785616379   -0.004353482375118279
-0.03536684705355689   0.004466309785616379   -0.004353482375118279
-0.03536684705355689   0.004466309785616379   -0.004353482375118279
-0.03536684705355689   0.004466309785616379   -0.004353482375118279
-0.010430866651907122   0.0006527942810011093   0.008401486732978065
-0.010430866651907122   0.0006527942810011093   0.008401486732978065
-0.010430866651907122   0.0006527942810011093   0.008401486732978065
-0.010430866651907122   0.0006527942810011093   0.008401486732978065
              </DataArray>   
             <DataArray type="Float64" NumberOfComponents="3" Name="Displacements" format="ascii">   
0.0   0.0   0.0
-0.005657454371326352   -0.0037104179970128747   -0.0018951020828679862
0.0   0.0   0.0
0.0   0.0   0.0
-0.005657454371326352   -0.0037104179970128747   -0.0018951020828679862
-0.0036002029751276156   -0.003334170174207244   -0.0013923256780782448
0.0   0.0   0.0
-0.0035291894524933187   -0.0035015628933903202   -0.0011664219379383715
0.0   0.0   0.0
0.0   0.0   0.0
-0.0035291894524933187   -0.0035015628933903202   -0.0011664219379383715
0.0   0.0   0.0
0.0   0.0   0.0
-0.0035291894524933187   -0.0035015628933903202   -0.0011664219379383715
-0.005921024795561812   -0.003952981468764233   -0.001521428381745136
-0.005657454371326352   -0.0037104179970128747   -0.0018951020828679862
0.0   0.0   0.0
-0.0035291894524933187   -0.0035015628933903202   -0.0011664219379383715
-0.005657454371326352   -0.0037104179970128747   -0.0018951020828679862
0.0   0.0   0.0
0.0   0.0   0.0
-0.005921024795561812   -0.003952981468764233   -0.001521428381745136
0.0   0.0   0.0
0.0   0.0   0.0
-0.005921024795561812   -0.003952981468764233   -0.001521428381745136
-0.0035291894524933187   -0.0035015628933903202   -0.0011664219379383715
0.0   0.0   0.0
-0.003539344428136942   -0.003587323230307075   -0.0009408205744761078
0.0   0.0   0.0
0.0   0.0   0.0
-0.003539344428136942   -0.003587323230307075   -0.0009408205744761078
0.0   0.0   0.0
0.0   0.0   0.0
-0.003539344428136942   -0.003587323230307075   -0.0009408205744761078
-0.006106220473083675   -0.004070923492190311   -0.001163347161672314
-0.005921024795561812   -0.003952981468764233   -0.001521428381745136
0.0   0.0   0.0
-0.003539344428136942   -0.003587323230307075   -0.0009408205744761078
-0.005921024795561812   -0.003952981468764233   -0.001521428381745136
0.0   0.0   0.0
0.0   0.0   0.0
-0.006106220473083675   -0.004070923492190311   -0.001163347161672314
0.0   0.0   0.0
0.0   0.0   0.0
-0.006106220473083675   -0.004070923492190311   -0.001163347161672314
-0.003539344428136942   -0.003587323230307075   -0.0009408205744761078
0.0   0.0   0.0
-0.0035377118225246103   -0.0036093283574442714   -0.000707517057814468
0.0   0.0   0.0
0.0   0.0   0.0
-0.0035377118225246103   -0.0036093283574442714   -0.000707517057814468
0.0   0.0   0.0
0.0   0.0   0.0
-0.0035377118225246103   -0.0036093283574442714   -0.000707517057814468
-0.006504982482989345   -0.004160164779726935   -0.0007478935637193911
-0.006106220473083675   -0.004070923492190311   -0.001163347161672314
0.0   0.0   0.0
-0.0035377118225246103   -0.0036093283574442714   -0.000707517057814468
-0.006106220473083675   -0.004070923492190311   -0.001163347161672314
0.0   0.0   0.0
0.0   0.0   0.0
-0.0036002029751276156   -0.003334170174207244   -0.0013923256780782448
0.0   0.0   0.0
0.0   0.0   0.0
-0.0036002029751276156   -0.003334170174207244   -0.0013923256780782448
-0.0016393182623533347   -0.003196137646519468   -0.0010589449471463568
0.0   0.0   0.0
-0.0015768700257757845   -0.0033051149794915847   -0.000952322333470982
0.0   0.0   0.0
0.0   0.0   0.0
-0.0015768700257757845   -0.0033051149794915847   -0.000952322333470982
0.0   0.0   0.0
0.0   0.0   0.0
-0.0015768700257757845   -0.0033051149794915847   -0.000952322333470982
-0.0035291894524933187   -0.0035015628933903202   -0.0011664219379383715
-0.0036002029751276156   -0.003334170174207244   -0.0013923256780782448
0.0   0.0   0.0
-0.0015768700257757845   -0.0033051149794915847   -0.000952322333470982
-0.0036002029751276156   -0.003334170174207244   -0.0013923256780782448
0.0   0.0   0.0
0.0   0.0   0.0
-0.0035291894524933187   -0.0035015628933903202   -0.0011664219379383715
0.0   0.0   0.0
0.0   0.0   0.0
-0.0035291894524933187   -0.0035015628933903202   -0.0011664219379383715
-0.0015768700257757845   -0.0033051149794915847   -0.000952322333470982
0.0   0.0   0.0
-0.0015418797609498495   -0.0033466448707420923   -0.0008484614230396917
0.0   0.0   0.0
0.0   0.0   0.0
-0.0015418797609498495   -0.0033466448707420923   -0.0008484614230396917
0.0   0.0   0.0
0.0   0.0   0.0
-0.0015418797609498495   -0.0033466448707420923   -0.0008484614230396917
-0.003539344428136942   -0.003587323230307075   -0.0009408205744761078
-0.0035291894524933187   -0.0035015628933903202   -0.0011664219379383715
0.0   0.0   0.0
-0.0015418797609498495   -0.0033466448707420923   -0.0008484614230396917
-0.0035291894524933187   -0.0035015628933903202   -0.0011664219379383715
0.0   0.0   0.0
0.0   0.0   0.0
-0.003539344428136942   -0.003587323230307075   -0.0009408205744761078
0.0   0.0   0.0
0.0   0.0   0.0
-0.003539344428136942   -0.003587323230307075   -0.0009408205744761078
-0.0015418797609498495   -0.0033466448707420923   -0.0008484614230396917
0.0   0.0   0.0
-0.0015100517594576867   -0.0033292997501591657   -0.00074106442404652
0.0   0.0   0.0
0.0   0.0   0.0
-0.0015100517594576867   -0.0033292997501591657   -0.00074106442404652
0.0   0.0   0.0
0.0   0.0   0.0
-0.0015100517594576867   -0.0033292997501591657   -0.00074106442404652
-0.0035377118225246103   -0.0036093283574442714   -0.000707517057814468
-0.003539344428136942   -0.003587323230307075   -0.0009408205744761078
0.0   0.0   0.0
-0.0015100517594576867   -0.0033292997501591657   -0.00074106442404652
-0.003539344428136942   -0.003587323230307075   -0.0009408205744761078
0.0   0.0   0.0
0.0   0.0   0.0
-0.0016393182623533347   -0.003196137646519468   -0.0010589449471463568
0.0   0.0   0.0
0.0   0.0   0.0
-0.0016393182623533347   -0.003196137646519468   -0.0010589449471463568
0.0002135220953389242   -0.003213791820827001   -0.0008464591433448894
0.0   0.0   0.0
0.0002532890463707352   -0.003270300655254546   -0.000861270714721068
0.0   0.0   0.0
0.0   0.0   0.0
0.0002532890463707352   -0.003270300655254546   -0.000861270714721068
0.0   0.0   0.0
0.0   0.0   0.0
0.0002532890463707352   -0.003270300655254546   -0.000861270714721068
-0.0015768700257757845   -0.0033051149794915847   -0.000952322333470982
-0.0016393182623533347   -0.003196137646519468   -0.0010589449471463568
0.0   0.0   0.0
0.0002532890463707352   -0.003270300655254546   -0.000861270714721068
-0.0016393182623533347   -0.003196137646519468   -0.0010589449471463568
0.0   0.0   0.0
0.0   0.0   0.0
-0.0015768700257757845   -0.0033051149794915847   -0.000952322333470982
0.0   0.0   0.0
0.0   0.0   0.0
-0.0015768700257757845   -0.0033051149794915847   -0.000952322333470982
0.0002532890463707352   -0.003270300655254546   -0.000861270714721068
0.0   0.0   0.0
0.00028464894077719636   -0.0032656375119854953   -0.0008746303399264434
0.0   0.0   0.0
0.0   0.0   0.0
0.00028464894077719636   -0.0032656375119854953   -0.0008746303399264434
0.0   0.0   0.0
0.0   0.0   0.0
0.00028464894077719636   -0.0032656375119854953   -0.0008746303399264434
-0.0015418797609498495   -0.0033466448707420923   -0.0008484614230396917
-0.0015768700257757845   -0.0033051149794915847   -0.000952322333470982
0.0   0.0   0.0
0.00028464894077719636   -0.0032656375119854953   -0.0008746303399264434
-0.0015768700257757845   -0.0033051149794915847   -0.000952322333470982
0.0   0.0   0.0
0.0   0.0   0.0
-0.0015418797609498495   -0.0033466448707420923   -0.0008484614230396917
0.0   0.0   0.0
0.0   0.0   0.0
-0.0015418797609498495   -0.0033466448707420923   -0.0008484614230396917
0.00028464894077719636   -0.0032656375119854953   -0.0008746303399264434
0.0   0.0   0.0
0.0003269108959065069   -0.0031947818772011805   -0.0008883373704115153
0.0   0.0   0.0
0.0   0.0   0.0
0.0003269108959065069   -0.0031947818772011805   -0.0008883373704115153
0.0   0.0   0.0
0.0   0.0   0.0
0.0003269108959065069   -0.0031947818772011805   -0.0008883373704115153
-0.0015100517594576867   -0.0033292997501591657   -0.00074106442404652
-0.0015418797609498495   -0.0033466448707420923   -0.0008484614230396917
0.0   0.0   0.0
0.0003269108959065069   -0.0031947818772011805   -0.0008883373704115153
-0.0015418797609498495   -0.0033466448707420923   -0.0008484614230396917
0.0   0.0   0.0
0.0   0.0   0.0
0.0002135220953389242   -0.003213791820827001   -0.0008464591433448894
0.0   0.0   0.0
0.0   0.0   0.0
0.0002135220953389242   -0.003213791820827001   -0.0008464591433448894
0.0022245803807180147   -0.00337034351607604   -0.0007413193687466609
0.0   0.0   0.0
0.0022282482649458256   -0.003388354085636848   -0.0008839050566955832
0.0   0.0   0.0
0.0   0.0   0.0
0.0022282482649458256   -0.003388354085636848   -0.0008839050566955832
0.0   0.0   0.0
0.0   0.0   0.0
0.0022282482649458256   -0.003388354085636848   -0.0008839050566955832
0.0002532890463707352   -0.003270300655254546   -0.000861270714721068
0.0002135220953389242   -0.003213791820827001   -0.0008464591433448894
0.0   0.0   0.0
0.0022282482649458256   -0.003388354085636848   -0.0008839050566955832
0.0002135220953389242   -0.003213791820827001   -0.0008464591433448894
0.0   0.0   0.0
0.0   0.0   0.0
0.0002532890463707352   -0.003270300655254546   -0.000861270714721068
0.0   0.0   0.0
0.0   0.0   0.0
0.0002532890463707352   -0.003270300655254546   -0.000861270714721068
0.0022282482649458256   -0.003388354085636848   -0.0008839050566955832
0.0   0.0   0.0
0.002218456985415757   -0.0033399676068279417   -0.0010206677527339056
0.0   0.0   0.0
0.0   0.0   0.0
0.002218456985415757   -0.0033399676068279417   -0.0010206677527339056
0.0   0.0   0.0
0.0   0.0   0.0
0.002218456985415757   -0.0033399676068279417   -0.0010206677527339056
0.00028464894077719636   -0.0032656375119854953   -0.0008746303399264434
0.0002532890463707352   -0.003270300655254546   -0.000861270714721068
0.0   0.0   0.0
0.002218456985415757   -0.0033399676068279417   -0.0010206677527339056
0.0002532890463707352   -0.003270300655254546   -0.000861270714721068
0.0   0.0   0.0
0.0   0.0   0.0
0.00028464894077719636   -0.0032656375119854953   -0.0008746303399264434
0.0   0.0   0.0
0.0   0.0   0.0
0.00028464894077719636   -0.0032656375119854953   -0.0008746303399264434
0.002218456985415757   -0.0033399676068279417   -0.0010206677527339056
0.0   0.0   0.0
0.002261183511961747   -0.0032103485034799635   -0.0011548083876949207
0.0   0.0   0.0
0.0   0.0   0.0
0.002261183511961747   -0.0032103485034799635   -0.0011548083876949207
0.0   0.0   0.0
0.0   0.0   0.0
0.002261183511961747   -0.0032103485034799635   -0.0011548083876949207
0.0003269108959065069   -0.0031947818772011805   -0.0008883373704115153
0.00028464894077719636   -0.0032656375119854953   -0.0008746303399264434
0.0   0.0   0.0
0.002261183511961747   -0.0032103485034799635   -0.0011548083876949207
0.00028464894077719636   -0.0032656375119854953   -0.0008746303399264434
0.0   0.0   0.0
0.0   0.0   0.0
0.0022245803807180147   -0.00337034351607604   -0.0007413193687466609
0.0   0.0   0.0
0.0   0.0   0.0
0.0022245803807180147   -0.00337034351607604   -0.0007413193687466609
0.005020786195869684   -0.003767085174875076   -0.00069934134887207
0.0   0.0   0.0
0.004714954661692445   -0.0037260093081745013   -0.0010225445359795257
0.0   0.0   0.0
0.0   0.0   0.0
0.004714954661692445   -0.0037260093081745013   -0.0010225445359795257
0.0   0.0   0.0
0.0   0.0   0.0
0.004714954661692445   -0.0037260093081745013   -0.0010225445359795257
0.0022282482649458256   -0.003388354085636848   -0.0008839050566955832
0.0022245803807180147   -0.00337034351607604   -0.0007413193687466609
0.0   0.0   0.0
0.004714954661692445   -0.0037260093081745013   -0.0010225445359795257
0.0022245803807180147   -0.00337034351607604   -0.0007413193687466609
0.0   0.0   0.0
0.0   0.0   0.0
0.0022282482649458256   -0.003388354085636848   -0.0008839050566955832
0.0   0.0   0.0
0.0   0.0   0.0
0.0022282482649458256   -0.003388354085636848   -0.0008839050566955832
0.004714954661692445   -0.0037260093081745013   -0.0010225445359795257
0.0   0.0   0.0
0.004573811486716779   -0.003648540816815263   -0.0012958365766789013
0.0   0.0   0.0
0.0   0.0   0.0
0.004573811486716779   -0.003648540816815263   -0.0012958365766789013
0.0   0.0   0.0
0.0   0.0   0.0
0.004573811486716779   -0.003648540816815263   -0.0012958365766789013
0.002218456985415757   -0.0033399676068279417   -0.0010206677527339056
0.0022282482649458256   -0.003388354085636848   -0.0008839050566955832
0.0   0.0   0.0
0.004573811486716779   -0.003648540816815263   -0.0012958365766789013
0.0022282482649458256   -0.003388354085636848   -0.0008839050566955832
0.0   0.0   0.0
0.0   0.0   0.0
0.002218456985415757   -0.0033399676068279417   -0.0010206677527339056
0.0   0.0   0.0
0.0   0.0   0.0
0.002218456985415757   -0.0033399676068279417   -0.0010206677527339056
0.004573811486716779   -0.003648540816815263   -0.0012958365766789013
0.0   0.0   0.0
0.004363862348708748   -0.003450286238787179   -0.0015850000185974934
0.0   0.0   0.0
0.0   0.0   0.0
0.004363862348708748   -0.003450286238787179   -0.0015850000185974934
0.0   0.0   0.0
0.0   0.0   0.0
0.004363862348708748   -0.003450286238787179   -0.0015850000185974934
0.002261183511961747   -0.0032103485034799635   -0.0011548083876949207
0.002218456985415757   -0.0033399676068279417   -0.0010206677527339056
0.0   0.0   0.0
0.004363862348708748   -0.003450286238787179   -0.0015850000185974934
0.002218456985415757   -0.0033399676068279417   -0.0010206677527339056
0.0   0.0   0.0
-0.005657454371326352   -0.0037104179970128747   -0.0018951020828679862
-0.010568009568650998   -0.010359413525258303   -0.0025531477520083935
-0.0036002029751276156   -0.003334170174207244   -0.0013923256780782448
-0.005921024795561812   -0.003952981468764233   -0.001521428381745136
-0.010568009568650998   -0.010359413525258303   -0.0025531477520083935
-0.006745201808141683   -0.010020990946668371   -0.0021014283444406212
-0.0036002029751276156   -0.003334170174207244   -0.0013923256780782448
-0.006753438471199619   -0.010192279392970516   -0.0018924617884190495
-0.005921024795561812   -0.003952981468764233   -0.001521428381745136
-0.0035291894524933187   -0.0035015628933903202   -0.0011664219379383715
-0.006753438471199619   -0.010192279392970516   -0.0018924617884190495
-0.0036002029751276156   -0.003334170174207244   -0.0013923256780782448
-0.005921024795561812   -0.003952981468764233   -0.001521428381745136
-0.006753438471199619   -0.010192279392970516   -0.0018924617884190495
-0.010884990016690611   -0.010598400298485322   -0.0022137794376341866
-0.010568009568650998   -0.010359413525258303   -0.0025531477520083935
-0.005921024795561812   -0.003952981468764233   -0.001521428381745136
-0.006753438471199619   -0.010192279392970516   -0.0018924617884190495
-0.010568009568650998   -0.010359413525258303   -0.0025531477520083935
-0.0036002029751276156   -0.003334170174207244   -0.0013923256780782448
-0.005921024795561812   -0.003952981468764233   -0.001521428381745136
-0.010884990016690611   -0.010598400298485322   -0.0022137794376341866
-0.0035291894524933187   -0.0035015628933903202   -0.0011664219379383715
-0.006106220473083675   -0.004070923492190311   -0.001163347161672314
-0.010884990016690611   -0.010598400298485322   -0.0022137794376341866
-0.006753438471199619   -0.010192279392970516   -0.0018924617884190495
-0.0035291894524933187   -0.0035015628933903202   -0.0011664219379383715
-0.006780323929068655   -0.01029667413722366   -0.0016916362217060683
-0.006106220473083675   -0.004070923492190311   -0.001163347161672314
-0.003539344428136942   -0.003587323230307075   -0.0009408205744761078
-0.006780323929068655   -0.01029667413722366   -0.0016916362217060683
-0.0035291894524933187   -0.0035015628933903202   -0.0011664219379383715
-0.006106220473083675   -0.004070923492190311   -0.001163347161672314
-0.006780323929068655   -0.01029667413722366   -0.0016916362217060683
-0.011105338535717468   -0.010733346713570565   -0.0018814560430904178
-0.010884990016690611   -0.010598400298485322   -0.0022137794376341866
-0.006106220473083675   -0.004070923492190311   -0.001163347161672314
-0.006780323929068655   -0.01029667413722366   -0.0016916362217060683
-0.010884990016690611   -0.010598400298485322   -0.0022137794376341866
-0.0035291894524933187   -0.0035015628933903202   -0.0011664219379383715
-0.006106220473083675   -0.004070923492190311   -0.001163347161672314
-0.011105338535717468   -0.010733346713570565   -0.0018814560430904178
-0.003539344428136942   -0.003587323230307075   -0.0009408205744761078
-0.006504982482989345   -0.004160164779726935   -0.0007478935637193911
-0.011105338535717468   -0.010733346713570565   -0.0018814560430904178
-0.006780323929068655   -0.01029667413722366   -0.0016916362217060683
-0.003539344428136942   -0.003587323230307075   -0.0009408205744761078
-0.00676042192799434   -0.010350808094831356   -0.0015036394064418329
-0.006504982482989345   -0.004160164779726935   -0.0007478935637193911
-0.0035377118225246103   -0.0036093283574442714   -0.000707517057814468
-0.00676042192799434   -0.010350808094831356   -0.0015036394064418329
-0.003539344428136942   -0.003587323230307075   -0.0009408205744761078
-0.006504982482989345   -0.004160164779726935   -0.0007478935637193911
-0.00676042192799434   -0.010350808094831356   -0.0015036394064418329
-0.011365793978023125   -0.010811740604480988   -0.0015790652849815953
-0.011105338535717468   -0.010733346713570565   -0.0018814560430904178
-0.006504982482989345   -0.004160164779726935   -0.0007478935637193911
-0.00676042192799434   -0.010350808094831356   -0.0015036394064418329
-0.011105338535717468   -0.010733346713570565   -0.0018814560430904178
-0.003539344428136942   -0.003587323230307075   -0.0009408205744761078
-0.0036002029751276156   -0.003334170174207244   -0.0013923256780782448
-0.006745201808141683   -0.010020990946668371   -0.0021014283444406212
-0.0016393182623533347   -0.003196137646519468   -0.0010589449471463568
-0.0035291894524933187   -0.0035015628933903202   -0.0011664219379383715
-0.006745201808141683   -0.010020990946668371   -0.0021014283444406212
-0.0031292906040222977   -0.009863519885153077   -0.0017930466300585717
-0.0016393182623533347   -0.003196137646519468   -0.0010589449471463568
-0.003102569204438894   -0.009972553838398604   -0.0016859873624328044
-0.0035291894524933187   -0.0035015628933903202   -0.0011664219379383715
-0.0015768700257757845   -0.0033051149794915847   -0.000952322333470982
-0.003102569204438894   -0.009972553838398604   -0.0016859873624328044
-0.0016393182623533347   -0.003196137646519468   -0.0010589449471463568
-0.0035291894524933187   -0.0035015628933903202   -0.0011664219379383715
-0.003102569204438894   -0.009972553838398604   -0.0016859873624328044
-0.006753438471199619   -0.010192279392970516   -0.0018924617884190495
-0.006745201808141683   -0.010020990946668371   -0.0021014283444406212
-0.0035291894524933187   -0.0035015628933903202   -0.0011664219379383715
-0.003102569204438894   -0.009972553838398604   -0.0016859873624328044
-0.006745201808141683   -0.010020990946668371   -0.0021014283444406212
-0.0016393182623533347   -0.003196137646519468   -0.0010589449471463568
-0.0035291894524933187   -0.0035015628933903202   -0.0011664219379383715
-0.006753438471199619   -0.010192279392970516   -0.0018924617884190495
-0.0015768700257757845   -0.0033051149794915847   -0.000952322333470982
-0.003539344428136942   -0.003587323230307075   -0.0009408205744761078
-0.006753438471199619   -0.010192279392970516   -0.0018924617884190495
-0.003102569204438894   -0.009972553838398604   -0.0016859873624328044
-0.0015768700257757845   -0.0033051149794915847   -0.000952322333470982
-0.0030789208234701386   -0.010025426566395509   -0.0015889246561546066
-0.003539344428136942   -0.003587323230307075   -0.0009408205744761078
-0.0015418797609498495   -0.0033466448707420923   -0.0008484614230396917
-0.0030789208234701386   -0.010025426566395509   -0.0015889246561546066
-0.0015768700257757845   -0.0033051149794915847   -0.000952322333470982
-0.003539344428136942   -0.003587323230307075   -0.0009408205744761078
-0.0030789208234701386   -0.010025426566395509   -0.0015889246561546066
-0.006780323929068655   -0.01029667413722366   -0.0016916362217060683
-0.006753438471199619   -0.010192279392970516   -0.0018924617884190495
-0.003539344428136942   -0.003587323230307075   -0.0009408205744761078
-0.0030789208234701386   -0.010025426566395509   -0.0015889246561546066
-0.006753438471199619   -0.010192279392970516   -0.0018924617884190495
-0.0015768700257757845   -0.0033051149794915847   -0.000952322333470982
-0.003539344428136942   -0.003587323230307075   -0.0009408205744761078
-0.006780323929068655   -0.01029667413722366   -0.0016916362217060683
-0.0015418797609498495   -0.0033466448707420923   -0.0008484614230396917
-0.0035377118225246103   -0.0036093283574442714   -0.000707517057814468
-0.006780323929068655   -0.01029667413722366   -0.0016916362217060683
-0.0030789208234701386   -0.010025426566395509   -0.0015889246561546066
-0.0015418797609498495   -0.0033466448707420923   -0.0008484614230396917
-0.0030435015905860554   -0.010024131774992631   -0.0015044066487412127
-0.0035377118225246103   -0.0036093283574442714   -0.000707517057814468
-0.0015100517594576867   -0.0033292997501591657   -0.00074106442404652
-0.0030435015905860554   -0.010024131774992631   -0.0015044066487412127
-0.0015418797609498495   -0.0033466448707420923   -0.0008484614230396917
-0.0035377118225246103   -0.0036093283574442714   -0.000707517057814468
-0.0030435015905860554   -0.010024131774992631   -0.0015044066487412127
-0.00676042192799434   -0.010350808094831356   -0.0015036394064418329
-0.006780323929068655   -0.01029667413722366   -0.0016916362217060683
-0.0035377118225246103   -0.0036093283574442714   -0.000707517057814468
-0.0030435015905860554   -0.010024131774992631   -0.0015044066487412127
-0.006780323929068655   -0.01029667413722366   -0.0016916362217060683
-0.0015418797609498495   -0.0033466448707420923   -0.0008484614230396917
-0.0016393182623533347   -0.003196137646519468   -0.0010589449471463568
-0.0031292906040222977   -0.009863519885153077   -0.0017930466300585717
0.0002135220953389242   -0.003213791820827001   -0.0008464591433448894
-0.0015768700257757845   -0.0033051149794915847   -0.000952322333470982
-0.0031292906040222977   -0.009863519885153077   -0.0017930466300585717
0.00035772127296345883   -0.009868191840172652   -0.0015980380530029512
0.0002135220953389242   -0.003213791820827001   -0.0008464591433448894
0.00039061363142416783   -0.009919870872546217   -0.0015910002207118138
-0.0015768700257757845   -0.0033051149794915847   -0.000952322333470982
0.0002532890463707352   -0.003270300655254546   -0.000861270714721068
0.00039061363142416783   -0.009919870872546217   -0.0015910002207118138
0.0002135220953389242   -0.003213791820827001   -0.0008464591433448894
-0.0015768700257757845   -0.0033051149794915847   -0.000952322333470982
0.00039061363142416783   -0.009919870872546217   -0.0015910002207118138
-0.003102569204438894   -0.009972553838398604   -0.0016859873624328044
-0.0031292906040222977   -0.009863519885153077   -0.0017930466300585717
-0.0015768700257757845   -0.0033051149794915847   -0.000952322333470982
0.00039061363142416783   -0.009919870872546217   -0.0015910002207118138
-0.0031292906040222977   -0.009863519885153077   -0.0017930466300585717
0.0002135220953389242   -0.003213791820827001   -0.0008464591433448894
-0.0015768700257757845   -0.0033051149794915847   -0.000952322333470982
-0.003102569204438894   -0.009972553838398604   -0.0016859873624328044
0.0002532890463707352   -0.003270300655254546   -0.000861270714721068
-0.0015418797609498495   -0.0033466448707420923   -0.0008484614230396917
-0.003102569204438894   -0.009972553838398604   -0.0016859873624328044
0.00039061363142416783   -0.009919870872546217   -0.0015910002207118138
0.0002532890463707352   -0.003270300655254546   -0.000861270714721068
0.0004126577168888976   -0.009916706152590398   -0.0015953093764244138
-0.0015418797609498495   -0.0033466448707420923   -0.0008484614230396917
0.00028464894077719636   -0.0032656375119854953   -0.0008746303399264434
0.0004126577168888976   -0.009916706152590398   -0.0015953093764244138
0.0002532890463707352   -0.003270300655254546   -0.000861270714721068
-0.0015418797609498495   -0.0033466448707420923   -0.0008484614230396917
0.0004126577168888976   -0.009916706152590398   -0.0015953093764244138
-0.0030789208234701386   -0.010025426566395509   -0.0015889246561546066
-0.003102569204438894   -0.009972553838398604   -0.0016859873624328044
-0.0015418797609498495   -0.0033466448707420923   -0.0008484614230396917
0.0004126577168888976   -0.009916706152590398   -0.0015953093764244138
-0.003102569204438894   -0.009972553838398604   -0.0016859873624328044
0.0002532890463707352   -0.003270300655254546   -0.000861270714721068
-0.0015418797609498495   -0.0033466448707420923   -0.0008484614230396917
-0.0030789208234701386   -0.010025426566395509   -0.0015889246561546066
0.00028464894077719636   -0.0032656375119854953   -0.0008746303399264434
-0.0015100517594576867   -0.0033292997501591657   -0.00074106442404652
-0.0030789208234701386   -0.010025426566395509   -0.0015889246561546066
0.0004126577168888976   -0.009916706152590398   -0.0015953093764244138
0.00028464894077719636   -0.0032656375119854953   -0.0008746303399264434
0.0004363283085908395   -0.00985702275929449   -0.0016111452887880248
-0.0015100517594576867   -0.0033292997501591657   -0.00074106442404652
0.0003269108959065069   -0.0031947818772011805   -0.0008883373704115153
0.0004363283085908395   -0.00985702275929449   -0.0016111452887880248
0.00028464894077719636   -0.0032656375119854953   -0.0008746303399264434
-0.0015100517594576867   -0.0033292997501591657   -0.00074106442404652
0.0004363283085908395   -0.00985702275929449   -0.0016111452887880248
-0.0030435015905860554   -0.010024131774992631   -0.0015044066487412127
-0.0030789208234701386   -0.010025426566395509   -0.0015889246561546066
-0.0015100517594576867   -0.0033292997501591657   -0.00074106442404652
0.0004363283085908395   -0.00985702275929449   -0.0016111452887880248
-0.0030789208234701386   -0.010025426566395509   -0.0015889246561546066
0.00028464894077719636   -0.0032656375119854953   -0.0008746303399264434
0.0002135220953389242   -0.003213791820827001   -0.0008464591433448894
0.00035772127296345883   -0.009868191840172652   -0.0015980380530029512
0.0022245803807180147   -0.00337034351607604   -0.0007413193687466609
0.0002532890463707352   -0.003270300655254546   -0.000861270714721068
0.00035772127296345883   -0.009868191840172652   -0.0015980380530029512
0.004052824478830473   -0.0100291487423269   -0.0015070103573857734
0.0022245803807180147   -0.00337034351607604   -0.0007413193687466609
0.004071296099547499   -0.010028727018844793   -0.0016032394075651522
0.0002532890463707352   -0.003270300655254546   -0.000861270714721068
0.0022282482649458256   -0.003388354085636848   -0.0008839050566955832
0.004071296099547499   -0.010028727018844793   -0.0016032394075651522
0.0022245803807180147   -0.00337034351607604   -0.0007413193687466609
0.0002532890463707352   -0.003270300655254546   -0.000861270714721068
0.004071296099547499   -0.010028727018844793   -0.0016032394075651522
0.00039061363142416783   -0.009919870872546217   -0.0015910002207118138
0.00035772127296345883   -0.009868191840172652   -0.0015980380530029512
0.0002532890463707352   -0.003270300655254546   -0.000861270714721068
0.004071296099547499   -0.010028727018844793   -0.0016032394075651522
0.00035772127296345883   -0.009868191840172652   -0.0015980380530029512
0.0022245803807180147   -0.00337034351607604   -0.0007413193687466609
0.0002532890463707352   -0.003270300655254546   -0.000861270714721068
0.00039061363142416783   -0.009919870872546217   -0.0015910002207118138
0.0022282482649458256   -0.003388354085636848   -0.0008839050566955832
0.00028464894077719636   -0.0032656375119854953   -0.0008746303399264434
0.00039061363142416783   -0.009919870872546217   -0.0015910002207118138
0.004071296099547499   -0.010028727018844793   -0.0016032394075651522
0.0022282482649458256   -0.003388354085636848   -0.0008839050566955832
0.004052202537654975   -0.00997451961909195   -0.0017123065514697258
0.00028464894077719636   -0.0032656375119854953   -0.0008746303399264434
0.002218456985415757   -0.0033399676068279417   -0.0010206677527339056
0.004052202537654975   -0.00997451961909195   -0.0017123065514697258
0.0022282482649458256   -0.003388354085636848   -0.0008839050566955832
0.00028464894077719636   -0.0032656375119854953   -0.0008746303399264434
0.004052202537654975   -0.00997451961909195   -0.0017123065514697258
0.0004126577168888976   -0.009916706152590398   -0.0015953093764244138
0.00039061363142416783   -0.009919870872546217   -0.0015910002207118138
0.00028464894077719636   -0.0032656375119854953   -0.0008746303399264434
0.004052202537654975   -0.00997451961909195   -0.0017123065514697258
0.00039061363142416783   -0.009919870872546217   -0.0015910002207118138
0.0022282482649458256   -0.003388354085636848   -0.0008839050566955832
0.00028464894077719636   -0.0032656375119854953   -0.0008746303399264434
0.0004126577168888976   -0.009916706152590398   -0.0015953093764244138
0.002218456985415757   -0.0033399676068279417   -0.0010206677527339056
0.0003269108959065069   -0.0031947818772011805   -0.0008883373704115153
0.0004126577168888976   -0.009916706152590398   -0.0015953093764244138
0.004052202537654975   -0.00997451961909195   -0.0017123065514697258
0.002218456985415757   -0.0033399676068279417   -0.0010206677527339056
0.004041159120561991   -0.009851693455388734   -0.0018301774416420705
0.0003269108959065069   -0.0031947818772011805   -0.0008883373704115153
0.002261183511961747   -0.0032103485034799635   -0.0011548083876949207
0.004041159120561991   -0.009851693455388734   -0.0018301774416420705
0.002218456985415757   -0.0033399676068279417   -0.0010206677527339056
0.0003269108959065069   -0.0031947818772011805   -0.0008883373704115153
0.004041159120561991   -0.009851693455388734   -0.0018301774416420705
0.0004363283085908395   -0.00985702275929449   -0.0016111452887880248
0.0004126577168888976   -0.009916706152590398   -0.0015953093764244138
0.0003269108959065069   -0.0031947818772011805   -0.0008883373704115153
0.004041159120561991   -0.009851693455388734   -0.0018301774416420705
0.0004126577168888976   -0.009916706152590398   -0.0015953093764244138
0.002218456985415757   -0.0033399676068279417   -0.0010206677527339056
0.0022245803807180147   -0.00337034351607604   -0.0007413193687466609
0.004052824478830473   -0.0100291487423269   -0.0015070103573857734
0.005020786195869684   -0.003767085174875076   -0.00069934134887207
0.0022282482649458256   -0.003388354085636848   -0.0008839050566955832
0.004052824478830473   -0.0100291487423269   -0.0015070103573857734
0.008511397772584459   -0.010328377036517492   -0.0014824245731638109
0.005020786195869684   -0.003767085174875076   -0.00069934134887207
0.008337840053303328   -0.010300250439508345   -0.0016988787232915697
0.0022282482649458256   -0.003388354085636848   -0.0008839050566955832
0.004714954661692445   -0.0037260093081745013   -0.0010225445359795257
0.008337840053303328   -0.010300250439508345   -0.0016988787232915697
0.005020786195869684   -0.003767085174875076   -0.00069934134887207
0.0022282482649458256   -0.003388354085636848   -0.0008839050566955832
0.008337840053303328   -0.010300250439508345   -0.0016988787232915697
0.004071296099547499   -0.010028727018844793   -0.0016032394075651522
0.004052824478830473   -0.0100291487423269   -0.0015070103573857734
0.0022282482649458256   -0.003388354085636848   -0.0008839050566955832
0.008337840053303328   -0.010300250439508345   -0.0016988787232915697
0.004052824478830473   -0.0100291487423269   -0.0015070103573857734
0.005020786195869684   -0.003767085174875076   -0.00069934134887207
0.0022282482649458256   -0.003388354085636848   -0.0008839050566955832
0.004071296099547499   -0.010028727018844793   -0.0016032394075651522
0.004714954661692445   -0.0037260093081745013   -0.0010225445359795257
0.002218456985415757   -0.0033399676068279417   -0.0010206677527339056
0.004071296099547499   -0.010028727018844793   -0.0016032394075651522
0.008337840053303328   -0.010300250439508345   -0.0016988787232915697
0.004714954661692445   -0.0037260093081745013   -0.0010225445359795257
0.008182768377417158   -0.010216667529206963   -0.0019423482494708801
0.002218456985415757   -0.0033399676068279417   -0.0010206677527339056
0.004573811486716779   -0.003648540816815263   -0.0012958365766789013
0.008182768377417158   -0.010216667529206963   -0.0019423482494708801
0.004714954661692445   -0.0037260093081745013   -0.0010225445359795257
0.002218456985415757   -0.0033399676068279417   -0.0010206677527339056
0.008182768377417158   -0.010216667529206963   -0.0019423482494708801
0.004052202537654975   -0.00997451961909195   -0.0017123065514697258
0.004071296099547499   -0.010028727018844793   -0.0016032394075651522
0.002218456985415757   -0.0033399676068279417   -0.0010206677527339056
0.008182768377417158   -0.010216667529206963   -0.0019423482494708801
0.004071296099547499   -0.010028727018844793   -0.0016032394075651522
0.004714954661692445   -0.0037260093081745013   -0.0010225445359795257
0.002218456985415757   -0.0033399676068279417   -0.0010206677527339056
0.004052202537654975   -0.00997451961909195   -0.0017123065514697258
0.004573811486716779   -0.003648540816815263   -0.0012958365766789013
0.002261183511961747   -0.0032103485034799635   -0.0011548083876949207
0.004052202537654975   -0.00997451961909195   -0.0017123065514697258
0.008182768377417158   -0.010216667529206963   -0.0019423482494708801
0.004573811486716779   -0.003648540816815263   -0.0012958365766789013
0.007950567626051569   -0.010030620567723426   -0.002195768700087584
0.002261183511961747   -0.0032103485034799635   -0.0011548083876949207
0.004363862348708748   -0.003450286238787179   -0.0015850000185974934
0.007950567626051569   -0.010030620567723426   -0.002195768700087584
0.004573811486716779   -0.003648540816815263   -0.0012958365766789013
0.002261183511961747   -0.0032103485034799635   -0.0011548083876949207
0.007950567626051569   -0.010030620567723426   -0.002195768700087584
0.004041159120561991   -0.009851693455388734   -0.0018301774416420705
0.004052202537654975   -0.00997451961909195   -0.0017123065514697258
0.002261183511961747   -0.0032103485034799635   -0.0011548083876949207
0.007950567626051569   -0.010030620567723426   -0.002195768700087584
0.004052202537654975   -0.00997451961909195   -0.0017123065514697258
0.004573811486716779   -0.003648540816815263   -0.0012958365766789013
-0.010568009568650998   -0.010359413525258303   -0.0025531477520083935
-0.014481282327756823   -0.019430666269310892   -0.002907881777806415
-0.006745201808141683   -0.010020990946668371   -0.0021014283444406212
-0.010884990016690611   -0.010598400298485322   -0.0022137794376341866
-0.014481282327756823   -0.019430666269310892   -0.002907881777806415
-0.009310330347501486   -0.019171995940644313   -0.0025414346445875374
-0.006745201808141683   -0.010020990946668371   -0.0021014283444406212
-0.009331051583939329   -0.019319867539102798   -0.002379281692625077
-0.010884990016690611   -0.010598400298485322   -0.0022137794376341866
-0.006753438471199619   -0.010192279392970516   -0.0018924617884190495
-0.009331051583939329   -0.019319867539102798   -0.002379281692625077
-0.006745201808141683   -0.010020990946668371   -0.0021014283444406212
-0.010884990016690611   -0.010598400298485322   -0.0022137794376341866
-0.009331051583939329   -0.019319867539102798   -0.002379281692625077
-0.01473921153388542   -0.019632740461362538   -0.0026547286261180284
-0.014481282327756823   -0.019430666269310892   -0.002907881777806415
-0.010884990016690611   -0.010598400298485322   -0.0022137794376341866
-0.009331051583939329   -0.019319867539102798   -0.002379281692625077
-0.014481282327756823   -0.019430666269310892   -0.002907881777806415
-0.006745201808141683   -0.010020990946668371   -0.0021014283444406212
-0.010884990016690611   -0.010598400298485322   -0.0022137794376341866
-0.01473921153388542   -0.019632740461362538   -0.0026547286261180284
-0.006753438471199619   -0.010192279392970516   -0.0018924617884190495
-0.011105338535717468   -0.010733346713570565   -0.0018814560430904178
-0.01473921153388542   -0.019632740461362538   -0.0026547286261180284
-0.009331051583939329   -0.019319867539102798   -0.002379281692625077
-0.006753438471199619   -0.010192279392970516   -0.0018924617884190495
-0.00935541494350313   -0.01942275506219884   -0.002228852954005219
-0.011105338535717468   -0.010733346713570565   -0.0018814560430904178
-0.006780323929068655   -0.01029667413722366   -0.0016916362217060683
-0.00935541494350313   -0.01942275506219884   -0.002228852954005219
-0.006753438471199619   -0.010192279392970516   -0.0018924617884190495
-0.011105338535717468   -0.010733346713570565   -0.0018814560430904178
-0.00935541494350313   -0.01942275506219884   -0.002228852954005219
-0.01490195442721578   -0.019759434807184777   -0.002418762557501277
-0.01473921153388542   -0.019632740461362538   -0.0026547286261180284
-0.011105338535717468   -0.010733346713570565   -0.0018814560430904178
-0.00935541494350313   -0.01942275506219884   -0.002228852954005219
-0.01473921153388542   -0.019632740461362538   -0.0026547286261180284
-0.006753438471199619   -0.010192279392970516   -0.0018924617884190495
-0.011105338535717468   -0.010733346713570565   -0.0018814560430904178
-0.01490195442721578   -0.019759434807184777   -0.002418762557501277
-0.006780323929068655   -0.01029667413722366   -0.0016916362217060683
-0.011365793978023125   -0.010811740604480988   -0.0015790652849815953
-0.01490195442721578   -0.019759434807184777   -0.002418762557501277
-0.00935541494350313   -0.01942275506219884   -0.002228852954005219
-0.006780323929068655   -0.01029667413722366   -0.0016916362217060683
-0.009338203188104308   -0.019490417829692457   -0.0020876513679766264
-0.011365793978023125   -0.010811740604480988   -0.0015790652849815953
-0.00676042192799434   -0.010350808094831356   -0.0015036394064418329
-0.009338203188104308   -0.019490417829692457   -0.0020876513679766264
-0.006780323929068655   -0.01029667413722366   -0.0016916362217060683
-0.011365793978023125   -0.010811740604480988   -0.0015790652849815953
-0.009338203188104308   -0.019490417829692457   -0.0020876513679766264
-0.015087123097992712   -0.019850506047146492   -0.002201590599618841
-0.01490195442721578   -0.019759434807184777   -0.002418762557501277
-0.011365793978023125   -0.010811740604480988   -0.0015790652849815953
-0.009338203188104308   -0.019490417829692457   -0.0020876513679766264
-0.01490195442721578   -0.019759434807184777   -0.002418762557501277
-0.006780323929068655   -0.01029667413722366   -0.0016916362217060683
-0.006745201808141683   -0.010020990946668371   -0.0021014283444406212
-0.009310330347501486   -0.019171995940644313   -0.0025414346445875374
-0.0031292906040222977   -0.009863519885153077   -0.0017930466300585717
-0.006753438471199619   -0.010192279392970516   -0.0018924617884190495
-0.009310330347501486   -0.019171995940644313   -0.0025414346445875374
-0.00443443675818637   -0.01904304560298204   -0.002286832920497973
-0.0031292906040222977   -0.009863519885153077   -0.0017930466300585717
-0.004423639723081633   -0.01913761590878535   -0.002195218046837658
-0.006753438471199619   -0.010192279392970516   -0.0018924617884190495
-0.003102569204438894   -0.009972553838398604   -0.0016859873624328044
-0.004423639723081633   -0.01913761590878535   -0.002195218046837658
-0.0031292906040222977   -0.009863519885153077   -0.0017930466300585717
-0.006753438471199619   -0.010192279392970516   -0.0018924617884190495
-0.004423639723081633   -0.01913761590878535   -0.002195218046837658
-0.009331051583939329   -0.019319867539102798   -0.002379281692625077
-0.009310330347501486   -0.019171995940644313   -0.0025414346445875374
-0.006753438471199619   -0.010192279392970516   -0.0018924617884190495
-0.004423639723081633   -0.01913761590878535   -0.002195218046837658
-0.009310330347501486   -0.019171995940644313   -0.0025414346445875374
-0.0031292906040222977   -0.009863519885153077   -0.0017930466300585717
-0.006753438471199619   -0.010192279392970516   -0.0018924617884190495
-0.009331051583939329   -0.019319867539102798   -0.002379281692625077
-0.003102569204438894   -0.009972553838398604   -0.0016859873624328044
-0.006780323929068655   -0.01029667413722366   -0.0016916362217060683
-0.009331051583939329   -0.019319867539102798   -0.002379281692625077
-0.004423639723081633   -0.01913761590878535   -0.002195218046837658
-0.003102569204438894   -0.009972553838398604   -0.0016859873624328044
-0.004410342942589548   -0.019193159100265672   -0.002114769085899147
-0.006780323929068655   -0.01029667413722366   -0.0016916362217060683
-0.0030789208234701386   -0.010025426566395509   -0.0015889246561546066
-0.004410342942589548   -0.019193159100265672   -0.002114769085899147
-0.003102569204438894   -0.009972553838398604   -0.0016859873624328044
-0.006780323929068655   -0.01029667413722366   -0.0016916362217060683
-0.004410342942589548   -0.019193159100265672   -0.002114769085899147
-0.00935541494350313   -0.01942275506219884   -0.002228852954005219
-0.009331051583939329   -0.019319867539102798   -0.002379281692625077
-0.006780323929068655   -0.01029667413722366   -0.0016916362217060683
-0.004410342942589548   -0.019193159100265672   -0.002114769085899147
-0.009331051583939329   -0.019319867539102798   -0.002379281692625077
-0.003102569204438894   -0.009972553838398604   -0.0016859873624328044
-0.006780323929068655   -0.01029667413722366   -0.0016916362217060683
-0.00935541494350313   -0.01942275506219884   -0.002228852954005219
-0.0030789208234701386   -0.010025426566395509   -0.0015889246561546066
-0.00676042192799434   -0.010350808094831356   -0.0015036394064418329
-0.00935541494350313   -0.01942275506219884   -0.002228852954005219
-0.004410342942589548   -0.019193159100265672   -0.002114769085899147
-0.0030789208234701386   -0.010025426566395509   -0.0015889246561546066
-0.004388291702074607   -0.019210469281682862   -0.0020454519598743976
-0.00676042192799434   -0.010350808094831356   -0.0015036394064418329
-0.0030435015905860554   -0.010024131774992631   -0.0015044066487412127
-0.004388291702074607   -0.019210469281682862   -0.0020454519598743976
-0.0030789208234701386   -0.010025426566395509   -0.0015889246561546066
-0.00676042192799434   -0.010350808094831356   -0.0015036394064418329
-0.004388291702074607   -0.019210469281682862   -0.0020454519598743976
-0.009338203188104308   -0.019490417829692457   -0.0020876513679766264
-0.00935541494350313   -0.01942275506219884   -0.002228852954005219
-0.00676042192799434   -0.010350808094831356   -0.0015036394064418329
-0.004388291702074607   -0.019210469281682862   -0.0020454519598743976
-0.00935541494350313   -0.01942275506219884   -0.002228852954005219
-0.0030789208234701386   -0.010025426566395509   -0.0015889246561546066
-0.0031292906040222977   -0.009863519885153077   -0.0017930466300585717
-0.00443443675818637   -0.01904304560298204   -0.002286832920497973
0.00035772127296345883   -0.009868191840172652   -0.0015980380530029512
-0.003102569204438894   -0.009972553838398604   -0.0016859873624328044
-0.00443443675818637   -0.01904304560298204   -0.002286832920497973
0.0002983847598460283   -0.019036186284796097   -0.002128937276033131
0.00035772127296345883   -0.009868191840172652   -0.0015980380530029512
0.00031849078647470296   -0.019078297788364708   -0.0021074807180458052
-0.003102569204438894   -0.009972553838398604   -0.0016859873624328044
0.00039061363142416783   -0.009919870872546217   -0.0015910002207118138
0.00031849078647470296   -0.019078297788364708   -0.0021074807180458052
0.00035772127296345883   -0.009868191840172652   -0.0015980380530029512
-0.003102569204438894   -0.009972553838398604   -0.0016859873624328044
0.00031849078647470296   -0.019078297788364708   -0.0021074807180458052
-0.004423639723081633   -0.01913761590878535   -0.002195218046837658
-0.00443443675818637   -0.01904304560298204   -0.002286832920497973
-0.003102569204438894   -0.009972553838398604   -0.0016859873624328044
0.00031849078647470296   -0.019078297788364708   -0.0021074807180458052
-0.00443443675818637   -0.01904304560298204   -0.002286832920497973
0.00035772127296345883   -0.009868191840172652   -0.0015980380530029512
-0.003102569204438894   -0.009972553838398604   -0.0016859873624328044
-0.004423639723081633   -0.01913761590878535   -0.002195218046837658
0.00039061363142416783   -0.009919870872546217   -0.0015910002207118138
-0.0030789208234701386   -0.010025426566395509   -0.0015889246561546066
-0.004423639723081633   -0.01913761590878535   -0.002195218046837658
0.00031849078647470296   -0.019078297788364708   -0.0021074807180458052
0.00039061363142416783   -0.009919870872546217   -0.0015910002207118138
0.00033127046658839346   -0.019081539393918302   -0.0020968974261887366
-0.0030789208234701386   -0.010025426566395509   -0.0015889246561546066
0.0004126577168888976   -0.009916706152590398   -0.0015953093764244138
0.00033127046658839346   -0.019081539393918302   -0.0020968974261887366
0.00039061363142416783   -0.009919870872546217   -0.0015910002207118138
-0.0030789208234701386   -0.010025426566395509   -0.0015889246561546066
0.00033127046658839346   -0.019081539393918302   -0.0020968974261887366
-0.004410342942589548   -0.019193159100265672   -0.002114769085899147
-0.004423639723081633   -0.01913761590878535   -0.002195218046837658
-0.0030789208234701386   -0.010025426566395509   -0.0015889246561546066
0.00033127046658839346   -0.019081539393918302   -0.0020968974261887366
-0.004423639723081633   -0.01913761590878535   -0.002195218046837658
0.00039061363142416783   -0.009919870872546217   -0.0015910002207118138
-0.0030789208234701386   -0.010025426566395509   -0.0015889246561546066
-0.004410342942589548   -0.019193159100265672   -0.002114769085899147
0.0004126577168888976   -0.009916706152590398   -0.0015953093764244138
-0.0030435015905860554   -0.010024131774992631   -0.0015044066487412127
-0.004410342942589548   -0.019193159100265672   -0.002114769085899147
0.00033127046658839346   -0.019081539393918302   -0.0020968974261887366
0.0004126577168888976   -0.009916706152590398   -0.0015953093764244138
0.0003404260754102733   -0.019045331202248265   -0.002097849276052793
-0.0030435015905860554   -0.010024131774992631   -0.0015044066487412127
0.0004363283085908395   -0.00985702275929449   -0.0016111452887880248
0.0003404260754102733   -0.019045331202248265   -0.002097849276052793
0.0004126577168888976   -0.009916706152590398   -0.0015953093764244138
-0.0030435015905860554   -0.010024131774992631   -0.0015044066487412127
0.0003404260754102733   -0.019045331202248265   -0.002097849276052793
-0.004388291702074607   -0.019210469281682862   -0.0020454519598743976
-0.004410342942589548   -0.019193159100265672   -0.002114769085899147
-0.0030435015905860554   -0.010024131774992631   -0.0015044066487412127
0.0003404260754102733   -0.019045331202248265   -0.002097849276052793
-0.004410342942589548   -0.019193159100265672   -0.002114769085899147
0.0004126577168888976   -0.009916706152590398   -0.0015953093764244138
0.00035772127296345883   -0.009868191840172652   -0.0015980380530029512
0.0002983847598460283   -0.019036186284796097   -0.002128937276033131
0.004052824478830473   -0.0100291487423269   -0.0015070103573857734
0.00039061363142416783   -0.009919870872546217   -0.0015910002207118138
0.0002983847598460283   -0.019036186284796097   -0.002128937276033131
0.005233122103717239   -0.01914416326080585   -0.0020650416629967193
0.004052824478830473   -0.0100291487423269   -0.0015070103573857734
0.0052506160692554985   -0.01913820137070971   -0.002115202722317605
0.00039061363142416783   -0.009919870872546217   -0.0015910002207118138
0.004071296099547499   -0.010028727018844793   -0.0016032394075651522
0.0052506160692554985   -0.01913820137070971   -0.002115202722317605
0.004052824478830473   -0.0100291487423269   -0.0015070103573857734
0.00039061363142416783   -0.009919870872546217   -0.0015910002207118138
0.0052506160692554985   -0.01913820137070971   -0.002115202722317605
0.00031849078647470296   -0.019078297788364708   -0.0021074807180458052
0.0002983847598460283   -0.019036186284796097   -0.002128937276033131
0.00039061363142416783   -0.009919870872546217   -0.0015910002207118138
0.0052506160692554985   -0.01913820137070971   -0.002115202722317605
0.0002983847598460283   -0.019036186284796097   -0.002128937276033131
0.004052824478830473   -0.0100291487423269   -0.0015070103573857734
0.00039061363142416783   -0.009919870872546217   -0.0015910002207118138
0.00031849078647470296   -0.019078297788364708   -0.0021074807180458052
0.004071296099547499   -0.010028727018844793   -0.0016032394075651522
0.0004126577168888976   -0.009916706152590398   -0.0015953093764244138
0.00031849078647470296   -0.019078297788364708   -0.0021074807180458052
0.0052506160692554985   -0.01913820137070971   -0.002115202722317605
0.004071296099547499   -0.010028727018844793   -0.0016032394075651522
0.0052369953836244815   -0.019094194730382482   -0.0021754380817890938
0.0004126577168888976   -0.009916706152590398   -0.0015953093764244138
0.004052202537654975   -0.00997451961909195   -0.0017123065514697258
0.0052369953836244815   -0.019094194730382482   -0.0021754380817890938
0.004071296099547499   -0.010028727018844793   -0.0016032394075651522
0.0004126577168888976   -0.009916706152590398   -0.0015953093764244138
0.0052369953836244815   -0.019094194730382482   -0.0021754380817890938
0.00033127046658839346   -0.019081539393918302   -0.0020968974261887366
0.00031849078647470296   -0.019078297788364708   -0.0021074807180458052
0.0004126577168888976   -0.009916706152590398   -0.0015953093764244138
0.0052369953836244815   -0.019094194730382482   -0.0021754380817890938
0.00031849078647470296   -0.019078297788364708   -0.0021074807180458052
0.004071296099547499   -0.010028727018844793   -0.0016032394075651522
0.0004126577168888976   -0.009916706152590398   -0.0015953093764244138
0.00033127046658839346   -0.019081539393918302   -0.0020968974261887366
0.004052202537654975   -0.00997451961909195   -0.0017123065514697258
0.0004363283085908395   -0.00985702275929449   -0.0016111452887880248
0.00033127046658839346   -0.019081539393918302   -0.0020968974261887366
0.0052369953836244815   -0.019094194730382482   -0.0021754380817890938
0.004052202537654975   -0.00997451961909195   -0.0017123065514697258
0.005216773717624002   -0.0190027321722734   -0.002246940452667707
0.0004363283085908395   -0.00985702275929449   -0.0016111452887880248
0.004041159120561991   -0.009851693455388734   -0.0018301774416420705
0.005216773717624002   -0.0190027321722734   -0.002246940452667707
0.004052202537654975   -0.00997451961909195   -0.0017123065514697258
0.0004363283085908395   -0.00985702275929449   -0.0016111452887880248
0.005216773717624002   -0.0190027321722734   -0.002246940452667707
0.0003404260754102733   -0.019045331202248265   -0.002097849276052793
0.00033127046658839346   -0.019081539393918302   -0.0020968974261887366
0.0004363283085908395   -0.00985702275929449   -0.0016111452887880248
0.005216773717624002   -0.0190027321722734   -0.002246940452667707
0.00033127046658839346   -0.019081539393918302   -0.0020968974261887366
0.004052202537654975   -0.00997451961909195   -0.0017123065514697258
0.004052824478830473   -0.0100291487423269   -0.0015070103573857734
0.005233122103717239   -0.01914416326080585   -0.0020650416629967193
0.008511397772584459   -0.010328377036517492   -0.0014824245731638109
0.004071296099547499   -0.010028727018844793   -0.0016032394075651522
0.005233122103717239   -0.01914416326080585   -0.0020650416629967193
0.010852882059983967   -0.019340070951890827   -0.002066142584147639
0.008511397772584459   -0.010328377036517492   -0.0014824245731638109
0.010758035957688105   -0.0193064244238515   -0.0021971664421094935
0.004071296099547499   -0.010028727018844793   -0.0016032394075651522
0.008337840053303328   -0.010300250439508345   -0.0016988787232915697
0.010758035957688105   -0.0193064244238515   -0.0021971664421094935
0.008511397772584459   -0.010328377036517492   -0.0014824245731638109
0.004071296099547499   -0.010028727018844793   -0.0016032394075651522
0.010758035957688105   -0.0193064244238515   -0.0021971664421094935
0.0052506160692554985   -0.01913820137070971   -0.002115202722317605
0.005233122103717239   -0.01914416326080585   -0.0020650416629967193
0.004071296099547499   -0.010028727018844793   -0.0016032394075651522
0.010758035957688105   -0.0193064244238515   -0.0021971664421094935
0.005233122103717239   -0.01914416326080585   -0.0020650416629967193
0.008511397772584459   -0.010328377036517492   -0.0014824245731638109
0.004071296099547499   -0.010028727018844793   -0.0016032394075651522
0.0052506160692554985   -0.01913820137070971   -0.002115202722317605
0.008337840053303328   -0.010300250439508345   -0.0016988787232915697
0.004052202537654975   -0.00997451961909195   -0.0017123065514697258
0.0052506160692554985   -0.01913820137070971   -0.002115202722317605
0.010758035957688105   -0.0193064244238515   -0.0021971664421094935
0.008337840053303328   -0.010300250439508345   -0.0016988787232915697
0.010663420715295784   -0.019238653953464163   -0.002346356565280949
0.004052202537654975   -0.00997451961909195   -0.0017123065514697258
0.008182768377417158   -0.010216667529206963   -0.0019423482494708801
0.010663420715295784   -0.019238653953464163   -0.002346356565280949
0.008337840053303328   -0.010300250439508345   -0.0016988787232915697
0.004052202537654975   -0.00997451961909195   -0.0017123065514697258
0.010663420715295784   -0.019238653953464163   -0.002346356565280949
0.0052369953836244815   -0.019094194730382482   -0.0021754380817890938
0.0052506160692554985   -0.01913820137070971   -0.002115202722317605
0.004052202537654975   -0.00997451961909195   -0.0017123065514697258
0.010663420715295784   -0.019238653953464163   -0.002346356565280949
0.0052506160692554985   -0.01913820137070971   -0.002115202722317605
0.008337840053303328   -0.010300250439508345   -0.0016988787232915697
0.004052202537654975   -0.00997451961909195   -0.0017123065514697258
0.0052369953836244815   -0.019094194730382482   -0.0021754380817890938
0.008182768377417158   -0.010216667529206963   -0.0019423482494708801
0.004041159120561991   -0.009851693455388734   -0.0018301774416420705
0.0052369953836244815   -0.019094194730382482   -0.0021754380817890938
0.010663420715295784   -0.019238653953464163   -0.002346356565280949
0.008182768377417158   -0.010216667529206963   -0.0019423482494708801
0.010495608500339634   -0.019096412027242007   -0.0025137321766213875
0.004041159120561991   -0.009851693455388734   -0.0018301774416420705
0.007950567626051569   -0.010030620567723426   -0.002195768700087584
0.010495608500339634   -0.019096412027242007   -0.0025137321766213875
0.008182768377417158   -0.010216667529206963   -0.0019423482494708801
0.004041159120561991   -0.009851693455388734   -0.0018301774416420705
0.010495608500339634   -0.019096412027242007   -0.0025137321766213875
0.005216773717624002   -0.0190027321722734   -0.002246940452667707
0.0052369953836244815   -0.019094194730382482   -0.0021754380817890938
0.004041159120561991   -0.009851693455388734   -0.0018301774416420705
0.010495608500339634   -0.019096412027242007   -0.0025137321766213875
0.0052369953836244815   -0.019094194730382482   -0.0021754380817890938
0.008182768377417158   -0.010216667529206963   -0.0019423482494708801
-0.014481282327756823   -0.019430666269310892   -0.002907881777806415
-0.017294669432360313   -0.030188521997797466   -0.0031009929350084386
-0.009310330347501486   -0.019171995940644313   -0.0025414346445875374
-0.01473921153388542   -0.019632740461362538   -0.0026547286261180284
-0.017294669432360313   -0.030188521997797466   -0.0031009929350084386
-0.011225487213478703   -0.030023900834617496   -0.0028021550152801927
-0.009310330347501486   -0.019171995940644313   -0.0025414346445875374
-0.01123924643354215   -0.030151125007837832   -0.0026860698663798426
-0.01473921153388542   -0.019632740461362538   -0.0026547286261180284
-0.009331051583939329   -0.019319867539102798   -0.002379281692625077
-0.01123924643354215   -0.030151125007837832   -0.0026860698663798426
-0.009310330347501486   -0.019171995940644313   -0.0025414346445875374
-0.01473921153388542   -0.019632740461362538   -0.0026547286261180284
-0.01123924643354215   -0.030151125007837832   -0.0026860698663798426
-0.01746856298298497   -0.030360627689700503   -0.0029328436067254386
-0.017294669432360313   -0.030188521997797466   -0.0031009929350084386
-0.01473921153388542   -0.019632740461362538   -0.0026547286261180284
-0.01123924643354215   -0.030151125007837832   -0.0026860698663798426
-0.017294669432360313   -0.030188521997797466   -0.0031009929350084386
-0.009310330347501486   -0.019171995940644313   -0.0025414346445875374
-0.01473921153388542   -0.019632740461362538   -0.0026547286261180284
-0.01746856298298497   -0.030360627689700503   -0.0029328436067254386
-0.009331051583939329   -0.019319867539102798   -0.002379281692625077
-0.01490195442721578   -0.019759434807184777   -0.002418762557501277
-0.01746856298298497   -0.030360627689700503   -0.0029328436067254386
-0.01123924643354215   -0.030151125007837832   -0.0026860698663798426
-0.009331051583939329   -0.019319867539102798   -0.002379281692625077
-0.011249144737888876   -0.03025196947203924   -0.0025815482562660673
-0.01490195442721578   -0.019759434807184777   -0.002418762557501277
-0.00935541494350313   -0.01942275506219884   -0.002228852954005219
-0.011249144737888876   -0.03025196947203924   -0.0025815482562660673
-0.009331051583939329   -0.019319867539102798   -0.002379281692625077
-0.01490195442721578   -0.019759434807184777   -0.002418762557501277
-0.011249144737888876   -0.03025196947203924   -0.0025815482562660673
-0.017568467710990347   -0.030482374890330118   -0.0027808188420163638
-0.01746856298298497   -0.030360627689700503   -0.0029328436067254386
-0.01490195442721578   -0.019759434807184777   -0.002418762557501277
-0.011249144737888876   -0.03025196947203924   -0.0025815482562660673
-0.01746856298298497   -0.030360627689700503   -0.0029328436067254386
-0.009331051583939329   -0.019319867539102798   -0.002379281692625077
-0.01490195442721578   -0.019759434807184777   -0.002418762557501277
-0.017568467710990347   -0.030482374890330118   -0.0027808188420163638
-0.00935541494350313   -0.01942275506219884   -0.002228852954005219
-0.015087123097992712   -0.019850506047146492   -0.002201590599618841
-0.017568467710990347   -0.030482374890330118   -0.0027808188420163638
-0.011249144737888876   -0.03025196947203924   -0.0025815482562660673
-0.00935541494350313   -0.01942275506219884   -0.002228852954005219
-0.011226130003014916   -0.030334795292443487   -0.002487054596533362
-0.015087123097992712   -0.019850506047146492   -0.002201590599618841
-0.009338203188104308   -0.019490417829692457   -0.0020876513679766264
-0.011226130003014916   -0.030334795292443487   -0.002487054596533362
-0.00935541494350313   -0.01942275506219884   -0.002228852954005219
-0.015087123097992712   -0.019850506047146492   -0.002201590599618841
-0.011226130003014916   -0.030334795292443487   -0.002487054596533362
-0.017671395480311696   -0.0305914721415728   -0.00264683387190168
-0.017568467710990347   -0.030482374890330118   -0.0027808188420163638
-0.015087123097992712   -0.019850506047146492   -0.002201590599618841
-0.011226130003014916   -0.030334795292443487   -0.002487054596533362
-0.017568467710990347   -0.030482374890330118   -0.0027808188420163638
-0.00935541494350313   -0.01942275506219884   -0.002228852954005219
-0.009310330347501486   -0.019171995940644313   -0.0025414346445875374
-0.011225487213478703   -0.030023900834617496   -0.0028021550152801927
-0.00443443675818637   -0.01904304560298204   -0.002286832920497973
-0.009331051583939329   -0.019319867539102798   -0.002379281692625077
-0.011225487213478703   -0.030023900834617496   -0.0028021550152801927
-0.005535576838379997   -0.0299388365745103   -0.002595219933678029
-0.00443443675818637   -0.01904304560298204   -0.002286832920497973
-0.005525310166337133   -0.030018684044261994   -0.0025186042721826794
-0.009331051583939329   -0.019319867539102798   -0.002379281692625077
-0.004423639723081633   -0.01913761590878535   -0.002195218046837658
-0.005525310166337133   -0.030018684044261994   -0.0025186042721826794
-0.00443443675818637   -0.01904304560298204   -0.002286832920497973
-0.009331051583939329   -0.019319867539102798   -0.002379281692625077
-0.005525310166337133   -0.030018684044261994   -0.0025186042721826794
-0.01123924643354215   -0.030151125007837832   -0.0026860698663798426
-0.011225487213478703   -0.030023900834617496   -0.0028021550152801927
-0.009331051583939329   -0.019319867539102798   -0.002379281692625077
-0.005525310166337133   -0.030018684044261994   -0.0025186042721826794
-0.011225487213478703   -0.030023900834617496   -0.0028021550152801927
-0.00443443675818637   -0.01904304560298204   -0.002286832920497973
-0.009331051583939329   -0.019319867539102798   -0.002379281692625077
-0.01123924643354215   -0.030151125007837832   -0.0026860698663798426
-0.004423639723081633   -0.01913761590878535   -0.002195218046837658
-0.00935541494350313   -0.01942275506219884   -0.002228852954005219
-0.01123924643354215   -0.030151125007837832   -0.0026860698663798426
-0.005525310166337133   -0.030018684044261994   -0.0025186042721826794
-0.004423639723081633   -0.01913761590878535   -0.002195218046837658
-0.0055111909991042065   -0.030076427601809064   -0.0024533795555599213
-0.00935541494350313   -0.01942275506219884   -0.002228852954005219
-0.004410342942589548   -0.019193159100265672   -0.002114769085899147
-0.0055111909991042065   -0.030076427601809064   -0.0024533795555599213
-0.004423639723081633   -0.01913761590878535   -0.002195218046837658
-0.00935541494350313   -0.01942275506219884   -0.002228852954005219
-0.0055111909991042065   -0.030076427601809064   -0.0024533795555599213
-0.011249144737888876   -0.03025196947203924   -0.0025815482562660673
-0.01123924643354215   -0.030151125007837832   -0.0026860698663798426
-0.00935541494350313   -0.01942275506219884   -0.002228852954005219
-0.0055111909991042065   -0.030076427601809064   -0.0024533795555599213
-0.01123924643354215   -0.030151125007837832   -0.0026860698663798426
-0.004423639723081633   -0.01913761590878535   -0.002195218046837658
-0.00935541494350313   -0.01942275506219884   -0.002228852954005219
-0.011249144737888876   -0.03025196947203924   -0.0025815482562660673
-0.004410342942589548   -0.019193159100265672   -0.002114769085899147
-0.009338203188104308   -0.019490417829692457   -0.0020876513679766264
-0.011249144737888876   -0.03025196947203924   -0.0025815482562660673
-0.0055111909991042065   -0.030076427601809064   -0.0024533795555599213
-0.004410342942589548   -0.019193159100265672   -0.002114769085899147
-0.005490008823128146   -0.03011244550615383   -0.0023997336667886237
-0.009338203188104308   -0.019490417829692457   -0.0020876513679766264
-0.004388291702074607   -0.019210469281682862   -0.0020454519598743976
-0.005490008823128146   -0.03011244550615383   -0.0023997336667886237
-0.004410342942589548   -0.019193159100265672   -0.002114769085899147
-0.009338203188104308   -0.019490417829692457   -0.0020876513679766264
-0.005490008823128146   -0.03011244550615383   -0.0023997336667886237
-0.011226130003014916   -0.030334795292443487   -0.002487054596533362
-0.011249144737888876   -0.03025196947203924   -0.0025815482562660673
-0.009338203188104308   -0.019490417829692457   -0.0020876513679766264
-0.005490008823128146   -0.03011244550615383   -0.0023997336667886237
-0.011249144737888876   -0.03025196947203924   -0.0025815482562660673
-0.004410342942589548   -0.019193159100265672   -0.002114769085899147
-0.00443443675818637   -0.01904304560298204   -0.002286832920497973
-0.005535576838379997   -0.0299388365745103   -0.002595219933678029
0.0002983847598460283   -0.019036186284796097   -0.002128937276033131
-0.004423639723081633   -0.01913761590878535   -0.002195218046837658
-0.005535576838379997   -0.0299388365745103   -0.002595219933678029
-1.1885897693382426e-07   -0.029924219782187365   -0.0024746603092158513
0.0002983847598460283   -0.019036186284796097   -0.002128937276033131
1.9428086685708336e-05   -0.029956442593549848   -0.0024378180149534374
-0.004423639723081633   -0.01913761590878535   -0.002195218046837658
0.00031849078647470296   -0.019078297788364708   -0.0021074807180458052
1.9428086685708336e-05   -0.029956442593549848   -0.0024378180149534374
0.0002983847598460283   -0.019036186284796097   -0.002128937276033131
-0.004423639723081633   -0.01913761590878535   -0.002195218046837658
1.9428086685708336e-05   -0.029956442593549848   -0.0024378180149534374
-0.005525310166337133   -0.030018684044261994   -0.0025186042721826794
-0.005535576838379997   -0.0299388365745103   -0.002595219933678029
-0.004423639723081633   -0.01913761590878535   -0.002195218046837658
1.9428086685708336e-05   -0.029956442593549848   -0.0024378180149534374
-0.005535576838379997   -0.0299388365745103   -0.002595219933678029
0.0002983847598460283   -0.019036186284796097   -0.002128937276033131
-0.004423639723081633   -0.01913761590878535   -0.002195218046837658
-0.005525310166337133   -0.030018684044261994   -0.0025186042721826794
0.00031849078647470296   -0.019078297788364708   -0.0021074807180458052
-0.004410342942589548   -0.019193159100265672   -0.002114769085899147
-0.005525310166337133   -0.030018684044261994   -0.0025186042721826794
1.9428086685708336e-05   -0.029956442593549848   -0.0024378180149534374
0.00031849078647470296   -0.019078297788364708   -0.0021074807180458052
3.32702185927948e-05   -0.029966409386763294   -0.0024122214431055453
-0.004410342942589548   -0.019193159100265672   -0.002114769085899147
0.00033127046658839346   -0.019081539393918302   -0.0020968974261887366
3.32702185927948e-05   -0.029966409386763294   -0.0024122214431055453
0.00031849078647470296   -0.019078297788364708   -0.0021074807180458052
-0.004410342942589548   -0.019193159100265672   -0.002114769085899147
3.32702185927948e-05   -0.029966409386763294   -0.0024122214431055453
-0.0055111909991042065   -0.030076427601809064   -0.0024533795555599213
-0.005525310166337133   -0.030018684044261994   -0.0025186042721826794
-0.004410342942589548   -0.019193159100265672   -0.002114769085899147
3.32702185927948e-05   -0.029966409386763294   -0.0024122214431055453
-0.005525310166337133   -0.030018684044261994   -0.0025186042721826794
0.00031849078647470296   -0.019078297788364708   -0.0021074807180458052
-0.004410342942589548   -0.019193159100265672   -0.002114769085899147
-0.0055111909991042065   -0.030076427601809064   -0.0024533795555599213
0.00033127046658839346   -0.019081539393918302   -0.0020968974261887366
-0.004388291702074607   -0.019210469281682862   -0.0020454519598743976
-0.0055111909991042065   -0.030076427601809064   -0.0024533795555599213
3.32702185927948e-05   -0.029966409386763294   -0.0024122214431055453
0.00033127046658839346   -0.019081539393918302   -0.0020968974261887366
4.196105160988242e-05   -0.02995381519237242   -0.002398368961024697
-0.004388291702074607   -0.019210469281682862   -0.0020454519598743976
0.0003404260754102733   -0.019045331202248265   -0.002097849276052793
4.196105160988242e-05   -0.02995381519237242   -0.002398368961024697
0.00033127046658839346   -0.019081539393918302   -0.0020968974261887366
-0.004388291702074607   -0.019210469281682862   -0.0020454519598743976
4.196105160988242e-05   -0.02995381519237242   -0.002398368961024697
-0.005490008823128146   -0.03011244550615383   -0.0023997336667886237
-0.0055111909991042065   -0.030076427601809064   -0.0024533795555599213
-0.004388291702074607   -0.019210469281682862   -0.0020454519598743976
4.196105160988242e-05   -0.02995381519237242   -0.002398368961024697
-0.0055111909991042065   -0.030076427601809064   -0.0024533795555599213
0.00033127046658839346   -0.019081539393918302   -0.0020968974261887366
0.0002983847598460283   -0.019036186284796097   -0.002128937276033131
-1.1885897693382426e-07   -0.029924219782187365   -0.0024746603092158513
0.005233122103717239   -0.01914416326080585   -0.0020650416629967193
0.00031849078647470296   -0.019078297788364708   -0.0021074807180458052
-1.1885897693382426e-07   -0.029924219782187365   -0.0024746603092158513
0.005725678295580922   -0.029974038302663646   -0.0024399808227507733
0.005233122103717239   -0.01914416326080585   -0.0020650416629967193
0.0057496349623658944   -0.02996141273190185   -0.002443752116046249
0.00031849078647470296   -0.019078297788364708   -0.0021074807180458052
0.0052506160692554985   -0.01913820137070971   -0.002115202722317605
0.0057496349623658944   -0.02996141273190185   -0.002443752116046249
0.005233122103717239   -0.01914416326080585   -0.0020650416629967193
0.00031849078647470296   -0.019078297788364708   -0.0021074807180458052
0.0057496349623658944   -0.02996141273190185   -0.002443752116046249
1.9428086685708336e-05   -0.029956442593549848   -0.0024378180149534374
-1.1885897693382426e-07   -0.029924219782187365   -0.0024746603092158513
0.00031849078647470296   -0.019078297788364708   -0.0021074807180458052
0.0057496349623658944   -0.02996141273190185   -0.002443752116046249
-1.1885897693382426e-07   -0.029924219782187365   -0.0024746603092158513
0.005233122103717239   -0.01914416326080585   -0.0020650416629967193
0.00031849078647470296   -0.019078297788364708   -0.0021074807180458052
1.9428086685708336e-05   -0.029956442593549848   -0.0024378180149534374
0.0052506160692554985   -0.01913820137070971   -0.002115202722317605
0.00033127046658839346   -0.019081539393918302   -0.0020968974261887366
1.9428086685708336e-05   -0.029956442593549848   -0.0024378180149534374
0.0057496349623658944   -0.02996141273190185   -0.002443752116046249
0.0052506160692554985   -0.01913820137070971   -0.002115202722317605
0.005751220088380586   -0.029928225207183037   -0.0024581643860832614
0.00033127046658839346   -0.019081539393918302   -0.0020968974261887366
0.0052369953836244815   -0.019094194730382482   -0.0021754380817890938
0.005751220088380586   -0.029928225207183037   -0.0024581643860832614
0.0052506160692554985   -0.01913820137070971   -0.002115202722317605
0.00033127046658839346   -0.019081539393918302   -0.0020968974261887366
0.005751220088380586   -0.029928225207183037   -0.0024581643860832614
3.32702185927948e-05   -0.029966409386763294   -0.0024122214431055453
1.9428086685708336e-05   -0.029956442593549848   -0.0024378180149534374
0.00033127046658839346   -0.019081539393918302   -0.0020968974261887366
0.005751220088380586   -0.029928225207183037   -0.0024581643860832614
1.9428086685708336e-05   -0.029956442593549848   -0.0024378180149534374
0.0052506160692554985   -0.01913820137070971   -0.002115202722317605
0.00033127046658839346   -0.019081539393918302   -0.0020968974261887366
3.32702185927948e-05   -0.029966409386763294   -0.0024122214431055453
0.0052369953836244815   -0.019094194730382482   -0.0021754380817890938
0.0003404260754102733   -0.019045331202248265   -0.002097849276052793
3.32702185927948e-05   -0.029966409386763294   -0.0024122214431055453
0.005751220088380586   -0.029928225207183037   -0.0024581643860832614
0.0052369953836244815   -0.019094194730382482   -0.0021754380817890938
0.005738433877290632   -0.029866160498139113   -0.002483622031127158
0.0003404260754102733   -0.019045331202248265   -0.002097849276052793
0.005216773717624002   -0.0190027321722734   -0.002246940452667707
0.005738433877290632   -0.029866160498139113   -0.002483622031127158
0.0052369953836244815   -0.019094194730382482   -0.0021754380817890938
0.0003404260754102733   -0.019045331202248265   -0.002097849276052793
0.005738433877290632   -0.029866160498139113   -0.002483622031127158
4.196105160988242e-05   -0.02995381519237242   -0.002398368961024697
3.32702185927948e-05   -0.029966409386763294   -0.0024122214431055453
0.0003404260754102733   -0.019045331202248265   -0.002097849276052793
0.005738433877290632   -0.029866160498139113   -0.002483622031127158
3.32702185927948e-05   -0.029966409386763294   -0.0024122214431055453
0.0052369953836244815   -0.019094194730382482   -0.0021754380817890938
0.005233122103717239   -0.01914416326080585   -0.0020650416629967193
0.005725678295580922   -0.029974038302663646   -0.0024399808227507733
0.010852882059983967   -0.019340070951890827   -0.002066142584147639
0.0052506160692554985   -0.01913820137070971   -0.002115202722317605
0.005725678295580922   -0.029974038302663646   -0.0024399808227507733
0.012048393440789973   -0.030065636348398775   -0.002472383464717189
0.010852882059983967   -0.019340070951890827   -0.002066142584147639
0.012036905294648365   -0.030022646038264995   -0.0025200051608763154
0.0052506160692554985   -0.01913820137070971   -0.002115202722317605
0.010758035957688105   -0.0193064244238515   -0.0021971664421094935
0.012036905294648365   -0.030022646038264995   -0.0025200051608763154
0.010852882059983967   -0.019340070951890827   -0.002066142584147639
0.0052506160692554985   -0.01913820137070971   -0.002115202722317605
0.012036905294648365   -0.030022646038264995   -0.0025200051608763154
0.0057496349623658944   -0.02996141273190185   -0.002443752116046249
0.005725678295580922   -0.029974038302663646   -0.0024399808227507733
0.0052506160692554985   -0.01913820137070971   -0.002115202722317605
0.012036905294648365   -0.030022646038264995   -0.0025200051608763154
0.005725678295580922   -0.029974038302663646   -0.0024399808227507733
0.010852882059983967   -0.019340070951890827   -0.002066142584147639
0.0052506160692554985   -0.01913820137070971   -0.002115202722317605
0.0057496349623658944   -0.02996141273190185   -0.002443752116046249
0.010758035957688105   -0.0193064244238515   -0.0021971664421094935
0.0052369953836244815   -0.019094194730382482   -0.0021754380817890938
0.0057496349623658944   -0.02996141273190185   -0.002443752116046249
0.012036905294648365   -0.030022646038264995   -0.0025200051608763154
0.010758035957688105   -0.0193064244238515   -0.0021971664421094935
0.012006436841737217   -0.029968484934370678   -0.0025848893854266953
0.0052369953836244815   -0.019094194730382482   -0.0021754380817890938
0.010663420715295784   -0.019238653953464163   -0.002346356565280949
0.012006436841737217   -0.029968484934370678   -0.0025848893854266953
0.010758035957688105   -0.0193064244238515   -0.0021971664421094935
0.0052369953836244815   -0.019094194730382482   -0.0021754380817890938
0.012006436841737217   -0.029968484934370678   -0.0025848893854266953
0.005751220088380586   -0.029928225207183037   -0.0024581643860832614
0.0057496349623658944   -0.02996141273190185   -0.002443752116046249
0.0052369953836244815   -0.019094194730382482   -0.0021754380817890938
0.012006436841737217   -0.029968484934370678   -0.0025848893854266953
0.0057496349623658944   -0.02996141273190185   -0.002443752116046249
0.010758035957688105   -0.0193064244238515   -0.0021971664421094935
0.0052369953836244815   -0.019094194730382482   -0.0021754380817890938
0.005751220088380586   -0.029928225207183037   -0.0024581643860832614
0.010663420715295784   -0.019238653953464163   -0.002346356565280949
0.005216773717624002   -0.0190027321722734   -0.002246940452667707
0.005751220088380586   -0.029928225207183037   -0.0024581643860832614
0.012006436841737217   -0.029968484934370678   -0.0025848893854266953
0.010663420715295784   -0.019238653953464163   -0.002346356565280949
0.011923850801799245   -0.029865168962204154   -0.002666911002868931
0.005216773717624002   -0.0190027321722734   -0.002246940452667707
0.010495608500339634   -0.019096412027242007   -0.0025137321766213875
0.011923850801799245   -0.029865168962204154   -0.002666911002868931
0.010663420715295784   -0.019238653953464163   -0.002346356565280949
0.005216773717624002   -0.0190027321722734   -0.002246940452667707
0.011923850801799245   -0.029865168962204154   -0.002666911002868931
0.005738433877290632   -0.029866160498139113   -0.002483622031127158
0.005751220088380586   -0.029928225207183037   -0.0024581643860832614
0.005216773717624002   -0.0190027321722734   -0.002246940452667707
0.011923850801799245   -0.029865168962204154   -0.002666911002868931
0.005751220088380586   -0.029928225207183037   -0.0024581643860832614
0.010663420715295784   -0.019238653953464163   -0.002346356565280949
-0.017294669432360313   -0.030188521997797466   -0.0031009929350084386
-0.0189986963377673   -0.04190011448837516   -0.0031575768537814106
-0.011225487213478703   -0.030023900834617496   -0.0028021550152801927
-0.01746856298298497   -0.030360627689700503   -0.0029328436067254386
-0.0189986963377673   -0.04190011448837516   -0.0031575768537814106
-0.012483199184964142   -0.04183299168275539   -0.002919487400467882
-0.011225487213478703   -0.030023900834617496   -0.0028021550152801927
-0.012478431999830944   -0.04194153122397   -0.0028482734220257023
-0.01746856298298497   -0.030360627689700503   -0.0029328436067254386
-0.01123924643354215   -0.030151125007837832   -0.0026860698663798426
-0.012478431999830944   -0.04194153122397   -0.0028482734220257023
-0.011225487213478703   -0.030023900834617496   -0.0028021550152801927
-0.01746856298298497   -0.030360627689700503   -0.0029328436067254386
-0.012478431999830944   -0.04194153122397   -0.0028482734220257023
-0.01908006036612169   -0.04204601094955588   -0.0030708244487677653
-0.0189986963377673   -0.04190011448837516   -0.0031575768537814106
-0.01746856298298497   -0.030360627689700503   -0.0029328436067254386
-0.012478431999830944   -0.04194153122397   -0.0028482734220257023
-0.0189986963377673   -0.04190011448837516   -0.0031575768537814106
-0.011225487213478703   -0.030023900834617496   -0.0028021550152801927
-0.01746856298298497   -0.030360627689700503   -0.0029328436067254386
-0.01908006036612169   -0.04204601094955588   -0.0030708244487677653
-0.01123924643354215   -0.030151125007837832   -0.0026860698663798426
-0.017568467710990347   -0.030482374890330118   -0.0027808188420163638
-0.01908006036612169   -0.04204601094955588   -0.0030708244487677653
-0.012478431999830944   -0.04194153122397   -0.0028482734220257023
-0.01123924643354215   -0.030151125007837832   -0.0026860698663798426
-0.012461897379903589   -0.042041643181627   -0.0027888837205602523
-0.017568467710990347   -0.030482374890330118   -0.0027808188420163638
-0.011249144737888876   -0.03025196947203924   -0.0025815482562660673
-0.012461897379903589   -0.042041643181627   -0.0027888837205602523
-0.01123924643354215   -0.030151125007837832   -0.0026860698663798426
-0.017568467710990347   -0.030482374890330118   -0.0027808188420163638
-0.012461897379903589   -0.042041643181627   -0.0027888837205602523
-0.01910613263117125   -0.042164988420216   -0.0030010915484785096
-0.01908006036612169   -0.04204601094955588   -0.0030708244487677653
-0.017568467710990347   -0.030482374890330118   -0.0027808188420163638
-0.012461897379903589   -0.042041643181627   -0.0027888837205602523
-0.01908006036612169   -0.04204601094955588   -0.0030708244487677653
-0.01123924643354215   -0.030151125007837832   -0.0026860698663798426
-0.017568467710990347   -0.030482374890330118   -0.0027808188420163638
-0.01910613263117125   -0.042164988420216   -0.0030010915484785096
-0.011249144737888876   -0.03025196947203924   -0.0025815482562660673
-0.017671395480311696   -0.0305914721415728   -0.00264683387190168
-0.01910613263117125   -0.042164988420216   -0.0030010915484785096
-0.012461897379903589   -0.042041643181627   -0.0027888837205602523
-0.011249144737888876   -0.03025196947203924   -0.0025815482562660673
-0.012420851815735674   -0.04214095719849859   -0.002740491093749335
-0.017671395480311696   -0.0305914721415728   -0.00264683387190168
-0.011226130003014916   -0.030334795292443487   -0.002487054596533362
-0.012420851815735674   -0.04214095719849859   -0.002740491093749335
-0.011249144737888876   -0.03025196947203924   -0.0025815482562660673
-0.017671395480311696   -0.0305914721415728   -0.00264683387190168
-0.012420851815735674   -0.04214095719849859   -0.002740491093749335
-0.019115039260357593   -0.04229418180200997   -0.0029498384446716547
-0.01910613263117125   -0.042164988420216   -0.0030010915484785096
-0.017671395480311696   -0.0305914721415728   -0.00264683387190168
-0.012420851815735674   -0.04214095719849859   -0.002740491093749335
-0.01910613263117125   -0.042164988420216   -0.0030010915484785096
-0.011249144737888876   -0.03025196947203924   -0.0025815482562660673
-0.011225487213478703   -0.030023900834617496   -0.0028021550152801927
-0.012483199184964142   -0.04183299168275539   -0.002919487400467882
-0.005535576838379997   -0.0299388365745103   -0.002595219933678029
-0.01123924643354215   -0.030151125007837832   -0.0026860698663798426
-0.012483199184964142   -0.04183299168275539   -0.002919487400467882
-0.006430712404687593   -0.041794504330505446   -0.0027573919620500643
-0.005535576838379997   -0.0299388365745103   -0.002595219933678029
-0.006408296309626762   -0.0418602133148691   -0.0026953310798341567
-0.01123924643354215   -0.030151125007837832   -0.0026860698663798426
-0.005525310166337133   -0.030018684044261994   -0.0025186042721826794
-0.006408296309626762   -0.0418602133148691   -0.0026953310798341567
-0.005535576838379997   -0.0299388365745103   -0.002595219933678029
-0.01123924643354215   -0.030151125007837832   -0.0026860698663798426
-0.006408296309626762   -0.0418602133148691   -0.0026953310798341567
-0.012478431999830944   -0.04194153122397   -0.0028482734220257023
-0.012483199184964142   -0.04183299168275539   -0.002919487400467882
-0.01123924643354215   -0.030151125007837832   -0.0026860698663798426
-0.006408296309626762   -0.0418602133148691   -0.0026953310798341567
-0.012483199184964142   -0.04183299168275539   -0.002919487400467882
-0.005535576838379997   -0.0299388365745103   -0.002595219933678029
-0.01123924643354215   -0.030151125007837832   -0.0026860698663798426
-0.012478431999830944   -0.04194153122397   -0.0028482734220257023
-0.005525310166337133   -0.030018684044261994   -0.0025186042721826794
-0.011249144737888876   -0.03025196947203924   -0.0025815482562660673
-0.012478431999830944   -0.04194153122397   -0.0028482734220257023
-0.006408296309626762   -0.0418602133148691   -0.0026953310798341567
-0.005525310166337133   -0.030018684044261994   -0.0025186042721826794
-0.006380761812352771   -0.0419205072124873   -0.002645105012913746
-0.011249144737888876   -0.03025196947203924   -0.0025815482562660673
-0.0055111909991042065   -0.030076427601809064   -0.0024533795555599213
-0.006380761812352771   -0.0419205072124873   -0.002645105012913746
-0.005525310166337133   -0.030018684044261994   -0.0025186042721826794
-0.011249144737888876   -0.03025196947203924   -0.0025815482562660673
-0.006380761812352771   -0.0419205072124873   -0.002645105012913746
-0.012461897379903589   -0.042041643181627   -0.0027888837205602523
-0.012478431999830944   -0.04194153122397   -0.0028482734220257023
-0.011249144737888876   -0.03025196947203924   -0.0025815482562660673
-0.006380761812352771   -0.0419205072124873   -0.002645105012913746
-0.012478431999830944   -0.04194153122397   -0.0028482734220257023
-0.005525310166337133   -0.030018684044261994   -0.0025186042721826794
-0.011249144737888876   -0.03025196947203924   -0.0025815482562660673
-0.012461897379903589   -0.042041643181627   -0.0027888837205602523
-0.0055111909991042065   -0.030076427601809064   -0.0024533795555599213
-0.011226130003014916   -0.030334795292443487   -0.002487054596533362
-0.012461897379903589   -0.042041643181627   -0.0027888837205602523
-0.006380761812352771   -0.0419205072124873   -0.002645105012913746
-0.0055111909991042065   -0.030076427601809064   -0.0024533795555599213
-0.006347641749410125   -0.04197558398898142   -0.0026069974991730785
-0.011226130003014916   -0.030334795292443487   -0.002487054596533362
-0.005490008823128146   -0.03011244550615383   -0.0023997336667886237
-0.006347641749410125   -0.04197558398898142   -0.0026069974991730785
-0.0055111909991042065   -0.030076427601809064   -0.0024533795555599213
-0.011226130003014916   -0.030334795292443487   -0.002487054596533362
-0.006347641749410125   -0.04197558398898142   -0.0026069974991730785
-0.012420851815735674   -0.04214095719849859   -0.002740491093749335
-0.012461897379903589   -0.042041643181627   -0.0027888837205602523
-0.011226130003014916   -0.030334795292443487   -0.002487054596533362
-0.006347641749410125   -0.04197558398898142   -0.0026069974991730785
-0.012461897379903589   -0.042041643181627   -0.0027888837205602523
-0.0055111909991042065   -0.030076427601809064   -0.0024533795555599213
-0.005535576838379997   -0.0299388365745103   -0.002595219933678029
-0.006430712404687593   -0.041794504330505446   -0.0027573919620500643
-1.1885897693382426e-07   -0.029924219782187365   -0.0024746603092158513
-0.005525310166337133   -0.030018684044261994   -0.0025186042721826794
-0.006430712404687593   -0.041794504330505446   -0.0027573919620500643
-0.0005419921149516735   -0.04177247891445052   -0.002673508559841557
-1.1885897693382426e-07   -0.029924219782187365   -0.0024746603092158513
-0.0005106001680639827   -0.04179457276020831   -0.0026212191325235617
-0.005525310166337133   -0.030018684044261994   -0.0025186042721826794
1.9428086685708336e-05   -0.029956442593549848   -0.0024378180149534374
-0.0005106001680639827   -0.04179457276020831   -0.0026212191325235617
-1.1885897693382426e-07   -0.029924219782187365   -0.0024746603092158513
-0.005525310166337133   -0.030018684044261994   -0.0025186042721826794
-0.0005106001680639827   -0.04179457276020831   -0.0026212191325235617
-0.006408296309626762   -0.0418602133148691   -0.0026953310798341567
-0.006430712404687593   -0.041794504330505446   -0.0027573919620500643
-0.005525310166337133   -0.030018684044261994   -0.0025186042721826794
-0.0005106001680639827   -0.04179457276020831   -0.0026212191325235617
-0.006430712404687593   -0.041794504330505446   -0.0027573919620500643
-1.1885897693382426e-07   -0.029924219782187365   -0.0024746603092158513
-0.005525310166337133   -0.030018684044261994   -0.0025186042721826794
-0.006408296309626762   -0.0418602133148691   -0.0026953310798341567
1.9428086685708336e-05   -0.029956442593549848   -0.0024378180149534374
-0.0055111909991042065   -0.030076427601809064   -0.0024533795555599213
-0.006408296309626762   -0.0418602133148691   -0.0026953310798341567
-0.0005106001680639827   -0.04179457276020831   -0.0026212191325235617
1.9428086685708336e-05   -0.029956442593549848   -0.0024378180149534374
-0.0004834393409243298   -0.04181086903826668   -0.0025806617700796443
-0.0055111909991042065   -0.030076427601809064   -0.0024533795555599213
3.32702185927948e-05   -0.029966409386763294   -0.0024122214431055453
-0.0004834393409243298   -0.04181086903826668   -0.0025806617700796443
1.9428086685708336e-05   -0.029956442593549848   -0.0024378180149534374
-0.0055111909991042065   -0.030076427601809064   -0.0024533795555599213
-0.0004834393409243298   -0.04181086903826668   -0.0025806617700796443
-0.006380761812352771   -0.0419205072124873   -0.002645105012913746
-0.006408296309626762   -0.0418602133148691   -0.0026953310798341567
-0.0055111909991042065   -0.030076427601809064   -0.0024533795555599213
-0.0004834393409243298   -0.04181086903826668   -0.0025806617700796443
-0.006408296309626762   -0.0418602133148691   -0.0026953310798341567
1.9428086685708336e-05   -0.029956442593549848   -0.0024378180149534374
-0.0055111909991042065   -0.030076427601809064   -0.0024533795555599213
-0.006380761812352771   -0.0419205072124873   -0.002645105012913746
3.32702185927948e-05   -0.029966409386763294   -0.0024122214431055453
-0.005490008823128146   -0.03011244550615383   -0.0023997336667886237
-0.006380761812352771   -0.0419205072124873   -0.002645105012913746
-0.0004834393409243298   -0.04181086903826668   -0.0025806617700796443
3.32702185927948e-05   -0.029966409386763294   -0.0024122214431055453
-0.000462780421820618   -0.04182128465589179   -0.002552264628587669
-0.005490008823128146   -0.03011244550615383   -0.0023997336667886237
4.196105160988242e-05   -0.02995381519237242   -0.002398368961024697
-0.000462780421820618   -0.04182128465589179   -0.002552264628587669
3.32702185927948e-05   -0.029966409386763294   -0.0024122214431055453
-0.005490008823128146   -0.03011244550615383   -0.0023997336667886237
-0.000462780421820618   -0.04182128465589179   -0.002552264628587669
-0.006347641749410125   -0.04197558398898142   -0.0026069974991730785
-0.006380761812352771   -0.0419205072124873   -0.002645105012913746
-0.005490008823128146   -0.03011244550615383   -0.0023997336667886237
-0.000462780421820618   -0.04182128465589179   -0.002552264628587669
-0.006380761812352771   -0.0419205072124873   -0.002645105012913746
3.32702185927948e-05   -0.029966409386763294   -0.0024122214431055453
-1.1885897693382426e-07   -0.029924219782187365   -0.0024746603092158513
-0.0005419921149516735   -0.04177247891445052   -0.002673508559841557
0.005725678295580922   -0.029974038302663646   -0.0024399808227507733
1.9428086685708336e-05   -0.029956442593549848   -0.0024378180149534374
-0.0005419921149516735   -0.04177247891445052   -0.002673508559841557
0.00552649755739798   -0.04176312237453885   -0.0026685669861111865
0.005725678295580922   -0.029974038302663646   -0.0024399808227507733
0.005568133643948092   -0.041742974454739665   -0.002626539922026619
1.9428086685708336e-05   -0.029956442593549848   -0.0024378180149534374
0.0057496349623658944   -0.02996141273190185   -0.002443752116046249
0.005568133643948092   -0.041742974454739665   -0.002626539922026619
0.005725678295580922   -0.029974038302663646   -0.0024399808227507733
1.9428086685708336e-05   -0.029956442593549848   -0.0024378180149534374
0.005568133643948092   -0.041742974454739665   -0.002626539922026619
-0.0005106001680639827   -0.04179457276020831   -0.0026212191325235617
-0.0005419921149516735   -0.04177247891445052   -0.002673508559841557
1.9428086685708336e-05   -0.029956442593549848   -0.0024378180149534374
0.005568133643948092   -0.041742974454739665   -0.002626539922026619
-0.0005419921149516735   -0.04177247891445052   -0.002673508559841557
0.005725678295580922   -0.029974038302663646   -0.0024399808227507733
1.9428086685708336e-05   -0.029956442593549848   -0.0024378180149534374
-0.0005106001680639827   -0.04179457276020831   -0.0026212191325235617
0.0057496349623658944   -0.02996141273190185   -0.002443752116046249
3.32702185927948e-05   -0.029966409386763294   -0.0024122214431055453
-0.0005106001680639827   -0.04179457276020831   -0.0026212191325235617
0.005568133643948092   -0.041742974454739665   -0.002626539922026619
0.0057496349623658944   -0.02996141273190185   -0.002443752116046249
0.005595937423207134   -0.04171945758442386   -0.0025959092024140803
3.32702185927948e-05   -0.029966409386763294   -0.0024122214431055453
0.005751220088380586   -0.029928225207183037   -0.0024581643860832614
0.005595937423207134   -0.04171945758442386   -0.0025959092024140803
0.0057496349623658944   -0.02996141273190185   -0.002443752116046249
3.32702185927948e-05   -0.029966409386763294   -0.0024122214431055453
0.005595937423207134   -0.04171945758442386   -0.0025959092024140803
-0.0004834393409243298   -0.04181086903826668   -0.0025806617700796443
-0.0005106001680639827   -0.04179457276020831   -0.0026212191325235617
3.32702185927948e-05   -0.029966409386763294   -0.0024122214431055453
0.005595937423207134   -0.04171945758442386   -0.0025959092024140803
-0.0005106001680639827   -0.04179457276020831   -0.0026212191325235617
0.0057496349623658944   -0.02996141273190185   -0.002443752116046249
3.32702185927948e-05   -0.029966409386763294   -0.0024122214431055453
-0.0004834393409243298   -0.04181086903826668   -0.0025806617700796443
0.005751220088380586   -0.029928225207183037   -0.0024581643860832614
4.196105160988242e-05   -0.02995381519237242   -0.002398368961024697
-0.0004834393409243298   -0.04181086903826668   -0.0025806617700796443
0.005595937423207134   -0.04171945758442386   -0.0025959092024140803
0.005751220088380586   -0.029928225207183037   -0.0024581643860832614
0.005601462168180271   -0.04168484667438711   -0.002576440720702103
4.196105160988242e-05   -0.02995381519237242   -0.002398368961024697
0.005738433877290632   -0.029866160498139113   -0.002483622031127158
0.005601462168180271   -0.04168484667438711   -0.002576440720702103
0.005751220088380586   -0.029928225207183037   -0.0024581643860832614
4.196105160988242e-05   -0.02995381519237242   -0.002398368961024697
0.005601462168180271   -0.04168484667438711   -0.002576440720702103
-0.000462780421820618   -0.04182128465589179   -0.002552264628587669
-0.0004834393409243298   -0.04181086903826668   -0.0025806617700796443
4.196105160988242e-05   -0.02995381519237242   -0.002398368961024697
0.005601462168180271   -0.04168484667438711   -0.002576440720702103
-0.0004834393409243298   -0.04181086903826668   -0.0025806617700796443
0.005751220088380586   -0.029928225207183037   -0.0024581643860832614
0.005725678295580922   -0.029974038302663646   -0.0024399808227507733
0.00552649755739798   -0.04176312237453885   -0.0026685669861111865
0.012048393440789973   -0.030065636348398775   -0.002472383464717189
0.0057496349623658944   -0.02996141273190185   -0.002443752116046249
0.00552649755739798   -0.04176312237453885   -0.0026685669861111865
0.012103080014839113   -0.04175021270190295   -0.002734622611903495
0.012048393440789973   -0.030065636348398775   -0.002472383464717189
0.012184681315478172   -0.041696685742801366   -0.0027002472655787567
0.0057496349623658944   -0.02996141273190185   -0.002443752116046249
0.012036905294648365   -0.030022646038264995   -0.0025200051608763154
0.012184681315478172   -0.041696685742801366   -0.0027002472655787567
0.012048393440789973   -0.030065636348398775   -0.002472383464717189
0.0057496349623658944   -0.02996141273190185   -0.002443752116046249
0.012184681315478172   -0.041696685742801366   -0.0027002472655787567
0.005568133643948092   -0.041742974454739665   -0.002626539922026619
0.00552649755739798   -0.04176312237453885   -0.0026685669861111865
0.0057496349623658944   -0.02996141273190185   -0.002443752116046249
0.012184681315478172   -0.041696685742801366   -0.0027002472655787567
0.00552649755739798   -0.04176312237453885   -0.0026685669861111865
0.012048393440789973   -0.030065636348398775   -0.002472383464717189
0.0057496349623658944   -0.02996141273190185   -0.002443752116046249
0.005568133643948092   -0.041742974454739665   -0.002626539922026619
0.012036905294648365   -0.030022646038264995   -0.0025200051608763154
0.005751220088380586   -0.029928225207183037   -0.0024581643860832614
0.005568133643948092   -0.041742974454739665   -0.002626539922026619
0.012184681315478172   -0.041696685742801366   -0.0027002472655787567
0.012036905294648365   -0.030022646038264995   -0.0025200051608763154
0.012227711436318728   -0.0416543920227513   -0.002683185932070878
0.005751220088380586   -0.029928225207183037   -0.0024581643860832614
0.012006436841737217   -0.029968484934370678   -0.0025848893854266953
0.012227711436318728   -0.0416543920227513   -0.002683185932070878
0.012036905294648365   -0.030022646038264995   -0.0025200051608763154
0.005751220088380586   -0.029928225207183037   -0.0024581643860832614
0.012227711436318728   -0.0416543920227513   -0.002683185932070878
0.005595937423207134   -0.04171945758442386   -0.0025959092024140803
0.005568133643948092   -0.041742974454739665   -0.002626539922026619
0.005751220088380586   -0.029928225207183037   -0.0024581643860832614
0.012227711436318728   -0.0416543920227513   -0.002683185932070878
0.005568133643948092   -0.041742974454739665   -0.002626539922026619
0.012036905294648365   -0.030022646038264995   -0.0025200051608763154
0.005751220088380586   -0.029928225207183037   -0.0024581643860832614
0.005595937423207134   -0.04171945758442386   -0.0025959092024140803
0.012006436841737217   -0.029968484934370678   -0.0025848893854266953
0.005738433877290632   -0.029866160498139113   -0.002483622031127158
0.005595937423207134   -0.04171945758442386   -0.0025959092024140803
0.012227711436318728   -0.0416543920227513   -0.002683185932070878
0.012006436841737217   -0.029968484934370678   -0.0025848893854266953
0.012237837792076153   -0.04158646153296542   -0.0026837335451019313
0.005738433877290632   -0.029866160498139113   -0.002483622031127158
0.011923850801799245   -0.029865168962204154   -0.002666911002868931
0.012237837792076153   -0.04158646153296542   -0.0026837335451019313
0.012006436841737217   -0.029968484934370678   -0.0025848893854266953
0.005738433877290632   -0.029866160498139113   -0.002483622031127158
0.012237837792076153   -0.04158646153296542   -0.0026837335451019313
0.005601462168180271   -0.04168484667438711   -0.002576440720702103
0.005595937423207134   -0.04171945758442386   -0.0025959092024140803
0.005738433877290632   -0.029866160498139113   -0.002483622031127158
0.012237837792076153   -0.04158646153296542   -0.0026837335451019313
0.005595937423207134   -0.04171945758442386   -0.0025959092024140803
0.012006436841737217   -0.029968484934370678   -0.0025848893854266953
-0.0189986963377673   -0.04190011448837516   -0.0031575768537814106
-0.019593311208063204   -0.05382403085255517   -0.00310405538846126
-0.012483199184964142   -0.04183299168275539   -0.002919487400467882
-0.01908006036612169   -0.04204601094955588   -0.0030708244487677653
-0.019593311208063204   -0.05382403085255517   -0.00310405538846126
-0.013084876140136311   -0.05385516429071561   -0.00292796485710366
-0.012483199184964142   -0.04183299168275539   -0.002919487400467882
-0.01304991779755379   -0.053944636652516   -0.0029009495328147132
-0.01908006036612169   -0.04204601094955588   -0.0030708244487677653
-0.012478431999830944   -0.04194153122397   -0.0028482734220257023
-0.01304991779755379   -0.053944636652516   -0.0029009495328147132
-0.012483199184964142   -0.04183299168275539   -0.002919487400467882
-0.01908006036612169   -0.04204601094955588   -0.0030708244487677653
-0.01304991779755379   -0.053944636652516   -0.0029009495328147132
-0.019570961801035534   -0.0539437344726571   -0.0030983792339340276
-0.019593311208063204   -0.05382403085255517   -0.00310405538846126
-0.01908006036612169   -0.04204601094955588   -0.0030708244487677653
-0.01304991779755379   -0.053944636652516   -0.0029009495328147132
-0.019593311208063204   -0.05382403085255517   -0.00310405538846126
-0.012483199184964142   -0.04183299168275539   -0.002919487400467882
-0.01908006036612169   -0.04204601094955588   -0.0030708244487677653
-0.019570961801035534   -0.0539437344726571   -0.0030983792339340276
-0.012478431999830944   -0.04194153122397   -0.0028482734220257023
-0.01910613263117125   -0.042164988420216   -0.0030010915484785096
-0.019570961801035534   -0.0539437344726571   -0.0030983792339340276
-0.01304991779755379   -0.053944636652516   -0.0029009495328147132
-0.012478431999830944   -0.04194153122397   -0.0028482734220257023
-0.012995309989390986   -0.054043747778396246   -0.0028861264679104115
-0.01910613263117125   -0.042164988420216   -0.0030010915484785096
-0.012461897379903589   -0.042041643181627   -0.0027888837205602523
-0.012995309989390986   -0.054043747778396246   -0.0028861264679104115
-0.012478431999830944   -0.04194153122397   -0.0028482734220257023
-0.01910613263117125   -0.042164988420216   -0.0030010915484785096
-0.012995309989390986   -0.054043747778396246   -0.0028861264679104115
-0.019511237049206976   -0.054059936540015716   -0.003110923531179719
-0.019570961801035534   -0.0539437344726571   -0.0030983792339340276
-0.01910613263117125   -0.042164988420216   -0.0030010915484785096
-0.012995309989390986   -0.054043747778396246   -0.0028861264679104115
-0.019570961801035534   -0.0539437344726571   -0.0030983792339340276
-0.012478431999830944   -0.04194153122397   -0.0028482734220257023
-0.01910613263117125   -0.042164988420216   -0.0030010915484785096
-0.019511237049206976   -0.054059936540015716   -0.003110923531179719
-0.012461897379903589   -0.042041643181627   -0.0027888837205602523
-0.019115039260357593   -0.04229418180200997   -0.0029498384446716547
-0.019511237049206976   -0.054059936540015716   -0.003110923531179719
-0.012995309989390986   -0.054043747778396246   -0.0028861264679104115
-0.012461897379903589   -0.042041643181627   -0.0027888837205602523
-0.012924542717297647   -0.054159320545988696   -0.0028832994435214
-0.019115039260357593   -0.04229418180200997   -0.0029498384446716547
-0.012420851815735674   -0.04214095719849859   -0.002740491093749335
-0.012924542717297647   -0.054159320545988696   -0.0028832994435214
-0.012461897379903589   -0.042041643181627   -0.0027888837205602523
-0.019115039260357593   -0.04229418180200997   -0.0029498384446716547
-0.012924542717297647   -0.054159320545988696   -0.0028832994435214
-0.01941421196040396   -0.054209599702422055   -0.0031426075299858555
-0.019511237049206976   -0.054059936540015716   -0.003110923531179719
-0.019115039260357593   -0.04229418180200997   -0.0029498384446716547
-0.012924542717297647   -0.054159320545988696   -0.0028832994435214
-0.019511237049206976   -0.054059936540015716   -0.003110923531179719
-0.012461897379903589   -0.042041643181627   -0.0027888837205602523
-0.012483199184964142   -0.04183299168275539   -0.002919487400467882
-0.013084876140136311   -0.05385516429071561   -0.00292796485710366
-0.006430712404687593   -0.041794504330505446   -0.0027573919620500643
-0.012478431999830944   -0.04194153122397   -0.0028482734220257023
-0.013084876140136311   -0.05385516429071561   -0.00292796485710366
-0.007123246323103115   -0.05386194279404334   -0.002810917389712589
-0.006430712404687593   -0.041794504330505446   -0.0027573919620500643
-0.00707641635886181   -0.05391327780095935   -0.0027629898323769985
-0.012478431999830944   -0.04194153122397   -0.0028482734220257023
-0.006408296309626762   -0.0418602133148691   -0.0026953310798341567
-0.00707641635886181   -0.05391327780095935   -0.0027629898323769985
-0.006430712404687593   -0.041794504330505446   -0.0027573919620500643
-0.012478431999830944   -0.04194153122397   -0.0028482734220257023
-0.00707641635886181   -0.05391327780095935   -0.0027629898323769985
-0.01304991779755379   -0.053944636652516   -0.0029009495328147132
-0.013084876140136311   -0.05385516429071561   -0.00292796485710366
-0.012478431999830944   -0.04194153122397   -0.0028482734220257023
-0.00707641635886181   -0.05391327780095935   -0.0027629898323769985
-0.013084876140136311   -0.05385516429071561   -0.00292796485710366
-0.006430712404687593   -0.041794504330505446   -0.0027573919620500643
-0.012478431999830944   -0.04194153122397   -0.0028482734220257023
-0.01304991779755379   -0.053944636652516   -0.0029009495328147132
-0.006408296309626762   -0.0418602133148691   -0.0026953310798341567
-0.012461897379903589   -0.042041643181627   -0.0027888837205602523
-0.01304991779755379   -0.053944636652516   -0.0029009495328147132
-0.00707641635886181   -0.05391327780095935   -0.0027629898323769985
-0.006408296309626762   -0.0418602133148691   -0.0026953310798341567
-0.007023492099217956   -0.053975678082891415   -0.0027273012148298368
-0.012461897379903589   -0.042041643181627   -0.0027888837205602523
-0.006380761812352771   -0.0419205072124873   -0.002645105012913746
-0.007023492099217956   -0.053975678082891415   -0.0027273012148298368
-0.006408296309626762   -0.0418602133148691   -0.0026953310798341567
-0.012461897379903589   -0.042041643181627   -0.0027888837205602523
-0.007023492099217956   -0.053975678082891415   -0.0027273012148298368
-0.012995309989390986   -0.054043747778396246   -0.0028861264679104115
-0.01304991779755379   -0.053944636652516   -0.0029009495328147132
-0.012461897379903589   -0.042041643181627   -0.0027888837205602523
-0.007023492099217956   -0.053975678082891415   -0.0027273012148298368
-0.01304991779755379   -0.053944636652516   -0.0029009495328147132
-0.006408296309626762   -0.0418602133148691   -0.0026953310798341567
-0.012461897379903589   -0.042041643181627   -0.0027888837205602523
-0.012995309989390986   -0.054043747778396246   -0.0028861264679104115
-0.006380761812352771   -0.0419205072124873   -0.002645105012913746
-0.012420851815735674   -0.04214095719849859   -0.002740491093749335
-0.012995309989390986   -0.054043747778396246   -0.0028861264679104115
-0.007023492099217956   -0.053975678082891415   -0.0027273012148298368
-0.006380761812352771   -0.0419205072124873   -0.002645105012913746
-0.00696645247810545   -0.05404933813500461   -0.0027042476916563697
-0.012420851815735674   -0.04214095719849859   -0.002740491093749335
-0.006347641749410125   -0.04197558398898142   -0.0026069974991730785
-0.00696645247810545   -0.05404933813500461   -0.0027042476916563697
-0.006380761812352771   -0.0419205072124873   -0.002645105012913746
-0.012420851815735674   -0.04214095719849859   -0.002740491093749335
-0.00696645247810545   -0.05404933813500461   -0.0027042476916563697
-0.012924542717297647   -0.054159320545988696   -0.0028832994435214
-0.012995309989390986   -0.054043747778396246   -0.0028861264679104115
-0.012420851815735674   -0.04214095719849859   -0.002740491093749335
-0.00696645247810545   -0.05404933813500461   -0.0027042476916563697
-0.012995309989390986   -0.054043747778396246   -0.0028861264679104115
-0.006380761812352771   -0.0419205072124873   -0.002645105012913746
-0.006430712404687593   -0.041794504330505446   -0.0027573919620500643
-0.007123246323103115   -0.05386194279404334   -0.002810917389712589
-0.0005419921149516735   -0.04177247891445052   -0.002673508559841557
-0.006408296309626762   -0.0418602133148691   -0.0026953310798341567
-0.007123246323103115   -0.05386194279404334   -0.002810917389712589
-0.0013302970056763808   -0.05383036370683635   -0.0027630233498270847
-0.0005419921149516735   -0.04177247891445052   -0.002673508559841557
-0.001274907341312647   -0.05384228953172198   -0.0026952241435313196
-0.006408296309626762   -0.0418602133148691   -0.0026953310798341567
-0.0005106001680639827   -0.04179457276020831   -0.0026212191325235617
-0.001274907341312647   -0.05384228953172198   -0.0026952241435313196
-0.0005419921149516735   -0.04177247891445052   -0.002673508559841557
-0.006408296309626762   -0.0418602133148691   -0.0026953310798341567
-0.001274907341312647   -0.05384228953172198   -0.0026952241435313196
-0.00707641635886181   -0.05391327780095935   -0.0027629898323769985
-0.007123246323103115   -0.05386194279404334   -0.002810917389712589
-0.006408296309626762   -0.0418602133148691   -0.0026953310798341567
-0.001274907341312647   -0.05384228953172198   -0.0026952241435313196
-0.007123246323103115   -0.05386194279404334   -0.002810917389712589
-0.0005419921149516735   -0.04177247891445052   -0.002673508559841557
-0.006408296309626762   -0.0418602133148691   -0.0026953310798341567
-0.00707641635886181   -0.05391327780095935   -0.0027629898323769985
-0.0005106001680639827   -0.04179457276020831   -0.0026212191325235617
-0.006380761812352771   -0.0419205072124873   -0.002645105012913746
-0.00707641635886181   -0.05391327780095935   -0.0027629898323769985
-0.001274907341312647   -0.05384228953172198   -0.0026952241435313196
-0.0005106001680639827   -0.04179457276020831   -0.0026212191325235617
-0.0012225133173324177   -0.053864412877557236   -0.00263957675375997
-0.006380761812352771   -0.0419205072124873   -0.002645105012913746
-0.0004834393409243298   -0.04181086903826668   -0.0025806617700796443
-0.0012225133173324177   -0.053864412877557236   -0.00263957675375997
-0.0005106001680639827   -0.04179457276020831   -0.0026212191325235617
-0.006380761812352771   -0.0419205072124873   -0.002645105012913746
-0.0012225133173324177   -0.053864412877557236   -0.00263957675375997
-0.007023492099217956   -0.053975678082891415   -0.0027273012148298368
-0.00707641635886181   -0.05391327780095935   -0.0027629898323769985
-0.006380761812352771   -0.0419205072124873   -0.002645105012913746
-0.0012225133173324177   -0.053864412877557236   -0.00263957675375997
-0.00707641635886181   -0.05391327780095935   -0.0027629898323769985
-0.0005106001680639827   -0.04179457276020831   -0.0026212191325235617
-0.006380761812352771   -0.0419205072124873   -0.002645105012913746
-0.007023492099217956   -0.053975678082891415   -0.0027273012148298368
-0.0004834393409243298   -0.04181086903826668   -0.0025806617700796443
-0.006347641749410125   -0.04197558398898142   -0.0026069974991730785
-0.007023492099217956   -0.053975678082891415   -0.0027273012148298368
-0.0012225133173324177   -0.053864412877557236   -0.00263957675375997
-0.0004834393409243298   -0.04181086903826668   -0.0025806617700796443
-0.0011780542486523242   -0.053897239266715996   -0.002596505895982467
-0.006347641749410125   -0.04197558398898142   -0.0026069974991730785
-0.000462780421820618   -0.04182128465589179   -0.002552264628587669
-0.0011780542486523242   -0.053897239266715996   -0.002596505895982467
-0.0004834393409243298   -0.04181086903826668   -0.0025806617700796443
-0.006347641749410125   -0.04197558398898142   -0.0026069974991730785
-0.0011780542486523242   -0.053897239266715996   -0.002596505895982467
-0.00696645247810545   -0.05404933813500461   -0.0027042476916563697
-0.007023492099217956   -0.053975678082891415   -0.0027273012148298368
-0.006347641749410125   -0.04197558398898142   -0.0026069974991730785
-0.0011780542486523242   -0.053897239266715996   -0.002596505895982467
-0.007023492099217956   -0.053975678082891415   -0.0027273012148298368
-0.0004834393409243298   -0.04181086903826668   -0.0025806617700796443
-0.0005419921149516735   -0.04177247891445052   -0.002673508559841557
-0.0013302970056763808   -0.05383036370683635   -0.0027630233498270847
0.00552649755739798   -0.04176312237453885   -0.0026685669861111865
-0.0005106001680639827   -0.04179457276020831   -0.0026212191325235617
-0.0013302970056763808   -0.05383036370683635   -0.0027630233498270847
0.00463713215952599   -0.053760156241670264   -0.002786563621233176
0.00552649755739798   -0.04176312237453885   -0.0026685669861111865
0.004707791426182713   -0.05373254456449643   -0.0026992473445958762
-0.0005106001680639827   -0.04179457276020831   -0.0026212191325235617
0.005568133643948092   -0.041742974454739665   -0.002626539922026619
0.004707791426182713   -0.05373254456449643   -0.0026992473445958762
0.00552649755739798   -0.04176312237453885   -0.0026685669861111865
-0.0005106001680639827   -0.04179457276020831   -0.0026212191325235617
0.004707791426182713   -0.05373254456449643   -0.0026992473445958762
-0.001274907341312647   -0.05384228953172198   -0.0026952241435313196
-0.0013302970056763808   -0.05383036370683635   -0.0027630233498270847
-0.0005106001680639827   -0.04179457276020831   -0.0026212191325235617
0.004707791426182713   -0.05373254456449643   -0.0026992473445958762
-0.0013302970056763808   -0.05383036370683635   -0.0027630233498270847
0.00552649755739798   -0.04176312237453885   -0.0026685669861111865
-0.0005106001680639827   -0.04179457276020831   -0.0026212191325235617
-0.001274907341312647   -0.05384228953172198   -0.0026952241435313196
0.005568133643948092   -0.041742974454739665   -0.002626539922026619
-0.0004834393409243298   -0.04181086903826668   -0.0025806617700796443
-0.001274907341312647   -0.05384228953172198   -0.0026952241435313196
0.004707791426182713   -0.05373254456449643   -0.0026992473445958762
0.005568133643948092   -0.041742974454739665   -0.002626539922026619
0.004773071113110934   -0.05371818816516071   -0.0026240468634409326
-0.0004834393409243298   -0.04181086903826668   -0.0025806617700796443
0.005595937423207134   -0.04171945758442386   -0.0025959092024140803
0.004773071113110934   -0.05371818816516071   -0.0026240468634409326
0.005568133643948092   -0.041742974454739665   -0.002626539922026619
-0.0004834393409243298   -0.04181086903826668   -0.0025806617700796443
0.004773071113110934   -0.05371818816516071   -0.0026240468634409326
-0.0012225133173324177   -0.053864412877557236   -0.00263957675375997
-0.001274907341312647   -0.05384228953172198   -0.0026952241435313196
-0.0004834393409243298   -0.04181086903826668   -0.0025806617700796443
0.004773071113110934   -0.05371818816516071   -0.0026240468634409326
-0.001274907341312647   -0.05384228953172198   -0.0026952241435313196
0.005568133643948092   -0.041742974454739665   -0.002626539922026619
-0.0004834393409243298   -0.04181086903826668   -0.0025806617700796443
-0.0012225133173324177   -0.053864412877557236   -0.00263957675375997
0.005595937423207134   -0.04171945758442386   -0.0025959092024140803
-0.000462780421820618   -0.04182128465589179   -0.002552264628587669
-0.0012225133173324177   -0.053864412877557236   -0.00263957675375997
0.004773071113110934   -0.05371818816516071   -0.0026240468634409326
0.005595937423207134   -0.04171945758442386   -0.0025959092024140803
0.0048080445223771424   -0.05371012286929179   -0.002560171209169056
-0.000462780421820618   -0.04182128465589179   -0.002552264628587669
0.005601462168180271   -0.04168484667438711   -0.002576440720702103
0.0048080445223771424   -0.05371012286929179   -0.002560171209169056
0.005595937423207134   -0.04171945758442386   -0.0025959092024140803
-0.000462780421820618   -0.04182128465589179   -0.002552264628587669
0.0048080445223771424   -0.05371012286929179   -0.002560171209169056
-0.0011780542486523242   -0.053897239266715996   -0.002596505895982467
-0.0012225133173324177   -0.053864412877557236   -0.00263957675375997
-0.000462780421820618   -0.04182128465589179   -0.002552264628587669
0.0048080445223771424   -0.05371012286929179   -0.002560171209169056
-0.0012225133173324177   -0.053864412877557236   -0.00263957675375997
0.005595937423207134   -0.04171945758442386   -0.0025959092024140803
0.00552649755739798   -0.04176312237453885   -0.0026685669861111865
0.00463713215952599   -0.053760156241670264   -0.002786563621233176
0.012103080014839113   -0.04175021270190295   -0.002734622611903495
0.005568133643948092   -0.041742974454739665   -0.002626539922026619
0.00463713215952599   -0.053760156241670264   -0.002786563621233176
0.01102654274169253   -0.05364221293407151   -0.0028852581331663225
0.012103080014839113   -0.04175021270190295   -0.002734622611903495
0.011211028212815024   -0.0535787647435371   -0.002770673763047103
0.005568133643948092   -0.041742974454739665   -0.002626539922026619
0.012184681315478172   -0.041696685742801366   -0.0027002472655787567
0.011211028212815024   -0.0535787647435371   -0.002770673763047103
0.012103080014839113   -0.04175021270190295   -0.002734622611903495
0.005568133643948092   -0.041742974454739665   -0.002626539922026619
0.011211028212815024   -0.0535787647435371   -0.002770673763047103
0.004707791426182713   -0.05373254456449643   -0.0026992473445958762
0.00463713215952599   -0.053760156241670264   -0.002786563621233176
0.005568133643948092   -0.041742974454739665   -0.002626539922026619
0.011211028212815024   -0.0535787647435371   -0.002770673763047103
0.00463713215952599   -0.053760156241670264   -0.002786563621233176
0.012103080014839113   -0.04175021270190295   -0.002734622611903495
0.005568133643948092   -0.041742974454739665   -0.002626539922026619
0.004707791426182713   -0.05373254456449643   -0.0026992473445958762
0.012184681315478172   -0.041696685742801366   -0.0027002472655787567
0.005595937423207134   -0.04171945758442386   -0.0025959092024140803
0.004707791426182713   -0.05373254456449643   -0.0026992473445958762
0.011211028212815024   -0.0535787647435371   -0.002770673763047103
0.012184681315478172   -0.041696685742801366   -0.0027002472655787567
0.011337740234505532   -0.05354799911447265   -0.002673341754521646
0.005595937423207134   -0.04171945758442386   -0.0025959092024140803
0.012227711436318728   -0.0416543920227513   -0.002683185932070878
0.011337740234505532   -0.05354799911447265   -0.002673341754521646
0.012184681315478172   -0.041696685742801366   -0.0027002472655787567
0.005595937423207134   -0.04171945758442386   -0.0025959092024140803
0.011337740234505532   -0.05354799911447265   -0.002673341754521646
0.004773071113110934   -0.05371818816516071   -0.0026240468634409326
0.004707791426182713   -0.05373254456449643   -0.0026992473445958762
0.005595937423207134   -0.04171945758442386   -0.0025959092024140803
0.011337740234505532   -0.05354799911447265   -0.002673341754521646
0.004707791426182713   -0.05373254456449643   -0.0026992473445958762
0.012184681315478172   -0.041696685742801366   -0.0027002472655787567
0.005595937423207134   -0.04171945758442386   -0.0025959092024140803
0.004773071113110934   -0.05371818816516071   -0.0026240468634409326
0.012227711436318728   -0.0416543920227513   -0.002683185932070878
0.005601462168180271   -0.04168484667438711   -0.002576440720702103
0.004773071113110934   -0.05371818816516071   -0.0026240468634409326
0.011337740234505532   -0.05354799911447265   -0.002673341754521646
0.012227711436318728   -0.0416543920227513   -0.002683185932070878
0.011450180793062774   -0.053514485181271415   -0.0025939777815895625
0.005601462168180271   -0.04168484667438711   -0.002576440720702103
0.012237837792076153   -0.04158646153296542   -0.0026837335451019313
0.011450180793062774   -0.053514485181271415   -0.0025939777815895625
0.012227711436318728   -0.0416543920227513   -0.002683185932070878
0.005601462168180271   -0.04168484667438711   -0.002576440720702103
0.011450180793062774   -0.053514485181271415   -0.0025939777815895625
0.0048080445223771424   -0.05371012286929179   -0.002560171209169056
0.004773071113110934   -0.05371818816516071   -0.0026240468634409326
0.005601462168180271   -0.04168484667438711   -0.002576440720702103
0.011450180793062774   -0.053514485181271415   -0.0025939777815895625
0.004773071113110934   -0.05371818816516071   -0.0026240468634409326
0.012227711436318728   -0.0416543920227513   -0.002683185932070878
-0.019593311208063204   -0.05382403085255517   -0.00310405538846126
-0.019068995412258614   -0.06521139699937147   -0.002967619809718478
-0.013084876140136311   -0.05385516429071561   -0.00292796485710366
-0.019570961801035534   -0.0539437344726571   -0.0030983792339340276
-0.019068995412258614   -0.06521139699937147   -0.002967619809718478
-0.013031250657282981   -0.06534258932980815   -0.0028615233847285263
-0.013084876140136311   -0.05385516429071561   -0.00292796485710366
-0.012954888179322029   -0.06540939778722121   -0.002877546083974382
-0.019570961801035534   -0.0539437344726571   -0.0030983792339340276
-0.01304991779755379   -0.053944636652516   -0.0029009495328147132
-0.012954888179322029   -0.06540939778722121   -0.002877546083974382
-0.013084876140136311   -0.05385516429071561   -0.00292796485710366
-0.019570961801035534   -0.0539437344726571   -0.0030983792339340276
-0.012954888179322029   -0.06540939778722121   -0.002877546083974382
-0.018931156521681747   -0.06530159968493203   -0.0030432182204334097
-0.019068995412258614   -0.06521139699937147   -0.002967619809718478
-0.019570961801035534   -0.0539437344726571   -0.0030983792339340276
-0.012954888179322029   -0.06540939778722121   -0.002877546083974382
-0.019068995412258614   -0.06521139699937147   -0.002967619809718478
-0.013084876140136311   -0.05385516429071561   -0.00292796485710366
-0.019570961801035534   -0.0539437344726571   -0.0030983792339340276
-0.018931156521681747   -0.06530159968493203   -0.0030432182204334097
-0.01304991779755379   -0.053944636652516   -0.0029009495328147132
-0.019511237049206976   -0.054059936540015716   -0.003110923531179719
-0.018931156521681747   -0.06530159968493203   -0.0030432182204334097
-0.012954888179322029   -0.06540939778722121   -0.002877546083974382
-0.01304991779755379   -0.053944636652516   -0.0029009495328147132
-0.012851481518736914   -0.06550448274751094   -0.002906074561317905
-0.019511237049206976   -0.054059936540015716   -0.003110923531179719
-0.012995309989390986   -0.054043747778396246   -0.0028861264679104115
-0.012851481518736914   -0.06550448274751094   -0.002906074561317905
-0.01304991779755379   -0.053944636652516   -0.0029009495328147132
-0.019511237049206976   -0.054059936540015716   -0.003110923531179719
-0.012851481518736914   -0.06550448274751094   -0.002906074561317905
-0.018773780790494757   -0.0654122686819228   -0.003138485590768083
-0.018931156521681747   -0.06530159968493203   -0.0030432182204334097
-0.019511237049206976   -0.054059936540015716   -0.003110923531179719
-0.012851481518736914   -0.06550448274751094   -0.002906074561317905
-0.018931156521681747   -0.06530159968493203   -0.0030432182204334097
-0.01304991779755379   -0.053944636652516   -0.0029009495328147132
-0.019511237049206976   -0.054059936540015716   -0.003110923531179719
-0.018773780790494757   -0.0654122686819228   -0.003138485590768083
-0.012995309989390986   -0.054043747778396246   -0.0028861264679104115
-0.01941421196040396   -0.054209599702422055   -0.0031426075299858555
-0.018773780790494757   -0.0654122686819228   -0.003138485590768083
-0.012851481518736914   -0.06550448274751094   -0.002906074561317905
-0.012995309989390986   -0.054043747778396246   -0.0028861264679104115
-0.012740518402601757   -0.0656336430955938   -0.002947479004442015
-0.01941421196040396   -0.054209599702422055   -0.0031426075299858555
-0.012924542717297647   -0.054159320545988696   -0.0028832994435214
-0.012740518402601757   -0.0656336430955938   -0.002947479004442015
-0.012995309989390986   -0.054043747778396246   -0.0028861264679104115
-0.01941421196040396   -0.054209599702422055   -0.0031426075299858555
-0.012740518402601757   -0.0656336430955938   -0.002947479004442015
-0.018559455126467714   -0.06558070909510971   -0.003253782810093032
-0.018773780790494757   -0.0654122686819228   -0.003138485590768083
-0.01941421196040396   -0.054209599702422055   -0.0031426075299858555
-0.012740518402601757   -0.0656336430955938   -0.002947479004442015
-0.018773780790494757   -0.0654122686819228   -0.003138485590768083
-0.012995309989390986   -0.054043747778396246   -0.0028861264679104115
-0.013084876140136311   -0.05385516429071561   -0.00292796485710366
-0.013031250657282981   -0.06534258932980815   -0.0028615233847285263
-0.007123246323103115   -0.05386194279404334   -0.002810917389712589
-0.01304991779755379   -0.053944636652516   -0.0029009495328147132
-0.013031250657282981   -0.06534258932980815   -0.0028615233847285263
-0.0076193027142584325   -0.06539453375795515   -0.0027936086452870976
-0.007123246323103115   -0.05386194279404334   -0.002810917389712589
-0.007536135719706865   -0.06542928176715955   -0.002758712498059903
-0.01304991779755379   -0.053944636652516   -0.0029009495328147132
-0.00707641635886181   -0.05391327780095935   -0.0027629898323769985
-0.007536135719706865   -0.06542928176715955   -0.002758712498059903
-0.007123246323103115   -0.05386194279404334   -0.002810917389712589
-0.01304991779755379   -0.053944636652516   -0.0029009495328147132
-0.007536135719706865   -0.06542928176715955   -0.002758712498059903
-0.012954888179322029   -0.06540939778722121   -0.002877546083974382
-0.013031250657282981   -0.06534258932980815   -0.0028615233847285263
-0.01304991779755379   -0.053944636652516   -0.0029009495328147132
-0.007536135719706865   -0.06542928176715955   -0.002758712498059903
-0.013031250657282981   -0.06534258932980815   -0.0028615233847285263
-0.007123246323103115   -0.05386194279404334   -0.002810917389712589
-0.01304991779755379   -0.053944636652516   -0.0029009495328147132
-0.012954888179322029   -0.06540939778722121   -0.002877546083974382
-0.00707641635886181   -0.05391327780095935   -0.0027629898323769985
-0.012995309989390986   -0.054043747778396246   -0.0028861264679104115
-0.012954888179322029   -0.06540939778722121   -0.002877546083974382
-0.007536135719706865   -0.06542928176715955   -0.002758712498059903
-0.00707641635886181   -0.05391327780095935   -0.0027629898323769985
-0.007446667953157154   -0.06549121989932993   -0.00273617001758648
-0.012995309989390986   -0.054043747778396246   -0.0028861264679104115
-0.007023492099217956   -0.053975678082891415   -0.0027273012148298368
-0.007446667953157154   -0.06549121989932993   -0.00273617001758648
-0.00707641635886181   -0.05391327780095935   -0.0027629898323769985
-0.012995309989390986   -0.054043747778396246   -0.0028861264679104115
-0.007446667953157154   -0.06549121989932993   -0.00273617001758648
-0.012851481518736914   -0.06550448274751094   -0.002906074561317905
-0.012954888179322029   -0.06540939778722121   -0.002877546083974382
-0.012995309989390986   -0.054043747778396246   -0.0028861264679104115
-0.007446667953157154   -0.06549121989932993   -0.00273617001758648
-0.012954888179322029   -0.06540939778722121   -0.002877546083974382
-0.00707641635886181   -0.05391327780095935   -0.0027629898323769985
-0.012995309989390986   -0.054043747778396246   -0.0028861264679104115
-0.012851481518736914   -0.06550448274751094   -0.002906074561317905
-0.007023492099217956   -0.053975678082891415   -0.0027273012148298368
-0.012924542717297647   -0.054159320545988696   -0.0028832994435214
-0.012851481518736914   -0.06550448274751094   -0.002906074561317905
-0.007446667953157154   -0.06549121989932993   -0.00273617001758648
-0.007023492099217956   -0.053975678082891415   -0.0027273012148298368
-0.007354705487832176   -0.0655811327177528   -0.002726584562972511
-0.012924542717297647   -0.054159320545988696   -0.0028832994435214
-0.00696645247810545   -0.05404933813500461   -0.0027042476916563697
-0.007354705487832176   -0.0655811327177528   -0.002726584562972511
-0.007023492099217956   -0.053975678082891415   -0.0027273012148298368
-0.012924542717297647   -0.054159320545988696   -0.0028832994435214
-0.007354705487832176   -0.0655811327177528   -0.002726584562972511
-0.012740518402601757   -0.0656336430955938   -0.002947479004442015
-0.012851481518736914   -0.06550448274751094   -0.002906074561317905
-0.012924542717297647   -0.054159320545988696   -0.0028832994435214
-0.007354705487832176   -0.0655811327177528   -0.002726584562972511
-0.012851481518736914   -0.06550448274751094   -0.002906074561317905
-0.007023492099217956   -0.053975678082891415   -0.0027273012148298368
-0.007123246323103115   -0.05386194279404334   -0.002810917389712589
-0.0076193027142584325   -0.06539453375795515   -0.0027936086452870976
-0.0013302970056763808   -0.05383036370683635   -0.0027630233498270847
-0.00707641635886181   -0.05391327780095935   -0.0027629898323769985
-0.0076193027142584325   -0.06539453375795515   -0.0027936086452870976
-0.0023712959424177804   -0.06535472280432883   -0.002782308567148006
-0.0013302970056763808   -0.05383036370683635   -0.0027630233498270847
-0.002279307021974124   -0.06535555894113337   -0.002698240149115426
-0.00707641635886181   -0.05391327780095935   -0.0027629898323769985
-0.001274907341312647   -0.05384228953172198   -0.0026952241435313196
-0.002279307021974124   -0.06535555894113337   -0.002698240149115426
-0.0013302970056763808   -0.05383036370683635   -0.0027630233498270847
-0.00707641635886181   -0.05391327780095935   -0.0027629898323769985
-0.002279307021974124   -0.06535555894113337   -0.002698240149115426
-0.007536135719706865   -0.06542928176715955   -0.002758712498059903
-0.0076193027142584325   -0.06539453375795515   -0.0027936086452870976
-0.00707641635886181   -0.05391327780095935   -0.0027629898323769985
-0.002279307021974124   -0.06535555894113337   -0.002698240149115426
-0.0076193027142584325   -0.06539453375795515   -0.0027936086452870976
-0.0013302970056763808   -0.05383036370683635   -0.0027630233498270847
-0.00707641635886181   -0.05391327780095935   -0.0027629898323769985
-0.007536135719706865   -0.06542928176715955   -0.002758712498059903
-0.001274907341312647   -0.05384228953172198   -0.0026952241435313196
-0.007023492099217956   -0.053975678082891415   -0.0027273012148298368
-0.007536135719706865   -0.06542928176715955   -0.002758712498059903
-0.002279307021974124   -0.06535555894113337   -0.002698240149115426
-0.001274907341312647   -0.05384228953172198   -0.0026952241435313196
-0.002189731376864033   -0.06538158977107746   -0.0026265554190583406
-0.007023492099217956   -0.053975678082891415   -0.0027273012148298368
-0.0012225133173324177   -0.053864412877557236   -0.00263957675375997
-0.002189731376864033   -0.06538158977107746   -0.0026265554190583406
-0.001274907341312647   -0.05384228953172198   -0.0026952241435313196
-0.007023492099217956   -0.053975678082891415   -0.0027273012148298368
-0.002189731376864033   -0.06538158977107746   -0.0026265554190583406
-0.007446667953157154   -0.06549121989932993   -0.00273617001758648
-0.007536135719706865   -0.06542928176715955   -0.002758712498059903
-0.007023492099217956   -0.053975678082891415   -0.0027273012148298368
-0.002189731376864033   -0.06538158977107746   -0.0026265554190583406
-0.007536135719706865   -0.06542928176715955   -0.002758712498059903
-0.001274907341312647   -0.05384228953172198   -0.0026952241435313196
-0.007023492099217956   -0.053975678082891415   -0.0027273012148298368
-0.007446667953157154   -0.06549121989932993   -0.00273617001758648
-0.0012225133173324177   -0.053864412877557236   -0.00263957675375997
-0.00696645247810545   -0.05404933813500461   -0.0027042476916563697
-0.007446667953157154   -0.06549121989932993   -0.00273617001758648
-0.002189731376864033   -0.06538158977107746   -0.0026265554190583406
-0.0012225133173324177   -0.053864412877557236   -0.00263957675375997
-0.00210981633521355   -0.0654349750923254   -0.0025676851327474963
-0.00696645247810545   -0.05404933813500461   -0.0027042476916563697
-0.0011780542486523242   -0.053897239266715996   -0.002596505895982467
-0.00210981633521355   -0.0654349750923254   -0.0025676851327474963
-0.0012225133173324177   -0.053864412877557236   -0.00263957675375997
-0.00696645247810545   -0.05404933813500461   -0.0027042476916563697
-0.00210981633521355   -0.0654349750923254   -0.0025676851327474963
-0.007354705487832176   -0.0655811327177528   -0.002726584562972511
-0.007446667953157154   -0.06549121989932993   -0.00273617001758648
-0.00696645247810545   -0.05404933813500461   -0.0027042476916563697
-0.00210981633521355   -0.0654349750923254   -0.0025676851327474963
-0.007446667953157154   -0.06549121989932993   -0.00273617001758648
-0.0012225133173324177   -0.053864412877557236   -0.00263957675375997
-0.0013302970056763808   -0.05383036370683635   -0.0027630233498270847
-0.0023712959424177804   -0.06535472280432883   -0.002782308567148006
0.00463713215952599   -0.053760156241670264   -0.002786563621233176
-0.001274907341312647   -0.05384228953172198   -0.0026952241435313196
-0.0023712959424177804   -0.06535472280432883   -0.002782308567148006
0.003057803631315928   -0.06522587718576696   -0.0028320684791682885
0.00463713215952599   -0.053760156241670264   -0.002786563621233176
0.0031702712657867864   -0.06519051638890667   -0.002699294286541739
-0.001274907341312647   -0.05384228953172198   -0.0026952241435313196
0.004707791426182713   -0.05373254456449643   -0.0026992473445958762
0.0031702712657867864   -0.06519051638890667   -0.002699294286541739
0.00463713215952599   -0.053760156241670264   -0.002786563621233176
-0.001274907341312647   -0.05384228953172198   -0.0026952241435313196
0.0031702712657867864   -0.06519051638890667   -0.002699294286541739
-0.002279307021974124   -0.06535555894113337   -0.002698240149115426
-0.0023712959424177804   -0.06535472280432883   -0.002782308567148006
-0.001274907341312647   -0.05384228953172198   -0.0026952241435313196
0.0031702712657867864   -0.06519051638890667   -0.002699294286541739
-0.0023712959424177804   -0.06535472280432883   -0.002782308567148006
0.00463713215952599   -0.053760156241670264   -0.002786563621233176
-0.001274907341312647   -0.05384228953172198   -0.0026952241435313196
-0.002279307021974124   -0.06535555894113337   -0.002698240149115426
0.004707791426182713   -0.05373254456449643   -0.0026992473445958762
-0.0012225133173324177   -0.053864412877557236   -0.00263957675375997
-0.002279307021974124   -0.06535555894113337   -0.002698240149115426
0.0031702712657867864   -0.06519051638890667   -0.002699294286541739
0.004707791426182713   -0.05373254456449643   -0.0026992473445958762
0.003285580667673418   -0.06518393794770705   -0.0025796978368591503
-0.0012225133173324177   -0.053864412877557236   -0.00263957675375997
0.004773071113110934   -0.05371818816516071   -0.0026240468634409326
0.003285580667673418   -0.06518393794770705   -0.0025796978368591503
0.004707791426182713   -0.05373254456449643   -0.0026992473445958762
-0.0012225133173324177   -0.053864412877557236   -0.00263957675375997
0.003285580667673418   -0.06518393794770705   -0.0025796978368591503
-0.002189731376864033   -0.06538158977107746   -0.0026265554190583406
-0.002279307021974124   -0.06535555894113337   -0.002698240149115426
-0.0012225133173324177   -0.053864412877557236   -0.00263957675375997
0.003285580667673418   -0.06518393794770705   -0.0025796978368591503
-0.002279307021974124   -0.06535555894113337   -0.002698240149115426
0.004707791426182713   -0.05373254456449643   -0.0026992473445958762
-0.0012225133173324177   -0.053864412877557236   -0.00263957675375997
-0.002189731376864033   -0.06538158977107746   -0.0026265554190583406
0.004773071113110934   -0.05371818816516071   -0.0026240468634409326
-0.0011780542486523242   -0.053897239266715996   -0.002596505895982467
-0.002189731376864033   -0.06538158977107746   -0.0026265554190583406
0.003285580667673418   -0.06518393794770705   -0.0025796978368591503
0.004773071113110934   -0.05371818816516071   -0.0026240468634409326
0.003362242294098292   -0.06520082832261999   -0.002471541652789092
-0.0011780542486523242   -0.053897239266715996   -0.002596505895982467
0.0048080445223771424   -0.05371012286929179   -0.002560171209169056
0.003362242294098292   -0.06520082832261999   -0.002471541652789092
0.004773071113110934   -0.05371818816516071   -0.0026240468634409326
-0.0011780542486523242   -0.053897239266715996   -0.002596505895982467
0.003362242294098292   -0.06520082832261999   -0.002471541652789092
-0.00210981633521355   -0.0654349750923254   -0.0025676851327474963
-0.002189731376864033   -0.06538158977107746   -0.0026265554190583406
-0.0011780542486523242   -0.053897239266715996   -0.002596505895982467
0.003362242294098292   -0.06520082832261999   -0.002471541652789092
-0.002189731376864033   -0.06538158977107746   -0.0026265554190583406
0.004773071113110934   -0.05371818816516071   -0.0026240468634409326
0.00463713215952599   -0.053760156241670264   -0.002786563621233176
0.003057803631315928   -0.06522587718576696   -0.0028320684791682885
0.01102654274169253   -0.05364221293407151   -0.0028852581331663225
0.004707791426182713   -0.05373254456449643   -0.0026992473445958762
0.003057803631315928   -0.06522587718576696   -0.0028320684791682885
0.008833820165617758   -0.06500437462049814   -0.0029606299224150634
0.01102654274169253   -0.05364221293407151   -0.0028852581331663225
0.009133028446316362   -0.06493144195437726   -0.002767452476445322
0.004707791426182713   -0.05373254456449643   -0.0026992473445958762
0.011211028212815024   -0.0535787647435371   -0.002770673763047103
0.009133028446316362   -0.06493144195437726   -0.002767452476445322
0.01102654274169253   -0.05364221293407151   -0.0028852581331663225
0.004707791426182713   -0.05373254456449643   -0.0026992473445958762
0.009133028446316362   -0.06493144195437726   -0.002767452476445322
0.0031702712657867864   -0.06519051638890667   -0.002699294286541739
0.003057803631315928   -0.06522587718576696   -0.0028320684791682885
0.004707791426182713   -0.05373254456449643   -0.0026992473445958762
0.009133028446316362   -0.06493144195437726   -0.002767452476445322
0.003057803631315928   -0.06522587718576696   -0.0028320684791682885
0.01102654274169253   -0.05364221293407151   -0.0028852581331663225
0.004707791426182713   -0.05373254456449643   -0.0026992473445958762
0.0031702712657867864   -0.06519051638890667   -0.002699294286541739
0.011211028212815024   -0.0535787647435371   -0.002770673763047103
0.004773071113110934   -0.05371818816516071   -0.0026240468634409326
0.0031702712657867864   -0.06519051638890667   -0.002699294286541739
0.009133028446316362   -0.06493144195437726   -0.002767452476445322
0.011211028212815024   -0.0535787647435371   -0.002770673763047103
0.009354561003815291   -0.0649114037930209   -0.0025917976861389567
0.004773071113110934   -0.05371818816516071   -0.0026240468634409326
0.011337740234505532   -0.05354799911447265   -0.002673341754521646
0.009354561003815291   -0.0649114037930209   -0.0025917976861389567
0.011211028212815024   -0.0535787647435371   -0.002770673763047103
0.004773071113110934   -0.05371818816516071   -0.0026240468634409326
0.009354561003815291   -0.0649114037930209   -0.0025917976861389567
0.003285580667673418   -0.06518393794770705   -0.0025796978368591503
0.0031702712657867864   -0.06519051638890667   -0.002699294286541739
0.004773071113110934   -0.05371818816516071   -0.0026240468634409326
0.009354561003815291   -0.0649114037930209   -0.0025917976861389567
0.0031702712657867864   -0.06519051638890667   -0.002699294286541739
0.011211028212815024   -0.0535787647435371   -0.002770673763047103
0.004773071113110934   -0.05371818816516071   -0.0026240468634409326
0.003285580667673418   -0.06518393794770705   -0.0025796978368591503
0.011337740234505532   -0.05354799911447265   -0.002673341754521646
0.0048080445223771424   -0.05371012286929179   -0.002560171209169056
0.003285580667673418   -0.06518393794770705   -0.0025796978368591503
0.009354561003815291   -0.0649114037930209   -0.0025917976861389567
0.011337740234505532   -0.05354799911447265   -0.002673341754521646
0.009579100326287176   -0.06491120057824544   -0.002434462572340377
0.0048080445223771424   -0.05371012286929179   -0.002560171209169056
0.011450180793062774   -0.053514485181271415   -0.0025939777815895625
0.009579100326287176   -0.06491120057824544   -0.002434462572340377
0.011337740234505532   -0.05354799911447265   -0.002673341754521646
0.0048080445223771424   -0.05371012286929179   -0.002560171209169056
0.009579100326287176   -0.06491120057824544   -0.002434462572340377
0.003362242294098292   -0.06520082832261999   -0.002471541652789092
0.003285580667673418   -0.06518393794770705   -0.0025796978368591503
0.0048080445223771424   -0.05371012286929179   -0.002560171209169056
0.009579100326287176   -0.06491120057824544   -0.002434462572340377
0.003285580667673418   -0.06518393794770705   -0.0025796978368591503
0.011337740234505532   -0.05354799911447265   -0.002673341754521646
-0.019068995412258614   -0.06521139699937147   -0.002967619809718478
-0.01740259373909546   -0.07528846568716635   -0.002767299308518975
-0.013031250657282981   -0.06534258932980815   -0.0028615233847285263
-0.018931156521681747   -0.06530159968493203   -0.0030432182204334097
-0.01740259373909546   -0.07528846568716635   -0.002767299308518975
-0.012320783845111866   -0.07552524560055858   -0.002750163859028855
-0.013031250657282981   -0.06534258932980815   -0.0028615233847285263
-0.01219391140510687   -0.07555949999350643   -0.0028061391871369596
-0.018931156521681747   -0.06530159968493203   -0.0030432182204334097
-0.012954888179322029   -0.06540939778722121   -0.002877546083974382
-0.01219391140510687   -0.07555949999350643   -0.0028061391871369596
-0.013031250657282981   -0.06534258932980815   -0.0028615233847285263
-0.018931156521681747   -0.06530159968493203   -0.0030432182204334097
-0.01219391140510687   -0.07555949999350643   -0.0028061391871369596
-0.017138415674104655   -0.07533930818721404   -0.002923967450279249
-0.01740259373909546   -0.07528846568716635   -0.002767299308518975
-0.018931156521681747   -0.06530159968493203   -0.0030432182204334097
-0.01219391140510687   -0.07555949999350643   -0.0028061391871369596
-0.01740259373909546   -0.07528846568716635   -0.002767299308518975
-0.013031250657282981   -0.06534258932980815   -0.0028615233847285263
-0.018931156521681747   -0.06530159968493203   -0.0030432182204334097
-0.017138415674104655   -0.07533930818721404   -0.002923967450279249
-0.012954888179322029   -0.06540939778722121   -0.002877546083974382
-0.018773780790494757   -0.0654122686819228   -0.003138485590768083
-0.017138415674104655   -0.07533930818721404   -0.002923967450279249
-0.01219391140510687   -0.07555949999350643   -0.0028061391871369596
-0.012954888179322029   -0.06540939778722121   -0.002877546083974382
-0.012034559679658042   -0.075641531495441   -0.002874810713015597
-0.018773780790494757   -0.0654122686819228   -0.003138485590768083
-0.012851481518736914   -0.06550448274751094   -0.002906074561317905
-0.012034559679658042   -0.075641531495441   -0.002874810713015597
-0.012954888179322029   -0.06540939778722121   -0.002877546083974382
-0.018773780790494757   -0.0654122686819228   -0.003138485590768083
-0.012034559679658042   -0.075641531495441   -0.002874810713015597
-0.016874871000121642   -0.07543557635426469   -0.003101309266535913
-0.017138415674104655   -0.07533930818721404   -0.002923967450279249
-0.018773780790494757   -0.0654122686819228   -0.003138485590768083
-0.012034559679658042   -0.075641531495441   -0.002874810713015597
-0.017138415674104655   -0.07533930818721404   -0.002923967450279249
-0.012954888179322029   -0.06540939778722121   -0.002877546083974382
-0.018773780790494757   -0.0654122686819228   -0.003138485590768083
-0.016874871000121642   -0.07543557635426469   -0.003101309266535913
-0.012851481518736914   -0.06550448274751094   -0.002906074561317905
-0.018559455126467714   -0.06558070909510971   -0.003253782810093032
-0.016874871000121642   -0.07543557635426469   -0.003101309266535913
-0.012034559679658042   -0.075641531495441   -0.002874810713015597
-0.012851481518736914   -0.06550448274751094   -0.002906074561317905
-0.011877323110473424   -0.0757759987234087   -0.0029560593439308656
-0.018559455126467714   -0.06558070909510971   -0.003253782810093032
-0.012740518402601757   -0.0656336430955938   -0.002947479004442015
-0.011877323110473424   -0.0757759987234087   -0.0029560593439308656
-0.012851481518736914   -0.06550448274751094   -0.002906074561317905
-0.018559455126467714   -0.06558070909510971   -0.003253782810093032
-0.011877323110473424   -0.0757759987234087   -0.0029560593439308656
-0.016537276572625593   -0.07561508748031812   -0.00329894076973197
-0.016874871000121642   -0.07543557635426469   -0.003101309266535913
-0.018559455126467714   -0.06558070909510971   -0.003253782810093032
-0.011877323110473424   -0.0757759987234087   -0.0029560593439308656
-0.016874871000121642   -0.07543557635426469   -0.003101309266535913
-0.012851481518736914   -0.06550448274751094   -0.002906074561317905
-0.013031250657282981   -0.06534258932980815   -0.0028615233847285263
-0.012320783845111866   -0.07552524560055858   -0.002750163859028855
-0.0076193027142584325   -0.06539453375795515   -0.0027936086452870976
-0.012954888179322029   -0.06540939778722121   -0.002877546083974382
-0.012320783845111866   -0.07552524560055858   -0.002750163859028855
-0.00792103768741923   -0.07563623198458197   -0.002743341991398634
-0.0076193027142584325   -0.06539453375795515   -0.0027936086452870976
-0.007790854471224106   -0.07564747651375149   -0.0027183116527056115
-0.012954888179322029   -0.06540939778722121   -0.002877546083974382
-0.007536135719706865   -0.06542928176715955   -0.002758712498059903
-0.007790854471224106   -0.07564747651375149   -0.0027183116527056115
-0.0076193027142584325   -0.06539453375795515   -0.0027936086452870976
-0.012954888179322029   -0.06540939778722121   -0.002877546083974382
-0.007790854471224106   -0.07564747651375149   -0.0027183116527056115
-0.01219391140510687   -0.07555949999350643   -0.0028061391871369596
-0.012320783845111866   -0.07552524560055858   -0.002750163859028855
-0.012954888179322029   -0.06540939778722121   -0.002877546083974382
-0.007790854471224106   -0.07564747651375149   -0.0027183116527056115
-0.012320783845111866   -0.07552524560055858   -0.002750163859028855
-0.0076193027142584325   -0.06539453375795515   -0.0027936086452870976
-0.012954888179322029   -0.06540939778722121   -0.002877546083974382
-0.01219391140510687   -0.07555949999350643   -0.0028061391871369596
-0.007536135719706865   -0.06542928176715955   -0.002758712498059903
-0.012851481518736914   -0.06550448274751094   -0.002906074561317905
-0.01219391140510687   -0.07555949999350643   -0.0028061391871369596
-0.007790854471224106   -0.07564747651375149   -0.0027183116527056115
-0.007536135719706865   -0.06542928176715955   -0.002758712498059903
-0.0076564951690011145   -0.07570137878780894   -0.0027056016919239944
-0.012851481518736914   -0.06550448274751094   -0.002906074561317905
-0.007446667953157154   -0.06549121989932993   -0.00273617001758648
-0.0076564951690011145   -0.07570137878780894   -0.0027056016919239944
-0.007536135719706865   -0.06542928176715955   -0.002758712498059903
-0.012851481518736914   -0.06550448274751094   -0.002906074561317905
-0.0076564951690011145   -0.07570137878780894   -0.0027056016919239944
-0.012034559679658042   -0.075641531495441   -0.002874810713015597
-0.01219391140510687   -0.07555949999350643   -0.0028061391871369596
-0.012851481518736914   -0.06550448274751094   -0.002906074561317905
-0.0076564951690011145   -0.07570137878780894   -0.0027056016919239944
-0.01219391140510687   -0.07555949999350643   -0.0028061391871369596
-0.007536135719706865   -0.06542928176715955   -0.002758712498059903
-0.012851481518736914   -0.06550448274751094   -0.002906074561317905
-0.012034559679658042   -0.075641531495441   -0.002874810713015597
-0.007446667953157154   -0.06549121989932993   -0.00273617001758648
-0.012740518402601757   -0.0656336430955938   -0.002947479004442015
-0.012034559679658042   -0.075641531495441   -0.002874810713015597
-0.0076564951690011145   -0.07570137878780894   -0.0027056016919239944
-0.007446667953157154   -0.06549121989932993   -0.00273617001758648
-0.007522358495218963   -0.07580045948831045   -0.0027050519253241693
-0.012740518402601757   -0.0656336430955938   -0.002947479004442015
-0.007354705487832176   -0.0655811327177528   -0.002726584562972511
-0.007522358495218963   -0.07580045948831045   -0.0027050519253241693
-0.007446667953157154   -0.06549121989932993   -0.00273617001758648
-0.012740518402601757   -0.0656336430955938   -0.002947479004442015
-0.007522358495218963   -0.07580045948831045   -0.0027050519253241693
-0.011877323110473424   -0.0757759987234087   -0.0029560593439308656
-0.012034559679658042   -0.075641531495441   -0.002874810713015597
-0.012740518402601757   -0.0656336430955938   -0.002947479004442015
-0.007522358495218963   -0.07580045948831045   -0.0027050519253241693
-0.012034559679658042   -0.075641531495441   -0.002874810713015597
-0.007446667953157154   -0.06549121989932993   -0.00273617001758648
-0.0076193027142584325   -0.06539453375795515   -0.0027936086452870976
-0.00792103768741923   -0.07563623198458197   -0.002743341991398634
-0.0023712959424177804   -0.06535472280432883   -0.002782308567148006
-0.007536135719706865   -0.06542928176715955   -0.002758712498059903
-0.00792103768741923   -0.07563623198458197   -0.002743341991398634
-0.0036674052683193176   -0.07561622969698545   -0.0027748458284070003
-0.0023712959424177804   -0.06535472280432883   -0.002782308567148006
-0.0035248077771119876   -0.07560163751483932   -0.0026716535414689924
-0.007536135719706865   -0.06542928176715955   -0.002758712498059903
-0.002279307021974124   -0.06535555894113337   -0.002698240149115426
-0.0035248077771119876   -0.07560163751483932   -0.0026716535414689924
-0.0023712959424177804   -0.06535472280432883   -0.002782308567148006
-0.007536135719706865   -0.06542928176715955   -0.002758712498059903
-0.0035248077771119876   -0.07560163751483932   -0.0026716535414689924
-0.007790854471224106   -0.07564747651375149   -0.0027183116527056115
-0.00792103768741923   -0.07563623198458197   -0.002743341991398634
-0.007536135719706865   -0.06542928176715955   -0.002758712498059903
-0.0035248077771119876   -0.07560163751483932   -0.0026716535414689924
-0.00792103768741923   -0.07563623198458197   -0.002743341991398634
-0.0023712959424177804   -0.06535472280432883   -0.002782308567148006
-0.007536135719706865   -0.06542928176715955   -0.002758712498059903
-0.007790854471224106   -0.07564747651375149   -0.0027183116527056115
-0.002279307021974124   -0.06535555894113337   -0.002698240149115426
-0.007446667953157154   -0.06549121989932993   -0.00273617001758648
-0.007790854471224106   -0.07564747651375149   -0.0027183116527056115
-0.0035248077771119876   -0.07560163751483932   -0.0026716535414689924
-0.002279307021974124   -0.06535555894113337   -0.002698240149115426
-0.0033864234897712365   -0.07562561035239133   -0.0025815938792602155
-0.007446667953157154   -0.06549121989932993   -0.00273617001758648
-0.002189731376864033   -0.06538158977107746   -0.0026265554190583406
-0.0033864234897712365   -0.07562561035239133   -0.0025815938792602155
-0.002279307021974124   -0.06535555894113337   -0.002698240149115426
-0.007446667953157154   -0.06549121989932993   -0.00273617001758648
-0.0033864234897712365   -0.07562561035239133   -0.0025815938792602155
-0.0076564951690011145   -0.07570137878780894   -0.0027056016919239944
-0.007790854471224106   -0.07564747651375149   -0.0027183116527056115
-0.007446667953157154   -0.06549121989932993   -0.00273617001758648
-0.0033864234897712365   -0.07562561035239133   -0.0025815938792602155
-0.007790854471224106   -0.07564747651375149   -0.0027183116527056115
-0.002279307021974124   -0.06535555894113337   -0.002698240149115426
-0.007446667953157154   -0.06549121989932993   -0.00273617001758648
-0.0076564951690011145   -0.07570137878780894   -0.0027056016919239944
-0.002189731376864033   -0.06538158977107746   -0.0026265554190583406
-0.007354705487832176   -0.0655811327177528   -0.002726584562972511
-0.0076564951690011145   -0.07570137878780894   -0.0027056016919239944
-0.0033864234897712365   -0.07562561035239133   -0.0025815938792602155
-0.002189731376864033   -0.06538158977107746   -0.0026265554190583406
-0.003261405908219853   -0.07569375807740185   -0.0025035283892580417
-0.007354705487832176   -0.0655811327177528   -0.002726584562972511
-0.00210981633521355   -0.0654349750923254   -0.0025676851327474963
-0.003261405908219853   -0.07569375807740185   -0.0025035283892580417
-0.002189731376864033   -0.06538158977107746   -0.0026265554190583406
-0.007354705487832176   -0.0655811327177528   -0.002726584562972511
-0.003261405908219853   -0.07569375807740185   -0.0025035283892580417
-0.007522358495218963   -0.07580045948831045   -0.0027050519253241693
-0.0076564951690011145   -0.07570137878780894   -0.0027056016919239944
-0.007354705487832176   -0.0655811327177528   -0.002726584562972511
-0.003261405908219853   -0.07569375807740185   -0.0025035283892580417
-0.0076564951690011145   -0.07570137878780894   -0.0027056016919239944
-0.002189731376864033   -0.06538158977107746   -0.0026265554190583406
-0.0023712959424177804   -0.06535472280432883   -0.002782308567148006
-0.0036674052683193176   -0.07561622969698545   -0.0027748458284070003
0.003057803631315928   -0.06522587718576696   -0.0028320684791682885
-0.002279307021974124   -0.06535555894113337   -0.002698240149115426
-0.0036674052683193176   -0.07561622969698545   -0.0027748458284070003
0.0007859262813685172   -0.07546055572399757   -0.002851614522628415
0.003057803631315928   -0.06522587718576696   -0.0028320684791682885
0.0009593813576806541   -0.07541314124956192   -0.0026705330318518936
-0.002279307021974124   -0.06535555894113337   -0.002698240149115426
0.0031702712657867864   -0.06519051638890667   -0.002699294286541739
0.0009593813576806541   -0.07541314124956192   -0.0026705330318518936
0.003057803631315928   -0.06522587718576696   -0.0028320684791682885
-0.002279307021974124   -0.06535555894113337   -0.002698240149115426
0.0009593813576806541   -0.07541314124956192   -0.0026705330318518936
-0.0035248077771119876   -0.07560163751483932   -0.0026716535414689924
-0.0036674052683193176   -0.07561622969698545   -0.0027748458284070003
-0.002279307021974124   -0.06535555894113337   -0.002698240149115426
0.0009593813576806541   -0.07541314124956192   -0.0026705330318518936
-0.0036674052683193176   -0.07561622969698545   -0.0027748458284070003
0.003057803631315928   -0.06522587718576696   -0.0028320684791682885
-0.002279307021974124   -0.06535555894113337   -0.002698240149115426
-0.0035248077771119876   -0.07560163751483932   -0.0026716535414689924
0.0031702712657867864   -0.06519051638890667   -0.002699294286541739
-0.002189731376864033   -0.06538158977107746   -0.0026265554190583406
-0.0035248077771119876   -0.07560163751483932   -0.0026716535414689924
0.0009593813576806541   -0.07541314124956192   -0.0026705330318518936
0.0031702712657867864   -0.06519051638890667   -0.002699294286541739
0.0011421503658273794   -0.07540884566155633   -0.002506100889542623
-0.002189731376864033   -0.06538158977107746   -0.0026265554190583406
0.003285580667673418   -0.06518393794770705   -0.0025796978368591503
0.0011421503658273794   -0.07540884566155633   -0.002506100889542623
0.0031702712657867864   -0.06519051638890667   -0.002699294286541739
-0.002189731376864033   -0.06538158977107746   -0.0026265554190583406
0.0011421503658273794   -0.07540884566155633   -0.002506100889542623
-0.0033864234897712365   -0.07562561035239133   -0.0025815938792602155
-0.0035248077771119876   -0.07560163751483932   -0.0026716535414689924
-0.002189731376864033   -0.06538158977107746   -0.0026265554190583406
0.0011421503658273794   -0.07540884566155633   -0.002506100889542623
-0.0035248077771119876   -0.07560163751483932   -0.0026716535414689924
0.0031702712657867864   -0.06519051638890667   -0.002699294286541739
-0.002189731376864033   -0.06538158977107746   -0.0026265554190583406
-0.0033864234897712365   -0.07562561035239133   -0.0025815938792602155
0.003285580667673418   -0.06518393794770705   -0.0025796978368591503
-0.00210981633521355   -0.0654349750923254   -0.0025676851327474963
-0.0033864234897712365   -0.07562561035239133   -0.0025815938792602155
0.0011421503658273794   -0.07540884566155633   -0.002506100889542623
0.003285580667673418   -0.06518393794770705   -0.0025796978368591503
0.0012758220335446324   -0.07544571065984573   -0.00235313370137206
-0.00210981633521355   -0.0654349750923254   -0.0025676851327474963
0.003362242294098292   -0.06520082832261999   -0.002471541652789092
0.0012758220335446324   -0.07544571065984573   -0.00235313370137206
0.003285580667673418   -0.06518393794770705   -0.0025796978368591503
-0.00210981633521355   -0.0654349750923254   -0.0025676851327474963
0.0012758220335446324   -0.07544571065984573   -0.00235313370137206
-0.003261405908219853   -0.07569375807740185   -0.0025035283892580417
-0.0033864234897712365   -0.07562561035239133   -0.0025815938792602155
-0.00210981633521355   -0.0654349750923254   -0.0025676851327474963
0.0012758220335446324   -0.07544571065984573   -0.00235313370137206
-0.0033864234897712365   -0.07562561035239133   -0.0025815938792602155
0.003285580667673418   -0.06518393794770705   -0.0025796978368591503
0.003057803631315928   -0.06522587718576696   -0.0028320684791682885
0.0007859262813685172   -0.07546055572399757   -0.002851614522628415
0.008833820165617758   -0.06500437462049814   -0.0029606299224150634
0.0031702712657867864   -0.06519051638890667   -0.002699294286541739
0.0007859262813685172   -0.07546055572399757   -0.002851614522628415
0.005534404440245189   -0.07515443809150701   -0.003015877388830071
0.008833820165617758   -0.06500437462049814   -0.0029606299224150634
0.005973513838222156   -0.07506341521724591   -0.002738749599384267
0.0031702712657867864   -0.06519051638890667   -0.002699294286541739
0.009133028446316362   -0.06493144195437726   -0.002767452476445322
0.005973513838222156   -0.07506341521724591   -0.002738749599384267
0.008833820165617758   -0.06500437462049814   -0.0029606299224150634
0.0031702712657867864   -0.06519051638890667   -0.002699294286541739
0.005973513838222156   -0.07506341521724591   -0.002738749599384267
0.0009593813576806541   -0.07541314124956192   -0.0026705330318518936
0.0007859262813685172   -0.07546055572399757   -0.002851614522628415
0.0031702712657867864   -0.06519051638890667   -0.002699294286541739
0.005973513838222156   -0.07506341521724591   -0.002738749599384267
0.0007859262813685172   -0.07546055572399757   -0.002851614522628415
0.008833820165617758   -0.06500437462049814   -0.0029606299224150634
0.0031702712657867864   -0.06519051638890667   -0.002699294286541739
0.0009593813576806541   -0.07541314124956192   -0.0026705330318518936
0.009133028446316362   -0.06493144195437726   -0.002767452476445322
0.003285580667673418   -0.06518393794770705   -0.0025796978368591503
0.0009593813576806541   -0.07541314124956192   -0.0026705330318518936
0.005973513838222156   -0.07506341521724591   -0.002738749599384267
0.009133028446316362   -0.06493144195437726   -0.002767452476445322
0.006310173410272652   -0.07504765485528093   -0.0024822676758028185
0.003285580667673418   -0.06518393794770705   -0.0025796978368591503
0.009354561003815291   -0.0649114037930209   -0.0025917976861389567
0.006310173410272652   -0.07504765485528093   -0.0024822676758028185
0.009133028446316362   -0.06493144195437726   -0.002767452476445322
0.003285580667673418   -0.06518393794770705   -0.0025796978368591503
0.006310173410272652   -0.07504765485528093   -0.0024822676758028185
0.0011421503658273794   -0.07540884566155633   -0.002506100889542623
0.0009593813576806541   -0.07541314124956192   -0.0026705330318518936
0.003285580667673418   -0.06518393794770705   -0.0025796978368591503
0.006310173410272652   -0.07504765485528093   -0.0024822676758028185
0.0009593813576806541   -0.07541314124956192   -0.0026705330318518936
0.009133028446316362   -0.06493144195437726   -0.002767452476445322
0.003285580667673418   -0.06518393794770705   -0.0025796978368591503
0.0011421503658273794   -0.07540884566155633   -0.002506100889542623
0.009354561003815291   -0.0649114037930209   -0.0025917976861389567
0.003362242294098292   -0.06520082832261999   -0.002471541652789092
0.0011421503658273794   -0.07540884566155633   -0.002506100889542623
0.006310173410272652   -0.07504765485528093   -0.0024822676758028185
0.009354561003815291   -0.0649114037930209   -0.0025917976861389567
0.006658870645477298   -0.07507461392101608   -0.0022485288661833434
0.003362242294098292   -0.06520082832261999   -0.002471541652789092
0.009579100326287176   -0.06491120057824544   -0.002434462572340377
0.006658870645477298   -0.07507461392101608   -0.0022485288661833434
0.009354561003815291   -0.0649114037930209   -0.0025917976861389567
0.003362242294098292   -0.06520082832261999   -0.002471541652789092
0.006658870645477298   -0.07507461392101608   -0.0022485288661833434
0.0012758220335446324   -0.07544571065984573   -0.00235313370137206
0.0011421503658273794   -0.07540884566155633   -0.002506100889542623
0.003362242294098292   -0.06520082832261999   -0.002471541652789092
0.006658870645477298   -0.07507461392101608   -0.0022485288661833434
0.0011421503658273794   -0.07540884566155633   -0.002506100889542623
0.009354561003815291   -0.0649114037930209   -0.0025917976861389567
-0.01740259373909546   -0.07528846568716635   -0.002767299308518975
-0.0145731939827197   -0.08319886206689882   -0.002510607439009521
-0.012320783845111866   -0.07552524560055858   -0.002750163859028855
-0.017138415674104655   -0.07533930818721404   -0.002923967450279249
-0.0145731939827197   -0.08319886206689882   -0.002510607439009521
-0.010956881787008916   -0.0835496148268794   -0.0026158406148608275
-0.012320783845111866   -0.07552524560055858   -0.002750163859028855
-0.010774021063005021   -0.08353150341775709   -0.002701992118903173
-0.017138415674104655   -0.07533930818721404   -0.002923967450279249
-0.01219391140510687   -0.07555949999350643   -0.0028061391871369596
-0.010774021063005021   -0.08353150341775709   -0.002701992118903173
-0.012320783845111866   -0.07552524560055858   -0.002750163859028855
-0.017138415674104655   -0.07533930818721404   -0.002923967450279249
-0.010774021063005021   -0.08353150341775709   -0.002701992118903173
-0.014179184422335515   -0.0831889598334944   -0.0027429011611377536
-0.0145731939827197   -0.08319886206689882   -0.002510607439009521
-0.017138415674104655   -0.07533930818721404   -0.002923967450279249
-0.010774021063005021   -0.08353150341775709   -0.002701992118903173
-0.0145731939827197   -0.08319886206689882   -0.002510607439009521
-0.012320783845111866   -0.07552524560055858   -0.002750163859028855
-0.017138415674104655   -0.07533930818721404   -0.002923967450279249
-0.014179184422335515   -0.0831889598334944   -0.0027429011611377536
-0.01219391140510687   -0.07555949999350643   -0.0028061391871369596
-0.016874871000121642   -0.07543557635426469   -0.003101309266535913
-0.014179184422335515   -0.0831889598334944   -0.0027429011611377536
-0.010774021063005021   -0.08353150341775709   -0.002701992118903173
-0.01219391140510687   -0.07555949999350643   -0.0028061391871369596
-0.010558977177780909   -0.08358190998759445   -0.002801120513248947
-0.016874871000121642   -0.07543557635426469   -0.003101309266535913
-0.012034559679658042   -0.075641531495441   -0.002874810713015597
-0.010558977177780909   -0.08358190998759445   -0.002801120513248947
-0.01219391140510687   -0.07555949999350643   -0.0028061391871369596
-0.016874871000121642   -0.07543557635426469   -0.003101309266535913
-0.010558977177780909   -0.08358190998759445   -0.002801120513248947
-0.013815961228647422   -0.08325125253213007   -0.0029934688192330867
-0.014179184422335515   -0.0831889598334944   -0.0027429011611377536
-0.016874871000121642   -0.07543557635426469   -0.003101309266535913
-0.010558977177780909   -0.08358190998759445   -0.002801120513248947
-0.014179184422335515   -0.0831889598334944   -0.0027429011611377536
-0.01219391140510687   -0.07555949999350643   -0.0028061391871369596
-0.016874871000121642   -0.07543557635426469   -0.003101309266535913
-0.013815961228647422   -0.08325125253213007   -0.0029934688192330867
-0.012034559679658042   -0.075641531495441   -0.002874810713015597
-0.016537276572625593   -0.07561508748031812   -0.00329894076973197
-0.013815961228647422   -0.08325125253213007   -0.0029934688192330867
-0.010558977177780909   -0.08358190998759445   -0.002801120513248947
-0.012034559679658042   -0.075641531495441   -0.002874810713015597
-0.010363888591495547   -0.0837019786272797   -0.002912395189372606
-0.016537276572625593   -0.07561508748031812   -0.00329894076973197
-0.011877323110473424   -0.0757759987234087   -0.0029560593439308656
-0.010363888591495547   -0.0837019786272797   -0.002912395189372606
-0.012034559679658042   -0.075641531495441   -0.002874810713015597
-0.016537276572625593   -0.07561508748031812   -0.00329894076973197
-0.010363888591495547   -0.0837019786272797   -0.002912395189372606
-0.013372971741317605   -0.0834177044865416   -0.0032612305465508145
-0.013815961228647422   -0.08325125253213007   -0.0029934688192330867
-0.016537276572625593   -0.07561508748031812   -0.00329894076973197
-0.010363888591495547   -0.0837019786272797   -0.002912395189372606
-0.013815961228647422   -0.08325125253213007   -0.0029934688192330867
-0.012034559679658042   -0.075641531495441   -0.002874810713015597
-0.012320783845111866   -0.07552524560055858   -0.002750163859028855
-0.010956881787008916   -0.0835496148268794   -0.0026158406148608275
-0.00792103768741923   -0.07563623198458197   -0.002743341991398634
-0.01219391140510687   -0.07555949999350643   -0.0028061391871369596
-0.010956881787008916   -0.0835496148268794   -0.0026158406148608275
-0.008002883152464453   -0.08377717783829029   -0.0026981884039568634
-0.00792103768741923   -0.07563623198458197   -0.002743341991398634
-0.007815212949321176   -0.08374820842829668   -0.002671829902964079
-0.01219391140510687   -0.07555949999350643   -0.0028061391871369596
-0.007790854471224106   -0.07564747651375149   -0.0027183116527056115
-0.007815212949321176   -0.08374820842829668   -0.002671829902964079
-0.00792103768741923   -0.07563623198458197   -0.002743341991398634
-0.01219391140510687   -0.07555949999350643   -0.0028061391871369596
-0.007815212949321176   -0.08374820842829668   -0.002671829902964079
-0.010774021063005021   -0.08353150341775709   -0.002701992118903173
-0.010956881787008916   -0.0835496148268794   -0.0026158406148608275
-0.01219391140510687   -0.07555949999350643   -0.0028061391871369596
-0.007815212949321176   -0.08374820842829668   -0.002671829902964079
-0.010956881787008916   -0.0835496148268794   -0.0026158406148608275
-0.00792103768741923   -0.07563623198458197   -0.002743341991398634
-0.01219391140510687   -0.07555949999350643   -0.0028061391871369596
-0.010774021063005021   -0.08353150341775709   -0.002701992118903173
-0.007790854471224106   -0.07564747651375149   -0.0027183116527056115
-0.012034559679658042   -0.075641531495441   -0.002874810713015597
-0.010774021063005021   -0.08353150341775709   -0.002701992118903173
-0.007815212949321176   -0.08374820842829668   -0.002671829902964079
-0.007790854471224106   -0.07564747651375149   -0.0027183116527056115
-0.007630199528354298   -0.08377837307570214   -0.0026580734588522175
-0.012034559679658042   -0.075641531495441   -0.002874810713015597
-0.0076564951690011145   -0.07570137878780894   -0.0027056016919239944
-0.007630199528354298   -0.08377837307570214   -0.0026580734588522175
-0.007790854471224106   -0.07564747651375149   -0.0027183116527056115
-0.012034559679658042   -0.075641531495441   -0.002874810713015597
-0.007630199528354298   -0.08377837307570214   -0.0026580734588522175
-0.010558977177780909   -0.08358190998759445   -0.002801120513248947
-0.010774021063005021   -0.08353150341775709   -0.002701992118903173
-0.012034559679658042   -0.075641531495441   -0.002874810713015597
-0.007630199528354298   -0.08377837307570214   -0.0026580734588522175
-0.010774021063005021   -0.08353150341775709   -0.002701992118903173
-0.007790854471224106   -0.07564747651375149   -0.0027183116527056115
-0.012034559679658042   -0.075641531495441   -0.002874810713015597
-0.010558977177780909   -0.08358190998759445   -0.002801120513248947
-0.0076564951690011145   -0.07570137878780894   -0.0027056016919239944
-0.011877323110473424   -0.0757759987234087   -0.0029560593439308656
-0.010558977177780909   -0.08358190998759445   -0.002801120513248947
-0.007630199528354298   -0.08377837307570214   -0.0026580734588522175
-0.0076564951690011145   -0.07570137878780894   -0.0027056016919239944
-0.007459983398133912   -0.0838696441162012   -0.0026595620568544394
-0.011877323110473424   -0.0757759987234087   -0.0029560593439308656
-0.007522358495218963   -0.07580045948831045   -0.0027050519253241693
-0.007459983398133912   -0.0838696441162012   -0.0026595620568544394
-0.0076564951690011145   -0.07570137878780894   -0.0027056016919239944
-0.011877323110473424   -0.0757759987234087   -0.0029560593439308656
-0.007459983398133912   -0.0838696441162012   -0.0026595620568544394
-0.010363888591495547   -0.0837019786272797   -0.002912395189372606
-0.010558977177780909   -0.08358190998759445   -0.002801120513248947
-0.011877323110473424   -0.0757759987234087   -0.0029560593439308656
-0.007459983398133912   -0.0838696441162012   -0.0026595620568544394
-0.010558977177780909   -0.08358190998759445   -0.002801120513248947
-0.0076564951690011145   -0.07570137878780894   -0.0027056016919239944
-0.00792103768741923   -0.07563623198458197   -0.002743341991398634
-0.008002883152464453   -0.08377717783829029   -0.0026981884039568634
-0.0036674052683193176   -0.07561622969698545   -0.0027748458284070003
-0.007790854471224106   -0.07564747651375149   -0.0027183116527056115
-0.008002883152464453   -0.08377717783829029   -0.0026981884039568634
-0.005173639137007107   -0.08389707892584651   -0.002795423722189862
-0.0036674052683193176   -0.07561622969698545   -0.0027748458284070003
-0.004962073854497653   -0.083855327500015   -0.002662974362774404
-0.007790854471224106   -0.07564747651375149   -0.0027183116527056115
-0.0035248077771119876   -0.07560163751483932   -0.0026716535414689924
-0.004962073854497653   -0.083855327500015   -0.002662974362774404
-0.0036674052683193176   -0.07561622969698545   -0.0027748458284070003
-0.007790854471224106   -0.07564747651375149   -0.0027183116527056115
-0.004962073854497653   -0.083855327500015   -0.002662974362774404
-0.007815212949321176   -0.08374820842829668   -0.002671829902964079
-0.008002883152464453   -0.08377717783829029   -0.0026981884039568634
-0.007790854471224106   -0.07564747651375149   -0.0027183116527056115
-0.004962073854497653   -0.083855327500015   -0.002662974362774404
-0.008002883152464453   -0.08377717783829029   -0.0026981884039568634
-0.0036674052683193176   -0.07561622969698545   -0.0027748458284070003
-0.007790854471224106   -0.07564747651375149   -0.0027183116527056115
-0.007815212949321176   -0.08374820842829668   -0.002671829902964079
-0.0035248077771119876   -0.07560163751483932   -0.0026716535414689924
-0.0076564951690011145   -0.07570137878780894   -0.0027056016919239944
-0.007815212949321176   -0.08374820842829668   -0.002671829902964079
-0.004962073854497653   -0.083855327500015   -0.002662974362774404
-0.0035248077771119876   -0.07560163751483932   -0.0026716535414689924
-0.004760414440463935   -0.08386555510894442   -0.002541656192403337
-0.0076564951690011145   -0.07570137878780894   -0.0027056016919239944
-0.0033864234897712365   -0.07562561035239133   -0.0025815938792602155
-0.004760414440463935   -0.08386555510894442   -0.002541656192403337
-0.0035248077771119876   -0.07560163751483932   -0.0026716535414689924
-0.0076564951690011145   -0.07570137878780894   -0.0027056016919239944
-0.004760414440463935   -0.08386555510894442   -0.002541656192403337
-0.007630199528354298   -0.08377837307570214   -0.0026580734588522175
-0.007815212949321176   -0.08374820842829668   -0.002671829902964079
-0.0076564951690011145   -0.07570137878780894   -0.0027056016919239944
-0.004760414440463935   -0.08386555510894442   -0.002541656192403337
-0.007815212949321176   -0.08374820842829668   -0.002671829902964079
-0.0035248077771119876   -0.07560163751483932   -0.0026716535414689924
-0.0076564951690011145   -0.07570137878780894   -0.0027056016919239944
-0.007630199528354298   -0.08377837307570214   -0.0026580734588522175
-0.0033864234897712365   -0.07562561035239133   -0.0025815938792602155
-0.007522358495218963   -0.07580045948831045   -0.0027050519253241693
-0.007630199528354298   -0.08377837307570214   -0.0026580734588522175
-0.004760414440463935   -0.08386555510894442   -0.002541656192403337
-0.0033864234897712365   -0.07562561035239133   -0.0025815938792602155
-0.004592727870774057   -0.08393792547088237   -0.0024384432434079372
-0.007522358495218963   -0.07580045948831045   -0.0027050519253241693
-0.003261405908219853   -0.07569375807740185   -0.0025035283892580417
-0.004592727870774057   -0.08393792547088237   -0.0024384432434079372
-0.0033864234897712365   -0.07562561035239133   -0.0025815938792602155
-0.007522358495218963   -0.07580045948831045   -0.0027050519253241693
-0.004592727870774057   -0.08393792547088237   -0.0024384432434079372
-0.007459983398133912   -0.0838696441162012   -0.0026595620568544394
-0.007630199528354298   -0.08377837307570214   -0.0026580734588522175
-0.007522358495218963   -0.07580045948831045   -0.0027050519253241693
-0.004592727870774057   -0.08393792547088237   -0.0024384432434079372
-0.007630199528354298   -0.08377837307570214   -0.0026580734588522175
-0.0033864234897712365   -0.07562561035239133   -0.0025815938792602155
-0.0036674052683193176   -0.07561622969698545   -0.0027748458284070003
-0.005173639137007107   -0.08389707892584651   -0.002795423722189862
0.0007859262813685172   -0.07546055572399757   -0.002851614522628415
-0.0035248077771119876   -0.07560163751483932   -0.0026716535414689924
-0.005173639137007107   -0.08389707892584651   -0.002795423722189862
-0.002164466245352001   -0.08386752195026795   -0.0029098969024925463
0.0007859262813685172   -0.07546055572399757   -0.002851614522628415
-0.0018928349669959294   -0.08380208030804231   -0.0026759722397010546
-0.0035248077771119876   -0.07560163751483932   -0.0026716535414689924
0.0009593813576806541   -0.07541314124956192   -0.0026705330318518936
-0.0018928349669959294   -0.08380208030804231   -0.0026759722397010546
0.0007859262813685172   -0.07546055572399757   -0.002851614522628415
-0.0035248077771119876   -0.07560163751483932   -0.0026716535414689924
-0.0018928349669959294   -0.08380208030804231   -0.0026759722397010546
-0.004962073854497653   -0.083855327500015   -0.002662974362774404
-0.005173639137007107   -0.08389707892584651   -0.002795423722189862
-0.0035248077771119876   -0.07560163751483932   -0.0026716535414689924
-0.0018928349669959294   -0.08380208030804231   -0.0026759722397010546
-0.005173639137007107   -0.08389707892584651   -0.002795423722189862
0.0007859262813685172   -0.07546055572399757   -0.002851614522628415
-0.0035248077771119876   -0.07560163751483932   -0.0026716535414689924
-0.004962073854497653   -0.083855327500015   -0.002662974362774404
0.0009593813576806541   -0.07541314124956192   -0.0026705330318518936
-0.0033864234897712365   -0.07562561035239133   -0.0025815938792602155
-0.004962073854497653   -0.083855327500015   -0.002662974362774404
-0.0018928349669959294   -0.08380208030804231   -0.0026759722397010546
0.0009593813576806541   -0.07541314124956192   -0.0026705330318518936
-0.0016151900092610523   -0.08379049380138237   -0.0024539603374199638
-0.0033864234897712365   -0.07562561035239133   -0.0025815938792602155
0.0011421503658273794   -0.07540884566155633   -0.002506100889542623
-0.0016151900092610523   -0.08379049380138237   -0.0024539603374199638
0.0009593813576806541   -0.07541314124956192   -0.0026705330318518936
-0.0033864234897712365   -0.07562561035239133   -0.0025815938792602155
-0.0016151900092610523   -0.08379049380138237   -0.0024539603374199638
-0.004760414440463935   -0.08386555510894442   -0.002541656192403337
-0.004962073854497653   -0.083855327500015   -0.002662974362774404
-0.0033864234897712365   -0.07562561035239133   -0.0025815938792602155
-0.0016151900092610523   -0.08379049380138237   -0.0024539603374199638
-0.004962073854497653   -0.083855327500015   -0.002662974362774404
0.0009593813576806541   -0.07541314124956192   -0.0026705330318518936
-0.0033864234897712365   -0.07562561035239133   -0.0025815938792602155
-0.004760414440463935   -0.08386555510894442   -0.002541656192403337
0.0011421503658273794   -0.07540884566155633   -0.002506100889542623
-0.003261405908219853   -0.07569375807740185   -0.0025035283892580417
-0.004760414440463935   -0.08386555510894442   -0.002541656192403337
-0.0016151900092610523   -0.08379049380138237   -0.0024539603374199638
0.0011421503658273794   -0.07540884566155633   -0.002506100889542623
-0.0014095040823143233   -0.08384439934426925   -0.0022523602431862226
-0.003261405908219853   -0.07569375807740185   -0.0025035283892580417
0.0012758220335446324   -0.07544571065984573   -0.00235313370137206
-0.0014095040823143233   -0.08384439934426925   -0.0022523602431862226
0.0011421503658273794   -0.07540884566155633   -0.002506100889542623
-0.003261405908219853   -0.07569375807740185   -0.0025035283892580417
-0.0014095040823143233   -0.08384439934426925   -0.0022523602431862226
-0.004592727870774057   -0.08393792547088237   -0.0024384432434079372
-0.004760414440463935   -0.08386555510894442   -0.002541656192403337
-0.003261405908219853   -0.07569375807740185   -0.0025035283892580417
-0.0014095040823143233   -0.08384439934426925   -0.0022523602431862226
-0.004760414440463935   -0.08386555510894442   -0.002541656192403337
0.0011421503658273794   -0.07540884566155633   -0.002506100889542623
0.0007859262813685172   -0.07546055572399757   -0.002851614522628415
-0.002164466245352001   -0.08386752195026795   -0.0029098969024925463
0.005534404440245189   -0.07515443809150701   -0.003015877388830071
0.0009593813576806541   -0.07541314124956192   -0.0026705330318518936
-0.002164466245352001   -0.08386752195026795   -0.0029098969024925463
0.0010754345144813177   -0.083578692477404   -0.0031447104378804444
0.005534404440245189   -0.07515443809150701   -0.003015877388830071
0.001707979328225532   -0.08343621435470149   -0.0027620213003812996
0.0009593813576806541   -0.07541314124956192   -0.0026705330318518936
0.005973513838222156   -0.07506341521724591   -0.002738749599384267
0.001707979328225532   -0.08343621435470149   -0.0027620213003812996
0.005534404440245189   -0.07515443809150701   -0.003015877388830071
0.0009593813576806541   -0.07541314124956192   -0.0026705330318518936
0.001707979328225532   -0.08343621435470149   -0.0027620213003812996
-0.0018928349669959294   -0.08380208030804231   -0.0026759722397010546
-0.002164466245352001   -0.08386752195026795   -0.0029098969024925463
0.0009593813576806541   -0.07541314124956192   -0.0026705330318518936
0.001707979328225532   -0.08343621435470149   -0.0027620213003812996
-0.002164466245352001   -0.08386752195026795   -0.0029098969024925463
0.005534404440245189   -0.07515443809150701   -0.003015877388830071
0.0009593813576806541   -0.07541314124956192   -0.0026705330318518936
-0.0018928349669959294   -0.08380208030804231   -0.0026759722397010546
0.005973513838222156   -0.07506341521724591   -0.002738749599384267
0.0011421503658273794   -0.07540884566155633   -0.002506100889542623
-0.0018928349669959294   -0.08380208030804231   -0.0026759722397010546
0.001707979328225532   -0.08343621435470149   -0.0027620213003812996
0.005973513838222156   -0.07506341521724591   -0.002738749599384267
0.0022051094413654874   -0.08340732504035547   -0.0024027444179447834
0.0011421503658273794   -0.07540884566155633   -0.002506100889542623
0.006310173410272652   -0.07504765485528093   -0.0024822676758028185
0.0022051094413654874   -0.08340732504035547   -0.0024027444179447834
0.005973513838222156   -0.07506341521724591   -0.002738749599384267
0.0011421503658273794   -0.07540884566155633   -0.002506100889542623
0.0022051094413654874   -0.08340732504035547   -0.0024027444179447834
-0.0016151900092610523   -0.08379049380138237   -0.0024539603374199638
-0.0018928349669959294   -0.08380208030804231   -0.0026759722397010546
0.0011421503658273794   -0.07540884566155633   -0.002506100889542623
0.0022051094413654874   -0.08340732504035547   -0.0024027444179447834
-0.0018928349669959294   -0.08380208030804231   -0.0026759722397010546
0.005973513838222156   -0.07506341521724591   -0.002738749599384267
0.0011421503658273794   -0.07540884566155633   -0.002506100889542623
-0.0016151900092610523   -0.08379049380138237   -0.0024539603374199638
0.006310173410272652   -0.07504765485528093   -0.0024822676758028185
0.0012758220335446324   -0.07544571065984573   -0.00235313370137206
-0.0016151900092610523   -0.08379049380138237   -0.0024539603374199638
0.0022051094413654874   -0.08340732504035547   -0.0024027444179447834
0.006310173410272652   -0.07504765485528093   -0.0024822676758028185
0.0027215971596241725   -0.08343144574997298   -0.0020746787210061414
0.0012758220335446324   -0.07544571065984573   -0.00235313370137206
0.006658870645477298   -0.07507461392101608   -0.0022485288661833434
0.0027215971596241725   -0.08343144574997298   -0.0020746787210061414
0.006310173410272652   -0.07504765485528093   -0.0024822676758028185
0.0012758220335446324   -0.07544571065984573   -0.00235313370137206
0.0027215971596241725   -0.08343144574997298   -0.0020746787210061414
-0.0014095040823143233   -0.08384439934426925   -0.0022523602431862226
-0.0016151900092610523   -0.08379049380138237   -0.0024539603374199638
0.0012758220335446324   -0.07544571065984573   -0.00235313370137206
0.0027215971596241725   -0.08343144574997298   -0.0020746787210061414
-0.0016151900092610523   -0.08379049380138237   -0.0024539603374199638
0.006310173410272652   -0.07504765485528093   -0.0024822676758028185
-0.0145731939827197   -0.08319886206689882   -0.002510607439009521
-0.010682296005994131   -0.08789998878510603   -0.002209193239463888
-0.010956881787008916   -0.0835496148268794   -0.0026158406148608275
-0.014179184422335515   -0.0831889598334944   -0.0027429011611377536
-0.010682296005994131   -0.08789998878510603   -0.002209193239463888
-0.00900067536163051   -0.08834369107648983   -0.002475971735789749
-0.010956881787008916   -0.0835496148268794   -0.0026158406148608275
-0.008769882742870709   -0.08825591252396385   -0.0025676026563236313
-0.014179184422335515   -0.0831889598334944   -0.0027429011611377536
-0.010774021063005021   -0.08353150341775709   -0.002701992118903173
-0.008769882742870709   -0.08825591252396385   -0.0025676026563236313
-0.010956881787008916   -0.0835496148268794   -0.0026158406148608275
-0.014179184422335515   -0.0831889598334944   -0.0027429011611377536
-0.008769882742870709   -0.08825591252396385   -0.0025676026563236313
-0.010191153540947231   -0.08780111137594979   -0.002487908292162352
-0.010682296005994131   -0.08789998878510603   -0.002209193239463888
-0.014179184422335515   -0.0831889598334944   -0.0027429011611377536
-0.008769882742870709   -0.08825591252396385   -0.0025676026563236313
-0.010682296005994131   -0.08789998878510603   -0.002209193239463888
-0.010956881787008916   -0.0835496148268794   -0.0026158406148608275
-0.014179184422335515   -0.0831889598334944   -0.0027429011611377536
-0.010191153540947231   -0.08780111137594979   -0.002487908292162352
-0.010774021063005021   -0.08353150341775709   -0.002701992118903173
-0.013815961228647422   -0.08325125253213007   -0.0029934688192330867
-0.010191153540947231   -0.08780111137594979   -0.002487908292162352
-0.008769882742870709   -0.08825591252396385   -0.0025676026563236313
-0.010774021063005021   -0.08353150341775709   -0.002701992118903173
-0.008514321391920371   -0.08826011203987967   -0.0026601598338183673
-0.013815961228647422   -0.08325125253213007   -0.0029934688192330867
-0.010558977177780909   -0.08358190998759445   -0.002801120513248947
-0.008514321391920371   -0.08826011203987967   -0.0026601598338183673
-0.010774021063005021   -0.08353150341775709   -0.002701992118903173
-0.013815961228647422   -0.08325125253213007   -0.0029934688192330867
-0.008514321391920371   -0.08826011203987967   -0.0026601598338183673
-0.009767382298675261   -0.0878094152025702   -0.002765537724719979
-0.010191153540947231   -0.08780111137594979   -0.002487908292162352
-0.013815961228647422   -0.08325125253213007   -0.0029934688192330867
-0.008514321391920371   -0.08826011203987967   -0.0026601598338183673
-0.010191153540947231   -0.08780111137594979   -0.002487908292162352
-0.010774021063005021   -0.08353150341775709   -0.002701992118903173
-0.013815961228647422   -0.08325125253213007   -0.0029934688192330867
-0.009767382298675261   -0.0878094152025702   -0.002765537724719979
-0.010558977177780909   -0.08358190998759445   -0.002801120513248947
-0.013372971741317605   -0.0834177044865416   -0.0032612305465508145
-0.009767382298675261   -0.0878094152025702   -0.002765537724719979
-0.008514321391920371   -0.08826011203987967   -0.0026601598338183673
-0.010558977177780909   -0.08358190998759445   -0.002801120513248947
-0.008276881383987456   -0.0883567103075896   -0.002754031127713264
-0.013372971741317605   -0.0834177044865416   -0.0032612305465508145
-0.010363888591495547   -0.0837019786272797   -0.002912395189372606
-0.008276881383987456   -0.0883567103075896   -0.002754031127713264
-0.010558977177780909   -0.08358190998759445   -0.002801120513248947
-0.013372971741317605   -0.0834177044865416   -0.0032612305465508145
-0.008276881383987456   -0.0883567103075896   -0.002754031127713264
-0.00926477545277444   -0.08793103986173416   -0.003049151071880729
-0.009767382298675261   -0.0878094152025702   -0.002765537724719979
-0.013372971741317605   -0.0834177044865416   -0.0032612305465508145
-0.008276881383987456   -0.0883567103075896   -0.002754031127713264
-0.009767382298675261   -0.0878094152025702   -0.002765537724719979
-0.010558977177780909   -0.08358190998759445   -0.002801120513248947
-0.010956881787008916   -0.0835496148268794   -0.0026158406148608275
-0.00900067536163051   -0.08834369107648983   -0.002475971735789749
-0.008002883152464453   -0.08377717783829029   -0.0026981884039568634
-0.010774021063005021   -0.08353150341775709   -0.002701992118903173
-0.00900067536163051   -0.08834369107648983   -0.002475971735789749
-0.007769669289214447   -0.08878947457301957   -0.00271178460161454
-0.008002883152464453   -0.08377717783829029   -0.0026981884039568634
-0.007526121537997888   -0.0886994361650492   -0.0026474469411456743
-0.010774021063005021   -0.08353150341775709   -0.002701992118903173
-0.007815212949321176   -0.08374820842829668   -0.002671829902964079
-0.007526121537997888   -0.0886994361650492   -0.0026474469411456743
-0.008002883152464453   -0.08377717783829029   -0.0026981884039568634
-0.010774021063005021   -0.08353150341775709   -0.002701992118903173
-0.007526121537997888   -0.0886994361650492   -0.0026474469411456743
-0.008769882742870709   -0.08825591252396385   -0.0025676026563236313
-0.00900067536163051   -0.08834369107648983   -0.002475971735789749
-0.010774021063005021   -0.08353150341775709   -0.002701992118903173
-0.007526121537997888   -0.0886994361650492   -0.0026474469411456743
-0.00900067536163051   -0.08834369107648983   -0.002475971735789749
-0.008002883152464453   -0.08377717783829029   -0.0026981884039568634
-0.010774021063005021   -0.08353150341775709   -0.002701992118903173
-0.008769882742870709   -0.08825591252396385   -0.0025676026563236313
-0.007815212949321176   -0.08374820842829668   -0.002671829902964079
-0.010558977177780909   -0.08358190998759445   -0.002801120513248947
-0.008769882742870709   -0.08825591252396385   -0.0025676026563236313
-0.007526121537997888   -0.0886994361650492   -0.0026474469411456743
-0.007815212949321176   -0.08374820842829668   -0.002671829902964079
-0.0072906677685028185   -0.08869771861932936   -0.0025823060095050347
-0.010558977177780909   -0.08358190998759445   -0.002801120513248947
-0.007630199528354298   -0.08377837307570214   -0.0026580734588522175
-0.0072906677685028185   -0.08869771861932936   -0.0025823060095050347
-0.007815212949321176   -0.08374820842829668   -0.002671829902964079
-0.010558977177780909   -0.08358190998759445   -0.002801120513248947
-0.0072906677685028185   -0.08869771861932936   -0.0025823060095050347
-0.008514321391920371   -0.08826011203987967   -0.0026601598338183673
-0.008769882742870709   -0.08825591252396385   -0.0025676026563236313
-0.010558977177780909   -0.08358190998759445   -0.002801120513248947
-0.0072906677685028185   -0.08869771861932936   -0.0025823060095050347
-0.008769882742870709   -0.08825591252396385   -0.0025676026563236313
-0.007815212949321176   -0.08374820842829668   -0.002671829902964079
-0.010558977177780909   -0.08358190998759445   -0.002801120513248947
-0.008514321391920371   -0.08826011203987967   -0.0026601598338183673
-0.007630199528354298   -0.08377837307570214   -0.0026580734588522175
-0.010363888591495547   -0.0837019786272797   -0.002912395189372606
-0.008514321391920371   -0.08826011203987967   -0.0026601598338183673
-0.0072906677685028185   -0.08869771861932936   -0.0025823060095050347
-0.007630199528354298   -0.08377837307570214   -0.0026580734588522175
-0.007045181771395809   -0.08878247192832367   -0.0025197298547951995
-0.010363888591495547   -0.0837019786272797   -0.002912395189372606
-0.007459983398133912   -0.0838696441162012   -0.0026595620568544394
-0.007045181771395809   -0.08878247192832367   -0.0025197298547951995
-0.007630199528354298   -0.08377837307570214   -0.0026580734588522175
-0.010363888591495547   -0.0837019786272797   -0.002912395189372606
-0.007045181771395809   -0.08878247192832367   -0.0025197298547951995
-0.008276881383987456   -0.0883567103075896   -0.002754031127713264
-0.008514321391920371   -0.08826011203987967   -0.0026601598338183673
-0.010363888591495547   -0.0837019786272797   -0.002912395189372606
-0.007045181771395809   -0.08878247192832367   -0.0025197298547951995
-0.008514321391920371   -0.08826011203987967   -0.0026601598338183673
-0.007630199528354298   -0.08377837307570214   -0.0026580734588522175
-0.008002883152464453   -0.08377717783829029   -0.0026981884039568634
-0.007769669289214447   -0.08878947457301957   -0.00271178460161454
-0.005173639137007107   -0.08389707892584651   -0.002795423722189862
-0.007815212949321176   -0.08374820842829668   -0.002671829902964079
-0.007769669289214447   -0.08878947457301957   -0.00271178460161454
-0.006645648571443488   -0.08932793908005006   -0.0029713984948675125
-0.005173639137007107   -0.08389707892584651   -0.002795423722189862
-0.006347055320751373   -0.089249853057419   -0.0027423331785846315
-0.007815212949321176   -0.08374820842829668   -0.002671829902964079
-0.004962073854497653   -0.083855327500015   -0.002662974362774404
-0.006347055320751373   -0.089249853057419   -0.0027423331785846315
-0.005173639137007107   -0.08389707892584651   -0.002795423722189862
-0.007815212949321176   -0.08374820842829668   -0.002671829902964079
-0.006347055320751373   -0.089249853057419   -0.0027423331785846315
-0.007526121537997888   -0.0886994361650492   -0.0026474469411456743
-0.007769669289214447   -0.08878947457301957   -0.00271178460161454
-0.007815212949321176   -0.08374820842829668   -0.002671829902964079
-0.006347055320751373   -0.089249853057419   -0.0027423331785846315
-0.007769669289214447   -0.08878947457301957   -0.00271178460161454
-0.005173639137007107   -0.08389707892584651   -0.002795423722189862
-0.007815212949321176   -0.08374820842829668   -0.002671829902964079
-0.007526121537997888   -0.0886994361650492   -0.0026474469411456743
-0.004962073854497653   -0.083855327500015   -0.002662974362774404
-0.007630199528354298   -0.08377837307570214   -0.0026580734588522175
-0.007526121537997888   -0.0886994361650492   -0.0026474469411456743
-0.006347055320751373   -0.089249853057419   -0.0027423331785846315
-0.004962073854497653   -0.083855327500015   -0.002662974362774404
-0.006070415723119282   -0.08924561373860902   -0.0025140619732691113
-0.007630199528354298   -0.08377837307570214   -0.0026580734588522175
-0.004760414440463935   -0.08386555510894442   -0.002541656192403337
-0.006070415723119282   -0.08924561373860902   -0.0025140619732691113
-0.004962073854497653   -0.083855327500015   -0.002662974362774404
-0.007630199528354298   -0.08377837307570214   -0.0026580734588522175
-0.006070415723119282   -0.08924561373860902   -0.0025140619732691113
-0.0072906677685028185   -0.08869771861932936   -0.0025823060095050347
-0.007526121537997888   -0.0886994361650492   -0.0026474469411456743
-0.007630199528354298   -0.08377837307570214   -0.0026580734588522175
-0.006070415723119282   -0.08924561373860902   -0.0025140619732691113
-0.007526121537997888   -0.0886994361650492   -0.0026474469411456743
-0.004962073854497653   -0.083855327500015   -0.002662974362774404
-0.007630199528354298   -0.08377837307570214   -0.0026580734588522175
-0.0072906677685028185   -0.08869771861932936   -0.0025823060095050347
-0.004760414440463935   -0.08386555510894442   -0.002541656192403337
-0.007459983398133912   -0.0838696441162012   -0.0026595620568544394
-0.0072906677685028185   -0.08869771861932936   -0.0025823060095050347
-0.006070415723119282   -0.08924561373860902   -0.0025140619732691113
-0.004760414440463935   -0.08386555510894442   -0.002541656192403337
-0.005773369439953549   -0.08931121723363482   -0.0022852480788413568
-0.007459983398133912   -0.0838696441162012   -0.0026595620568544394
-0.004592727870774057   -0.08393792547088237   -0.0024384432434079372
-0.005773369439953549   -0.08931121723363482   -0.0022852480788413568
-0.004760414440463935   -0.08386555510894442   -0.002541656192403337
-0.007459983398133912   -0.0838696441162012   -0.0026595620568544394
-0.005773369439953549   -0.08931121723363482   -0.0022852480788413568
-0.007045181771395809   -0.08878247192832367   -0.0025197298547951995
-0.0072906677685028185   -0.08869771861932936   -0.0025823060095050347
-0.007459983398133912   -0.0838696441162012   -0.0026595620568544394
-0.005773369439953549   -0.08931121723363482   -0.0022852480788413568
-0.0072906677685028185   -0.08869771861932936   -0.0025823060095050347
-0.004760414440463935   -0.08386555510894442   -0.002541656192403337
-0.005173639137007107   -0.08389707892584651   -0.002795423722189862
-0.006645648571443488   -0.08932793908005006   -0.0029713984948675125
-0.002164466245352001   -0.08386752195026795   -0.0029098969024925463
-0.004962073854497653   -0.083855327500015   -0.002662974362774404
-0.006645648571443488   -0.08932793908005006   -0.0029713984948675125
-0.005539416043878228   -0.09   -0.003170575889547108
-0.002164466245352001   -0.08386752195026795   -0.0029098969024925463
-0.005163939394446474   -0.09   -0.002822878276208625
-0.004962073854497653   -0.083855327500015   -0.002662974362774404
-0.0018928349669959294   -0.08380208030804231   -0.0026759722397010546
-0.005163939394446474   -0.09   -0.002822878276208625
-0.002164466245352001   -0.08386752195026795   -0.0029098969024925463
-0.004962073854497653   -0.083855327500015   -0.002662974362774404
-0.005163939394446474   -0.09   -0.002822878276208625
-0.006347055320751373   -0.089249853057419   -0.0027423331785846315
-0.006645648571443488   -0.08932793908005006   -0.0029713984948675125
-0.004962073854497653   -0.083855327500015   -0.002662974362774404
-0.005163939394446474   -0.09   -0.002822878276208625
-0.006645648571443488   -0.08932793908005006   -0.0029713984948675125
-0.002164466245352001   -0.08386752195026795   -0.0029098969024925463
-0.004962073854497653   -0.083855327500015   -0.002662974362774404
-0.006347055320751373   -0.089249853057419   -0.0027423331785846315
-0.0018928349669959294   -0.08380208030804231   -0.0026759722397010546
-0.004760414440463935   -0.08386555510894442   -0.002541656192403337
-0.006347055320751373   -0.089249853057419   -0.0027423331785846315
-0.005163939394446474   -0.09   -0.002822878276208625
-0.0018928349669959294   -0.08380208030804231   -0.0026759722397010546
-0.004786739362685789   -0.09   -0.002471055169969776
-0.004760414440463935   -0.08386555510894442   -0.002541656192403337
-0.0016151900092610523   -0.08379049380138237   -0.0024539603374199638
-0.004786739362685789   -0.09   -0.002471055169969776
-0.0018928349669959294   -0.08380208030804231   -0.0026759722397010546
-0.004760414440463935   -0.08386555510894442   -0.002541656192403337
-0.004786739362685789   -0.09   -0.002471055169969776
-0.006070415723119282   -0.08924561373860902   -0.0025140619732691113
-0.006347055320751373   -0.089249853057419   -0.0027423331785846315
-0.004760414440463935   -0.08386555510894442   -0.002541656192403337
-0.004786739362685789   -0.09   -0.002471055169969776
-0.006347055320751373   -0.089249853057419   -0.0027423331785846315
-0.0018928349669959294   -0.08380208030804231   -0.0026759722397010546
-0.004760414440463935   -0.08386555510894442   -0.002541656192403337
-0.006070415723119282   -0.08924561373860902   -0.0025140619732691113
-0.0016151900092610523   -0.08379049380138237   -0.0024539603374199638
-0.004592727870774057   -0.08393792547088237   -0.0024384432434079372
-0.006070415723119282   -0.08924561373860902   -0.0025140619732691113
-0.004786739362685789   -0.09   -0.002471055169969776
-0.0016151900092610523   -0.08379049380138237   -0.0024539603374199638
-0.0044179405201926055   -0.09   -0.002123878033256362
-0.004592727870774057   -0.08393792547088237   -0.0024384432434079372
-0.0014095040823143233   -0.08384439934426925   -0.0022523602431862226
-0.0044179405201926055   -0.09   -0.002123878033256362
-0.0016151900092610523   -0.08379049380138237   -0.0024539603374199638
-0.004592727870774057   -0.08393792547088237   -0.0024384432434079372
-0.0044179405201926055   -0.09   -0.002123878033256362
-0.005773369439953549   -0.08931121723363482   -0.0022852480788413568
-0.006070415723119282   -0.08924561373860902   -0.0025140619732691113
-0.004592727870774057   -0.08393792547088237   -0.0024384432434079372
-0.0044179405201926055   -0.09   -0.002123878033256362
-0.006070415723119282   -0.08924561373860902   -0.0025140619732691113
-0.0016151900092610523   -0.08379049380138237   -0.0024539603374199638
-0.002164466245352001   -0.08386752195026795   -0.0029098969024925463
-0.005539416043878228   -0.09   -0.003170575889547108
0.0010754345144813177   -0.083578692477404   -0.0031447104378804444
-0.0018928349669959294   -0.08380208030804231   -0.0026759722397010546
-0.005539416043878228   -0.09   -0.003170575889547108
-0.0047376444813674425   -0.09   -0.0034118014340144267
0.0010754345144813177   -0.083578692477404   -0.0031447104378804444
-0.003953079022958613   -0.09   -0.002908901192115581
-0.0018928349669959294   -0.08380208030804231   -0.0026759722397010546
0.001707979328225532   -0.08343621435470149   -0.0027620213003812996
-0.003953079022958613   -0.09   -0.002908901192115581
0.0010754345144813177   -0.083578692477404   -0.0031447104378804444
-0.0018928349669959294   -0.08380208030804231   -0.0026759722397010546
-0.003953079022958613   -0.09   -0.002908901192115581
-0.005163939394446474   -0.09   -0.002822878276208625
-0.005539416043878228   -0.09   -0.003170575889547108
-0.0018928349669959294   -0.08380208030804231   -0.0026759722397010546
-0.003953079022958613   -0.09   -0.002908901192115581
-0.005539416043878228   -0.09   -0.003170575889547108
0.0010754345144813177   -0.083578692477404   -0.0031447104378804444
-0.0018928349669959294   -0.08380208030804231   -0.0026759722397010546
-0.005163939394446474   -0.09   -0.002822878276208625
0.001707979328225532   -0.08343621435470149   -0.0027620213003812996
-0.0016151900092610523   -0.08379049380138237   -0.0024539603374199638
-0.005163939394446474   -0.09   -0.002822878276208625
-0.003953079022958613   -0.09   -0.002908901192115581
0.001707979328225532   -0.08343621435470149   -0.0027620213003812996
-0.0033273945587163475   -0.09   -0.002427807853367882
-0.0016151900092610523   -0.08379049380138237   -0.0024539603374199638
0.0022051094413654874   -0.08340732504035547   -0.0024027444179447834
-0.0033273945587163475   -0.09   -0.002427807853367882
0.001707979328225532   -0.08343621435470149   -0.0027620213003812996
-0.0016151900092610523   -0.08379049380138237   -0.0024539603374199638
-0.0033273945587163475   -0.09   -0.002427807853367882
-0.004786739362685789   -0.09   -0.002471055169969776
-0.005163939394446474   -0.09   -0.002822878276208625
-0.0016151900092610523   -0.08379049380138237   -0.0024539603374199638
-0.0033273945587163475   -0.09   -0.002427807853367882
-0.005163939394446474   -0.09   -0.002822878276208625
0.001707979328225532   -0.08343621435470149   -0.0027620213003812996
-0.0016151900092610523   -0.08379049380138237   -0.0024539603374199638
-0.004786739362685789   -0.09   -0.002471055169969776
0.0022051094413654874   -0.08340732504035547   -0.0024027444179447834
-0.0014095040823143233   -0.08384439934426925   -0.0022523602431862226
-0.004786739362685789   -0.09   -0.002471055169969776
-0.0033273945587163475   -0.09   -0.002427807853367882
0.0022051094413654874   -0.08340732504035547   -0.0024027444179447834
-0.002554463266918634   -0.09   -0.001928384571388689
-0.0014095040823143233   -0.08384439934426925   -0.0022523602431862226
0.0027215971596241725   -0.08343144574997298   -0.0020746787210061414
-0.002554463266918634   -0.09   -0.001928384571388689
0.0022051094413654874   -0.08340732504035547   -0.0024027444179447834
-0.0014095040823143233   -0.08384439934426925   -0.0022523602431862226
-0.002554463266918634   -0.09   -0.001928384571388689
-0.0044179405201926055   -0.09   -0.002123878033256362
-0.004786739362685789   -0.09   -0.002471055169969776
-0.0014095040823143233   -0.08384439934426925   -0.0022523602431862226
-0.002554463266918634   -0.09   -0.001928384571388689
-0.004786739362685789   -0.09   -0.002471055169969776
0.0022051094413654874   -0.08340732504035547   -0.0024027444179447834
-0.010682296005994131   -0.08789998878510603   -0.002209193239463888
-0.0063776095829957006   -0.08813252776410782   -0.001890776814015685
-0.00900067536163051   -0.08834369107648983   -0.002475971735789749
-0.010191153540947231   -0.08780111137594979   -0.002487908292162352
-0.0063776095829957006   -0.08813252776410782   -0.001890776814015685
-0.006766838342925753   -0.08847424429780724   -0.0022342616404732074
-0.00900067536163051   -0.08834369107648983   -0.002475971735789749
-0.006592329051570257   -0.08835439564374986   -0.002359354179006364
-0.010191153540947231   -0.08780111137594979   -0.002487908292162352
-0.008769882742870709   -0.08825591252396385   -0.0025676026563236313
-0.006592329051570257   -0.08835439564374986   -0.002359354179006364
-0.00900067536163051   -0.08834369107648983   -0.002475971735789749
-0.010191153540947231   -0.08780111137594979   -0.002487908292162352
-0.006592329051570257   -0.08835439564374986   -0.002359354179006364
-0.005932625494259346   -0.08797865513545564   -0.0021835992667567803
-0.0063776095829957006   -0.08813252776410782   -0.001890776814015685
-0.010191153540947231   -0.08780111137594979   -0.002487908292162352
-0.006592329051570257   -0.08835439564374986   -0.002359354179006364
-0.0063776095829957006   -0.08813252776410782   -0.001890776814015685
-0.00900067536163051   -0.08834369107648983   -0.002475971735789749
-0.010191153540947231   -0.08780111137594979   -0.002487908292162352
-0.005932625494259346   -0.08797865513545564   -0.0021835992667567803
-0.008769882742870709   -0.08825591252396385   -0.0025676026563236313
-0.009767382298675261   -0.0878094152025702   -0.002765537724719979
-0.005932625494259346   -0.08797865513545564   -0.0021835992667567803
-0.006592329051570257   -0.08835439564374986   -0.002359354179006364
-0.008769882742870709   -0.08825591252396385   -0.0025676026563236313
-0.006387675071561836   -0.08831001135212248   -0.0024747405362764044
-0.009767382298675261   -0.0878094152025702   -0.002765537724719979
-0.008514321391920371   -0.08826011203987967   -0.0026601598338183673
-0.006387675071561836   -0.08831001135212248   -0.0024747405362764044
-0.008769882742870709   -0.08825591252396385   -0.0025676026563236313
-0.009767382298675261   -0.0878094152025702   -0.002765537724719979
-0.006387675071561836   -0.08831001135212248   -0.0024747405362764044
-0.005562207437116146   -0.08793112633042668   -0.002464375613063126
-0.005932625494259346   -0.08797865513545564   -0.0021835992667567803
-0.009767382298675261   -0.0878094152025702   -0.002765537724719979
-0.006387675071561836   -0.08831001135212248   -0.0024747405362764044
-0.005932625494259346   -0.08797865513545564   -0.0021835992667567803
-0.008769882742870709   -0.08825591252396385   -0.0025676026563236313
-0.009767382298675261   -0.0878094152025702   -0.002765537724719979
-0.005562207437116146   -0.08793112633042668   -0.002464375613063126
-0.008514321391920371   -0.08826011203987967   -0.0026601598338183673
-0.00926477545277444   -0.08793103986173416   -0.003049151071880729
-0.005562207437116146   -0.08793112633042668   -0.002464375613063126
-0.006387675071561836   -0.08831001135212248   -0.0024747405362764044
-0.008514321391920371   -0.08826011203987967   -0.0026601598338183673
-0.006212339168116139   -0.08834172652951376   -0.002579814568406581
-0.00926477545277444   -0.08793103986173416   -0.003049151071880729
-0.008276881383987456   -0.0883567103075896   -0.002754031127713264
-0.006212339168116139   -0.08834172652951376   -0.002579814568406581
-0.008514321391920371   -0.08826011203987967   -0.0026601598338183673
-0.00926477545277444   -0.08793103986173416   -0.003049151071880729
-0.006212339168116139   -0.08834172652951376   -0.002579814568406581
-0.005143192828232421   -0.08797070054252913   -0.002731852862666724
-0.005562207437116146   -0.08793112633042668   -0.002464375613063126
-0.00926477545277444   -0.08793103986173416   -0.003049151071880729
-0.006212339168116139   -0.08834172652951376   -0.002579814568406581
-0.005562207437116146   -0.08793112633042668   -0.002464375613063126
-0.008514321391920371   -0.08826011203987967   -0.0026601598338183673
-0.00900067536163051   -0.08834369107648983   -0.002475971735789749
-0.006766838342925753   -0.08847424429780724   -0.0022342616404732074
-0.007769669289214447   -0.08878947457301957   -0.00271178460161454
-0.008769882742870709   -0.08825591252396385   -0.0025676026563236313
-0.006766838342925753   -0.08847424429780724   -0.0022342616404732074
-0.007292673464543458   -0.08868575394855897   -0.0025089325505339433
-0.007769669289214447   -0.08878947457301957   -0.00271178460161454
-0.007138203618641479   -0.08857874651301222   -0.0025122434805323413
-0.008769882742870709   -0.08825591252396385   -0.0025676026563236313
-0.007526121537997888   -0.0886994361650492   -0.0026474469411456743
-0.007138203618641479   -0.08857874651301222   -0.0025122434805323413
-0.007769669289214447   -0.08878947457301957   -0.00271178460161454
-0.008769882742870709   -0.08825591252396385   -0.0025676026563236313
-0.007138203618641479   -0.08857874651301222   -0.0025122434805323413
-0.006592329051570257   -0.08835439564374986   -0.002359354179006364
-0.006766838342925753   -0.08847424429780724   -0.0022342616404732074
-0.008769882742870709   -0.08825591252396385   -0.0025676026563236313
-0.007138203618641479   -0.08857874651301222   -0.0025122434805323413
-0.006766838342925753   -0.08847424429780724   -0.0022342616404732074
-0.007769669289214447   -0.08878947457301957   -0.00271178460161454
-0.008769882742870709   -0.08825591252396385   -0.0025676026563236313
-0.006592329051570257   -0.08835439564374986   -0.002359354179006364
-0.007526121537997888   -0.0886994361650492   -0.0026474469411456743
-0.008514321391920371   -0.08826011203987967   -0.0026601598338183673
-0.006592329051570257   -0.08835439564374986   -0.002359354179006364
-0.007138203618641479   -0.08857874651301222   -0.0025122434805323413
-0.007526121537997888   -0.0886994361650492   -0.0026474469411456743
-0.006966259442493661   -0.08854008997851891   -0.0025029702501126612
-0.008514321391920371   -0.08826011203987967   -0.0026601598338183673
-0.0072906677685028185   -0.08869771861932936   -0.0025823060095050347
-0.006966259442493661   -0.08854008997851891   -0.0025029702501126612
-0.007526121537997888   -0.0886994361650492   -0.0026474469411456743
-0.008514321391920371   -0.08826011203987967   -0.0026601598338183673
-0.006966259442493661   -0.08854008997851891   -0.0025029702501126612
-0.006387675071561836   -0.08831001135212248   -0.0024747405362764044
-0.006592329051570257   -0.08835439564374986   -0.002359354179006364
-0.008514321391920371   -0.08826011203987967   -0.0026601598338183673
-0.006966259442493661   -0.08854008997851891   -0.0025029702501126612
-0.006592329051570257   -0.08835439564374986   -0.002359354179006364
-0.007526121537997888   -0.0886994361650492   -0.0026474469411456743
-0.008514321391920371   -0.08826011203987967   -0.0026601598338183673
-0.006387675071561836   -0.08831001135212248   -0.0024747405362764044
-0.0072906677685028185   -0.08869771861932936   -0.0025823060095050347
-0.008276881383987456   -0.0883567103075896   -0.002754031127713264
-0.006387675071561836   -0.08831001135212248   -0.0024747405362764044
-0.006966259442493661   -0.08854008997851891   -0.0025029702501126612
-0.0072906677685028185   -0.08869771861932936   -0.0025823060095050347
-0.006791427037583803   -0.08856664869404272   -0.002483822930240685
-0.008276881383987456   -0.0883567103075896   -0.002754031127713264
-0.007045181771395809   -0.08878247192832367   -0.0025197298547951995
-0.006791427037583803   -0.08856664869404272   -0.002483822930240685
-0.0072906677685028185   -0.08869771861932936   -0.0025823060095050347
-0.008276881383987456   -0.0883567103075896   -0.002754031127713264
-0.006791427037583803   -0.08856664869404272   -0.002483822930240685
-0.006212339168116139   -0.08834172652951376   -0.002579814568406581
-0.006387675071561836   -0.08831001135212248   -0.0024747405362764044
-0.008276881383987456   -0.0883567103075896   -0.002754031127713264
-0.006791427037583803   -0.08856664869404272   -0.002483822930240685
-0.006387675071561836   -0.08831001135212248   -0.0024747405362764044
-0.0072906677685028185   -0.08869771861932936   -0.0025823060095050347
-0.007769669289214447   -0.08878947457301957   -0.00271178460161454
-0.007292673464543458   -0.08868575394855897   -0.0025089325505339433
-0.006645648571443488   -0.08932793908005006   -0.0029713984948675125
-0.007526121537997888   -0.0886994361650492   -0.0026474469411456743
-0.007292673464543458   -0.08868575394855897   -0.0025089325505339433
-0.007856236077215568   -0.088775031578601   -0.00277923240487455
-0.006645648571443488   -0.08932793908005006   -0.0029713984948675125
-0.0076962235326744665   -0.08867302953675713   -0.002665445934633435
-0.007526121537997888   -0.0886994361650492   -0.0026474469411456743
-0.006347055320751373   -0.089249853057419   -0.0027423331785846315
-0.0076962235326744665   -0.08867302953675713   -0.002665445934633435
-0.006645648571443488   -0.08932793908005006   -0.0029713984948675125
-0.007526121537997888   -0.0886994361650492   -0.0026474469411456743
-0.0076962235326744665   -0.08867302953675713   -0.002665445934633435
-0.007138203618641479   -0.08857874651301222   -0.0025122434805323413
-0.007292673464543458   -0.08868575394855897   -0.0025089325505339433
-0.007526121537997888   -0.0886994361650492   -0.0026474469411456743
-0.0076962235326744665   -0.08867302953675713   -0.002665445934633435
-0.007292673464543458   -0.08868575394855897   -0.0025089325505339433
-0.006645648571443488   -0.08932793908005006   -0.0029713984948675125
-0.007526121537997888   -0.0886994361650492   -0.0026474469411456743
-0.007138203618641479   -0.08857874651301222   -0.0025122434805323413
-0.006347055320751373   -0.089249853057419   -0.0027423331785846315
-0.0072906677685028185   -0.08869771861932936   -0.0025823060095050347
-0.007138203618641479   -0.08857874651301222   -0.0025122434805323413
-0.0076962235326744665   -0.08867302953675713   -0.002665445934633435
-0.006347055320751373   -0.089249853057419   -0.0027423331785846315
-0.007504264329168891   -0.08864049890621131   -0.0025363341197644036
-0.0072906677685028185   -0.08869771861932936   -0.0025823060095050347
-0.006070415723119282   -0.08924561373860902   -0.0025140619732691113
-0.007504264329168891   -0.08864049890621131   -0.0025363341197644036
-0.006347055320751373   -0.089249853057419   -0.0027423331785846315
-0.0072906677685028185   -0.08869771861932936   -0.0025823060095050347
-0.007504264329168891   -0.08864049890621131   -0.0025363341197644036
-0.006966259442493661   -0.08854008997851891   -0.0025029702501126612
-0.007138203618641479   -0.08857874651301222   -0.0025122434805323413
-0.0072906677685028185   -0.08869771861932936   -0.0025823060095050347
-0.007504264329168891   -0.08864049890621131   -0.0025363341197644036
-0.007138203618641479   -0.08857874651301222   -0.0025122434805323413
-0.006347055320751373   -0.089249853057419   -0.0027423331785846315
-0.0072906677685028185   -0.08869771861932936   -0.0025823060095050347
-0.006966259442493661   -0.08854008997851891   -0.0025029702501126612
-0.006070415723119282   -0.08924561373860902   -0.0025140619732691113
-0.007045181771395809   -0.08878247192832367   -0.0025197298547951995
-0.006966259442493661   -0.08854008997851891   -0.0025029702501126612
-0.007504264329168891   -0.08864049890621131   -0.0025363341197644036
-0.006070415723119282   -0.08924561373860902   -0.0025140619732691113
-0.007306839014359597   -0.08866649099574465   -0.0023987970531719467
-0.007045181771395809   -0.08878247192832367   -0.0025197298547951995
-0.005773369439953549   -0.08931121723363482   -0.0022852480788413568
-0.007306839014359597   -0.08866649099574465   -0.0023987970531719467
-0.006070415723119282   -0.08924561373860902   -0.0025140619732691113
-0.007045181771395809   -0.08878247192832367   -0.0025197298547951995
-0.007306839014359597   -0.08866649099574465   -0.0023987970531719467
-0.006791427037583803   -0.08856664869404272   -0.002483822930240685
-0.006966259442493661   -0.08854008997851891   -0.0025029702501126612
-0.007045181771395809   -0.08878247192832367   -0.0025197298547951995
-0.007306839014359597   -0.08866649099574465   -0.0023987970531719467
-0.006966259442493661   -0.08854008997851891   -0.0025029702501126612
-0.006070415723119282   -0.08924561373860902   -0.0025140619732691113
-0.006645648571443488   -0.08932793908005006   -0.0029713984948675125
-0.007856236077215568   -0.088775031578601   -0.00277923240487455
-0.005539416043878228   -0.09   -0.003170575889547108
-0.006347055320751373   -0.089249853057419   -0.0027423331785846315
-0.007856236077215568   -0.088775031578601   -0.00277923240487455
-0.008672335338727046   -0.08867998881944615   -0.003035938747051119
-0.005539416043878228   -0.09   -0.003170575889547108
-0.008463311495378704   -0.08858374890992841   -0.002810690153842901
-0.006347055320751373   -0.089249853057419   -0.0027423331785846315
-0.005163939394446474   -0.09   -0.002822878276208625
-0.008463311495378704   -0.08858374890992841   -0.002810690153842901
-0.005539416043878228   -0.09   -0.003170575889547108
-0.006347055320751373   -0.089249853057419   -0.0027423331785846315
-0.008463311495378704   -0.08858374890992841   -0.002810690153842901
-0.0076962235326744665   -0.08867302953675713   -0.002665445934633435
-0.007856236077215568   -0.088775031578601   -0.00277923240487455
-0.006347055320751373   -0.089249853057419   -0.0027423331785846315
-0.008463311495378704   -0.08858374890992841   -0.002810690153842901
-0.007856236077215568   -0.088775031578601   -0.00277923240487455
-0.005539416043878228   -0.09   -0.003170575889547108
-0.006347055320751373   -0.089249853057419   -0.0027423331785846315
-0.0076962235326744665   -0.08867302953675713   -0.002665445934633435
-0.005163939394446474   -0.09   -0.002822878276208625
-0.006070415723119282   -0.08924561373860902   -0.0025140619732691113
-0.0076962235326744665   -0.08867302953675713   -0.002665445934633435
-0.008463311495378704   -0.08858374890992841   -0.002810690153842901
-0.005163939394446474   -0.09   -0.002822878276208625
-0.00818758171118493   -0.08856177910309627   -0.0025683865038667168
-0.006070415723119282   -0.08924561373860902   -0.0025140619732691113
-0.004786739362685789   -0.09   -0.002471055169969776
-0.00818758171118493   -0.08856177910309627   -0.0025683865038667168
-0.005163939394446474   -0.09   -0.002822878276208625
-0.006070415723119282   -0.08924561373860902   -0.0025140619732691113
-0.00818758171118493   -0.08856177910309627   -0.0025683865038667168
-0.007504264329168891   -0.08864049890621131   -0.0025363341197644036
-0.0076962235326744665   -0.08867302953675713   -0.002665445934633435
-0.006070415723119282   -0.08924561373860902   -0.0025140619732691113
-0.00818758171118493   -0.08856177910309627   -0.0025683865038667168
-0.0076962235326744665   -0.08867302953675713   -0.002665445934633435
-0.005163939394446474   -0.09   -0.002822878276208625
-0.006070415723119282   -0.08924561373860902   -0.0025140619732691113
-0.007504264329168891   -0.08864049890621131   -0.0025363341197644036
-0.004786739362685789   -0.09   -0.002471055169969776
-0.005773369439953549   -0.08931121723363482   -0.0022852480788413568
-0.007504264329168891   -0.08864049890621131   -0.0025363341197644036
-0.00818758171118493   -0.08856177910309627   -0.0025683865038667168
-0.004786739362685789   -0.09   -0.002471055169969776
-0.007928094664050613   -0.08859972048743495   -0.0023167034982183995
-0.005773369439953549   -0.08931121723363482   -0.0022852480788413568
-0.0044179405201926055   -0.09   -0.002123878033256362
-0.007928094664050613   -0.08859972048743495   -0.0023167034982183995
-0.004786739362685789   -0.09   -0.002471055169969776
-0.005773369439953549   -0.08931121723363482   -0.0022852480788413568
-0.007928094664050613   -0.08859972048743495   -0.0023167034982183995
-0.007306839014359597   -0.08866649099574465   -0.0023987970531719467
-0.007504264329168891   -0.08864049890621131   -0.0025363341197644036
-0.005773369439953549   -0.08931121723363482   -0.0022852480788413568
-0.007928094664050613   -0.08859972048743495   -0.0023167034982183995
-0.007504264329168891   -0.08864049890621131   -0.0025363341197644036
-0.004786739362685789   -0.09   -0.002471055169969776
-0.005539416043878228   -0.09   -0.003170575889547108
-0.008672335338727046   -0.08867998881944615   -0.003035938747051119
-0.0047376444813674425   -0.09   -0.0034118014340144267
-0.005163939394446474   -0.09   -0.002822878276208625
-0.008672335338727046   -0.08867998881944615   -0.003035938747051119
-0.010257259425553875   -0.08824587779199282   -0.0033079346318620516
-0.0047376444813674425   -0.09   -0.0034118014340144267
-0.009702396809559586   -0.08816486585537522   -0.0029383684040661965
-0.005163939394446474   -0.09   -0.002822878276208625
-0.003953079022958613   -0.09   -0.002908901192115581
-0.009702396809559586   -0.08816486585537522   -0.0029383684040661965
-0.0047376444813674425   -0.09   -0.0034118014340144267
-0.005163939394446474   -0.09   -0.002822878276208625
-0.009702396809559586   -0.08816486585537522   -0.0029383684040661965
-0.008463311495378704   -0.08858374890992841   -0.002810690153842901
-0.008672335338727046   -0.08867998881944615   -0.003035938747051119
-0.005163939394446474   -0.09   -0.002822878276208625
-0.009702396809559586   -0.08816486585537522   -0.0029383684040661965
-0.008672335338727046   -0.08867998881944615   -0.003035938747051119
-0.0047376444813674425   -0.09   -0.0034118014340144267
-0.005163939394446474   -0.09   -0.002822878276208625
-0.008463311495378704   -0.08858374890992841   -0.002810690153842901
-0.003953079022958613   -0.09   -0.002908901192115581
-0.004786739362685789   -0.09   -0.002471055169969776
-0.008463311495378704   -0.08858374890992841   -0.002810690153842901
-0.009702396809559586   -0.08816486585537522   -0.0029383684040661965
-0.003953079022958613   -0.09   -0.002908901192115581
-0.009192416112575895   -0.08815367671138082   -0.002543820233660083
-0.004786739362685789   -0.09   -0.002471055169969776
-0.0033273945587163475   -0.09   -0.002427807853367882
-0.009192416112575895   -0.08815367671138082   -0.002543820233660083
-0.003953079022958613   -0.09   -0.002908901192115581
-0.004786739362685789   -0.09   -0.002471055169969776
-0.009192416112575895   -0.08815367671138082   -0.002543820233660083
-0.00818758171118493   -0.08856177910309627   -0.0025683865038667168
-0.008463311495378704   -0.08858374890992841   -0.002810690153842901
-0.004786739362685789   -0.09   -0.002471055169969776
-0.009192416112575895   -0.08815367671138082   -0.002543820233660083
-0.008463311495378704   -0.08858374890992841   -0.002810690153842901
-0.003953079022958613   -0.09   -0.002908901192115581
-0.004786739362685789   -0.09   -0.002471055169969776
-0.00818758171118493   -0.08856177910309627   -0.0025683865038667168
-0.0033273945587163475   -0.09   -0.002427807853367882
-0.0044179405201926055   -0.09   -0.002123878033256362
-0.00818758171118493   -0.08856177910309627   -0.0025683865038667168
-0.009192416112575895   -0.08815367671138082   -0.002543820233660083
-0.0033273945587163475   -0.09   -0.002427807853367882
-0.00854839734099089   -0.08826002456263043   -0.0021311156893895327
-0.0044179405201926055   -0.09   -0.002123878033256362
-0.002554463266918634   -0.09   -0.001928384571388689
-0.00854839734099089   -0.08826002456263043   -0.0021311156893895327
-0.0033273945587163475   -0.09   -0.002427807853367882
-0.0044179405201926055   -0.09   -0.002123878033256362
-0.00854839734099089   -0.08826002456263043   -0.0021311156893895327
-0.007928094664050613   -0.08859972048743495   -0.0023167034982183995
-0.00818758171118493   -0.08856177910309627   -0.0025683865038667168
-0.0044179405201926055   -0.09   -0.002123878033256362
-0.00854839734099089   -0.08826002456263043   -0.0021311156893895327
-0.00818758171118493   -0.08856177910309627   -0.0025683865038667168
-0.0033273945587163475   -0.09   -0.002427807853367882
-0.0063776095829957006   -0.08813252776410782   -0.001890776814015685
-0.0025927993108139902   -0.08479553980085515   -0.0016340401428260726
-0.006766838342925753   -0.08847424429780724   -0.0022342616404732074
-0.005932625494259346   -0.08797865513545564   -0.0021835992667567803
-0.0025927993108139902   -0.08479553980085515   -0.0016340401428260726
-0.0048523465902174994   -0.0850531063361813   -0.001998825487811181
-0.006766838342925753   -0.08847424429780724   -0.0022342616404732074
-0.004728441619541017   -0.08490809910616069   -0.002110307755922246
-0.005932625494259346   -0.08797865513545564   -0.0021835992667567803
-0.006592329051570257   -0.08835439564374986   -0.002359354179006364
-0.004728441619541017   -0.08490809910616069   -0.002110307755922246
-0.006766838342925753   -0.08847424429780724   -0.0022342616404732074
-0.005932625494259346   -0.08797865513545564   -0.0021835992667567803
-0.004728441619541017   -0.08490809910616069   -0.002110307755922246
-0.00223819773776828   -0.08461613519970279   -0.001886984568327954
-0.0025927993108139902   -0.08479553980085515   -0.0016340401428260726
-0.005932625494259346   -0.08797865513545564   -0.0021835992667567803
-0.004728441619541017   -0.08490809910616069   -0.002110307755922246
-0.0025927993108139902   -0.08479553980085515   -0.0016340401428260726
-0.006766838342925753   -0.08847424429780724   -0.0022342616404732074
-0.005932625494259346   -0.08797865513545564   -0.0021835992667567803
-0.00223819773776828   -0.08461613519970279   -0.001886984568327954
-0.006592329051570257   -0.08835439564374986   -0.002359354179006364
-0.005562207437116146   -0.08793112633042668   -0.002464375613063126
-0.00223819773776828   -0.08461613519970279   -0.001886984568327954
-0.004728441619541017   -0.08490809910616069   -0.002110307755922246
-0.006592329051570257   -0.08835439564374986   -0.002359354179006364
-0.004588995962266614   -0.08482758960621438   -0.0022117138851412274
-0.005562207437116146   -0.08793112633042668   -0.002464375613063126
-0.006387675071561836   -0.08831001135212248   -0.0024747405362764044
-0.004588995962266614   -0.08482758960621438   -0.0022117138851412274
-0.006592329051570257   -0.08835439564374986   -0.002359354179006364
-0.005562207437116146   -0.08793112633042668   -0.002464375613063126
-0.004588995962266614   -0.08482758960621438   -0.0022117138851412274
-0.0019591729341871013   -0.08453050244881231   -0.0021249919399050974
-0.00223819773776828   -0.08461613519970279   -0.001886984568327954
-0.005562207437116146   -0.08793112633042668   -0.002464375613063126
-0.004588995962266614   -0.08482758960621438   -0.0022117138851412274
-0.00223819773776828   -0.08461613519970279   -0.001886984568327954
-0.006592329051570257   -0.08835439564374986   -0.002359354179006364
-0.005562207437116146   -0.08793112633042668   -0.002464375613063126
-0.0019591729341871013   -0.08453050244881231   -0.0021249919399050974
-0.006387675071561836   -0.08831001135212248   -0.0024747405362764044
-0.005143192828232421   -0.08797070054252913   -0.002731852862666724
-0.0019591729341871013   -0.08453050244881231   -0.0021249919399050974
-0.004588995962266614   -0.08482758960621438   -0.0022117138851412274
-0.006387675071561836   -0.08831001135212248   -0.0024747405362764044
-0.00448206900698093   -0.08480933081372274   -0.0023033641609827757
-0.005143192828232421   -0.08797070054252913   -0.002731852862666724
-0.006212339168116139   -0.08834172652951376   -0.002579814568406581
-0.00448206900698093   -0.08480933081372274   -0.0023033641609827757
-0.006387675071561836   -0.08831001135212248   -0.0024747405362764044
-0.005143192828232421   -0.08797070054252913   -0.002731852862666724
-0.00448206900698093   -0.08480933081372274   -0.0023033641609827757
-0.0016545580116684461   -0.08451407649402928   -0.002347428767934525
-0.0019591729341871013   -0.08453050244881231   -0.0021249919399050974
-0.005143192828232421   -0.08797070054252913   -0.002731852862666724
-0.00448206900698093   -0.08480933081372274   -0.0023033641609827757
-0.0019591729341871013   -0.08453050244881231   -0.0021249919399050974
-0.006387675071561836   -0.08831001135212248   -0.0024747405362764044
-0.006766838342925753   -0.08847424429780724   -0.0022342616404732074
-0.0048523465902174994   -0.0850531063361813   -0.001998825487811181
-0.007292673464543458   -0.08868575394855897   -0.0025089325505339433
-0.006592329051570257   -0.08835439564374986   -0.002359354179006364
-0.0048523465902174994   -0.0850531063361813   -0.001998825487811181
-0.007082074846276006   -0.08514404144562532   -0.0022964423129992347
-0.007292673464543458   -0.08868575394855897   -0.0025089325505339433
-0.0069778663619004914   -0.08501752814932   -0.002302623817432411
-0.006592329051570257   -0.08835439564374986   -0.002359354179006364
-0.007138203618641479   -0.08857874651301222   -0.0025122434805323413
-0.0069778663619004914   -0.08501752814932   -0.002302623817432411
-0.007292673464543458   -0.08868575394855897   -0.0025089325505339433
-0.006592329051570257   -0.08835439564374986   -0.002359354179006364
-0.0069778663619004914   -0.08501752814932   -0.002302623817432411
-0.004728441619541017   -0.08490809910616069   -0.002110307755922246
-0.0048523465902174994   -0.0850531063361813   -0.001998825487811181
-0.006592329051570257   -0.08835439564374986   -0.002359354179006364
-0.0069778663619004914   -0.08501752814932   -0.002302623817432411
-0.0048523465902174994   -0.0850531063361813   -0.001998825487811181
-0.007292673464543458   -0.08868575394855897   -0.0025089325505339433
-0.006592329051570257   -0.08835439564374986   -0.002359354179006364
-0.004728441619541017   -0.08490809910616069   -0.002110307755922246
-0.007138203618641479   -0.08857874651301222   -0.0025122434805323413
-0.006387675071561836   -0.08831001135212248   -0.0024747405362764044
-0.004728441619541017   -0.08490809910616069   -0.002110307755922246
-0.0069778663619004914   -0.08501752814932   -0.002302623817432411
-0.007138203618641479   -0.08857874651301222   -0.0025122434805323413
-0.0068700912512591125   -0.08494915916609201   -0.0022994743511684586
-0.006387675071561836   -0.08831001135212248   -0.0024747405362764044
-0.006966259442493661   -0.08854008997851891   -0.0025029702501126612
-0.0068700912512591125   -0.08494915916609201   -0.0022994743511684586
-0.007138203618641479   -0.08857874651301222   -0.0025122434805323413
-0.006387675071561836   -0.08831001135212248   -0.0024747405362764044
-0.0068700912512591125   -0.08494915916609201   -0.0022994743511684586
-0.004588995962266614   -0.08482758960621438   -0.0022117138851412274
-0.004728441619541017   -0.08490809910616069   -0.002110307755922246
-0.006387675071561836   -0.08831001135212248   -0.0024747405362764044
-0.0068700912512591125   -0.08494915916609201   -0.0022994743511684586
-0.004728441619541017   -0.08490809910616069   -0.002110307755922246
-0.007138203618641479   -0.08857874651301222   -0.0025122434805323413
-0.006387675071561836   -0.08831001135212248   -0.0024747405362764044
-0.004588995962266614   -0.08482758960621438   -0.0022117138851412274
-0.006966259442493661   -0.08854008997851891   -0.0025029702501126612
-0.006212339168116139   -0.08834172652951376   -0.002579814568406581
-0.004588995962266614   -0.08482758960621438   -0.0022117138851412274
-0.0068700912512591125   -0.08494915916609201   -0.0022994743511684586
-0.006966259442493661   -0.08854008997851891   -0.0025029702501126612
-0.006766146577157731   -0.08493612086107542   -0.002286903196853521
-0.006212339168116139   -0.08834172652951376   -0.002579814568406581
-0.006791427037583803   -0.08856664869404272   -0.002483822930240685
-0.006766146577157731   -0.08493612086107542   -0.002286903196853521
-0.006966259442493661   -0.08854008997851891   -0.0025029702501126612
-0.006212339168116139   -0.08834172652951376   -0.002579814568406581
-0.006766146577157731   -0.08493612086107542   -0.002286903196853521
-0.00448206900698093   -0.08480933081372274   -0.0023033641609827757
-0.004588995962266614   -0.08482758960621438   -0.0022117138851412274
-0.006212339168116139   -0.08834172652951376   -0.002579814568406581
-0.006766146577157731   -0.08493612086107542   -0.002286903196853521
-0.004588995962266614   -0.08482758960621438   -0.0022117138851412274
-0.006966259442493661   -0.08854008997851891   -0.0025029702501126612
-0.007292673464543458   -0.08868575394855897   -0.0025089325505339433
-0.007082074846276006   -0.08514404144562532   -0.0022964423129992347
-0.007856236077215568   -0.088775031578601   -0.00277923240487455
-0.007138203618641479   -0.08857874651301222   -0.0025122434805323413
-0.007082074846276006   -0.08514404144562532   -0.0022964423129992347
-0.00929626965133343   -0.08506333994545989   -0.0025749633375454417
-0.007856236077215568   -0.088775031578601   -0.00277923240487455
-0.009192884138711922   -0.08495099726526614   -0.002480182963826212
-0.007138203618641479   -0.08857874651301222   -0.0025122434805323413
-0.0076962235326744665   -0.08867302953675713   -0.002665445934633435
-0.009192884138711922   -0.08495099726526614   -0.002480182963826212
-0.007856236077215568   -0.088775031578601   -0.00277923240487455
-0.007138203618641479   -0.08857874651301222   -0.0025122434805323413
-0.009192884138711922   -0.08495099726526614   -0.002480182963826212
-0.0069778663619004914   -0.08501752814932   -0.002302623817432411
-0.007082074846276006   -0.08514404144562532   -0.0022964423129992347
-0.007138203618641479   -0.08857874651301222   -0.0025122434805323413
-0.009192884138711922   -0.08495099726526614   -0.002480182963826212
-0.007082074846276006   -0.08514404144562532   -0.0022964423129992347
-0.007856236077215568   -0.088775031578601   -0.00277923240487455
-0.007138203618641479   -0.08857874651301222   -0.0025122434805323413
-0.0069778663619004914   -0.08501752814932   -0.002302623817432411
-0.0076962235326744665   -0.08867302953675713   -0.002665445934633435
-0.006966259442493661   -0.08854008997851891   -0.0025029702501126612
-0.0069778663619004914   -0.08501752814932   -0.002302623817432411
-0.009192884138711922   -0.08495099726526614   -0.002480182963826212
-0.0076962235326744665   -0.08867302953675713   -0.002665445934633435
-0.009076861145479944   -0.08489581963129557   -0.0023762083208758236
-0.006966259442493661   -0.08854008997851891   -0.0025029702501126612
-0.007504264329168891   -0.08864049890621131   -0.0025363341197644036
-0.009076861145479944   -0.08489581963129557   -0.0023762083208758236
-0.0076962235326744665   -0.08867302953675713   -0.002665445934633435
-0.006966259442493661   -0.08854008997851891   -0.0025029702501126612
-0.009076861145479944   -0.08489581963129557   -0.0023762083208758236
-0.0068700912512591125   -0.08494915916609201   -0.0022994743511684586
-0.0069778663619004914   -0.08501752814932   -0.002302623817432411
-0.006966259442493661   -0.08854008997851891   -0.0025029702501126612
-0.009076861145479944   -0.08489581963129557   -0.0023762083208758236
-0.0069778663619004914   -0.08501752814932   -0.002302623817432411
-0.0076962235326744665   -0.08867302953675713   -0.002665445934633435
-0.006966259442493661   -0.08854008997851891   -0.0025029702501126612
-0.0068700912512591125   -0.08494915916609201   -0.0022994743511684586
-0.007504264329168891   -0.08864049890621131   -0.0025363341197644036
-0.006791427037583803   -0.08856664869404272   -0.002483822930240685
-0.0068700912512591125   -0.08494915916609201   -0.0022994743511684586
-0.009076861145479944   -0.08489581963129557   -0.0023762083208758236
-0.007504264329168891   -0.08864049890621131   -0.0025363341197644036
-0.00896034087024867   -0.08489228686465684   -0.0022619189481512944
-0.006791427037583803   -0.08856664869404272   -0.002483822930240685
-0.007306839014359597   -0.08866649099574465   -0.0023987970531719467
-0.00896034087024867   -0.08489228686465684   -0.0022619189481512944
-0.007504264329168891   -0.08864049890621131   -0.0025363341197644036
-0.006791427037583803   -0.08856664869404272   -0.002483822930240685
-0.00896034087024867   -0.08489228686465684   -0.0022619189481512944
-0.006766146577157731   -0.08493612086107542   -0.002286903196853521
-0.0068700912512591125   -0.08494915916609201   -0.0022994743511684586
-0.006791427037583803   -0.08856664869404272   -0.002483822930240685
-0.00896034087024867   -0.08489228686465684   -0.0022619189481512944
-0.0068700912512591125   -0.08494915916609201   -0.0022994743511684586
-0.007504264329168891   -0.08864049890621131   -0.0025363341197644036
-0.007856236077215568   -0.088775031578601   -0.00277923240487455
-0.00929626965133343   -0.08506333994545989   -0.0025749633375454417
-0.008672335338727046   -0.08867998881944615   -0.003035938747051119
-0.0076962235326744665   -0.08867302953675713   -0.002665445934633435
-0.00929626965133343   -0.08506333994545989   -0.0025749633375454417
-0.011729226592936898   -0.08480028885740919   -0.0028307288860064377
-0.008672335338727046   -0.08867998881944615   -0.003035938747051119
-0.011602715999660722   -0.08470216114971602   -0.0026372533988741798
-0.0076962235326744665   -0.08867302953675713   -0.002665445934633435
-0.008463311495378704   -0.08858374890992841   -0.002810690153842901
-0.011602715999660722   -0.08470216114971602   -0.0026372533988741798
-0.008672335338727046   -0.08867998881944615   -0.003035938747051119
-0.0076962235326744665   -0.08867302953675713   -0.002665445934633435
-0.011602715999660722   -0.08470216114971602   -0.0026372533988741798
-0.009192884138711922   -0.08495099726526614   -0.002480182963826212
-0.00929626965133343   -0.08506333994545989   -0.0025749633375454417
-0.0076962235326744665   -0.08867302953675713   -0.002665445934633435
-0.011602715999660722   -0.08470216114971602   -0.0026372533988741798
-0.00929626965133343   -0.08506333994545989   -0.0025749633375454417
-0.008672335338727046   -0.08867998881944615   -0.003035938747051119
-0.0076962235326744665   -0.08867302953675713   -0.002665445934633435
-0.009192884138711922   -0.08495099726526614   -0.002480182963826212
-0.008463311495378704   -0.08858374890992841   -0.002810690153842901
-0.007504264329168891   -0.08864049890621131   -0.0025363341197644036
-0.009192884138711922   -0.08495099726526614   -0.002480182963826212
-0.011602715999660722   -0.08470216114971602   -0.0026372533988741798
-0.008463311495378704   -0.08858374890992841   -0.002810690153842901
-0.011428092924958824   -0.08466012218160135   -0.0024352537255932223
-0.007504264329168891   -0.08864049890621131   -0.0025363341197644036
-0.00818758171118493   -0.08856177910309627   -0.0025683865038667168
-0.011428092924958824   -0.08466012218160135   -0.0024352537255932223
-0.008463311495378704   -0.08858374890992841   -0.002810690153842901
-0.007504264329168891   -0.08864049890621131   -0.0025363341197644036
-0.011428092924958824   -0.08466012218160135   -0.0024352537255932223
-0.009076861145479944   -0.08489581963129557   -0.0023762083208758236
-0.009192884138711922   -0.08495099726526614   -0.002480182963826212
-0.007504264329168891   -0.08864049890621131   -0.0025363341197644036
-0.011428092924958824   -0.08466012218160135   -0.0024352537255932223
-0.009192884138711922   -0.08495099726526614   -0.002480182963826212
-0.008463311495378704   -0.08858374890992841   -0.002810690153842901
-0.007504264329168891   -0.08864049890621131   -0.0025363341197644036
-0.009076861145479944   -0.08489581963129557   -0.0023762083208758236
-0.00818758171118493   -0.08856177910309627   -0.0025683865038667168
-0.007306839014359597   -0.08866649099574465   -0.0023987970531719467
-0.009076861145479944   -0.08489581963129557   -0.0023762083208758236
-0.011428092924958824   -0.08466012218160135   -0.0024352537255932223
-0.00818758171118493   -0.08856177910309627   -0.0025683865038667168
-0.011275600585211494   -0.08467424266799832   -0.002219088846865721
-0.007306839014359597   -0.08866649099574465   -0.0023987970531719467
-0.007928094664050613   -0.08859972048743495   -0.0023167034982183995
-0.011275600585211494   -0.08467424266799832   -0.002219088846865721
-0.00818758171118493   -0.08856177910309627   -0.0025683865038667168
-0.007306839014359597   -0.08866649099574465   -0.0023987970531719467
-0.011275600585211494   -0.08467424266799832   -0.002219088846865721
-0.00896034087024867   -0.08489228686465684   -0.0022619189481512944
-0.009076861145479944   -0.08489581963129557   -0.0023762083208758236
-0.007306839014359597   -0.08866649099574465   -0.0023987970531719467
-0.011275600585211494   -0.08467424266799832   -0.002219088846865721
-0.009076861145479944   -0.08489581963129557   -0.0023762083208758236
-0.00818758171118493   -0.08856177910309627   -0.0025683865038667168
-0.008672335338727046   -0.08867998881944615   -0.003035938747051119
-0.011729226592936898   -0.08480028885740919   -0.0028307288860064377
-0.010257259425553875   -0.08824587779199282   -0.0033079346318620516
-0.008463311495378704   -0.08858374890992841   -0.002810690153842901
-0.011729226592936898   -0.08480028885740919   -0.0028307288860064377
-0.014862357792203247   -0.08437248288891148   -0.0030760006914095123
-0.010257259425553875   -0.08824587779199282   -0.0033079346318620516
-0.014455592962708022   -0.08426618908444101   -0.002770558900315901
-0.008463311495378704   -0.08858374890992841   -0.002810690153842901
-0.009702396809559586   -0.08816486585537522   -0.0029383684040661965
-0.014455592962708022   -0.08426618908444101   -0.002770558900315901
-0.010257259425553875   -0.08824587779199282   -0.0033079346318620516
-0.008463311495378704   -0.08858374890992841   -0.002810690153842901
-0.014455592962708022   -0.08426618908444101   -0.002770558900315901
-0.011602715999660722   -0.08470216114971602   -0.0026372533988741798
-0.011729226592936898   -0.08480028885740919   -0.0028307288860064377
-0.008463311495378704   -0.08858374890992841   -0.002810690153842901
-0.014455592962708022   -0.08426618908444101   -0.002770558900315901
-0.011729226592936898   -0.08480028885740919   -0.0028307288860064377
-0.010257259425553875   -0.08824587779199282   -0.0033079346318620516
-0.008463311495378704   -0.08858374890992841   -0.002810690153842901
-0.011602715999660722   -0.08470216114971602   -0.0026372533988741798
-0.009702396809559586   -0.08816486585537522   -0.0029383684040661965
-0.00818758171118493   -0.08856177910309627   -0.0025683865038667168
-0.011602715999660722   -0.08470216114971602   -0.0026372533988741798
-0.014455592962708022   -0.08426618908444101   -0.002770558900315901
-0.009702396809559586   -0.08816486585537522   -0.0029383684040661965
-0.014090845978870913   -0.08422730430209856   -0.0024472517902152124
-0.00818758171118493   -0.08856177910309627   -0.0025683865038667168
-0.009192416112575895   -0.08815367671138082   -0.002543820233660083
-0.014090845978870913   -0.08422730430209856   -0.0024472517902152124
-0.009702396809559586   -0.08816486585537522   -0.0029383684040661965
-0.00818758171118493   -0.08856177910309627   -0.0025683865038667168
-0.014090845978870913   -0.08422730430209856   -0.0024472517902152124
-0.011428092924958824   -0.08466012218160135   -0.0024352537255932223
-0.011602715999660722   -0.08470216114971602   -0.0026372533988741798
-0.00818758171118493   -0.08856177910309627   -0.0025683865038667168
-0.014090845978870913   -0.08422730430209856   -0.0024472517902152124
-0.011602715999660722   -0.08470216114971602   -0.0026372533988741798
-0.009702396809559586   -0.08816486585537522   -0.0029383684040661965
-0.00818758171118493   -0.08856177910309627   -0.0025683865038667168
-0.011428092924958824   -0.08466012218160135   -0.0024352537255932223
-0.009192416112575895   -0.08815367671138082   -0.002543820233660083
-0.007928094664050613   -0.08859972048743495   -0.0023167034982183995
-0.011428092924958824   -0.08466012218160135   -0.0024352537255932223
-0.014090845978870913   -0.08422730430209856   -0.0024472517902152124
-0.009192416112575895   -0.08815367671138082   -0.002543820233660083
-0.013618097613204632   -0.08427584487697175   -0.002109157002064473
-0.007928094664050613   -0.08859972048743495   -0.0023167034982183995
-0.00854839734099089   -0.08826002456263043   -0.0021311156893895327
-0.013618097613204632   -0.08427584487697175   -0.002109157002064473
-0.009192416112575895   -0.08815367671138082   -0.002543820233660083
-0.007928094664050613   -0.08859972048743495   -0.0023167034982183995
-0.013618097613204632   -0.08427584487697175   -0.002109157002064473
-0.011275600585211494   -0.08467424266799832   -0.002219088846865721
-0.011428092924958824   -0.08466012218160135   -0.0024352537255932223
-0.007928094664050613   -0.08859972048743495   -0.0023167034982183995
-0.013618097613204632   -0.08427584487697175   -0.002109157002064473
-0.011428092924958824   -0.08466012218160135   -0.0024352537255932223
-0.009192416112575895   -0.08815367671138082   -0.002543820233660083
-0.0025927993108139902   -0.08479553980085515   -0.0016340401428260726
0.00047522685028323936   -0.07866090569253871   -0.0013519314817216606
-0.0048523465902174994   -0.0850531063361813   -0.001998825487811181
-0.00223819773776828   -0.08461613519970279   -0.001886984568327954
0.00047522685028323936   -0.07866090569253871   -0.0013519314817216606
-0.0033331473394202322   -0.07884962310311097   -0.001710009389946095
-0.0048523465902174994   -0.0850531063361813   -0.001998825487811181
-0.003267529863125829   -0.07869766790097078   -0.0017983899886401344
-0.00223819773776828   -0.08461613519970279   -0.001886984568327954
-0.004728441619541017   -0.08490809910616069   -0.002110307755922246
-0.003267529863125829   -0.07869766790097078   -0.0017983899886401344
-0.0048523465902174994   -0.0850531063361813   -0.001998825487811181
-0.00223819773776828   -0.08461613519970279   -0.001886984568327954
-0.003267529863125829   -0.07869766790097078   -0.0017983899886401344
0.0007226196270883466   -0.07847866450637854   -0.0015531930896000514
0.00047522685028323936   -0.07866090569253871   -0.0013519314817216606
-0.00223819773776828   -0.08461613519970279   -0.001886984568327954
-0.003267529863125829   -0.07869766790097078   -0.0017983899886401344
0.00047522685028323936   -0.07866090569253871   -0.0013519314817216606
-0.0048523465902174994   -0.0850531063361813   -0.001998825487811181
-0.00223819773776828   -0.08461613519970279   -0.001886984568327954
0.0007226196270883466   -0.07847866450637854   -0.0015531930896000514
-0.004728441619541017   -0.08490809910616069   -0.002110307755922246
-0.0019591729341871013   -0.08453050244881231   -0.0021249919399050974
0.0007226196270883466   -0.07847866450637854   -0.0015531930896000514
-0.003267529863125829   -0.07869766790097078   -0.0017983899886401344
-0.004728441619541017   -0.08490809910616069   -0.002110307755922246
-0.003192845454056432   -0.0785982688151017   -0.0018764487430169324
-0.0019591729341871013   -0.08453050244881231   -0.0021249919399050974
-0.004588995962266614   -0.08482758960621438   -0.0022117138851412274
-0.003192845454056432   -0.0785982688151017   -0.0018764487430169324
-0.004728441619541017   -0.08490809910616069   -0.002110307755922246
-0.0019591729341871013   -0.08453050244881231   -0.0021249919399050974
-0.003192845454056432   -0.0785982688151017   -0.0018764487430169324
0.0009045786869322924   -0.07837317365894389   -0.0017400077345801014
0.0007226196270883466   -0.07847866450637854   -0.0015531930896000514
-0.0019591729341871013   -0.08453050244881231   -0.0021249919399050974
-0.003192845454056432   -0.0785982688151017   -0.0018764487430169324
0.0007226196270883466   -0.07847866450637854   -0.0015531930896000514
-0.004728441619541017   -0.08490809910616069   -0.002110307755922246
-0.0019591729341871013   -0.08453050244881231   -0.0021249919399050974
0.0009045786869322924   -0.07837317365894389   -0.0017400077345801014
-0.004588995962266614   -0.08482758960621438   -0.0022117138851412274
-0.0016545580116684461   -0.08451407649402928   -0.002347428767934525
0.0009045786869322924   -0.07837317365894389   -0.0017400077345801014
-0.003192845454056432   -0.0785982688151017   -0.0018764487430169324
-0.004588995962266614   -0.08482758960621438   -0.0022117138851412274
-0.0031481990755611194   -0.07854848988905429   -0.0019452045150057883
-0.0016545580116684461   -0.08451407649402928   -0.002347428767934525
-0.00448206900698093   -0.08480933081372274   -0.0023033641609827757
-0.0031481990755611194   -0.07854848988905429   -0.0019452045150057883
-0.004588995962266614   -0.08482758960621438   -0.0022117138851412274
-0.0016545580116684461   -0.08451407649402928   -0.002347428767934525
-0.0031481990755611194   -0.07854848988905429   -0.0019452045150057883
0.0010992729107182223   -0.07832089443124607   -0.001912303142998441
0.0009045786869322924   -0.07837317365894389   -0.0017400077345801014
-0.0016545580116684461   -0.08451407649402928   -0.002347428767934525
-0.0031481990755611194   -0.07854848988905429   -0.0019452045150057883
0.0009045786869322924   -0.07837317365894389   -0.0017400077345801014
-0.004588995962266614   -0.08482758960621438   -0.0022117138851412274
-0.0048523465902174994   -0.0850531063361813   -0.001998825487811181
-0.0033331473394202322   -0.07884962310311097   -0.001710009389946095
-0.007082074846276006   -0.08514404144562532   -0.0022964423129992347
-0.004728441619541017   -0.08490809910616069   -0.002110307755922246
-0.0033331473394202322   -0.07884962310311097   -0.001710009389946095
-0.00701667174002357   -0.07888570391622103   -0.0020051675024696384
-0.007082074846276006   -0.08514404144562532   -0.0022964423129992347
-0.0069684098661937   -0.078755233672589   -0.0020074723583872038
-0.004728441619541017   -0.08490809910616069   -0.002110307755922246
-0.0069778663619004914   -0.08501752814932   -0.002302623817432411
-0.0069684098661937   -0.078755233672589   -0.0020074723583872038
-0.007082074846276006   -0.08514404144562532   -0.0022964423129992347
-0.004728441619541017   -0.08490809910616069   -0.002110307755922246
-0.0069684098661937   -0.078755233672589   -0.0020074723583872038
-0.003267529863125829   -0.07869766790097078   -0.0017983899886401344
-0.0033331473394202322   -0.07884962310311097   -0.001710009389946095
-0.004728441619541017   -0.08490809910616069   -0.002110307755922246
-0.0069684098661937   -0.078755233672589   -0.0020074723583872038
-0.0033331473394202322   -0.07884962310311097   -0.001710009389946095
-0.007082074846276006   -0.08514404144562532   -0.0022964423129992347
-0.004728441619541017   -0.08490809910616069   -0.002110307755922246
-0.003267529863125829   -0.07869766790097078   -0.0017983899886401344
-0.0069778663619004914   -0.08501752814932   -0.002302623817432411
-0.004588995962266614   -0.08482758960621438   -0.0022117138851412274
-0.003267529863125829   -0.07869766790097078   -0.0017983899886401344
-0.0069684098661937   -0.078755233672589   -0.0020074723583872038
-0.0069778663619004914   -0.08501752814932   -0.002302623817432411
-0.006918787127284733   -0.07867180656381688   -0.001999889597632591
-0.004588995962266614   -0.08482758960621438   -0.0022117138851412274
-0.0068700912512591125   -0.08494915916609201   -0.0022994743511684586
-0.006918787127284733   -0.07867180656381688   -0.001999889597632591
-0.0069778663619004914   -0.08501752814932   -0.002302623817432411
-0.004588995962266614   -0.08482758960621438   -0.0022117138851412274
-0.006918787127284733   -0.07867180656381688   -0.001999889597632591
-0.003192845454056432   -0.0785982688151017   -0.0018764487430169324
-0.003267529863125829   -0.07869766790097078   -0.0017983899886401344
-0.004588995962266614   -0.08482758960621438   -0.0022117138851412274
-0.006918787127284733   -0.07867180656381688   -0.001999889597632591
-0.003267529863125829   -0.07869766790097078   -0.0017983899886401344
-0.0069778663619004914   -0.08501752814932   -0.002302623817432411
-0.004588995962266614   -0.08482758960621438   -0.0022117138851412274
-0.003192845454056432   -0.0785982688151017   -0.0018764487430169324
-0.0068700912512591125   -0.08494915916609201   -0.0022994743511684586
-0.00448206900698093   -0.08480933081372274   -0.0023033641609827757
-0.003192845454056432   -0.0785982688151017   -0.0018764487430169324
-0.006918787127284733   -0.07867180656381688   -0.001999889597632591
-0.0068700912512591125   -0.08494915916609201   -0.0022994743511684586
-0.006875382927900858   -0.07863464149885811   -0.0019830749104145294
-0.00448206900698093   -0.08480933081372274   -0.0023033641609827757
-0.006766146577157731   -0.08493612086107542   -0.002286903196853521
-0.006875382927900858   -0.07863464149885811   -0.0019830749104145294
-0.0068700912512591125   -0.08494915916609201   -0.0022994743511684586
-0.00448206900698093   -0.08480933081372274   -0.0023033641609827757
-0.006875382927900858   -0.07863464149885811   -0.0019830749104145294
-0.0031481990755611194   -0.07854848988905429   -0.0019452045150057883
-0.003192845454056432   -0.0785982688151017   -0.0018764487430169324
-0.00448206900698093   -0.08480933081372274   -0.0023033641609827757
-0.006875382927900858   -0.07863464149885811   -0.0019830749104145294
-0.003192845454056432   -0.0785982688151017   -0.0018764487430169324
-0.0068700912512591125   -0.08494915916609201   -0.0022994743511684586
-0.007082074846276006   -0.08514404144562532   -0.0022964423129992347
-0.00701667174002357   -0.07888570391622103   -0.0020051675024696384
-0.00929626965133343   -0.08506333994545989   -0.0025749633375454417
-0.0069778663619004914   -0.08501752814932   -0.002302623817432411
-0.00701667174002357   -0.07888570391622103   -0.0020051675024696384
-0.010642146731615365   -0.07876846813469585   -0.0022716090048159787
-0.00929626965133343   -0.08506333994545989   -0.0025749633375454417
-0.01059721226548655   -0.07865588974560395   -0.0021899158458600783
-0.0069778663619004914   -0.08501752814932   -0.002302623817432411
-0.009192884138711922   -0.08495099726526614   -0.002480182963826212
-0.01059721226548655   -0.07865588974560395   -0.0021899158458600783
-0.00929626965133343   -0.08506333994545989   -0.0025749633375454417
-0.0069778663619004914   -0.08501752814932   -0.002302623817432411
-0.01059721226548655   -0.07865588974560395   -0.0021899158458600783
-0.0069684098661937   -0.078755233672589   -0.0020074723583872038
-0.00701667174002357   -0.07888570391622103   -0.0020051675024696384
-0.0069778663619004914   -0.08501752814932   -0.002302623817432411
-0.01059721226548655   -0.07865588974560395   -0.0021899158458600783
-0.00701667174002357   -0.07888570391622103   -0.0020051675024696384
-0.00929626965133343   -0.08506333994545989   -0.0025749633375454417
-0.0069778663619004914   -0.08501752814932   -0.002302623817432411
-0.0069684098661937   -0.078755233672589   -0.0020074723583872038
-0.009192884138711922   -0.08495099726526614   -0.002480182963826212
-0.0068700912512591125   -0.08494915916609201   -0.0022994743511684586
-0.0069684098661937   -0.078755233672589   -0.0020074723583872038
-0.01059721226548655   -0.07865588974560395   -0.0021899158458600783
-0.009192884138711922   -0.08495099726526614   -0.002480182963826212
-0.010542917979138599   -0.07858983623195107   -0.002098548115790749
-0.0068700912512591125   -0.08494915916609201   -0.0022994743511684586
-0.009076861145479944   -0.08489581963129557   -0.0023762083208758236
-0.010542917979138599   -0.07858983623195107   -0.002098548115790749
-0.009192884138711922   -0.08495099726526614   -0.002480182963826212
-0.0068700912512591125   -0.08494915916609201   -0.0022994743511684586
-0.010542917979138599   -0.07858983623195107   -0.002098548115790749
-0.006918787127284733   -0.07867180656381688   -0.001999889597632591
-0.0069684098661937   -0.078755233672589   -0.0020074723583872038
-0.0068700912512591125   -0.08494915916609201   -0.0022994743511684586
-0.010542917979138599   -0.07858983623195107   -0.002098548115790749
-0.0069684098661937   -0.078755233672589   -0.0020074723583872038
-0.009192884138711922   -0.08495099726526614   -0.002480182963826212
-0.0068700912512591125   -0.08494915916609201   -0.0022994743511684586
-0.006918787127284733   -0.07867180656381688   -0.001999889597632591
-0.009076861145479944   -0.08489581963129557   -0.0023762083208758236
-0.006766146577157731   -0.08493612086107542   -0.002286903196853521
-0.006918787127284733   -0.07867180656381688   -0.001999889597632591
-0.010542917979138599   -0.07858983623195107   -0.002098548115790749
-0.009076861145479944   -0.08489581963129557   -0.0023762083208758236
-0.010490099917882502   -0.07856813660171603   -0.001997804102327029
-0.006766146577157731   -0.08493612086107542   -0.002286903196853521
-0.00896034087024867   -0.08489228686465684   -0.0022619189481512944
-0.010490099917882502   -0.07856813660171603   -0.001997804102327029
-0.009076861145479944   -0.08489581963129557   -0.0023762083208758236
-0.006766146577157731   -0.08493612086107542   -0.002286903196853521
-0.010490099917882502   -0.07856813660171603   -0.001997804102327029
-0.006875382927900858   -0.07863464149885811   -0.0019830749104145294
-0.006918787127284733   -0.07867180656381688   -0.001999889597632591
-0.006766146577157731   -0.08493612086107542   -0.002286903196853521
-0.010490099917882502   -0.07856813660171603   -0.001997804102327029
-0.006918787127284733   -0.07867180656381688   -0.001999889597632591
-0.009076861145479944   -0.08489581963129557   -0.0023762083208758236
-0.00929626965133343   -0.08506333994545989   -0.0025749633375454417
-0.010642146731615365   -0.07876846813469585   -0.0022716090048159787
-0.011729226592936898   -0.08480028885740919   -0.0028307288860064377
-0.009192884138711922   -0.08495099726526614   -0.002480182963826212
-0.010642146731615365   -0.07876846813469585   -0.0022716090048159787
-0.01444170128950195   -0.07850209094736815   -0.0025082840881621494
-0.011729226592936898   -0.08480028885740919   -0.0028307288860064377
-0.01438305139822201   -0.07840661041273199   -0.002342494886077593
-0.009192884138711922   -0.08495099726526614   -0.002480182963826212
-0.011602715999660722   -0.08470216114971602   -0.0026372533988741798
-0.01438305139822201   -0.07840661041273199   -0.002342494886077593
-0.011729226592936898   -0.08480028885740919   -0.0028307288860064377
-0.009192884138711922   -0.08495099726526614   -0.002480182963826212
-0.01438305139822201   -0.07840661041273199   -0.002342494886077593
-0.01059721226548655   -0.07865588974560395   -0.0021899158458600783
-0.010642146731615365   -0.07876846813469585   -0.0022716090048159787
-0.009192884138711922   -0.08495099726526614   -0.002480182963826212
-0.01438305139822201   -0.07840661041273199   -0.002342494886077593
-0.010642146731615365   -0.07876846813469585   -0.0022716090048159787
-0.011729226592936898   -0.08480028885740919   -0.0028307288860064377
-0.009192884138711922   -0.08495099726526614   -0.002480182963826212
-0.01059721226548655   -0.07865588974560395   -0.0021899158458600783
-0.011602715999660722   -0.08470216114971602   -0.0026372533988741798
-0.009076861145479944   -0.08489581963129557   -0.0023762083208758236
-0.01059721226548655   -0.07865588974560395   -0.0021899158458600783
-0.01438305139822201   -0.07840661041273199   -0.002342494886077593
-0.011602715999660722   -0.08470216114971602   -0.0026372533988741798
-0.014283650588662669   -0.07835630845555992   -0.0021685154971340047
-0.009076861145479944   -0.08489581963129557   -0.0023762083208758236
-0.011428092924958824   -0.08466012218160135   -0.0024352537255932223
-0.014283650588662669   -0.07835630845555992   -0.0021685154971340047
-0.011602715999660722   -0.08470216114971602   -0.0026372533988741798
-0.009076861145479944   -0.08489581963129557   -0.0023762083208758236
-0.014283650588662669   -0.07835630845555992   -0.0021685154971340047
-0.010542917979138599   -0.07858983623195107   -0.002098548115790749
-0.01059721226548655   -0.07865588974560395   -0.0021899158458600783
-0.009076861145479944   -0.08489581963129557   -0.0023762083208758236
-0.014283650588662669   -0.07835630845555992   -0.0021685154971340047
-0.01059721226548655   -0.07865588974560395   -0.0021899158458600783
-0.011602715999660722   -0.08470216114971602   -0.0026372533988741798
-0.009076861145479944   -0.08489581963129557   -0.0023762083208758236
-0.010542917979138599   -0.07858983623195107   -0.002098548115790749
-0.011428092924958824   -0.08466012218160135   -0.0024352537255932223
-0.00896034087024867   -0.08489228686465684   -0.0022619189481512944
-0.010542917979138599   -0.07858983623195107   -0.002098548115790749
-0.014283650588662669   -0.07835630845555992   -0.0021685154971340047
-0.011428092924958824   -0.08466012218160135   -0.0024352537255932223
-0.014202855010802169   -0.07835383538879025   -0.001983796967842789
-0.00896034087024867   -0.08489228686465684   -0.0022619189481512944
-0.011275600585211494   -0.08467424266799832   -0.002219088846865721
-0.014202855010802169   -0.07835383538879025   -0.001983796967842789
-0.011428092924958824   -0.08466012218160135   -0.0024352537255932223
-0.00896034087024867   -0.08489228686465684   -0.0022619189481512944
-0.014202855010802169   -0.07835383538879025   -0.001983796967842789
-0.010490099917882502   -0.07856813660171603   -0.001997804102327029
-0.010542917979138599   -0.07858983623195107   -0.002098548115790749
-0.00896034087024867   -0.08489228686465684   -0.0022619189481512944
-0.014202855010802169   -0.07835383538879025   -0.001983796967842789
-0.010542917979138599   -0.07858983623195107   -0.002098548115790749
-0.011428092924958824   -0.08466012218160135   -0.0024352537255932223
-0.011729226592936898   -0.08480028885740919   -0.0028307288860064377
-0.01444170128950195   -0.07850209094736815   -0.0025082840881621494
-0.014862357792203247   -0.08437248288891148   -0.0030760006914095123
-0.011602715999660722   -0.08470216114971602   -0.0026372533988741798
-0.01444170128950195   -0.07850209094736815   -0.0025082840881621494
-0.01887296021181256   -0.07811869844504114   -0.0027287990534028833
-0.014862357792203247   -0.08437248288891148   -0.0030760006914095123
-0.01857305566485237   -0.07801919283594592   -0.002469333741933878
-0.011602715999660722   -0.08470216114971602   -0.0026372533988741798
-0.014455592962708022   -0.08426618908444101   -0.002770558900315901
-0.01857305566485237   -0.07801919283594592   -0.002469333741933878
-0.014862357792203247   -0.08437248288891148   -0.0030760006914095123
-0.011602715999660722   -0.08470216114971602   -0.0026372533988741798
-0.01857305566485237   -0.07801919283594592   -0.002469333741933878
-0.01438305139822201   -0.07840661041273199   -0.002342494886077593
-0.01444170128950195   -0.07850209094736815   -0.0025082840881621494
-0.011602715999660722   -0.08470216114971602   -0.0026372533988741798
-0.01857305566485237   -0.07801919283594592   -0.002469333741933878
-0.01444170128950195   -0.07850209094736815   -0.0025082840881621494
-0.014862357792203247   -0.08437248288891148   -0.0030760006914095123
-0.011602715999660722   -0.08470216114971602   -0.0026372533988741798
-0.01438305139822201   -0.07840661041273199   -0.002342494886077593
-0.014455592962708022   -0.08426618908444101   -0.002770558900315901
-0.011428092924958824   -0.08466012218160135   -0.0024352537255932223
-0.01438305139822201   -0.07840661041273199   -0.002342494886077593
-0.01857305566485237   -0.07801919283594592   -0.002469333741933878
-0.014455592962708022   -0.08426618908444101   -0.002770558900315901
-0.018312668831294357   -0.07797316648845748   -0.002196371270188882
-0.011428092924958824   -0.08466012218160135   -0.0024352537255932223
-0.014090845978870913   -0.08422730430209856   -0.0024472517902152124
-0.018312668831294357   -0.07797316648845748   -0.002196371270188882
-0.014455592962708022   -0.08426618908444101   -0.002770558900315901
-0.011428092924958824   -0.08466012218160135   -0.0024352537255932223
-0.018312668831294357   -0.07797316648845748   -0.002196371270188882
-0.014283650588662669   -0.07835630845555992   -0.0021685154971340047
-0.01438305139822201   -0.07840661041273199   -0.002342494886077593
-0.011428092924958824   -0.08466012218160135   -0.0024352537255932223
-0.018312668831294357   -0.07797316648845748   -0.002196371270188882
-0.01438305139822201   -0.07840661041273199   -0.002342494886077593
-0.014455592962708022   -0.08426618908444101   -0.002770558900315901
-0.011428092924958824   -0.08466012218160135   -0.0024352537255932223
-0.014283650588662669   -0.07835630845555992   -0.0021685154971340047
-0.014090845978870913   -0.08422730430209856   -0.0024472517902152124
-0.011275600585211494   -0.08467424266799832   -0.002219088846865721
-0.014283650588662669   -0.07835630845555992   -0.0021685154971340047
-0.018312668831294357   -0.07797316648845748   -0.002196371270188882
-0.014090845978870913   -0.08422730430209856   -0.0024472517902152124
-0.01796181724534463   -0.07800026623648613   -0.0019116523125267252
-0.011275600585211494   -0.08467424266799832   -0.002219088846865721
-0.013618097613204632   -0.08427584487697175   -0.002109157002064473
-0.01796181724534463   -0.07800026623648613   -0.0019116523125267252
-0.014090845978870913   -0.08422730430209856   -0.0024472517902152124
-0.011275600585211494   -0.08467424266799832   -0.002219088846865721
-0.01796181724534463   -0.07800026623648613   -0.0019116523125267252
-0.014202855010802169   -0.07835383538879025   -0.001983796967842789
-0.014283650588662669   -0.07835630845555992   -0.0021685154971340047
-0.011275600585211494   -0.08467424266799832   -0.002219088846865721
-0.01796181724534463   -0.07800026623648613   -0.0019116523125267252
-0.014283650588662669   -0.07835630845555992   -0.0021685154971340047
-0.014090845978870913   -0.08422730430209856   -0.0024472517902152124
0.00047522685028323936   -0.07866090569253871   -0.0013519314817216606
0.0028026797760837656   -0.07033707818089649   -0.001030319353376816
-0.0033331473394202322   -0.07884962310311097   -0.001710009389946095
0.0007226196270883466   -0.07847866450637854   -0.0015531930896000514
0.0028026797760837656   -0.07033707818089649   -0.001030319353376816
-0.0022372936039515103   -0.0704616771290553   -0.0013720811067204262
-0.0033331473394202322   -0.07884962310311097   -0.001710009389946095
-0.0022237205606154297   -0.07031053816149778   -0.0014332875449516978
0.0007226196270883466   -0.07847866450637854   -0.0015531930896000514
-0.003267529863125829   -0.07869766790097078   -0.0017983899886401344
-0.0022237205606154297   -0.07031053816149778   -0.0014332875449516978
-0.0033331473394202322   -0.07884962310311097   -0.001710009389946095
0.0007226196270883466   -0.07847866450637854   -0.0015531930896000514
-0.0022237205606154297   -0.07031053816149778   -0.0014332875449516978
0.0029493895362658136   -0.07015926346431194   -0.0011790380495563693
0.0028026797760837656   -0.07033707818089649   -0.001030319353376816
0.0007226196270883466   -0.07847866450637854   -0.0015531930896000514
-0.0022237205606154297   -0.07031053816149778   -0.0014332875449516978
0.0028026797760837656   -0.07033707818089649   -0.001030319353376816
-0.0033331473394202322   -0.07884962310311097   -0.001710009389946095
0.0007226196270883466   -0.07847866450637854   -0.0015531930896000514
0.0029493895362658136   -0.07015926346431194   -0.0011790380495563693
-0.003267529863125829   -0.07869766790097078   -0.0017983899886401344
0.0009045786869322924   -0.07837317365894389   -0.0017400077345801014
0.0029493895362658136   -0.07015926346431194   -0.0011790380495563693
-0.0022237205606154297   -0.07031053816149778   -0.0014332875449516978
-0.003267529863125829   -0.07869766790097078   -0.0017983899886401344
-0.002206468124393376   -0.07020082615585749   -0.001485068228922165
0.0009045786869322924   -0.07837317365894389   -0.0017400077345801014
-0.003192845454056432   -0.0785982688151017   -0.0018764487430169324
-0.002206468124393376   -0.07020082615585749   -0.001485068228922165
-0.003267529863125829   -0.07869766790097078   -0.0017983899886401344
0.0009045786869322924   -0.07837317365894389   -0.0017400077345801014
-0.002206468124393376   -0.07020082615585749   -0.001485068228922165
0.0030431263136820523   -0.07004241823253445   -0.0013144383135087697
0.0029493895362658136   -0.07015926346431194   -0.0011790380495563693
0.0009045786869322924   -0.07837317365894389   -0.0017400077345801014
-0.002206468124393376   -0.07020082615585749   -0.001485068228922165
0.0029493895362658136   -0.07015926346431194   -0.0011790380495563693
-0.003267529863125829   -0.07869766790097078   -0.0017983899886401344
0.0009045786869322924   -0.07837317365894389   -0.0017400077345801014
0.0030431263136820523   -0.07004241823253445   -0.0013144383135087697
-0.003192845454056432   -0.0785982688151017   -0.0018764487430169324
0.0010992729107182223   -0.07832089443124607   -0.001912303142998441
0.0030431263136820523   -0.07004241823253445   -0.0013144383135087697
-0.002206468124393376   -0.07020082615585749   -0.001485068228922165
-0.003192845454056432   -0.0785982688151017   -0.0018764487430169324
-0.002214845451402208   -0.07012903849288302   -0.0015281109785649889
0.0010992729107182223   -0.07832089443124607   -0.001912303142998441
-0.0031481990755611194   -0.07854848988905429   -0.0019452045150057883
-0.002214845451402208   -0.07012903849288302   -0.0015281109785649889
-0.003192845454056432   -0.0785982688151017   -0.0018764487430169324
0.0010992729107182223   -0.07832089443124607   -0.001912303142998441
-0.002214845451402208   -0.07012903849288302   -0.0015281109785649889
0.003139273205760169   -0.06996393248313242   -0.0014367979184969452
0.0030431263136820523   -0.07004241823253445   -0.0013144383135087697
0.0010992729107182223   -0.07832089443124607   -0.001912303142998441
-0.002214845451402208   -0.07012903849288302   -0.0015281109785649889
0.0030431263136820523   -0.07004241823253445   -0.0013144383135087697
-0.003192845454056432   -0.0785982688151017   -0.0018764487430169324
-0.0033331473394202322   -0.07884962310311097   -0.001710009389946095
-0.0022372936039515103   -0.0704616771290553   -0.0013720811067204262
-0.00701667174002357   -0.07888570391622103   -0.0020051675024696384
-0.003267529863125829   -0.07869766790097078   -0.0017983899886401344
-0.0022372936039515103   -0.0704616771290553   -0.0013720811067204262
-0.0070866330395499815   -0.07046225183974253   -0.0016540926135135538
-0.00701667174002357   -0.07888570391622103   -0.0020051675024696384
-0.007087293252094214   -0.07033432828426761   -0.0016483197524457768
-0.003267529863125829   -0.07869766790097078   -0.0017983899886401344
-0.0069684098661937   -0.078755233672589   -0.0020074723583872038
-0.007087293252094214   -0.07033432828426761   -0.0016483197524457768
-0.00701667174002357   -0.07888570391622103   -0.0020051675024696384
-0.003267529863125829   -0.07869766790097078   -0.0017983899886401344
-0.007087293252094214   -0.07033432828426761   -0.0016483197524457768
-0.0022237205606154297   -0.07031053816149778   -0.0014332875449516978
-0.0022372936039515103   -0.0704616771290553   -0.0013720811067204262
-0.003267529863125829   -0.07869766790097078   -0.0017983899886401344
-0.007087293252094214   -0.07033432828426761   -0.0016483197524457768
-0.0022372936039515103   -0.0704616771290553   -0.0013720811067204262
-0.00701667174002357   -0.07888570391622103   -0.0020051675024696384
-0.003267529863125829   -0.07869766790097078   -0.0017983899886401344
-0.0022237205606154297   -0.07031053816149778   -0.0014332875449516978
-0.0069684098661937   -0.078755233672589   -0.0020074723583872038
-0.003192845454056432   -0.0785982688151017   -0.0018764487430169324
-0.0022237205606154297   -0.07031053816149778   -0.0014332875449516978
-0.007087293252094214   -0.07033432828426761   -0.0016483197524457768
-0.0069684098661937   -0.078755233672589   -0.0020074723583872038
-0.00708763063079057   -0.07024292792971787   -0.0016331597558931316
-0.003192845454056432   -0.0785982688151017   -0.0018764487430169324
-0.006918787127284733   -0.07867180656381688   -0.001999889597632591
-0.00708763063079057   -0.07024292792971787   -0.0016331597558931316
-0.0069684098661937   -0.078755233672589   -0.0020074723583872038
-0.003192845454056432   -0.0785982688151017   -0.0018764487430169324
-0.00708763063079057   -0.07024292792971787   -0.0016331597558931316
-0.002206468124393376   -0.07020082615585749   -0.001485068228922165
-0.0022237205606154297   -0.07031053816149778   -0.0014332875449516978
-0.003192845454056432   -0.0785982688151017   -0.0018764487430169324
-0.00708763063079057   -0.07024292792971787   -0.0016331597558931316
-0.0022237205606154297   -0.07031053816149778   -0.0014332875449516978
-0.0069684098661937   -0.078755233672589   -0.0020074723583872038
-0.003192845454056432   -0.0785982688151017   -0.0018764487430169324
-0.002206468124393376   -0.07020082615585749   -0.001485068228922165
-0.006918787127284733   -0.07867180656381688   -0.001999889597632591
-0.0031481990755611194   -0.07854848988905429   -0.0019452045150057883
-0.002206468124393376   -0.07020082615585749   -0.001485068228922165
-0.00708763063079057   -0.07024292792971787   -0.0016331597558931316
-0.006918787127284733   -0.07867180656381688   -0.001999889597632591
-0.007094455850191524   -0.07018811451701883   -0.0016090970976325274
-0.0031481990755611194   -0.07854848988905429   -0.0019452045150057883
-0.006875382927900858   -0.07863464149885811   -0.0019830749104145294
-0.007094455850191524   -0.07018811451701883   -0.0016090970976325274
-0.006918787127284733   -0.07867180656381688   -0.001999889597632591
-0.0031481990755611194   -0.07854848988905429   -0.0019452045150057883
-0.007094455850191524   -0.07018811451701883   -0.0016090970976325274
-0.002214845451402208   -0.07012903849288302   -0.0015281109785649889
-0.002206468124393376   -0.07020082615585749   -0.001485068228922165
-0.0031481990755611194   -0.07854848988905429   -0.0019452045150057883
-0.007094455850191524   -0.07018811451701883   -0.0016090970976325274
-0.002206468124393376   -0.07020082615585749   -0.001485068228922165
-0.006918787127284733   -0.07867180656381688   -0.001999889597632591
-0.00701667174002357   -0.07888570391622103   -0.0020051675024696384
-0.0070866330395499815   -0.07046225183974253   -0.0016540926135135538
-0.010642146731615365   -0.07876846813469585   -0.0022716090048159787
-0.0069684098661937   -0.078755233672589   -0.0020074723583872038
-0.0070866330395499815   -0.07046225183974253   -0.0016540926135135538
-0.011853466637831964   -0.07034160823356159   -0.0019011741749908237
-0.010642146731615365   -0.07876846813469585   -0.0022716090048159787
-0.01185771070404058   -0.0702340973191537   -0.0018292281601587274
-0.0069684098661937   -0.078755233672589   -0.0020074723583872038
-0.01059721226548655   -0.07865588974560395   -0.0021899158458600783
-0.01185771070404058   -0.0702340973191537   -0.0018292281601587274
-0.010642146731615365   -0.07876846813469585   -0.0022716090048159787
-0.0069684098661937   -0.078755233672589   -0.0020074723583872038
-0.01185771070404058   -0.0702340973191537   -0.0018292281601587274
-0.007087293252094214   -0.07033432828426761   -0.0016483197524457768
-0.0070866330395499815   -0.07046225183974253   -0.0016540926135135538
-0.0069684098661937   -0.078755233672589   -0.0020074723583872038
-0.01185771070404058   -0.0702340973191537   -0.0018292281601587274
-0.0070866330395499815   -0.07046225183974253   -0.0016540926135135538
-0.010642146731615365   -0.07876846813469585   -0.0022716090048159787
-0.0069684098661937   -0.078755233672589   -0.0020074723583872038
-0.007087293252094214   -0.07033432828426761   -0.0016483197524457768
-0.01059721226548655   -0.07865588974560395   -0.0021899158458600783
-0.006918787127284733   -0.07867180656381688   -0.001999889597632591
-0.007087293252094214   -0.07033432828426761   -0.0016483197524457768
-0.01185771070404058   -0.0702340973191537   -0.0018292281601587274
-0.01059721226548655   -0.07865588974560395   -0.0021899158458600783
-0.011853826790542648   -0.0701627862698244   -0.0017480758776194554
-0.006918787127284733   -0.07867180656381688   -0.001999889597632591
-0.010542917979138599   -0.07858983623195107   -0.002098548115790749
-0.011853826790542648   -0.0701627862698244   -0.0017480758776194554
-0.01059721226548655   -0.07865588974560395   -0.0021899158458600783
-0.006918787127284733   -0.07867180656381688   -0.001999889597632591
-0.011853826790542648   -0.0701627862698244   -0.0017480758776194554
-0.00708763063079057   -0.07024292792971787   -0.0016331597558931316
-0.007087293252094214   -0.07033432828426761   -0.0016483197524457768
-0.006918787127284733   -0.07867180656381688   -0.001999889597632591
-0.011853826790542648   -0.0701627862698244   -0.0017480758776194554
-0.007087293252094214   -0.07033432828426761   -0.0016483197524457768
-0.01059721226548655   -0.07865588974560395   -0.0021899158458600783
-0.006918787127284733   -0.07867180656381688   -0.001999889597632591
-0.00708763063079057   -0.07024292792971787   -0.0016331597558931316
-0.010542917979138599   -0.07858983623195107   -0.002098548115790749
-0.006875382927900858   -0.07863464149885811   -0.0019830749104145294
-0.00708763063079057   -0.07024292792971787   -0.0016331597558931316
-0.011853826790542648   -0.0701627862698244   -0.0017480758776194554
-0.010542917979138599   -0.07858983623195107   -0.002098548115790749
-0.011851402476035994   -0.07012703698515221   -0.00165798642441662
-0.006875382927900858   -0.07863464149885811   -0.0019830749104145294
-0.010490099917882502   -0.07856813660171603   -0.001997804102327029
-0.011851402476035994   -0.07012703698515221   -0.00165798642441662
-0.010542917979138599   -0.07858983623195107   -0.002098548115790749
-0.006875382927900858   -0.07863464149885811   -0.0019830749104145294
-0.011851402476035994   -0.07012703698515221   -0.00165798642441662
-0.007094455850191524   -0.07018811451701883   -0.0016090970976325274
-0.00708763063079057   -0.07024292792971787   -0.0016331597558931316
-0.006875382927900858   -0.07863464149885811   -0.0019830749104145294
-0.011851402476035994   -0.07012703698515221   -0.00165798642441662
-0.00708763063079057   -0.07024292792971787   -0.0016331597558931316
-0.010542917979138599   -0.07858983623195107   -0.002098548115790749
-0.010642146731615365   -0.07876846813469585   -0.0022716090048159787
-0.011853466637831964   -0.07034160823356159   -0.0019011741749908237
-0.01444170128950195   -0.07850209094736815   -0.0025082840881621494
-0.01059721226548655   -0.07865588974560395   -0.0021899158458600783
-0.011853466637831964   -0.07034160823356159   -0.0019011741749908237
-0.016768973902022685   -0.07010433198937832   -0.00211376744512503
-0.01444170128950195   -0.07850209094736815   -0.0025082840881621494
-0.01676323525601689   -0.0700163823105469   -0.00197486849224515
-0.01059721226548655   -0.07865588974560395   -0.0021899158458600783
-0.01438305139822201   -0.07840661041273199   -0.002342494886077593
-0.01676323525601689   -0.0700163823105469   -0.00197486849224515
-0.01444170128950195   -0.07850209094736815   -0.0025082840881621494
-0.01059721226548655   -0.07865588974560395   -0.0021899158458600783
-0.01676323525601689   -0.0700163823105469   -0.00197486849224515
-0.01185771070404058   -0.0702340973191537   -0.0018292281601587274
-0.011853466637831964   -0.07034160823356159   -0.0019011741749908237
-0.01059721226548655   -0.07865588974560395   -0.0021899158458600783
-0.01676323525601689   -0.0700163823105469   -0.00197486849224515
-0.011853466637831964   -0.07034160823356159   -0.0019011741749908237
-0.01444170128950195   -0.07850209094736815   -0.0025082840881621494
-0.01059721226548655   -0.07865588974560395   -0.0021899158458600783
-0.01185771070404058   -0.0702340973191537   -0.0018292281601587274
-0.01438305139822201   -0.07840661041273199   -0.002342494886077593
-0.010542917979138599   -0.07858983623195107   -0.002098548115790749
-0.01185771070404058   -0.0702340973191537   -0.0018292281601587274
-0.01676323525601689   -0.0700163823105469   -0.00197486849224515
-0.01438305139822201   -0.07840661041273199   -0.002342494886077593
-0.016722091270609248   -0.06996328601033147   -0.0018281501468068362
-0.010542917979138599   -0.07858983623195107   -0.002098548115790749
-0.014283650588662669   -0.07835630845555992   -0.0021685154971340047
-0.016722091270609248   -0.06996328601033147   -0.0018281501468068362
-0.01438305139822201   -0.07840661041273199   -0.002342494886077593
-0.010542917979138599   -0.07858983623195107   -0.002098548115790749
-0.016722091270609248   -0.06996328601033147   -0.0018281501468068362
-0.011853826790542648   -0.0701627862698244   -0.0017480758776194554
-0.01185771070404058   -0.0702340973191537   -0.0018292281601587274
-0.010542917979138599   -0.07858983623195107   -0.002098548115790749
-0.016722091270609248   -0.06996328601033147   -0.0018281501468068362
-0.01185771070404058   -0.0702340973191537   -0.0018292281601587274
-0.01438305139822201   -0.07840661041273199   -0.002342494886077593
-0.010542917979138599   -0.07858983623195107   -0.002098548115790749
-0.011853826790542648   -0.0701627862698244   -0.0017480758776194554
-0.014283650588662669   -0.07835630845555992   -0.0021685154971340047
-0.010490099917882502   -0.07856813660171603   -0.001997804102327029
-0.011853826790542648   -0.0701627862698244   -0.0017480758776194554
-0.016722091270609248   -0.06996328601033147   -0.0018281501468068362
-0.014283650588662669   -0.07835630845555992   -0.0021685154971340047
-0.016694574759983313   -0.06994873739510167   -0.0016717779020141263
-0.010490099917882502   -0.07856813660171603   -0.001997804102327029
-0.014202855010802169   -0.07835383538879025   -0.001983796967842789
-0.016694574759983313   -0.06994873739510167   -0.0016717779020141263
-0.014283650588662669   -0.07835630845555992   -0.0021685154971340047
-0.010490099917882502   -0.07856813660171603   -0.001997804102327029
-0.016694574759983313   -0.06994873739510167   -0.0016717779020141263
-0.011851402476035994   -0.07012703698515221   -0.00165798642441662
-0.011853826790542648   -0.0701627862698244   -0.0017480758776194554
-0.010490099917882502   -0.07856813660171603   -0.001997804102327029
-0.016694574759983313   -0.06994873739510167   -0.0016717779020141263
-0.011853826790542648   -0.0701627862698244   -0.0017480758776194554
-0.014283650588662669   -0.07835630845555992   -0.0021685154971340047
-0.01444170128950195   -0.07850209094736815   -0.0025082840881621494
-0.016768973902022685   -0.07010433198937832   -0.00211376744512503
-0.01887296021181256   -0.07811869844504114   -0.0027287990534028833
-0.01438305139822201   -0.07840661041273199   -0.002342494886077593
-0.016768973902022685   -0.07010433198937832   -0.00211376744512503
-0.02225948394628251   -0.06977748056695922   -0.002305378599778343
-0.01887296021181256   -0.07811869844504114   -0.0027287990534028833
-0.0220546471426807   -0.06969121073142259   -0.0020929463591118115
-0.01438305139822201   -0.07840661041273199   -0.002342494886077593
-0.01857305566485237   -0.07801919283594592   -0.002469333741933878
-0.0220546471426807   -0.06969121073142259   -0.0020929463591118115
-0.01887296021181256   -0.07811869844504114   -0.0027287990534028833
-0.01438305139822201   -0.07840661041273199   -0.002342494886077593
-0.0220546471426807   -0.06969121073142259   -0.0020929463591118115
-0.01676323525601689   -0.0700163823105469   -0.00197486849224515
-0.016768973902022685   -0.07010433198937832   -0.00211376744512503
-0.01438305139822201   -0.07840661041273199   -0.002342494886077593
-0.0220546471426807   -0.06969121073142259   -0.0020929463591118115
-0.016768973902022685   -0.07010433198937832   -0.00211376744512503
-0.01887296021181256   -0.07811869844504114   -0.0027287990534028833
-0.01438305139822201   -0.07840661041273199   -0.002342494886077593
-0.01676323525601689   -0.0700163823105469   -0.00197486849224515
-0.01857305566485237   -0.07801919283594592   -0.002469333741933878
-0.014283650588662669   -0.07835630845555992   -0.0021685154971340047
-0.01676323525601689   -0.0700163823105469   -0.00197486849224515
-0.0220546471426807   -0.06969121073142259   -0.0020929463591118115
-0.01857305566485237   -0.07801919283594592   -0.002469333741933878
-0.021879401257596437   -0.06964475595203692   -0.0018673773309610506
-0.014283650588662669   -0.07835630845555992   -0.0021685154971340047
-0.018312668831294357   -0.07797316648845748   -0.002196371270188882
-0.021879401257596437   -0.06964475595203692   -0.0018673773309610506
-0.01857305566485237   -0.07801919283594592   -0.002469333741933878
-0.014283650588662669   -0.07835630845555992   -0.0021685154971340047
-0.021879401257596437   -0.06964475595203692   -0.0018673773309610506
-0.016722091270609248   -0.06996328601033147   -0.0018281501468068362
-0.01676323525601689   -0.0700163823105469   -0.00197486849224515
-0.014283650588662669   -0.07835630845555992   -0.0021685154971340047
-0.021879401257596437   -0.06964475595203692   -0.0018673773309610506
-0.01676323525601689   -0.0700163823105469   -0.00197486849224515
-0.01857305566485237   -0.07801919283594592   -0.002469333741933878
-0.014283650588662669   -0.07835630845555992   -0.0021685154971340047
-0.016722091270609248   -0.06996328601033147   -0.0018281501468068362
-0.018312668831294357   -0.07797316648845748   -0.002196371270188882
-0.014202855010802169   -0.07835383538879025   -0.001983796967842789
-0.016722091270609248   -0.06996328601033147   -0.0018281501468068362
-0.021879401257596437   -0.06964475595203692   -0.0018673773309610506
-0.018312668831294357   -0.07797316648845748   -0.002196371270188882
-0.02162640179633267   -0.069659467901002   -0.001630469318358368
-0.014202855010802169   -0.07835383538879025   -0.001983796967842789
-0.01796181724534463   -0.07800026623648613   -0.0019116523125267252
-0.02162640179633267   -0.069659467901002   -0.001630469318358368
-0.018312668831294357   -0.07797316648845748   -0.002196371270188882
-0.014202855010802169   -0.07835383538879025   -0.001983796967842789
-0.02162640179633267   -0.069659467901002   -0.001630469318358368
-0.016694574759983313   -0.06994873739510167   -0.0016717779020141263
-0.016722091270609248   -0.06996328601033147   -0.0018281501468068362
-0.014202855010802169   -0.07835383538879025   -0.001983796967842789
-0.02162640179633267   -0.069659467901002   -0.001630469318358368
-0.016722091270609248   -0.06996328601033147   -0.0018281501468068362
-0.018312668831294357   -0.07797316648845748   -0.002196371270188882
0.0028026797760837656   -0.07033707818089649   -0.001030319353376816
0.004404670777038718   -0.060329137951248994   -0.0006862493890744305
-0.0022372936039515103   -0.0704616771290553   -0.0013720811067204262
0.0029493895362658136   -0.07015926346431194   -0.0011790380495563693
0.004404670777038718   -0.060329137951248994   -0.0006862493890744305
-0.0015726627407339068   -0.06039025289558018   -0.001007802431893082
-0.0022372936039515103   -0.0704616771290553   -0.0013720811067204262
-0.0016009278160546972   -0.060242785668770824   -0.0010407191530231999
0.0029493895362658136   -0.07015926346431194   -0.0011790380495563693
-0.0022237205606154297   -0.07031053816149778   -0.0014332875449516978
-0.0016009278160546972   -0.060242785668770824   -0.0010407191530231999
-0.0022372936039515103   -0.0704616771290553   -0.0013720811067204262
0.0029493895362658136   -0.07015926346431194   -0.0011790380495563693
-0.0016009278160546972   -0.060242785668770824   -0.0010407191530231999
0.004462350305131905   -0.060157826944862165   -0.0007835455688260432
0.004404670777038718   -0.060329137951248994   -0.0006862493890744305
0.0029493895362658136   -0.07015926346431194   -0.0011790380495563693
-0.0016009278160546972   -0.060242785668770824   -0.0010407191530231999
0.004404670777038718   -0.060329137951248994   -0.0006862493890744305
-0.0022372936039515103   -0.0704616771290553   -0.0013720811067204262
0.0029493895362658136   -0.07015926346431194   -0.0011790380495563693
0.004462350305131905   -0.060157826944862165   -0.0007835455688260432
-0.0022237205606154297   -0.07031053816149778   -0.0014332875449516978
0.0030431263136820523   -0.07004241823253445   -0.0013144383135087697
0.004462350305131905   -0.060157826944862165   -0.0007835455688260432
-0.0016009278160546972   -0.060242785668770824   -0.0010407191530231999
-0.0022237205606154297   -0.07031053816149778   -0.0014332875449516978
-0.0016306514616379803   -0.06012598902756737   -0.0010652288083997487
0.0030431263136820523   -0.07004241823253445   -0.0013144383135087697
-0.002206468124393376   -0.07020082615585749   -0.001485068228922165
-0.0016306514616379803   -0.06012598902756737   -0.0010652288083997487
-0.0022237205606154297   -0.07031053816149778   -0.0014332875449516978
0.0030431263136820523   -0.07004241823253445   -0.0013144383135087697
-0.0016306514616379803   -0.06012598902756737   -0.0010652288083997487
0.004479675304127919   -0.06003281268680944   -0.0008684406262804109
0.004462350305131905   -0.060157826944862165   -0.0007835455688260432
0.0030431263136820523   -0.07004241823253445   -0.0013144383135087697
-0.0016306514616379803   -0.06012598902756737   -0.0010652288083997487
0.004462350305131905   -0.060157826944862165   -0.0007835455688260432
-0.0022237205606154297   -0.07031053816149778   -0.0014332875449516978
0.0030431263136820523   -0.07004241823253445   -0.0013144383135087697
0.004479675304127919   -0.06003281268680944   -0.0008684406262804109
-0.002206468124393376   -0.07020082615585749   -0.001485068228922165
0.003139273205760169   -0.06996393248313242   -0.0014367979184969452
0.004479675304127919   -0.06003281268680944   -0.0008684406262804109
-0.0016306514616379803   -0.06012598902756737   -0.0010652288083997487
-0.002206468124393376   -0.07020082615585749   -0.001485068228922165
-0.0016811319671381684   -0.060036205066428754   -0.0010816160792461982
0.003139273205760169   -0.06996393248313242   -0.0014367979184969452
-0.002214845451402208   -0.07012903849288302   -0.0015281109785649889
-0.0016811319671381684   -0.060036205066428754   -0.0010816160792461982
-0.002206468124393376   -0.07020082615585749   -0.001485068228922165
0.003139273205760169   -0.06996393248313242   -0.0014367979184969452
-0.0016811319671381684   -0.060036205066428754   -0.0010816160792461982
0.004489179907871709   -0.05993213540848958   -0.0009415204930803636
0.004479675304127919   -0.06003281268680944   -0.0008684406262804109
0.003139273205760169   -0.06996393248313242   -0.0014367979184969452
-0.0016811319671381684   -0.060036205066428754   -0.0010816160792461982
0.004479675304127919   -0.06003281268680944   -0.0008684406262804109
-0.002206468124393376   -0.07020082615585749   -0.001485068228922165
-0.0022372936039515103   -0.0704616771290553   -0.0013720811067204262
-0.0015726627407339068   -0.06039025289558018   -0.001007802431893082
-0.0070866330395499815   -0.07046225183974253   -0.0016540926135135538
-0.0022237205606154297   -0.07031053816149778   -0.0014332875449516978
-0.0015726627407339068   -0.06039025289558018   -0.001007802431893082
-0.007301741633905699   -0.06035862401051977   -0.0012727716607664609
-0.0070866330395499815   -0.07046225183974253   -0.0016540926135135538
-0.007340839030247289   -0.06023531196971295   -0.0012573191587484463
-0.0022237205606154297   -0.07031053816149778   -0.0014332875449516978
-0.007087293252094214   -0.07033432828426761   -0.0016483197524457768
-0.007340839030247289   -0.06023531196971295   -0.0012573191587484463
-0.0070866330395499815   -0.07046225183974253   -0.0016540926135135538
-0.0022237205606154297   -0.07031053816149778   -0.0014332875449516978
-0.007340839030247289   -0.06023531196971295   -0.0012573191587484463
-0.0016009278160546972   -0.060242785668770824   -0.0010407191530231999
-0.0015726627407339068   -0.06039025289558018   -0.001007802431893082
-0.0022237205606154297   -0.07031053816149778   -0.0014332875449516978
-0.007340839030247289   -0.06023531196971295   -0.0012573191587484463
-0.0015726627407339068   -0.06039025289558018   -0.001007802431893082
-0.0070866330395499815   -0.07046225183974253   -0.0016540926135135538
-0.0022237205606154297   -0.07031053816149778   -0.0014332875449516978
-0.0016009278160546972   -0.060242785668770824   -0.0010407191530231999
-0.007087293252094214   -0.07033432828426761   -0.0016483197524457768
-0.002206468124393376   -0.07020082615585749   -0.001485068228922165
-0.0016009278160546972   -0.060242785668770824   -0.0010407191530231999
-0.007340839030247289   -0.06023531196971295   -0.0012573191587484463
-0.007087293252094214   -0.07033432828426761   -0.0016483197524457768
-0.007380472372079619   -0.06013829287337734   -0.0012332136522141249
-0.002206468124393376   -0.07020082615585749   -0.001485068228922165
-0.00708763063079057   -0.07024292792971787   -0.0016331597558931316
-0.007380472372079619   -0.06013829287337734   -0.0012332136522141249
-0.007087293252094214   -0.07033432828426761   -0.0016483197524457768
-0.002206468124393376   -0.07020082615585749   -0.001485068228922165
-0.007380472372079619   -0.06013829287337734   -0.0012332136522141249
-0.0016306514616379803   -0.06012598902756737   -0.0010652288083997487
-0.0016009278160546972   -0.060242785668770824   -0.0010407191530231999
-0.002206468124393376   -0.07020082615585749   -0.001485068228922165
-0.007380472372079619   -0.06013829287337734   -0.0012332136522141249
-0.0016009278160546972   -0.060242785668770824   -0.0010407191530231999
-0.007087293252094214   -0.07033432828426761   -0.0016483197524457768
-0.002206468124393376   -0.07020082615585749   -0.001485068228922165
-0.0016306514616379803   -0.06012598902756737   -0.0010652288083997487
-0.00708763063079057   -0.07024292792971787   -0.0016331597558931316
-0.002214845451402208   -0.07012903849288302   -0.0015281109785649889
-0.0016306514616379803   -0.06012598902756737   -0.0010652288083997487
-0.007380472372079619   -0.06013829287337734   -0.0012332136522141249
-0.00708763063079057   -0.07024292792971787   -0.0016331597558931316
-0.007426260922852799   -0.060068014193496506   -0.0012008699557898824
-0.002214845451402208   -0.07012903849288302   -0.0015281109785649889
-0.007094455850191524   -0.07018811451701883   -0.0016090970976325274
-0.007426260922852799   -0.060068014193496506   -0.0012008699557898824
-0.00708763063079057   -0.07024292792971787   -0.0016331597558931316
-0.002214845451402208   -0.07012903849288302   -0.0015281109785649889
-0.007426260922852799   -0.060068014193496506   -0.0012008699557898824
-0.0016811319671381684   -0.060036205066428754   -0.0010816160792461982
-0.0016306514616379803   -0.06012598902756737   -0.0010652288083997487
-0.002214845451402208   -0.07012903849288302   -0.0015281109785649889
-0.007426260922852799   -0.060068014193496506   -0.0012008699557898824
-0.0016306514616379803   -0.06012598902756737   -0.0010652288083997487
-0.00708763063079057   -0.07024292792971787   -0.0016331597558931316
-0.0070866330395499815   -0.07046225183974253   -0.0016540926135135538
-0.007301741633905699   -0.06035862401051977   -0.0012727716607664609
-0.011853466637831964   -0.07034160823356159   -0.0019011741749908237
-0.007087293252094214   -0.07033432828426761   -0.0016483197524457768
-0.007301741633905699   -0.06035862401051977   -0.0012727716607664609
-0.012933873323865957   -0.060239941694517726   -0.001499576974827739
-0.011853466637831964   -0.07034160823356159   -0.0019011741749908237
-0.012976031649290835   -0.06013859290224935   -0.0014359844145847573
-0.007087293252094214   -0.07033432828426761   -0.0016483197524457768
-0.01185771070404058   -0.0702340973191537   -0.0018292281601587274
-0.012976031649290835   -0.06013859290224935   -0.0014359844145847573
-0.011853466637831964   -0.07034160823356159   -0.0019011741749908237
-0.007087293252094214   -0.07033432828426761   -0.0016483197524457768
-0.012976031649290835   -0.06013859290224935   -0.0014359844145847573
-0.007340839030247289   -0.06023531196971295   -0.0012573191587484463
-0.007301741633905699   -0.06035862401051977   -0.0012727716607664609
-0.007087293252094214   -0.07033432828426761   -0.0016483197524457768
-0.012976031649290835   -0.06013859290224935   -0.0014359844145847573
-0.007301741633905699   -0.06035862401051977   -0.0012727716607664609
-0.011853466637831964   -0.07034160823356159   -0.0019011741749908237
-0.007087293252094214   -0.07033432828426761   -0.0016483197524457768
-0.007340839030247289   -0.06023531196971295   -0.0012573191587484463
-0.01185771070404058   -0.0702340973191537   -0.0018292281601587274
-0.00708763063079057   -0.07024292792971787   -0.0016331597558931316
-0.007340839030247289   -0.06023531196971295   -0.0012573191587484463
-0.012976031649290835   -0.06013859290224935   -0.0014359844145847573
-0.01185771070404058   -0.0702340973191537   -0.0018292281601587274
-0.013010976874100832   -0.06006328554377275   -0.0013638907497420763
-0.00708763063079057   -0.07024292792971787   -0.0016331597558931316
-0.011853826790542648   -0.0701627862698244   -0.0017480758776194554
-0.013010976874100832   -0.06006328554377275   -0.0013638907497420763
-0.01185771070404058   -0.0702340973191537   -0.0018292281601587274
-0.00708763063079057   -0.07024292792971787   -0.0016331597558931316
-0.013010976874100832   -0.06006328554377275   -0.0013638907497420763
-0.007380472372079619   -0.06013829287337734   -0.0012332136522141249
-0.007340839030247289   -0.06023531196971295   -0.0012573191587484463
-0.00708763063079057   -0.07024292792971787   -0.0016331597558931316
-0.013010976874100832   -0.06006328554377275   -0.0013638907497420763
-0.007340839030247289   -0.06023531196971295   -0.0012573191587484463
-0.01185771070404058   -0.0702340973191537   -0.0018292281601587274
-0.00708763063079057   -0.07024292792971787   -0.0016331597558931316
-0.007380472372079619   -0.06013829287337734   -0.0012332136522141249
-0.011853826790542648   -0.0701627862698244   -0.0017480758776194554
-0.007094455850191524   -0.07018811451701883   -0.0016090970976325274
-0.007380472372079619   -0.06013829287337734   -0.0012332136522141249
-0.013010976874100832   -0.06006328554377275   -0.0013638907497420763
-0.011853826790542648   -0.0701627862698244   -0.0017480758776194554
-0.013046932679853941   -0.060013911401630815   -0.001283547022062324
-0.007094455850191524   -0.07018811451701883   -0.0016090970976325274
-0.011851402476035994   -0.07012703698515221   -0.00165798642441662
-0.013046932679853941   -0.060013911401630815   -0.001283547022062324
-0.011853826790542648   -0.0701627862698244   -0.0017480758776194554
-0.007094455850191524   -0.07018811451701883   -0.0016090970976325274
-0.013046932679853941   -0.060013911401630815   -0.001283547022062324
-0.007426260922852799   -0.060068014193496506   -0.0012008699557898824
-0.007380472372079619   -0.06013829287337734   -0.0012332136522141249
-0.007094455850191524   -0.07018811451701883   -0.0016090970976325274
-0.013046932679853941   -0.060013911401630815   -0.001283547022062324
-0.007380472372079619   -0.06013829287337734   -0.0012332136522141249
-0.011853826790542648   -0.0701627862698244   -0.0017480758776194554
-0.011853466637831964   -0.07034160823356159   -0.0019011741749908237
-0.012933873323865957   -0.060239941694517726   -0.001499576974827739
-0.016768973902022685   -0.07010433198937832   -0.00211376744512503
-0.01185771070404058   -0.0702340973191537   -0.0018292281601587274
-0.012933873323865957   -0.060239941694517726   -0.001499576974827739
-0.01869997847353489   -0.0600365810937461   -0.001689062526733378
-0.016768973902022685   -0.07010433198937832   -0.00211376744512503
-0.01873490069428553   -0.05995669796383362   -0.0015766768555877631
-0.01185771070404058   -0.0702340973191537   -0.0018292281601587274
-0.01676323525601689   -0.0700163823105469   -0.00197486849224515
-0.01873490069428553   -0.05995669796383362   -0.0015766768555877631
-0.016768973902022685   -0.07010433198937832   -0.00211376744512503
-0.01185771070404058   -0.0702340973191537   -0.0018292281601587274
-0.01873490069428553   -0.05995669796383362   -0.0015766768555877631
-0.012976031649290835   -0.06013859290224935   -0.0014359844145847573
-0.012933873323865957   -0.060239941694517726   -0.001499576974827739
-0.01185771070404058   -0.0702340973191537   -0.0018292281601587274
-0.01873490069428553   -0.05995669796383362   -0.0015766768555877631
-0.012933873323865957   -0.060239941694517726   -0.001499576974827739
-0.016768973902022685   -0.07010433198937832   -0.00211376744512503
-0.01185771070404058   -0.0702340973191537   -0.0018292281601587274
-0.012976031649290835   -0.06013859290224935   -0.0014359844145847573
-0.01676323525601689   -0.0700163823105469   -0.00197486849224515
-0.011853826790542648   -0.0701627862698244   -0.0017480758776194554
-0.012976031649290835   -0.06013859290224935   -0.0014359844145847573
-0.01873490069428553   -0.05995669796383362   -0.0015766768555877631
-0.01676323525601689   -0.0700163823105469   -0.00197486849224515
-0.01873952593267592   -0.05990124189904414   -0.0014569668145051578
-0.011853826790542648   -0.0701627862698244   -0.0017480758776194554
-0.016722091270609248   -0.06996328601033147   -0.0018281501468068362
-0.01873952593267592   -0.05990124189904414   -0.0014569668145051578
-0.01676323525601689   -0.0700163823105469   -0.00197486849224515
-0.011853826790542648   -0.0701627862698244   -0.0017480758776194554
-0.01873952593267592   -0.05990124189904414   -0.0014569668145051578
-0.013010976874100832   -0.06006328554377275   -0.0013638907497420763
-0.012976031649290835   -0.06013859290224935   -0.0014359844145847573
-0.011853826790542648   -0.0701627862698244   -0.0017480758776194554
-0.01873952593267592   -0.05990124189904414   -0.0014569668145051578
-0.012976031649290835   -0.06013859290224935   -0.0014359844145847573
-0.01676323525601689   -0.0700163823105469   -0.00197486849224515
-0.011853826790542648   -0.0701627862698244   -0.0017480758776194554
-0.013010976874100832   -0.06006328554377275   -0.0013638907497420763
-0.016722091270609248   -0.06996328601033147   -0.0018281501468068362
-0.011851402476035994   -0.07012703698515221   -0.00165798642441662
-0.013010976874100832   -0.06006328554377275   -0.0013638907497420763
-0.01873952593267592   -0.05990124189904414   -0.0014569668145051578
-0.016722091270609248   -0.06996328601033147   -0.0018281501468068362
-0.018752715763495843   -0.059874048257324126   -0.0013283824248721955
-0.011851402476035994   -0.07012703698515221   -0.00165798642441662
-0.016694574759983313   -0.06994873739510167   -0.0016717779020141263
-0.018752715763495843   -0.059874048257324126   -0.0013283824248721955
-0.016722091270609248   -0.06996328601033147   -0.0018281501468068362
-0.011851402476035994   -0.07012703698515221   -0.00165798642441662
-0.018752715763495843   -0.059874048257324126   -0.0013283824248721955
-0.013046932679853941   -0.060013911401630815   -0.001283547022062324
-0.013010976874100832   -0.06006328554377275   -0.0013638907497420763
-0.011851402476035994   -0.07012703698515221   -0.00165798642441662
-0.018752715763495843   -0.059874048257324126   -0.0013283824248721955
-0.013010976874100832   -0.06006328554377275   -0.0013638907497420763
-0.016722091270609248   -0.06996328601033147   -0.0018281501468068362
-0.016768973902022685   -0.07010433198937832   -0.00211376744512503
-0.01869997847353489   -0.0600365810937461   -0.001689062526733378
-0.02225948394628251   -0.06977748056695922   -0.002305378599778343
-0.01676323525601689   -0.0700163823105469   -0.00197486849224515
-0.01869997847353489   -0.0600365810937461   -0.001689062526733378
-0.024987562302449393   -0.0597699929564678   -0.0018509192354293567
-0.02225948394628251   -0.06977748056695922   -0.002305378599778343
-0.02486770584349013   -0.059697024701300255   -0.0016869925869393747
-0.01676323525601689   -0.0700163823105469   -0.00197486849224515
-0.0220546471426807   -0.06969121073142259   -0.0020929463591118115
-0.02486770584349013   -0.059697024701300255   -0.0016869925869393747
-0.02225948394628251   -0.06977748056695922   -0.002305378599778343
-0.01676323525601689   -0.0700163823105469   -0.00197486849224515
-0.02486770584349013   -0.059697024701300255   -0.0016869925869393747
-0.01873490069428553   -0.05995669796383362   -0.0015766768555877631
-0.01869997847353489   -0.0600365810937461   -0.001689062526733378
-0.01676323525601689   -0.0700163823105469   -0.00197486849224515
-0.02486770584349013   -0.059697024701300255   -0.0016869925869393747
-0.01869997847353489   -0.0600365810937461   -0.001689062526733378
-0.02225948394628251   -0.06977748056695922   -0.002305378599778343
-0.01676323525601689   -0.0700163823105469   -0.00197486849224515
-0.01873490069428553   -0.05995669796383362   -0.0015766768555877631
-0.0220546471426807   -0.06969121073142259   -0.0020929463591118115
-0.016722091270609248   -0.06996328601033147   -0.0018281501468068362
-0.01873490069428553   -0.05995669796383362   -0.0015766768555877631
-0.02486770584349013   -0.059697024701300255   -0.0016869925869393747
-0.0220546471426807   -0.06969121073142259   -0.0020929463591118115
-0.024766627734186742   -0.05964998181617915   -0.00151028158350765
-0.016722091270609248   -0.06996328601033147   -0.0018281501468068362
-0.021879401257596437   -0.06964475595203692   -0.0018673773309610506
-0.024766627734186742   -0.05964998181617915   -0.00151028158350765
-0.0220546471426807   -0.06969121073142259   -0.0020929463591118115
-0.016722091270609248   -0.06996328601033147   -0.0018281501468068362
-0.024766627734186742   -0.05964998181617915   -0.00151028158350765
-0.01873952593267592   -0.05990124189904414   -0.0014569668145051578
-0.01873490069428553   -0.05995669796383362   -0.0015766768555877631
-0.016722091270609248   -0.06996328601033147   -0.0018281501468068362
-0.024766627734186742   -0.05964998181617915   -0.00151028158350765
-0.01873490069428553   -0.05995669796383362   -0.0015766768555877631
-0.0220546471426807   -0.06969121073142259   -0.0020929463591118115
-0.016722091270609248   -0.06996328601033147   -0.0018281501468068362
-0.01873952593267592   -0.05990124189904414   -0.0014569668145051578
-0.021879401257596437   -0.06964475595203692   -0.0018673773309610506
-0.016694574759983313   -0.06994873739510167   -0.0016717779020141263
-0.01873952593267592   -0.05990124189904414   -0.0014569668145051578
-0.024766627734186742   -0.05964998181617915   -0.00151028158350765
-0.021879401257596437   -0.06964475595203692   -0.0018673773309610506
-0.024599683601219797   -0.059650990275945906   -0.0013223788387320642
-0.016694574759983313   -0.06994873739510167   -0.0016717779020141263
-0.02162640179633267   -0.069659467901002   -0.001630469318358368
-0.024599683601219797   -0.059650990275945906   -0.0013223788387320642
-0.021879401257596437   -0.06964475595203692   -0.0018673773309610506
-0.016694574759983313   -0.06994873739510167   -0.0016717779020141263
-0.024599683601219797   -0.059650990275945906   -0.0013223788387320642
-0.018752715763495843   -0.059874048257324126   -0.0013283824248721955
-0.01873952593267592   -0.05990124189904414   -0.0014569668145051578
-0.016694574759983313   -0.06994873739510167   -0.0016717779020141263
-0.024599683601219797   -0.059650990275945906   -0.0013223788387320642
-0.01873952593267592   -0.05990124189904414   -0.0014569668145051578
-0.021879401257596437   -0.06964475595203692   -0.0018673773309610506
0.004404670777038718   -0.060329137951248994   -0.0006862493890744305
0.005292515457044864   -0.049102751128254594   -0.00034925865323899314
-0.0015726627407339068   -0.06039025289558018   -0.001007802431893082
0.004462350305131905   -0.060157826944862165   -0.0007835455688260432
0.005292515457044864   -0.049102751128254594   -0.00034925865323899314
-0.0013412126746343354   -0.049101085274145945   -0.0006474989909894713
-0.0015726627407339068   -0.06039025289558018   -0.001007802431893082
-0.0014007426626627434   -0.048958420205701056   -0.0006517915956767614
0.004462350305131905   -0.060157826944862165   -0.0007835455688260432
-0.0016009278160546972   -0.060242785668770824   -0.0010407191530231999
-0.0014007426626627434   -0.048958420205701056   -0.0006517915956767614
-0.0015726627407339068   -0.06039025289558018   -0.001007802431893082
0.004462350305131905   -0.060157826944862165   -0.0007835455688260432
-0.0014007426626627434   -0.048958420205701056   -0.0006517915956767614
0.005272935201337719   -0.0489387308822929   -0.00039575188629762195
0.005292515457044864   -0.049102751128254594   -0.00034925865323899314
0.004462350305131905   -0.060157826944862165   -0.0007835455688260432
-0.0014007426626627434   -0.048958420205701056   -0.0006517915956767614
0.005292515457044864   -0.049102751128254594   -0.00034925865323899314
-0.0015726627407339068   -0.06039025289558018   -0.001007802431893082
0.004462350305131905   -0.060157826944862165   -0.0007835455688260432
0.005272935201337719   -0.0489387308822929   -0.00039575188629762195
-0.0016009278160546972   -0.060242785668770824   -0.0010407191530231999
0.004479675304127919   -0.06003281268680944   -0.0008684406262804109
0.005272935201337719   -0.0489387308822929   -0.00039575188629762195
-0.0014007426626627434   -0.048958420205701056   -0.0006517915956767614
-0.0016009278160546972   -0.060242785668770824   -0.0010407191530231999
-0.0014668875698392913   -0.048835493460871605   -0.0006486370080198305
0.004479675304127919   -0.06003281268680944   -0.0008684406262804109
-0.0016306514616379803   -0.06012598902756737   -0.0010652288083997487
-0.0014668875698392913   -0.048835493460871605   -0.0006486370080198305
-0.0016009278160546972   -0.060242785668770824   -0.0010407191530231999
0.004479675304127919   -0.06003281268680944   -0.0008684406262804109
-0.0014668875698392913   -0.048835493460871605   -0.0006486370080198305
0.0052248631734384925   -0.04880658287814906   -0.00043030863994679696
0.005272935201337719   -0.0489387308822929   -0.00039575188629762195
0.004479675304127919   -0.06003281268680944   -0.0008684406262804109
-0.0014668875698392913   -0.048835493460871605   -0.0006486370080198305
0.005272935201337719   -0.0489387308822929   -0.00039575188629762195
-0.0016009278160546972   -0.060242785668770824   -0.0010407191530231999
0.004479675304127919   -0.06003281268680944   -0.0008684406262804109
0.0052248631734384925   -0.04880658287814906   -0.00043030863994679696
-0.0016306514616379803   -0.06012598902756737   -0.0010652288083997487
0.004489179907871709   -0.05993213540848958   -0.0009415204930803636
0.0052248631734384925   -0.04880658287814906   -0.00043030863994679696
-0.0014668875698392913   -0.048835493460871605   -0.0006486370080198305
-0.0016306514616379803   -0.06012598902756737   -0.0010652288083997487
-0.0015489159084229205   -0.04872913143372193   -0.0006377416365339953
0.004489179907871709   -0.05993213540848958   -0.0009415204930803636
-0.0016811319671381684   -0.060036205066428754   -0.0010816160792461982
-0.0015489159084229205   -0.04872913143372193   -0.0006377416365339953
-0.0016306514616379803   -0.06012598902756737   -0.0010652288083997487
0.004489179907871709   -0.05993213540848958   -0.0009415204930803636
-0.0015489159084229205   -0.04872913143372193   -0.0006377416365339953
0.0051578136944365124   -0.04868483477077753   -0.00045376242538879
0.0052248631734384925   -0.04880658287814906   -0.00043030863994679696
0.004489179907871709   -0.05993213540848958   -0.0009415204930803636
-0.0015489159084229205   -0.04872913143372193   -0.0006377416365339953
0.0052248631734384925   -0.04880658287814906   -0.00043030863994679696
-0.0016306514616379803   -0.06012598902756737   -0.0010652288083997487
-0.0015726627407339068   -0.06039025289558018   -0.001007802431893082
-0.0013412126746343354   -0.049101085274145945   -0.0006474989909894713
-0.007301741633905699   -0.06035862401051977   -0.0012727716607664609
-0.0016009278160546972   -0.060242785668770824   -0.0010407191530231999
-0.0013412126746343354   -0.049101085274145945   -0.0006474989909894713
-0.00766841493346549   -0.04904105747147221   -0.0008938483898666028
-0.007301741633905699   -0.06035862401051977   -0.0012727716607664609
-0.007734969108915159   -0.04892254219802863   -0.0008679186931119602
-0.0016009278160546972   -0.060242785668770824   -0.0010407191530231999
-0.007340839030247289   -0.06023531196971295   -0.0012573191587484463
-0.007734969108915159   -0.04892254219802863   -0.0008679186931119602
-0.007301741633905699   -0.06035862401051977   -0.0012727716607664609
-0.0016009278160546972   -0.060242785668770824   -0.0010407191530231999
-0.007734969108915159   -0.04892254219802863   -0.0008679186931119602
-0.0014007426626627434   -0.048958420205701056   -0.0006517915956767614
-0.0013412126746343354   -0.049101085274145945   -0.0006474989909894713
-0.0016009278160546972   -0.060242785668770824   -0.0010407191530231999
-0.007734969108915159   -0.04892254219802863   -0.0008679186931119602
-0.0013412126746343354   -0.049101085274145945   -0.0006474989909894713
-0.007301741633905699   -0.06035862401051977   -0.0012727716607664609
-0.0016009278160546972   -0.060242785668770824   -0.0010407191530231999
-0.0014007426626627434   -0.048958420205701056   -0.0006517915956767614
-0.007340839030247289   -0.06023531196971295   -0.0012573191587484463
-0.0016306514616379803   -0.06012598902756737   -0.0010652288083997487
-0.0014007426626627434   -0.048958420205701056   -0.0006517915956767614
-0.007734969108915159   -0.04892254219802863   -0.0008679186931119602
-0.007340839030247289   -0.06023531196971295   -0.0012573191587484463
-0.007802857350025453   -0.048820095813946036   -0.0008342336040975379
-0.0016306514616379803   -0.06012598902756737   -0.0010652288083997487
-0.007380472372079619   -0.06013829287337734   -0.0012332136522141249
-0.007802857350025453   -0.048820095813946036   -0.0008342336040975379
-0.007340839030247289   -0.06023531196971295   -0.0012573191587484463
-0.0016306514616379803   -0.06012598902756737   -0.0010652288083997487
-0.007802857350025453   -0.048820095813946036   -0.0008342336040975379
-0.0014668875698392913   -0.048835493460871605   -0.0006486370080198305
-0.0014007426626627434   -0.048958420205701056   -0.0006517915956767614
-0.0016306514616379803   -0.06012598902756737   -0.0010652288083997487
-0.007802857350025453   -0.048820095813946036   -0.0008342336040975379
-0.0014007426626627434   -0.048958420205701056   -0.0006517915956767614
-0.007340839030247289   -0.06023531196971295   -0.0012573191587484463
-0.0016306514616379803   -0.06012598902756737   -0.0010652288083997487
-0.0014668875698392913   -0.048835493460871605   -0.0006486370080198305
-0.007380472372079619   -0.06013829287337734   -0.0012332136522141249
-0.0016811319671381684   -0.060036205066428754   -0.0010816160792461982
-0.0014668875698392913   -0.048835493460871605   -0.0006486370080198305
-0.007802857350025453   -0.048820095813946036   -0.0008342336040975379
-0.007380472372079619   -0.06013829287337734   -0.0012332136522141249
-0.007876475090277165   -0.04873467957795694   -0.0007931544381965528
-0.0016811319671381684   -0.060036205066428754   -0.0010816160792461982
-0.007426260922852799   -0.060068014193496506   -0.0012008699557898824
-0.007876475090277165   -0.04873467957795694   -0.0007931544381965528
-0.007380472372079619   -0.06013829287337734   -0.0012332136522141249
-0.0016811319671381684   -0.060036205066428754   -0.0010816160792461982
-0.007876475090277165   -0.04873467957795694   -0.0007931544381965528
-0.0015489159084229205   -0.04872913143372193   -0.0006377416365339953
-0.0014668875698392913   -0.048835493460871605   -0.0006486370080198305
-0.0016811319671381684   -0.060036205066428754   -0.0010816160792461982
-0.007876475090277165   -0.04873467957795694   -0.0007931544381965528
-0.0014668875698392913   -0.048835493460871605   -0.0006486370080198305
-0.007380472372079619   -0.06013829287337734   -0.0012332136522141249
-0.007301741633905699   -0.06035862401051977   -0.0012727716607664609
-0.00766841493346549   -0.04904105747147221   -0.0008938483898666028
-0.012933873323865957   -0.060239941694517726   -0.001499576974827739
-0.007340839030247289   -0.06023531196971295   -0.0012573191587484463
-0.00766841493346549   -0.04904105747147221   -0.0008938483898666028
-0.013888623589871259   -0.048929221753833574   -0.001101794528870163
-0.012933873323865957   -0.060239941694517726   -0.001499576974827739
-0.013957118561429734   -0.048832984638897896   -0.001045690156107701
-0.007340839030247289   -0.06023531196971295   -0.0012573191587484463
-0.012976031649290835   -0.06013859290224935   -0.0014359844145847573
-0.013957118561429734   -0.048832984638897896   -0.001045690156107701
-0.012933873323865957   -0.060239941694517726   -0.001499576974827739
-0.007340839030247289   -0.06023531196971295   -0.0012573191587484463
-0.013957118561429734   -0.048832984638897896   -0.001045690156107701
-0.007734969108915159   -0.04892254219802863   -0.0008679186931119602
-0.00766841493346549   -0.04904105747147221   -0.0008938483898666028
-0.007340839030247289   -0.06023531196971295   -0.0012573191587484463
-0.013957118561429734   -0.048832984638897896   -0.001045690156107701
-0.00766841493346549   -0.04904105747147221   -0.0008938483898666028
-0.012933873323865957   -0.060239941694517726   -0.001499576974827739
-0.007340839030247289   -0.06023531196971295   -0.0012573191587484463
-0.007734969108915159   -0.04892254219802863   -0.0008679186931119602
-0.012976031649290835   -0.06013859290224935   -0.0014359844145847573
-0.007380472372079619   -0.06013829287337734   -0.0012332136522141249
-0.007734969108915159   -0.04892254219802863   -0.0008679186931119602
-0.013957118561429734   -0.048832984638897896   -0.001045690156107701
-0.012976031649290835   -0.06013859290224935   -0.0014359844145847573
-0.014019266980367867   -0.04875270274743453   -0.0009820103930716505
-0.007380472372079619   -0.06013829287337734   -0.0012332136522141249
-0.013010976874100832   -0.06006328554377275   -0.0013638907497420763
-0.014019266980367867   -0.04875270274743453   -0.0009820103930716505
-0.012976031649290835   -0.06013859290224935   -0.0014359844145847573
-0.007380472372079619   -0.06013829287337734   -0.0012332136522141249
-0.014019266980367867   -0.04875270274743453   -0.0009820103930716505
-0.007802857350025453   -0.048820095813946036   -0.0008342336040975379
-0.007734969108915159   -0.04892254219802863   -0.0008679186931119602
-0.007380472372079619   -0.06013829287337734   -0.0012332136522141249
-0.014019266980367867   -0.04875270274743453   -0.0009820103930716505
-0.007734969108915159   -0.04892254219802863   -0.0008679186931119602
-0.012976031649290835   -0.06013859290224935   -0.0014359844145847573
-0.007380472372079619   -0.06013829287337734   -0.0012332136522141249
-0.007802857350025453   -0.048820095813946036   -0.0008342336040975379
-0.013010976874100832   -0.06006328554377275   -0.0013638907497420763
-0.007426260922852799   -0.060068014193496506   -0.0012008699557898824
-0.007802857350025453   -0.048820095813946036   -0.0008342336040975379
-0.014019266980367867   -0.04875270274743453   -0.0009820103930716505
-0.013010976874100832   -0.06006328554377275   -0.0013638907497420763
-0.014082003187245189   -0.04868851330511546   -0.0009110449798097972
-0.007426260922852799   -0.060068014193496506   -0.0012008699557898824
-0.013046932679853941   -0.060013911401630815   -0.001283547022062324
-0.014082003187245189   -0.04868851330511546   -0.0009110449798097972
-0.013010976874100832   -0.06006328554377275   -0.0013638907497420763
-0.007426260922852799   -0.060068014193496506   -0.0012008699557898824
-0.014082003187245189   -0.04868851330511546   -0.0009110449798097972
-0.007876475090277165   -0.04873467957795694   -0.0007931544381965528
-0.007802857350025453   -0.048820095813946036   -0.0008342336040975379
-0.007426260922852799   -0.060068014193496506   -0.0012008699557898824
-0.014082003187245189   -0.04868851330511546   -0.0009110449798097972
-0.007802857350025453   -0.048820095813946036   -0.0008342336040975379
-0.013010976874100832   -0.06006328554377275   -0.0013638907497420763
-0.012933873323865957   -0.060239941694517726   -0.001499576974827739
-0.013888623589871259   -0.048929221753833574   -0.001101794528870163
-0.01869997847353489   -0.0600365810937461   -0.001689062526733378
-0.012976031649290835   -0.06013859290224935   -0.0014359844145847573
-0.013888623589871259   -0.048929221753833574   -0.001101794528870163
-0.020231979419884794   -0.04876319566145495   -0.0012717907773571425
-0.01869997847353489   -0.0600365810937461   -0.001689062526733378
-0.020295599119856084   -0.04868943238007961   -0.0011852822925469005
-0.012976031649290835   -0.06013859290224935   -0.0014359844145847573
-0.01873490069428553   -0.05995669796383362   -0.0015766768555877631
-0.020295599119856084   -0.04868943238007961   -0.0011852822925469005
-0.01869997847353489   -0.0600365810937461   -0.001689062526733378
-0.012976031649290835   -0.06013859290224935   -0.0014359844145847573
-0.020295599119856084   -0.04868943238007961   -0.0011852822925469005
-0.013957118561429734   -0.048832984638897896   -0.001045690156107701
-0.013888623589871259   -0.048929221753833574   -0.001101794528870163
-0.012976031649290835   -0.06013859290224935   -0.0014359844145847573
-0.020295599119856084   -0.04868943238007961   -0.0011852822925469005
-0.013888623589871259   -0.048929221753833574   -0.001101794528870163
-0.01869997847353489   -0.0600365810937461   -0.001689062526733378
-0.012976031649290835   -0.06013859290224935   -0.0014359844145847573
-0.013957118561429734   -0.048832984638897896   -0.001045690156107701
-0.01873490069428553   -0.05995669796383362   -0.0015766768555877631
-0.013010976874100832   -0.06006328554377275   -0.0013638907497420763
-0.013957118561429734   -0.048832984638897896   -0.001045690156107701
-0.020295599119856084   -0.04868943238007961   -0.0011852822925469005
-0.01873490069428553   -0.05995669796383362   -0.0015766768555877631
-0.02033422101439528   -0.04862957279772943   -0.0010922226306293748
-0.013010976874100832   -0.06006328554377275   -0.0013638907497420763
-0.01873952593267592   -0.05990124189904414   -0.0014569668145051578
-0.02033422101439528   -0.04862957279772943   -0.0010922226306293748
-0.01873490069428553   -0.05995669796383362   -0.0015766768555877631
-0.013010976874100832   -0.06006328554377275   -0.0013638907497420763
-0.02033422101439528   -0.04862957279772943   -0.0010922226306293748
-0.014019266980367867   -0.04875270274743453   -0.0009820103930716505
-0.013957118561429734   -0.048832984638897896   -0.001045690156107701
-0.013010976874100832   -0.06006328554377275   -0.0013638907497420763
-0.02033422101439528   -0.04862957279772943   -0.0010922226306293748
-0.013957118561429734   -0.048832984638897896   -0.001045690156107701
-0.01873490069428553   -0.05995669796383362   -0.0015766768555877631
-0.013010976874100832   -0.06006328554377275   -0.0013638907497420763
-0.014019266980367867   -0.04875270274743453   -0.0009820103930716505
-0.01873952593267592   -0.05990124189904414   -0.0014569668145051578
-0.013046932679853941   -0.060013911401630815   -0.001283547022062324
-0.014019266980367867   -0.04875270274743453   -0.0009820103930716505
-0.02033422101439528   -0.04862957279772943   -0.0010922226306293748
-0.01873952593267592   -0.05990124189904414   -0.0014569668145051578
-0.02037659776532706   -0.04858719713287713   -0.0009912562925525692
-0.013046932679853941   -0.060013911401630815   -0.001283547022062324
-0.018752715763495843   -0.059874048257324126   -0.0013283824248721955
-0.02037659776532706   -0.04858719713287713   -0.0009912562925525692
-0.01873952593267592   -0.05990124189904414   -0.0014569668145051578
-0.013046932679853941   -0.060013911401630815   -0.001283547022062324
-0.02037659776532706   -0.04858719713287713   -0.0009912562925525692
-0.014082003187245189   -0.04868851330511546   -0.0009110449798097972
-0.014019266980367867   -0.04875270274743453   -0.0009820103930716505
-0.013046932679853941   -0.060013911401630815   -0.001283547022062324
-0.02037659776532706   -0.04858719713287713   -0.0009912562925525692
-0.014019266980367867   -0.04875270274743453   -0.0009820103930716505
-0.01873952593267592   -0.05990124189904414   -0.0014569668145051578
-0.01869997847353489   -0.0600365810937461   -0.001689062526733378
-0.020231979419884794   -0.04876319566145495   -0.0012717907773571425
-0.024987562302449393   -0.0597699929564678   -0.0018509192354293567
-0.01873490069428553   -0.05995669796383362   -0.0015766768555877631
-0.020231979419884794   -0.04876319566145495   -0.0012717907773571425
-0.027039607831793468   -0.048559100334780794   -0.0014070252921370523
-0.024987562302449393   -0.0597699929564678   -0.0018509192354293567
-0.026993295933391916   -0.04849687494627962   -0.0012918708319579874
-0.01873490069428553   -0.05995669796383362   -0.0015766768555877631
-0.02486770584349013   -0.059697024701300255   -0.0016869925869393747
-0.026993295933391916   -0.04849687494627962   -0.0012918708319579874
-0.024987562302449393   -0.0597699929564678   -0.0018509192354293567
-0.01873490069428553   -0.05995669796383362   -0.0015766768555877631
-0.026993295933391916   -0.04849687494627962   -0.0012918708319579874
-0.020295599119856084   -0.04868943238007961   -0.0011852822925469005
-0.020231979419884794   -0.04876319566145495   -0.0012717907773571425
-0.01873490069428553   -0.05995669796383362   -0.0015766768555877631
-0.026993295933391916   -0.04849687494627962   -0.0012918708319579874
-0.020231979419884794   -0.04876319566145495   -0.0012717907773571425
-0.024987562302449393   -0.0597699929564678   -0.0018509192354293567
-0.01873490069428553   -0.05995669796383362   -0.0015766768555877631
-0.020295599119856084   -0.04868943238007961   -0.0011852822925469005
-0.02486770584349013   -0.059697024701300255   -0.0016869925869393747
-0.01873952593267592   -0.05990124189904414   -0.0014569668145051578
-0.020295599119856084   -0.04868943238007961   -0.0011852822925469005
-0.026993295933391916   -0.04849687494627962   -0.0012918708319579874
-0.02486770584349013   -0.059697024701300255   -0.0016869925869393747
-0.02695556256153195   -0.048446634310013705   -0.0011646956649392327
-0.01873952593267592   -0.05990124189904414   -0.0014569668145051578
-0.024766627734186742   -0.05964998181617915   -0.00151028158350765
-0.02695556256153195   -0.048446634310013705   -0.0011646956649392327
-0.02486770584349013   -0.059697024701300255   -0.0016869925869393747
-0.01873952593267592   -0.05990124189904414   -0.0014569668145051578
-0.02695556256153195   -0.048446634310013705   -0.0011646956649392327
-0.02033422101439528   -0.04862957279772943   -0.0010922226306293748
-0.020295599119856084   -0.04868943238007961   -0.0011852822925469005
-0.01873952593267592   -0.05990124189904414   -0.0014569668145051578
-0.02695556256153195   -0.048446634310013705   -0.0011646956649392327
-0.020295599119856084   -0.04868943238007961   -0.0011852822925469005
-0.02486770584349013   -0.059697024701300255   -0.0016869925869393747
-0.01873952593267592   -0.05990124189904414   -0.0014569668145051578
-0.02033422101439528   -0.04862957279772943   -0.0010922226306293748
-0.024766627734186742   -0.05964998181617915   -0.00151028158350765
-0.018752715763495843   -0.059874048257324126   -0.0013283824248721955
-0.02033422101439528   -0.04862957279772943   -0.0010922226306293748
-0.02695556256153195   -0.048446634310013705   -0.0011646956649392327
-0.024766627734186742   -0.05964998181617915   -0.00151028158350765
-0.026864458482307715   -0.048430386644338304   -0.0010268714886879577
-0.018752715763495843   -0.059874048257324126   -0.0013283824248721955
-0.024599683601219797   -0.059650990275945906   -0.0013223788387320642
-0.026864458482307715   -0.048430386644338304   -0.0010268714886879577
-0.024766627734186742   -0.05964998181617915   -0.00151028158350765
-0.018752715763495843   -0.059874048257324126   -0.0013283824248721955
-0.026864458482307715   -0.048430386644338304   -0.0010268714886879577
-0.02037659776532706   -0.04858719713287713   -0.0009912562925525692
-0.02033422101439528   -0.04862957279772943   -0.0010922226306293748
-0.018752715763495843   -0.059874048257324126   -0.0013283824248721955
-0.026864458482307715   -0.048430386644338304   -0.0010268714886879577
-0.02033422101439528   -0.04862957279772943   -0.0010922226306293748
-0.024766627734186742   -0.05964998181617915   -0.00151028158350765
0.005292515457044864   -0.049102751128254594   -0.00034925865323899314
0.005467124622426538   -0.037104273536242544   -5.4064719106187e-05
-0.0013412126746343354   -0.049101085274145945   -0.0006474989909894713
0.005272935201337719   -0.0489387308822929   -0.00039575188629762195
0.005467124622426538   -0.037104273536242544   -5.4064719106187e-05
-0.0015412154898814024   -0.0370423817331016   -0.00032232148743848804
-0.0013412126746343354   -0.049101085274145945   -0.0006474989909894713
-0.0016228374395475674   -0.03690580428388997   -0.0002980246212112262
0.005272935201337719   -0.0489387308822929   -0.00039575188629762195
-0.0014007426626627434   -0.048958420205701056   -0.0006517915956767614
-0.0016228374395475674   -0.03690580428388997   -0.0002980246212112262
-0.0013412126746343354   -0.049101085274145945   -0.0006474989909894713
0.005272935201337719   -0.0489387308822929   -0.00039575188629762195
-0.0016228374395475674   -0.03690580428388997   -0.0002980246212112262
0.005380268128451439   -0.0369477764942572   -4.891089852306913e-05
0.005467124622426538   -0.037104273536242544   -5.4064719106187e-05
0.005272935201337719   -0.0489387308822929   -0.00039575188629762195
-0.0016228374395475674   -0.03690580428388997   -0.0002980246212112262
0.005467124622426538   -0.037104273536242544   -5.4064719106187e-05
-0.0013412126746343354   -0.049101085274145945   -0.0006474989909894713
0.005272935201337719   -0.0489387308822929   -0.00039575188629762195
0.005380268128451439   -0.0369477764942572   -4.891089852306913e-05
-0.0014007426626627434   -0.048958420205701056   -0.0006517915956767614
0.0052248631734384925   -0.04880658287814906   -0.00043030863994679696
0.005380268128451439   -0.0369477764942572   -4.891089852306913e-05
-0.0016228374395475674   -0.03690580428388997   -0.0002980246212112262
-0.0014007426626627434   -0.048958420205701056   -0.0006517915956767614
-0.001716264455083199   -0.03677680293709742   -0.00026698194053702653
0.0052248631734384925   -0.04880658287814906   -0.00043030863994679696
-0.0014668875698392913   -0.048835493460871605   -0.0006486370080198305
-0.001716264455083199   -0.03677680293709742   -0.00026698194053702653
-0.0014007426626627434   -0.048958420205701056   -0.0006517915956767614
0.0052248631734384925   -0.04880658287814906   -0.00043030863994679696
-0.001716264455083199   -0.03677680293709742   -0.00026698194053702653
0.005273839792180024   -0.036807790252827224   -2.9968774463734125e-05
0.005380268128451439   -0.0369477764942572   -4.891089852306913e-05
0.0052248631734384925   -0.04880658287814906   -0.00043030863994679696
-0.001716264455083199   -0.03677680293709742   -0.00026698194053702653
0.005380268128451439   -0.0369477764942572   -4.891089852306913e-05
-0.0014007426626627434   -0.048958420205701056   -0.0006517915956767614
0.0052248631734384925   -0.04880658287814906   -0.00043030863994679696
0.005273839792180024   -0.036807790252827224   -2.9968774463734125e-05
-0.0014668875698392913   -0.048835493460871605   -0.0006486370080198305
0.0051578136944365124   -0.04868483477077753   -0.00045376242538879
0.005273839792180024   -0.036807790252827224   -2.9968774463734125e-05
-0.001716264455083199   -0.03677680293709742   -0.00026698194053702653
-0.0014668875698392913   -0.048835493460871605   -0.0006486370080198305
-0.0018210796680809853   -0.03665361712763876   -0.0002275015118756466
0.0051578136944365124   -0.04868483477077753   -0.00045376242538879
-0.0015489159084229205   -0.04872913143372193   -0.0006377416365339953
-0.0018210796680809853   -0.03665361712763876   -0.0002275015118756466
-0.0014668875698392913   -0.048835493460871605   -0.0006486370080198305
0.0051578136944365124   -0.04868483477077753   -0.00045376242538879
-0.0018210796680809853   -0.03665361712763876   -0.0002275015118756466
0.005133596078397099   -0.03666128668900897   2.136242716328038e-06
0.005273839792180024   -0.036807790252827224   -2.9968774463734125e-05
0.0051578136944365124   -0.04868483477077753   -0.00045376242538879
-0.0018210796680809853   -0.03665361712763876   -0.0002275015118756466
0.005273839792180024   -0.036807790252827224   -2.9968774463734125e-05
-0.0014668875698392913   -0.048835493460871605   -0.0006486370080198305
-0.0013412126746343354   -0.049101085274145945   -0.0006474989909894713
-0.0015412154898814024   -0.0370423817331016   -0.00032232148743848804
-0.00766841493346549   -0.04904105747147221   -0.0008938483898666028
-0.0014007426626627434   -0.048958420205701056   -0.0006517915956767614
-0.0015412154898814024   -0.0370423817331016   -0.00032232148743848804
-0.008182038346939995   -0.03697050939189987   -0.0005495536411209728
-0.00766841493346549   -0.04904105747147221   -0.0008938483898666028
-0.008265235346143433   -0.03685618775258139   -0.000512496329705959
-0.0014007426626627434   -0.048958420205701056   -0.0006517915956767614
-0.007734969108915159   -0.04892254219802863   -0.0008679186931119602
-0.008265235346143433   -0.03685618775258139   -0.000512496329705959
-0.00766841493346549   -0.04904105747147221   -0.0008938483898666028
-0.0014007426626627434   -0.048958420205701056   -0.0006517915956767614
-0.008265235346143433   -0.03685618775258139   -0.000512496329705959
-0.0016228374395475674   -0.03690580428388997   -0.0002980246212112262
-0.0015412154898814024   -0.0370423817331016   -0.00032232148743848804
-0.0014007426626627434   -0.048958420205701056   -0.0006517915956767614
-0.008265235346143433   -0.03685618775258139   -0.000512496329705959
-0.0015412154898814024   -0.0370423817331016   -0.00032232148743848804
-0.00766841493346549   -0.04904105747147221   -0.0008938483898666028
-0.0014007426626627434   -0.048958420205701056   -0.0006517915956767614
-0.0016228374395475674   -0.03690580428388997   -0.0002980246212112262
-0.007734969108915159   -0.04892254219802863   -0.0008679186931119602
-0.0014668875698392913   -0.048835493460871605   -0.0006486370080198305
-0.0016228374395475674   -0.03690580428388997   -0.0002980246212112262
-0.008265235346143433   -0.03685618775258139   -0.000512496329705959
-0.007734969108915159   -0.04892254219802863   -0.0008679186931119602
-0.008350287144321986   -0.03674774897175805   -0.0004690144319358456
-0.0014668875698392913   -0.048835493460871605   -0.0006486370080198305
-0.007802857350025453   -0.048820095813946036   -0.0008342336040975379
-0.008350287144321986   -0.03674774897175805   -0.0004690144319358456
-0.007734969108915159   -0.04892254219802863   -0.0008679186931119602
-0.0014668875698392913   -0.048835493460871605   -0.0006486370080198305
-0.008350287144321986   -0.03674774897175805   -0.0004690144319358456
-0.001716264455083199   -0.03677680293709742   -0.00026698194053702653
-0.0016228374395475674   -0.03690580428388997   -0.0002980246212112262
-0.0014668875698392913   -0.048835493460871605   -0.0006486370080198305
-0.008350287144321986   -0.03674774897175805   -0.0004690144319358456
-0.0016228374395475674   -0.03690580428388997   -0.0002980246212112262
-0.007734969108915159   -0.04892254219802863   -0.0008679186931119602
-0.0014668875698392913   -0.048835493460871605   -0.0006486370080198305
-0.001716264455083199   -0.03677680293709742   -0.00026698194053702653
-0.007802857350025453   -0.048820095813946036   -0.0008342336040975379
-0.0015489159084229205   -0.04872913143372193   -0.0006377416365339953
-0.001716264455083199   -0.03677680293709742   -0.00026698194053702653
-0.008350287144321986   -0.03674774897175805   -0.0004690144319358456
-0.007802857350025453   -0.048820095813946036   -0.0008342336040975379
-0.008440734600895476   -0.0366468598258403   -0.0004190353872262465
-0.0015489159084229205   -0.04872913143372193   -0.0006377416365339953
-0.007876475090277165   -0.04873467957795694   -0.0007931544381965528
-0.008440734600895476   -0.0366468598258403   -0.0004190353872262465
-0.007802857350025453   -0.048820095813946036   -0.0008342336040975379
-0.0015489159084229205   -0.04872913143372193   -0.0006377416365339953
-0.008440734600895476   -0.0366468598258403   -0.0004190353872262465
-0.0018210796680809853   -0.03665361712763876   -0.0002275015118756466
-0.001716264455083199   -0.03677680293709742   -0.00026698194053702653
-0.0015489159084229205   -0.04872913143372193   -0.0006377416365339953
-0.008440734600895476   -0.0366468598258403   -0.0004190353872262465
-0.001716264455083199   -0.03677680293709742   -0.00026698194053702653
-0.007802857350025453   -0.048820095813946036   -0.0008342336040975379
-0.00766841493346549   -0.04904105747147221   -0.0008938483898666028
-0.008182038346939995   -0.03697050939189987   -0.0005495536411209728
-0.013888623589871259   -0.048929221753833574   -0.001101794528870163
-0.007734969108915159   -0.04892254219802863   -0.0008679186931119602
-0.008182038346939995   -0.03697050939189987   -0.0005495536411209728
-0.014714964001655579   -0.036884441763398945   -0.0007426530532158505
-0.013888623589871259   -0.048929221753833574   -0.001101794528870163
-0.014797532720964676   -0.03679075910445555   -0.0006928339271559752
-0.007734969108915159   -0.04892254219802863   -0.0008679186931119602
-0.013957118561429734   -0.048832984638897896   -0.001045690156107701
-0.014797532720964676   -0.03679075910445555   -0.0006928339271559752
-0.013888623589871259   -0.048929221753833574   -0.001101794528870163
-0.007734969108915159   -0.04892254219802863   -0.0008679186931119602
-0.014797532720964676   -0.03679075910445555   -0.0006928339271559752
-0.008265235346143433   -0.03685618775258139   -0.000512496329705959
-0.008182038346939995   -0.03697050939189987   -0.0005495536411209728
-0.007734969108915159   -0.04892254219802863   -0.0008679186931119602
-0.014797532720964676   -0.03679075910445555   -0.0006928339271559752
-0.008182038346939995   -0.03697050939189987   -0.0005495536411209728
-0.013888623589871259   -0.048929221753833574   -0.001101794528870163
-0.007734969108915159   -0.04892254219802863   -0.0008679186931119602
-0.008265235346143433   -0.03685618775258139   -0.000512496329705959
-0.013957118561429734   -0.048832984638897896   -0.001045690156107701
-0.007802857350025453   -0.048820095813946036   -0.0008342336040975379
-0.008265235346143433   -0.03685618775258139   -0.000512496329705959
-0.014797532720964676   -0.03679075910445555   -0.0006928339271559752
-0.013957118561429734   -0.048832984638897896   -0.001045690156107701
-0.014874766694343526   -0.0367032982193764   -0.0006368100710488754
-0.007802857350025453   -0.048820095813946036   -0.0008342336040975379
-0.014019266980367867   -0.04875270274743453   -0.0009820103930716505
-0.014874766694343526   -0.0367032982193764   -0.0006368100710488754
-0.013957118561429734   -0.048832984638897896   -0.001045690156107701
-0.007802857350025453   -0.048820095813946036   -0.0008342336040975379
-0.014874766694343526   -0.0367032982193764   -0.0006368100710488754
-0.008350287144321986   -0.03674774897175805   -0.0004690144319358456
-0.008265235346143433   -0.03685618775258139   -0.000512496329705959
-0.007802857350025453   -0.048820095813946036   -0.0008342336040975379
-0.014874766694343526   -0.0367032982193764   -0.0006368100710488754
-0.008265235346143433   -0.03685618775258139   -0.000512496329705959
-0.013957118561429734   -0.048832984638897896   -0.001045690156107701
-0.007802857350025453   -0.048820095813946036   -0.0008342336040975379
-0.008350287144321986   -0.03674774897175805   -0.0004690144319358456
-0.014019266980367867   -0.04875270274743453   -0.0009820103930716505
-0.007876475090277165   -0.04873467957795694   -0.0007931544381965528
-0.008350287144321986   -0.03674774897175805   -0.0004690144319358456
-0.014874766694343526   -0.0367032982193764   -0.0006368100710488754
-0.014019266980367867   -0.04875270274743453   -0.0009820103930716505
-0.014952276686408352   -0.03662230338099786   -0.0005748897443474124
-0.007876475090277165   -0.04873467957795694   -0.0007931544381965528
-0.014082003187245189   -0.04868851330511546   -0.0009110449798097972
-0.014952276686408352   -0.03662230338099786   -0.0005748897443474124
-0.014019266980367867   -0.04875270274743453   -0.0009820103930716505
-0.007876475090277165   -0.04873467957795694   -0.0007931544381965528
-0.014952276686408352   -0.03662230338099786   -0.0005748897443474124
-0.008440734600895476   -0.0366468598258403   -0.0004190353872262465
-0.008350287144321986   -0.03674774897175805   -0.0004690144319358456
-0.007876475090277165   -0.04873467957795694   -0.0007931544381965528
-0.014952276686408352   -0.03662230338099786   -0.0005748897443474124
-0.008350287144321986   -0.03674774897175805   -0.0004690144319358456
-0.014019266980367867   -0.04875270274743453   -0.0009820103930716505
-0.013888623589871259   -0.048929221753833574   -0.001101794528870163
-0.014714964001655579   -0.036884441763398945   -0.0007426530532158505
-0.020231979419884794   -0.04876319566145495   -0.0012717907773571425
-0.013957118561429734   -0.048832984638897896   -0.001045690156107701
-0.014714964001655579   -0.036884441763398945   -0.0007426530532158505
-0.02136580782168436   -0.03676816548690105   -0.0008999714105384969
-0.020231979419884794   -0.04876319566145495   -0.0012717907773571425
-0.021444887389659103   -0.036696198550247666   -0.0008375416260274735
-0.013957118561429734   -0.048832984638897896   -0.001045690156107701
-0.020295599119856084   -0.04868943238007961   -0.0011852822925469005
-0.021444887389659103   -0.036696198550247666   -0.0008375416260274735
-0.020231979419884794   -0.04876319566145495   -0.0012717907773571425
-0.013957118561429734   -0.048832984638897896   -0.001045690156107701
-0.021444887389659103   -0.036696198550247666   -0.0008375416260274735
-0.014797532720964676   -0.03679075910445555   -0.0006928339271559752
-0.014714964001655579   -0.036884441763398945   -0.0007426530532158505
-0.013957118561429734   -0.048832984638897896   -0.001045690156107701
-0.021444887389659103   -0.036696198550247666   -0.0008375416260274735
-0.014714964001655579   -0.036884441763398945   -0.0007426530532158505
-0.020231979419884794   -0.04876319566145495   -0.0012717907773571425
-0.013957118561429734   -0.048832984638897896   -0.001045690156107701
-0.014797532720964676   -0.03679075910445555   -0.0006928339271559752
-0.020295599119856084   -0.04868943238007961   -0.0011852822925469005
-0.014019266980367867   -0.04875270274743453   -0.0009820103930716505
-0.014797532720964676   -0.03679075910445555   -0.0006928339271559752
-0.021444887389659103   -0.036696198550247666   -0.0008375416260274735
-0.020295599119856084   -0.04868943238007961   -0.0011852822925469005
-0.021504897853581825   -0.0366280488546871   -0.0007699354740495664
-0.014019266980367867   -0.04875270274743453   -0.0009820103930716505
-0.02033422101439528   -0.04862957279772943   -0.0010922226306293748
-0.021504897853581825   -0.0366280488546871   -0.0007699354740495664
-0.020295599119856084   -0.04868943238007961   -0.0011852822925469005
-0.014019266980367867   -0.04875270274743453   -0.0009820103930716505
-0.021504897853581825   -0.0366280488546871   -0.0007699354740495664
-0.014874766694343526   -0.0367032982193764   -0.0006368100710488754
-0.014797532720964676   -0.03679075910445555   -0.0006928339271559752
-0.014019266980367867   -0.04875270274743453   -0.0009820103930716505
-0.021504897853581825   -0.0366280488546871   -0.0007699354740495664
-0.014797532720964676   -0.03679075910445555   -0.0006928339271559752
-0.020295599119856084   -0.04868943238007961   -0.0011852822925469005
-0.014019266980367867   -0.04875270274743453   -0.0009820103930716505
-0.014874766694343526   -0.0367032982193764   -0.0006368100710488754
-0.02033422101439528   -0.04862957279772943   -0.0010922226306293748
-0.014082003187245189   -0.04868851330511546   -0.0009110449798097972
-0.014874766694343526   -0.0367032982193764   -0.0006368100710488754
-0.021504897853581825   -0.0366280488546871   -0.0007699354740495664
-0.02033422101439528   -0.04862957279772943   -0.0010922226306293748
-0.02156442674388184   -0.03656671803199722   -0.000695798591016566
-0.014082003187245189   -0.04868851330511546   -0.0009110449798097972
-0.02037659776532706   -0.04858719713287713   -0.0009912562925525692
-0.02156442674388184   -0.03656671803199722   -0.000695798591016566
-0.02033422101439528   -0.04862957279772943   -0.0010922226306293748
-0.014082003187245189   -0.04868851330511546   -0.0009110449798097972
-0.02156442674388184   -0.03656671803199722   -0.000695798591016566
-0.014952276686408352   -0.03662230338099786   -0.0005748897443474124
-0.014874766694343526   -0.0367032982193764   -0.0006368100710488754
-0.014082003187245189   -0.04868851330511546   -0.0009110449798097972
-0.02156442674388184   -0.03656671803199722   -0.000695798591016566
-0.014874766694343526   -0.0367032982193764   -0.0006368100710488754
-0.02033422101439528   -0.04862957279772943   -0.0010922226306293748
-0.020231979419884794   -0.04876319566145495   -0.0012717907773571425
-0.02136580782168436   -0.03676816548690105   -0.0008999714105384969
-0.027039607831793468   -0.048559100334780794   -0.0014070252921370523
-0.020295599119856084   -0.04868943238007961   -0.0011852822925469005
-0.02136580782168436   -0.03676816548690105   -0.0008999714105384969
-0.028414197127467695   -0.036630925245918634   -0.0010168588644999738
-0.027039607831793468   -0.048559100334780794   -0.0014070252921370523
-0.028426629800549753   -0.036573410630324335   -0.000947996140744289
-0.020295599119856084   -0.04868943238007961   -0.0011852822925469005
-0.026993295933391916   -0.04849687494627962   -0.0012918708319579874
-0.028426629800549753   -0.036573410630324335   -0.000947996140744289
-0.027039607831793468   -0.048559100334780794   -0.0014070252921370523
-0.020295599119856084   -0.04868943238007961   -0.0011852822925469005
-0.028426629800549753   -0.036573410630324335   -0.000947996140744289
-0.021444887389659103   -0.036696198550247666   -0.0008375416260274735
-0.02136580782168436   -0.03676816548690105   -0.0008999714105384969
-0.020295599119856084   -0.04868943238007961   -0.0011852822925469005
-0.028426629800549753   -0.036573410630324335   -0.000947996140744289
-0.02136580782168436   -0.03676816548690105   -0.0008999714105384969
-0.027039607831793468   -0.048559100334780794   -0.0014070252921370523
-0.020295599119856084   -0.04868943238007961   -0.0011852822925469005
-0.021444887389659103   -0.036696198550247666   -0.0008375416260274735
-0.026993295933391916   -0.04849687494627962   -0.0012918708319579874
-0.02033422101439528   -0.04862957279772943   -0.0010922226306293748
-0.021444887389659103   -0.036696198550247666   -0.0008375416260274735
-0.028426629800549753   -0.036573410630324335   -0.000947996140744289
-0.026993295933391916   -0.04849687494627962   -0.0012918708319579874
-0.02843934912064343   -0.03651517805449804   -0.000868706124351701
-0.02033422101439528   -0.04862957279772943   -0.0010922226306293748
-0.02695556256153195   -0.048446634310013705   -0.0011646956649392327
-0.02843934912064343   -0.03651517805449804   -0.000868706124351701
-0.026993295933391916   -0.04849687494627962   -0.0012918708319579874
-0.02033422101439528   -0.04862957279772943   -0.0010922226306293748
-0.02843934912064343   -0.03651517805449804   -0.000868706124351701
-0.021504897853581825   -0.0366280488546871   -0.0007699354740495664
-0.021444887389659103   -0.036696198550247666   -0.0008375416260274735
-0.02033422101439528   -0.04862957279772943   -0.0010922226306293748
-0.02843934912064343   -0.03651517805449804   -0.000868706124351701
-0.021444887389659103   -0.036696198550247666   -0.0008375416260274735
-0.026993295933391916   -0.04849687494627962   -0.0012918708319579874
-0.02033422101439528   -0.04862957279772943   -0.0010922226306293748
-0.021504897853581825   -0.0366280488546871   -0.0007699354740495664
-0.02695556256153195   -0.048446634310013705   -0.0011646956649392327
-0.02037659776532706   -0.04858719713287713   -0.0009912562925525692
-0.021504897853581825   -0.0366280488546871   -0.0007699354740495664
-0.02843934912064343   -0.03651517805449804   -0.000868706124351701
-0.02695556256153195   -0.048446634310013705   -0.0011646956649392327
-0.02841252795795496   -0.03647657873123983   -0.0007802287512361394
-0.02037659776532706   -0.04858719713287713   -0.0009912562925525692
-0.026864458482307715   -0.048430386644338304   -0.0010268714886879577
-0.02841252795795496   -0.03647657873123983   -0.0007802287512361394
-0.02695556256153195   -0.048446634310013705   -0.0011646956649392327
-0.02037659776532706   -0.04858719713287713   -0.0009912562925525692
-0.02841252795795496   -0.03647657873123983   -0.0007802287512361394
-0.02156442674388184   -0.03656671803199722   -0.000695798591016566
-0.021504897853581825   -0.0366280488546871   -0.0007699354740495664
-0.02037659776532706   -0.04858719713287713   -0.0009912562925525692
-0.02841252795795496   -0.03647657873123983   -0.0007802287512361394
-0.021504897853581825   -0.0366280488546871   -0.0007699354740495664
-0.02695556256153195   -0.048446634310013705   -0.0011646956649392327
0.005467124622426538   -0.037104273536242544   -5.4064719106187e-05
0.004898160975422472   -0.024752558014292804   0.00014964533836899939
-0.0015412154898814024   -0.0370423817331016   -0.00032232148743848804
0.005380268128451439   -0.0369477764942572   -4.891089852306913e-05
0.004898160975422472   -0.024752558014292804   0.00014964533836899939
-0.002160706289264869   -0.024635955408849587   -6.375213353683472e-05
-0.0015412154898814024   -0.0370423817331016   -0.00032232148743848804
-0.0022581235305770123   -0.024512254838789663   -1.317412906360186e-05
0.005380268128451439   -0.0369477764942572   -4.891089852306913e-05
-0.0016228374395475674   -0.03690580428388997   -0.0002980246212112262
-0.0022581235305770123   -0.024512254838789663   -1.317412906360186e-05
-0.0015412154898814024   -0.0370423817331016   -0.00032232148743848804
0.005380268128451439   -0.0369477764942572   -4.891089852306913e-05
-0.0022581235305770123   -0.024512254838789663   -1.317412906360186e-05
0.004744562140393925   -0.0246034119202567   0.00021273479612515195
0.004898160975422472   -0.024752558014292804   0.00014964533836899939
0.005380268128451439   -0.0369477764942572   -4.891089852306913e-05
-0.0022581235305770123   -0.024512254838789663   -1.317412906360186e-05
0.004898160975422472   -0.024752558014292804   0.00014964533836899939
-0.0015412154898814024   -0.0370423817331016   -0.00032232148743848804
0.005380268128451439   -0.0369477764942572   -4.891089852306913e-05
0.004744562140393925   -0.0246034119202567   0.00021273479612515195
-0.0016228374395475674   -0.03690580428388997   -0.0002980246212112262
0.005273839792180024   -0.036807790252827224   -2.9968774463734125e-05
0.004744562140393925   -0.0246034119202567   0.00021273479612515195
-0.0022581235305770123   -0.024512254838789663   -1.317412906360186e-05
-0.0016228374395475674   -0.03690580428388997   -0.0002980246212112262
-0.002372056526464853   -0.024381664368411757   4.638009578379999e-05
0.005273839792180024   -0.036807790252827224   -2.9968774463734125e-05
-0.001716264455083199   -0.03677680293709742   -0.00026698194053702653
-0.002372056526464853   -0.024381664368411757   4.638009578379999e-05
-0.0016228374395475674   -0.03690580428388997   -0.0002980246212112262
0.005273839792180024   -0.036807790252827224   -2.9968774463734125e-05
-0.002372056526464853   -0.024381664368411757   4.638009578379999e-05
0.004573252295021097   -0.024455207668146073   0.0003032274855751868
0.004744562140393925   -0.0246034119202567   0.00021273479612515195
0.005273839792180024   -0.036807790252827224   -2.9968774463734125e-05
-0.002372056526464853   -0.024381664368411757   4.638009578379999e-05
0.004744562140393925   -0.0246034119202567   0.00021273479612515195
-0.0016228374395475674   -0.03690580428388997   -0.0002980246212112262
0.005273839792180024   -0.036807790252827224   -2.9968774463734125e-05
0.004573252295021097   -0.024455207668146073   0.0003032274855751868
-0.001716264455083199   -0.03677680293709742   -0.00026698194053702653
0.005133596078397099   -0.03666128668900897   2.136242716328038e-06
0.004573252295021097   -0.024455207668146073   0.0003032274855751868
-0.002372056526464853   -0.024381664368411757   4.638009578379999e-05
-0.001716264455083199   -0.03677680293709742   -0.00026698194053702653
-0.0024898734173010185   -0.024242973273223875   0.00011478622662196055
0.005133596078397099   -0.03666128668900897   2.136242716328038e-06
-0.0018210796680809853   -0.03665361712763876   -0.0002275015118756466
-0.0024898734173010185   -0.024242973273223875   0.00011478622662196055
-0.001716264455083199   -0.03677680293709742   -0.00026698194053702653
0.005133596078397099   -0.03666128668900897   2.136242716328038e-06
-0.0024898734173010185   -0.024242973273223875   0.00011478622662196055
0.004363947605444827   -0.0242731809555322   0.0004027810687633456
0.004573252295021097   -0.024455207668146073   0.0003032274855751868
0.005133596078397099   -0.03666128668900897   2.136242716328038e-06
-0.0024898734173010185   -0.024242973273223875   0.00011478622662196055
0.004573252295021097   -0.024455207668146073   0.0003032274855751868
-0.001716264455083199   -0.03677680293709742   -0.00026698194053702653
-0.0015412154898814024   -0.0370423817331016   -0.00032232148743848804
-0.002160706289264869   -0.024635955408849587   -6.375213353683472e-05
-0.008182038346939995   -0.03697050939189987   -0.0005495536411209728
-0.0016228374395475674   -0.03690580428388997   -0.0002980246212112262
-0.002160706289264869   -0.024635955408849587   -6.375213353683472e-05
-0.00880831202210331   -0.02460578911482737   -0.00026953632057555917
-0.008182038346939995   -0.03697050939189987   -0.0005495536411209728
-0.008896318029862543   -0.024497752519668497   -0.00022254436759788074
-0.0016228374395475674   -0.03690580428388997   -0.0002980246212112262
-0.008265235346143433   -0.03685618775258139   -0.000512496329705959
-0.008896318029862543   -0.024497752519668497   -0.00022254436759788074
-0.008182038346939995   -0.03697050939189987   -0.0005495536411209728
-0.0016228374395475674   -0.03690580428388997   -0.0002980246212112262
-0.008896318029862543   -0.024497752519668497   -0.00022254436759788074
-0.0022581235305770123   -0.024512254838789663   -1.317412906360186e-05
-0.002160706289264869   -0.024635955408849587   -6.375213353683472e-05
-0.0016228374395475674   -0.03690580428388997   -0.0002980246212112262
-0.008896318029862543   -0.024497752519668497   -0.00022254436759788074
-0.002160706289264869   -0.024635955408849587   -6.375213353683472e-05
-0.008182038346939995   -0.03697050939189987   -0.0005495536411209728
-0.0016228374395475674   -0.03690580428388997   -0.0002980246212112262
-0.0022581235305770123   -0.024512254838789663   -1.317412906360186e-05
-0.008265235346143433   -0.03685618775258139   -0.000512496329705959
-0.001716264455083199   -0.03677680293709742   -0.00026698194053702653
-0.0022581235305770123   -0.024512254838789663   -1.317412906360186e-05
-0.008896318029862543   -0.024497752519668497   -0.00022254436759788074
-0.008265235346143433   -0.03685618775258139   -0.000512496329705959
-0.008987342737901869   -0.0243853604077792   -0.0001709033467018661
-0.001716264455083199   -0.03677680293709742   -0.00026698194053702653
-0.008350287144321986   -0.03674774897175805   -0.0004690144319358456
-0.008987342737901869   -0.0243853604077792   -0.0001709033467018661
-0.008265235346143433   -0.03685618775258139   -0.000512496329705959
-0.001716264455083199   -0.03677680293709742   -0.00026698194053702653
-0.008987342737901869   -0.0243853604077792   -0.0001709033467018661
-0.002372056526464853   -0.024381664368411757   4.638009578379999e-05
-0.0022581235305770123   -0.024512254838789663   -1.317412906360186e-05
-0.001716264455083199   -0.03677680293709742   -0.00026698194053702653
-0.008987342737901869   -0.0243853604077792   -0.0001709033467018661
-0.0022581235305770123   -0.024512254838789663   -1.317412906360186e-05
-0.008265235346143433   -0.03685618775258139   -0.000512496329705959
-0.001716264455083199   -0.03677680293709742   -0.00026698194053702653
-0.002372056526464853   -0.024381664368411757   4.638009578379999e-05
-0.008350287144321986   -0.03674774897175805   -0.0004690144319358456
-0.0018210796680809853   -0.03665361712763876   -0.0002275015118756466
-0.002372056526464853   -0.024381664368411757   4.638009578379999e-05
-0.008987342737901869   -0.0243853604077792   -0.0001709033467018661
-0.008350287144321986   -0.03674774897175805   -0.0004690144319358456
-0.009082093563898355   -0.024270604935874063   -0.00011368114175022743
-0.0018210796680809853   -0.03665361712763876   -0.0002275015118756466
-0.008440734600895476   -0.0366468598258403   -0.0004190353872262465
-0.009082093563898355   -0.024270604935874063   -0.00011368114175022743
-0.008350287144321986   -0.03674774897175805   -0.0004690144319358456
-0.0018210796680809853   -0.03665361712763876   -0.0002275015118756466
-0.009082093563898355   -0.024270604935874063   -0.00011368114175022743
-0.0024898734173010185   -0.024242973273223875   0.00011478622662196055
-0.002372056526464853   -0.024381664368411757   4.638009578379999e-05
-0.0018210796680809853   -0.03665361712763876   -0.0002275015118756466
-0.009082093563898355   -0.024270604935874063   -0.00011368114175022743
-0.002372056526464853   -0.024381664368411757   4.638009578379999e-05
-0.008350287144321986   -0.03674774897175805   -0.0004690144319358456
-0.008182038346939995   -0.03697050939189987   -0.0005495536411209728
-0.00880831202210331   -0.02460578911482737   -0.00026953632057555917
-0.014714964001655579   -0.036884441763398945   -0.0007426530532158505
-0.008265235346143433   -0.03685618775258139   -0.000512496329705959
-0.00880831202210331   -0.02460578911482737   -0.00026953632057555917
-0.015388065298765031   -0.02459741766992613   -0.0004556020334869034
-0.014714964001655579   -0.036884441763398945   -0.0007426530532158505
-0.015472173416745222   -0.024502634114311517   -0.00041083010592598526
-0.008265235346143433   -0.03685618775258139   -0.000512496329705959
-0.014797532720964676   -0.03679075910445555   -0.0006928339271559752
-0.015472173416745222   -0.024502634114311517   -0.00041083010592598526
-0.014714964001655579   -0.036884441763398945   -0.0007426530532158505
-0.008265235346143433   -0.03685618775258139   -0.000512496329705959
-0.015472173416745222   -0.024502634114311517   -0.00041083010592598526
-0.008896318029862543   -0.024497752519668497   -0.00022254436759788074
-0.00880831202210331   -0.02460578911482737   -0.00026953632057555917
-0.008265235346143433   -0.03685618775258139   -0.000512496329705959
-0.015472173416745222   -0.024502634114311517   -0.00041083010592598526
-0.00880831202210331   -0.02460578911482737   -0.00026953632057555917
-0.014714964001655579   -0.036884441763398945   -0.0007426530532158505
-0.008265235346143433   -0.03685618775258139   -0.000512496329705959
-0.008896318029862543   -0.024497752519668497   -0.00022254436759788074
-0.014797532720964676   -0.03679075910445555   -0.0006928339271559752
-0.008350287144321986   -0.03674774897175805   -0.0004690144319358456
-0.008896318029862543   -0.024497752519668497   -0.00022254436759788074
-0.015472173416745222   -0.024502634114311517   -0.00041083010592598526
-0.014797532720964676   -0.03679075910445555   -0.0006928339271559752
-0.015552293813861853   -0.02440611373417   -0.00036199515372824486
-0.008350287144321986   -0.03674774897175805   -0.0004690144319358456
-0.014874766694343526   -0.0367032982193764   -0.0006368100710488754
-0.015552293813861853   -0.02440611373417   -0.00036199515372824486
-0.014797532720964676   -0.03679075910445555   -0.0006928339271559752
-0.008350287144321986   -0.03674774897175805   -0.0004690144319358456
-0.015552293813861853   -0.02440611373417   -0.00036199515372824486
-0.008987342737901869   -0.0243853604077792   -0.0001709033467018661
-0.008896318029862543   -0.024497752519668497   -0.00022254436759788074
-0.008350287144321986   -0.03674774897175805   -0.0004690144319358456
-0.015552293813861853   -0.02440611373417   -0.00036199515372824486
-0.008896318029862543   -0.024497752519668497   -0.00022254436759788074
-0.014797532720964676   -0.03679075910445555   -0.0006928339271559752
-0.008350287144321986   -0.03674774897175805   -0.0004690144319358456
-0.008987342737901869   -0.0243853604077792   -0.0001709033467018661
-0.014874766694343526   -0.0367032982193764   -0.0006368100710488754
-0.008440734600895476   -0.0366468598258403   -0.0004190353872262465
-0.008987342737901869   -0.0243853604077792   -0.0001709033467018661
-0.015552293813861853   -0.02440611373417   -0.00036199515372824486
-0.014874766694343526   -0.0367032982193764   -0.0006368100710488754
-0.01563160677660944   -0.024307309487139286   -0.00030932961331043803
-0.008440734600895476   -0.0366468598258403   -0.0004190353872262465
-0.014952276686408352   -0.03662230338099786   -0.0005748897443474124
-0.01563160677660944   -0.024307309487139286   -0.00030932961331043803
-0.014874766694343526   -0.0367032982193764   -0.0006368100710488754
-0.008440734600895476   -0.0366468598258403   -0.0004190353872262465
-0.01563160677660944   -0.024307309487139286   -0.00030932961331043803
-0.009082093563898355   -0.024270604935874063   -0.00011368114175022743
-0.008987342737901869   -0.0243853604077792   -0.0001709033467018661
-0.008440734600895476   -0.0366468598258403   -0.0004190353872262465
-0.01563160677660944   -0.024307309487139286   -0.00030932961331043803
-0.008987342737901869   -0.0243853604077792   -0.0001709033467018661
-0.014874766694343526   -0.0367032982193764   -0.0006368100710488754
-0.014714964001655579   -0.036884441763398945   -0.0007426530532158505
-0.015388065298765031   -0.02459741766992613   -0.0004556020334869034
-0.02136580782168436   -0.03676816548690105   -0.0008999714105384969
-0.014797532720964676   -0.03679075910445555   -0.0006928339271559752
-0.015388065298765031   -0.02459741766992613   -0.0004556020334869034
-0.022107157153147323   -0.024559272023883524   -0.0006120070447172174
-0.02136580782168436   -0.03676816548690105   -0.0008999714105384969
-0.022187340165870227   -0.02448194164644082   -0.0005696738061750098
-0.014797532720964676   -0.03679075910445555   -0.0006928339271559752
-0.021444887389659103   -0.036696198550247666   -0.0008375416260274735
-0.022187340165870227   -0.02448194164644082   -0.0005696738061750098
-0.02136580782168436   -0.03676816548690105   -0.0008999714105384969
-0.014797532720964676   -0.03679075910445555   -0.0006928339271559752
-0.022187340165870227   -0.02448194164644082   -0.0005696738061750098
-0.015472173416745222   -0.024502634114311517   -0.00041083010592598526
-0.015388065298765031   -0.02459741766992613   -0.0004556020334869034
-0.014797532720964676   -0.03679075910445555   -0.0006928339271559752
-0.022187340165870227   -0.02448194164644082   -0.0005696738061750098
-0.015388065298765031   -0.02459741766992613   -0.0004556020334869034
-0.02136580782168436   -0.03676816548690105   -0.0008999714105384969
-0.014797532720964676   -0.03679075910445555   -0.0006928339271559752
-0.015472173416745222   -0.024502634114311517   -0.00041083010592598526
-0.021444887389659103   -0.036696198550247666   -0.0008375416260274735
-0.014874766694343526   -0.0367032982193764   -0.0006368100710488754
-0.015472173416745222   -0.024502634114311517   -0.00041083010592598526
-0.022187340165870227   -0.02448194164644082   -0.0005696738061750098
-0.021444887389659103   -0.036696198550247666   -0.0008375416260274735
-0.022255308785562148   -0.02440036174093832   -0.0005244619752977344
-0.014874766694343526   -0.0367032982193764   -0.0006368100710488754
-0.021504897853581825   -0.0366280488546871   -0.0007699354740495664
-0.022255308785562148   -0.02440036174093832   -0.0005244619752977344
-0.021444887389659103   -0.036696198550247666   -0.0008375416260274735
-0.014874766694343526   -0.0367032982193764   -0.0006368100710488754
-0.022255308785562148   -0.02440036174093832   -0.0005244619752977344
-0.015552293813861853   -0.02440611373417   -0.00036199515372824486
-0.015472173416745222   -0.024502634114311517   -0.00041083010592598526
-0.014874766694343526   -0.0367032982193764   -0.0006368100710488754
-0.022255308785562148   -0.02440036174093832   -0.0005244619752977344
-0.015472173416745222   -0.024502634114311517   -0.00041083010592598526
-0.021444887389659103   -0.036696198550247666   -0.0008375416260274735
-0.014874766694343526   -0.0367032982193764   -0.0006368100710488754
-0.015552293813861853   -0.02440611373417   -0.00036199515372824486
-0.021504897853581825   -0.0366280488546871   -0.0007699354740495664
-0.014952276686408352   -0.03662230338099786   -0.0005748897443474124
-0.015552293813861853   -0.02440611373417   -0.00036199515372824486
-0.022255308785562148   -0.02440036174093832   -0.0005244619752977344
-0.021504897853581825   -0.0366280488546871   -0.0007699354740495664
-0.022319550800264685   -0.024316615599714042   -0.00047511142869107196
-0.014952276686408352   -0.03662230338099786   -0.0005748897443474124
-0.02156442674388184   -0.03656671803199722   -0.000695798591016566
-0.022319550800264685   -0.024316615599714042   -0.00047511142869107196
-0.021504897853581825   -0.0366280488546871   -0.0007699354740495664
-0.014952276686408352   -0.03662230338099786   -0.0005748897443474124
-0.022319550800264685   -0.024316615599714042   -0.00047511142869107196
-0.01563160677660944   -0.024307309487139286   -0.00030932961331043803
-0.015552293813861853   -0.02440611373417   -0.00036199515372824486
-0.014952276686408352   -0.03662230338099786   -0.0005748897443474124
-0.022319550800264685   -0.024316615599714042   -0.00047511142869107196
-0.015552293813861853   -0.02440611373417   -0.00036199515372824486
-0.021504897853581825   -0.0366280488546871   -0.0007699354740495664
-0.02136580782168436   -0.03676816548690105   -0.0008999714105384969
-0.022107157153147323   -0.024559272023883524   -0.0006120070447172174
-0.028414197127467695   -0.036630925245918634   -0.0010168588644999738
-0.021444887389659103   -0.036696198550247666   -0.0008375416260274735
-0.022107157153147323   -0.024559272023883524   -0.0006120070447172174
-0.029144777453775174   -0.024496513489850186   -0.0007279089768758228
-0.028414197127467695   -0.036630925245918634   -0.0010168588644999738
-0.029194770219134396   -0.024431520458723356   -0.0006962514018770807
-0.021444887389659103   -0.036696198550247666   -0.0008375416260274735
-0.028426629800549753   -0.036573410630324335   -0.000947996140744289
-0.029194770219134396   -0.024431520458723356   -0.0006962514018770807
-0.028414197127467695   -0.036630925245918634   -0.0010168588644999738
-0.021444887389659103   -0.036696198550247666   -0.0008375416260274735
-0.029194770219134396   -0.024431520458723356   -0.0006962514018770807
-0.022187340165870227   -0.02448194164644082   -0.0005696738061750098
-0.022107157153147323   -0.024559272023883524   -0.0006120070447172174
-0.021444887389659103   -0.036696198550247666   -0.0008375416260274735
-0.029194770219134396   -0.024431520458723356   -0.0006962514018770807
-0.022107157153147323   -0.024559272023883524   -0.0006120070447172174
-0.028414197127467695   -0.036630925245918634   -0.0010168588644999738
-0.021444887389659103   -0.036696198550247666   -0.0008375416260274735
-0.022187340165870227   -0.02448194164644082   -0.0005696738061750098
-0.028426629800549753   -0.036573410630324335   -0.000947996140744289
-0.021504897853581825   -0.0366280488546871   -0.0007699354740495664
-0.022187340165870227   -0.02448194164644082   -0.0005696738061750098
-0.029194770219134396   -0.024431520458723356   -0.0006962514018770807
-0.028426629800549753   -0.036573410630324335   -0.000947996140744289
-0.029240482737804857   -0.02435801122926694   -0.0006575185311111947
-0.021504897853581825   -0.0366280488546871   -0.0007699354740495664
-0.02843934912064343   -0.03651517805449804   -0.000868706124351701
-0.029240482737804857   -0.02435801122926694   -0.0006575185311111947
-0.028426629800549753   -0.036573410630324335   -0.000947996140744289
-0.021504897853581825   -0.0366280488546871   -0.0007699354740495664
-0.029240482737804857   -0.02435801122926694   -0.0006575185311111947
-0.022255308785562148   -0.02440036174093832   -0.0005244619752977344
-0.022187340165870227   -0.02448194164644082   -0.0005696738061750098
-0.021504897853581825   -0.0366280488546871   -0.0007699354740495664
-0.029240482737804857   -0.02435801122926694   -0.0006575185311111947
-0.022187340165870227   -0.02448194164644082   -0.0005696738061750098
-0.028426629800549753   -0.036573410630324335   -0.000947996140744289
-0.021504897853581825   -0.0366280488546871   -0.0007699354740495664
-0.022255308785562148   -0.02440036174093832   -0.0005244619752977344
-0.02843934912064343   -0.03651517805449804   -0.000868706124351701
-0.02156442674388184   -0.03656671803199722   -0.000695798591016566
-0.022255308785562148   -0.02440036174093832   -0.0005244619752977344
-0.029240482737804857   -0.02435801122926694   -0.0006575185311111947
-0.02843934912064343   -0.03651517805449804   -0.000868706124351701
-0.02926281494448765   -0.02429045595646267   -0.0006134866706545435
-0.02156442674388184   -0.03656671803199722   -0.000695798591016566
-0.02841252795795496   -0.03647657873123983   -0.0007802287512361394
-0.02926281494448765   -0.02429045595646267   -0.0006134866706545435
-0.02843934912064343   -0.03651517805449804   -0.000868706124351701
-0.02156442674388184   -0.03656671803199722   -0.000695798591016566
-0.02926281494448765   -0.02429045595646267   -0.0006134866706545435
-0.022319550800264685   -0.024316615599714042   -0.00047511142869107196
-0.022255308785562148   -0.02440036174093832   -0.0005244619752977344
-0.02156442674388184   -0.03656671803199722   -0.000695798591016566
-0.02926281494448765   -0.02429045595646267   -0.0006134866706545435
-0.022255308785562148   -0.02440036174093832   -0.0005244619752977344
-0.02843934912064343   -0.03651517805449804   -0.000868706124351701
0.004898160975422472   -0.024752558014292804   0.00014964533836899939
0.0034302749842125735   -0.012427412867317264   0.00016059465567639674
-0.002160706289264869   -0.024635955408849587   -6.375213353683472e-05
0.004744562140393925   -0.0246034119202567   0.00021273479612515195
0.0034302749842125735   -0.012427412867317264   0.00016059465567639674
-0.003150250876706379   -0.012265848463610923   8.09723099761753e-05
-0.002160706289264869   -0.024635955408849587   -6.375213353683472e-05
-0.0032470925944166453   -0.012203178605845943   0.00015114892904103346
0.004744562140393925   -0.0246034119202567   0.00021273479612515195
-0.0022581235305770123   -0.024512254838789663   -1.317412906360186e-05
-0.0032470925944166453   -0.012203178605845943   0.00015114892904103346
-0.002160706289264869   -0.024635955408849587   -6.375213353683472e-05
0.004744562140393925   -0.0246034119202567   0.00021273479612515195
-0.0032470925944166453   -0.012203178605845943   0.00015114892904103346
0.003128501855665726   -0.012269080966073832   0.00033440638213955913
0.0034302749842125735   -0.012427412867317264   0.00016059465567639674
0.004744562140393925   -0.0246034119202567   0.00021273479612515195
-0.0032470925944166453   -0.012203178605845943   0.00015114892904103346
0.0034302749842125735   -0.012427412867317264   0.00016059465567639674
-0.002160706289264869   -0.024635955408849587   -6.375213353683472e-05
0.004744562140393925   -0.0246034119202567   0.00021273479612515195
0.003128501855665726   -0.012269080966073832   0.00033440638213955913
-0.0022581235305770123   -0.024512254838789663   -1.317412906360186e-05
0.004573252295021097   -0.024455207668146073   0.0003032274855751868
0.003128501855665726   -0.012269080966073832   0.00033440638213955913
-0.0032470925944166453   -0.012203178605845943   0.00015114892904103346
-0.0022581235305770123   -0.024512254838789663   -1.317412906360186e-05
-0.003374256033550454   -0.012091943873937108   0.00023633140995712884
0.004573252295021097   -0.024455207668146073   0.0003032274855751868
-0.002372056526464853   -0.024381664368411757   4.638009578379999e-05
-0.003374256033550454   -0.012091943873937108   0.00023633140995712884
-0.0022581235305770123   -0.024512254838789663   -1.317412906360186e-05
0.004573252295021097   -0.024455207668146073   0.0003032274855751868
-0.003374256033550454   -0.012091943873937108   0.00023633140995712884
0.0029517404339062464   -0.012139394354914155   0.0004641776659581571
0.003128501855665726   -0.012269080966073832   0.00033440638213955913
0.004573252295021097   -0.024455207668146073   0.0003032274855751868
-0.003374256033550454   -0.012091943873937108   0.00023633140995712884
0.003128501855665726   -0.012269080966073832   0.00033440638213955913
-0.0022581235305770123   -0.024512254838789663   -1.317412906360186e-05
0.004573252295021097   -0.024455207668146073   0.0003032274855751868
0.0029517404339062464   -0.012139394354914155   0.0004641776659581571
-0.002372056526464853   -0.024381664368411757   4.638009578379999e-05
0.004363947605444827   -0.0242731809555322   0.0004027810687633456
0.0029517404339062464   -0.012139394354914155   0.0004641776659581571
-0.003374256033550454   -0.012091943873937108   0.00023633140995712884
-0.002372056526464853   -0.024381664368411757   4.638009578379999e-05
-0.0034811181659835685   -0.01197227429648767   0.0003113232622313166
0.004363947605444827   -0.0242731809555322   0.0004027810687633456
-0.0024898734173010185   -0.024242973273223875   0.00011478622662196055
-0.0034811181659835685   -0.01197227429648767   0.0003113232622313166
-0.002372056526464853   -0.024381664368411757   4.638009578379999e-05
0.004363947605444827   -0.0242731809555322   0.0004027810687633456
-0.0034811181659835685   -0.01197227429648767   0.0003113232622313166
0.0027252938819557287   -0.011941350591789229   0.0006127417586121315
0.0029517404339062464   -0.012139394354914155   0.0004641776659581571
0.004363947605444827   -0.0242731809555322   0.0004027810687633456
-0.0034811181659835685   -0.01197227429648767   0.0003113232622313166
0.0029517404339062464   -0.012139394354914155   0.0004641776659581571
-0.002372056526464853   -0.024381664368411757   4.638009578379999e-05
-0.002160706289264869   -0.024635955408849587   -6.375213353683472e-05
-0.003150250876706379   -0.012265848463610923   8.09723099761753e-05
-0.00880831202210331   -0.02460578911482737   -0.00026953632057555917
-0.0022581235305770123   -0.024512254838789663   -1.317412906360186e-05
-0.003150250876706379   -0.012265848463610923   8.09723099761753e-05
-0.009414791243096179   -0.012446837711086504   -8.300301161496636e-05
-0.00880831202210331   -0.02460578911482737   -0.00026953632057555917
-0.009503862912318653   -0.01235126719759813   -3.3334041999093754e-05
-0.0022581235305770123   -0.024512254838789663   -1.317412906360186e-05
-0.008896318029862543   -0.024497752519668497   -0.00022254436759788074
-0.009503862912318653   -0.01235126719759813   -3.3334041999093754e-05
-0.00880831202210331   -0.02460578911482737   -0.00026953632057555917
-0.0022581235305770123   -0.024512254838789663   -1.317412906360186e-05
-0.009503862912318653   -0.01235126719759813   -3.3334041999093754e-05
-0.0032470925944166453   -0.012203178605845943   0.00015114892904103346
-0.003150250876706379   -0.012265848463610923   8.09723099761753e-05
-0.0022581235305770123   -0.024512254838789663   -1.317412906360186e-05
-0.009503862912318653   -0.01235126719759813   -3.3334041999093754e-05
-0.003150250876706379   -0.012265848463610923   8.09723099761753e-05
-0.00880831202210331   -0.02460578911482737   -0.00026953632057555917
-0.0022581235305770123   -0.024512254838789663   -1.317412906360186e-05
-0.0032470925944166453   -0.012203178605845943   0.00015114892904103346
-0.008896318029862543   -0.024497752519668497   -0.00022254436759788074
-0.002372056526464853   -0.024381664368411757   4.638009578379999e-05
-0.0032470925944166453   -0.012203178605845943   0.00015114892904103346
-0.009503862912318653   -0.01235126719759813   -3.3334041999093754e-05
-0.008896318029862543   -0.024497752519668497   -0.00022254436759788074
-0.009597043089351116   -0.012243427625227375   1.920447607723198e-05
-0.002372056526464853   -0.024381664368411757   4.638009578379999e-05
-0.008987342737901869   -0.0243853604077792   -0.0001709033467018661
-0.009597043089351116   -0.012243427625227375   1.920447607723198e-05
-0.008896318029862543   -0.024497752519668497   -0.00022254436759788074
-0.002372056526464853   -0.024381664368411757   4.638009578379999e-05
-0.009597043089351116   -0.012243427625227375   1.920447607723198e-05
-0.003374256033550454   -0.012091943873937108   0.00023633140995712884
-0.0032470925944166453   -0.012203178605845943   0.00015114892904103346
-0.002372056526464853   -0.024381664368411757   4.638009578379999e-05
-0.009597043089351116   -0.012243427625227375   1.920447607723198e-05
-0.0032470925944166453   -0.012203178605845943   0.00015114892904103346
-0.008896318029862543   -0.024497752519668497   -0.00022254436759788074
-0.002372056526464853   -0.024381664368411757   4.638009578379999e-05
-0.003374256033550454   -0.012091943873937108   0.00023633140995712884
-0.008987342737901869   -0.0243853604077792   -0.0001709033467018661
-0.0024898734173010185   -0.024242973273223875   0.00011478622662196055
-0.003374256033550454   -0.012091943873937108   0.00023633140995712884
-0.009597043089351116   -0.012243427625227375   1.920447607723198e-05
-0.008987342737901869   -0.0243853604077792   -0.0001709033467018661
-0.009685565417563501   -0.012125236320607323   7.71302261054581e-05
-0.0024898734173010185   -0.024242973273223875   0.00011478622662196055
-0.009082093563898355   -0.024270604935874063   -0.00011368114175022743
-0.009685565417563501   -0.012125236320607323   7.71302261054581e-05
-0.008987342737901869   -0.0243853604077792   -0.0001709033467018661
-0.0024898734173010185   -0.024242973273223875   0.00011478622662196055
-0.009685565417563501   -0.012125236320607323   7.71302261054581e-05
-0.0034811181659835685   -0.01197227429648767   0.0003113232622313166
-0.003374256033550454   -0.012091943873937108   0.00023633140995712884
-0.0024898734173010185   -0.024242973273223875   0.00011478622662196055
-0.009685565417563501   -0.012125236320607323   7.71302261054581e-05
-0.003374256033550454   -0.012091943873937108   0.00023633140995712884
-0.008987342737901869   -0.0243853604077792   -0.0001709033467018661
-0.00880831202210331   -0.02460578911482737   -0.00026953632057555917
-0.009414791243096179   -0.012446837711086504   -8.300301161496636e-05
-0.015388065298765031   -0.02459741766992613   -0.0004556020334869034
-0.008896318029862543   -0.024497752519668497   -0.00022254436759788074
-0.009414791243096179   -0.012446837711086504   -8.300301161496636e-05
-0.01583358285443535   -0.012588213600112523   -0.00026456778845484287
-0.015388065298765031   -0.02459741766992613   -0.0004556020334869034
-0.01591353864166348   -0.012490114310476136   -0.00022611442740534557
-0.008896318029862543   -0.024497752519668497   -0.00022254436759788074
-0.015472173416745222   -0.024502634114311517   -0.00041083010592598526
-0.01591353864166348   -0.012490114310476136   -0.00022611442740534557
-0.015388065298765031   -0.02459741766992613   -0.0004556020334869034
-0.008896318029862543   -0.024497752519668497   -0.00022254436759788074
-0.01591353864166348   -0.012490114310476136   -0.00022611442740534557
-0.009503862912318653   -0.01235126719759813   -3.3334041999093754e-05
-0.009414791243096179   -0.012446837711086504   -8.300301161496636e-05
-0.008896318029862543   -0.024497752519668497   -0.00022254436759788074
-0.01591353864166348   -0.012490114310476136   -0.00022611442740534557
-0.009414791243096179   -0.012446837711086504   -8.300301161496636e-05
-0.015388065298765031   -0.02459741766992613   -0.0004556020334869034
-0.008896318029862543   -0.024497752519668497   -0.00022254436759788074
-0.009503862912318653   -0.01235126719759813   -3.3334041999093754e-05
-0.015472173416745222   -0.024502634114311517   -0.00041083010592598526
-0.008987342737901869   -0.0243853604077792   -0.0001709033467018661
-0.009503862912318653   -0.01235126719759813   -3.3334041999093754e-05
-0.01591353864166348   -0.012490114310476136   -0.00022611442740534557
-0.015472173416745222   -0.024502634114311517   -0.00041083010592598526
-0.01599003938142934   -0.012386535493092803   -0.0001878060738712845
-0.008987342737901869   -0.0243853604077792   -0.0001709033467018661
-0.015552293813861853   -0.02440611373417   -0.00036199515372824486
-0.01599003938142934   -0.012386535493092803   -0.0001878060738712845
-0.015472173416745222   -0.024502634114311517   -0.00041083010592598526
-0.008987342737901869   -0.0243853604077792   -0.0001709033467018661
-0.01599003938142934   -0.012386535493092803   -0.0001878060738712845
-0.009597043089351116   -0.012243427625227375   1.920447607723198e-05
-0.009503862912318653   -0.01235126719759813   -3.3334041999093754e-05
-0.008987342737901869   -0.0243853604077792   -0.0001709033467018661
-0.01599003938142934   -0.012386535493092803   -0.0001878060738712845
-0.009503862912318653   -0.01235126719759813   -3.3334041999093754e-05
-0.015472173416745222   -0.024502634114311517   -0.00041083010592598526
-0.008987342737901869   -0.0243853604077792   -0.0001709033467018661
-0.009597043089351116   -0.012243427625227375   1.920447607723198e-05
-0.015552293813861853   -0.02440611373417   -0.00036199515372824486
-0.009082093563898355   -0.024270604935874063   -0.00011368114175022743
-0.009597043089351116   -0.012243427625227375   1.920447607723198e-05
-0.01599003938142934   -0.012386535493092803   -0.0001878060738712845
-0.015552293813861853   -0.02440611373417   -0.00036199515372824486
-0.016060528113701608   -0.012274414753731389   -0.00014612103793531052
-0.009082093563898355   -0.024270604935874063   -0.00011368114175022743
-0.01563160677660944   -0.024307309487139286   -0.00030932961331043803
-0.016060528113701608   -0.012274414753731389   -0.00014612103793531052
-0.015552293813861853   -0.02440611373417   -0.00036199515372824486
-0.009082093563898355   -0.024270604935874063   -0.00011368114175022743
-0.016060528113701608   -0.012274414753731389   -0.00014612103793531052
-0.009685565417563501   -0.012125236320607323   7.71302261054581e-05
-0.009597043089351116   -0.012243427625227375   1.920447607723198e-05
-0.009082093563898355   -0.024270604935874063   -0.00011368114175022743
-0.016060528113701608   -0.012274414753731389   -0.00014612103793531052
-0.009597043089351116   -0.012243427625227375   1.920447607723198e-05
-0.015552293813861853   -0.02440611373417   -0.00036199515372824486
-0.015388065298765031   -0.02459741766992613   -0.0004556020334869034
-0.01583358285443535   -0.012588213600112523   -0.00026456778845484287
-0.022107157153147323   -0.024559272023883524   -0.0006120070447172174
-0.015472173416745222   -0.024502634114311517   -0.00041083010592598526
-0.01583358285443535   -0.012588213600112523   -0.00026456778845484287
-0.02247782141133429   -0.012646184562121762   -0.000432227902380505
-0.022107157153147323   -0.024559272023883524   -0.0006120070447172174
-0.022549845272270764   -0.012558012615115542   -0.0004042276011687037
-0.015472173416745222   -0.024502634114311517   -0.00041083010592598526
-0.022187340165870227   -0.02448194164644082   -0.0005696738061750098
-0.022549845272270764   -0.012558012615115542   -0.0004042276011687037
-0.022107157153147323   -0.024559272023883524   -0.0006120070447172174
-0.015472173416745222   -0.024502634114311517   -0.00041083010592598526
-0.022549845272270764   -0.012558012615115542   -0.0004042276011687037
-0.01591353864166348   -0.012490114310476136   -0.00022611442740534557
-0.01583358285443535   -0.012588213600112523   -0.00026456778845484287
-0.015472173416745222   -0.024502634114311517   -0.00041083010592598526
-0.022549845272270764   -0.012558012615115542   -0.0004042276011687037
-0.01583358285443535   -0.012588213600112523   -0.00026456778845484287
-0.022107157153147323   -0.024559272023883524   -0.0006120070447172174
-0.015472173416745222   -0.024502634114311517   -0.00041083010592598526
-0.01591353864166348   -0.012490114310476136   -0.00022611442740534557
-0.022187340165870227   -0.02448194164644082   -0.0005696738061750098
-0.015552293813861853   -0.02440611373417   -0.00036199515372824486
-0.01591353864166348   -0.012490114310476136   -0.00022611442740534557
-0.022549845272270764   -0.012558012615115542   -0.0004042276011687037
-0.022187340165870227   -0.02448194164644082   -0.0005696738061750098
-0.02261402433178597   -0.012462023262038279   -0.000377044530176115
-0.015552293813861853   -0.02440611373417   -0.00036199515372824486
-0.022255308785562148   -0.02440036174093832   -0.0005244619752977344
-0.02261402433178597   -0.012462023262038279   -0.000377044530176115
-0.022187340165870227   -0.02448194164644082   -0.0005696738061750098
-0.015552293813861853   -0.02440611373417   -0.00036199515372824486
-0.02261402433178597   -0.012462023262038279   -0.000377044530176115
-0.01599003938142934   -0.012386535493092803   -0.0001878060738712845
-0.01591353864166348   -0.012490114310476136   -0.00022611442740534557
-0.015552293813861853   -0.02440611373417   -0.00036199515372824486
-0.02261402433178597   -0.012462023262038279   -0.000377044530176115
-0.01591353864166348   -0.012490114310476136   -0.00022611442740534557
-0.022187340165870227   -0.02448194164644082   -0.0005696738061750098
-0.015552293813861853   -0.02440611373417   -0.00036199515372824486
-0.01599003938142934   -0.012386535493092803   -0.0001878060738712845
-0.022255308785562148   -0.02440036174093832   -0.0005244619752977344
-0.01563160677660944   -0.024307309487139286   -0.00030932961331043803
-0.01599003938142934   -0.012386535493092803   -0.0001878060738712845
-0.02261402433178597   -0.012462023262038279   -0.000377044530176115
-0.022255308785562148   -0.02440036174093832   -0.0005244619752977344
-0.02267213215633488   -0.012359865690769042   -0.00034907651710256577
-0.01563160677660944   -0.024307309487139286   -0.00030932961331043803
-0.022319550800264685   -0.024316615599714042   -0.00047511142869107196
-0.02267213215633488   -0.012359865690769042   -0.00034907651710256577
-0.022255308785562148   -0.02440036174093832   -0.0005244619752977344
-0.01563160677660944   -0.024307309487139286   -0.00030932961331043803
-0.02267213215633488   -0.012359865690769042   -0.00034907651710256577
-0.016060528113701608   -0.012274414753731389   -0.00014612103793531052
-0.01599003938142934   -0.012386535493092803   -0.0001878060738712845
-0.01563160677660944   -0.024307309487139286   -0.00030932961331043803
-0.02267213215633488   -0.012359865690769042   -0.00034907651710256577
-0.01599003938142934   -0.012386535493092803   -0.0001878060738712845
-0.022255308785562148   -0.02440036174093832   -0.0005244619752977344
-0.022107157153147323   -0.024559272023883524   -0.0006120070447172174
-0.02247782141133429   -0.012646184562121762   -0.000432227902380505
-0.029144777453775174   -0.024496513489850186   -0.0007279089768758228
-0.022187340165870227   -0.02448194164644082   -0.0005696738061750098
-0.02247782141133429   -0.012646184562121762   -0.000432227902380505
-0.029357933775554776   -0.01265273809464834   -0.0005715657514218304
-0.029144777453775174   -0.024496513489850186   -0.0007279089768758228
-0.029419878428550334   -0.012567122030072127   -0.0005596063296927559
-0.022187340165870227   -0.02448194164644082   -0.0005696738061750098
-0.029194770219134396   -0.024431520458723356   -0.0006962514018770807
-0.029419878428550334   -0.012567122030072127   -0.0005596063296927559
-0.029144777453775174   -0.024496513489850186   -0.0007279089768758228
-0.022187340165870227   -0.02448194164644082   -0.0005696738061750098
-0.029419878428550334   -0.012567122030072127   -0.0005596063296927559
-0.022549845272270764   -0.012558012615115542   -0.0004042276011687037
-0.02247782141133429   -0.012646184562121762   -0.000432227902380505
-0.022187340165870227   -0.02448194164644082   -0.0005696738061750098
-0.029419878428550334   -0.012567122030072127   -0.0005596063296927559
-0.02247782141133429   -0.012646184562121762   -0.000432227902380505
-0.029144777453775174   -0.024496513489850186   -0.0007279089768758228
-0.022187340165870227   -0.02448194164644082   -0.0005696738061750098
-0.022549845272270764   -0.012558012615115542   -0.0004042276011687037
-0.029194770219134396   -0.024431520458723356   -0.0006962514018770807
-0.022255308785562148   -0.02440036174093832   -0.0005244619752977344
-0.022549845272270764   -0.012558012615115542   -0.0004042276011687037
-0.029419878428550334   -0.012567122030072127   -0.0005596063296927559
-0.029194770219134396   -0.024431520458723356   -0.0006962514018770807
-0.029475375334973446   -0.012474601916494604   -0.0005456305762571311
-0.022255308785562148   -0.02440036174093832   -0.0005244619752977344
-0.029240482737804857   -0.02435801122926694   -0.0006575185311111947
-0.029475375334973446   -0.012474601916494604   -0.0005456305762571311
-0.029194770219134396   -0.024431520458723356   -0.0006962514018770807
-0.022255308785562148   -0.02440036174093832   -0.0005244619752977344
-0.029475375334973446   -0.012474601916494604   -0.0005456305762571311
-0.02261402433178597   -0.012462023262038279   -0.000377044530176115
-0.022549845272270764   -0.012558012615115542   -0.0004042276011687037
-0.022255308785562148   -0.02440036174093832   -0.0005244619752977344
-0.029475375334973446   -0.012474601916494604   -0.0005456305762571311
-0.022549845272270764   -0.012558012615115542   -0.0004042276011687037
-0.029194770219134396   -0.024431520458723356   -0.0006962514018770807
-0.022255308785562148   -0.02440036174093832   -0.0005244619752977344
-0.02261402433178597   -0.012462023262038279   -0.000377044530176115
-0.029240482737804857   -0.02435801122926694   -0.0006575185311111947
-0.022319550800264685   -0.024316615599714042   -0.00047511142869107196
-0.02261402433178597   -0.012462023262038279   -0.000377044530176115
-0.029475375334973446   -0.012474601916494604   -0.0005456305762571311
-0.029240482737804857   -0.02435801122926694   -0.0006575185311111947
-0.02952212339427396   -0.012376622851721442   -0.0005326718279539651
-0.022319550800264685   -0.024316615599714042   -0.00047511142869107196
-0.02926281494448765   -0.02429045595646267   -0.0006134866706545435
-0.02952212339427396   -0.012376622851721442   -0.0005326718279539651
-0.029240482737804857   -0.02435801122926694   -0.0006575185311111947
-0.022319550800264685   -0.024316615599714042   -0.00047511142869107196
-0.02952212339427396   -0.012376622851721442   -0.0005326718279539651
-0.02267213215633488   -0.012359865690769042   -0.00034907651710256577
-0.02261402433178597   -0.012462023262038279   -0.000377044530176115
-0.022319550800264685   -0.024316615599714042   -0.00047511142869107196
-0.02952212339427396   -0.012376622851721442   -0.0005326718279539651
-0.02261402433178597   -0.012462023262038279   -0.000377044530176115
-0.029240482737804857   -0.02435801122926694   -0.0006575185311111947
0.0034302749842125735   -0.012427412867317264   0.00016059465567639674
0.0   0.0   0.0
-0.003150250876706379   -0.012265848463610923   8.09723099761753e-05
0.003128501855665726   -0.012269080966073832   0.00033440638213955913
0.0   0.0   0.0
-0.003957835084171615   -0.0009982967393542298   -3.457998159668104e-05
-0.003150250876706379   -0.012265848463610923   8.09723099761753e-05
-0.004194194405138312   -0.0007748029567304391   0.00010122761592234501
0.003128501855665726   -0.012269080966073832   0.00033440638213955913
-0.0032470925944166453   -0.012203178605845943   0.00015114892904103346
-0.004194194405138312   -0.0007748029567304391   0.00010122761592234501
-0.003150250876706379   -0.012265848463610923   8.09723099761753e-05
0.003128501855665726   -0.012269080966073832   0.00033440638213955913
-0.004194194405138312   -0.0007748029567304391   0.00010122761592234501
0.0   0.0   0.0
0.0   0.0   0.0
0.003128501855665726   -0.012269080966073832   0.00033440638213955913
-0.004194194405138312   -0.0007748029567304391   0.00010122761592234501
0.0   0.0   0.0
-0.003150250876706379   -0.012265848463610923   8.09723099761753e-05
0.003128501855665726   -0.012269080966073832   0.00033440638213955913
0.0   0.0   0.0
-0.0032470925944166453   -0.012203178605845943   0.00015114892904103346
0.0029517404339062464   -0.012139394354914155   0.0004641776659581571
0.0   0.0   0.0
-0.004194194405138312   -0.0007748029567304391   0.00010122761592234501
-0.0032470925944166453   -0.012203178605845943   0.00015114892904103346
-0.004342375893808538   -0.0006669615450605733   0.00017944975794063496
0.0029517404339062464   -0.012139394354914155   0.0004641776659581571
-0.003374256033550454   -0.012091943873937108   0.00023633140995712884
-0.004342375893808538   -0.0006669615450605733   0.00017944975794063496
-0.0032470925944166453   -0.012203178605845943   0.00015114892904103346
0.0029517404339062464   -0.012139394354914155   0.0004641776659581571
-0.004342375893808538   -0.0006669615450605733   0.00017944975794063496
0.0   0.0   0.0
0.0   0.0   0.0
0.0029517404339062464   -0.012139394354914155   0.0004641776659581571
-0.004342375893808538   -0.0006669615450605733   0.00017944975794063496
0.0   0.0   0.0
-0.0032470925944166453   -0.012203178605845943   0.00015114892904103346
0.0029517404339062464   -0.012139394354914155   0.0004641776659581571
0.0   0.0   0.0
-0.003374256033550454   -0.012091943873937108   0.00023633140995712884
0.0027252938819557287   -0.011941350591789229   0.0006127417586121315
0.0   0.0   0.0
-0.004342375893808538   -0.0006669615450605733   0.00017944975794063496
-0.003374256033550454   -0.012091943873937108   0.00023633140995712884
-0.004540774045847121   -0.0005238448931222908   0.00026920253066889773
0.0027252938819557287   -0.011941350591789229   0.0006127417586121315
-0.0034811181659835685   -0.01197227429648767   0.0003113232622313166
-0.004540774045847121   -0.0005238448931222908   0.00026920253066889773
-0.003374256033550454   -0.012091943873937108   0.00023633140995712884
0.0027252938819557287   -0.011941350591789229   0.0006127417586121315
-0.004540774045847121   -0.0005238448931222908   0.00026920253066889773
0.0   0.0   0.0
0.0   0.0   0.0
0.0027252938819557287   -0.011941350591789229   0.0006127417586121315
-0.004540774045847121   -0.0005238448931222908   0.00026920253066889773
0.0   0.0   0.0
-0.003374256033550454   -0.012091943873937108   0.00023633140995712884
-0.003150250876706379   -0.012265848463610923   8.09723099761753e-05
-0.003957835084171615   -0.0009982967393542298   -3.457998159668104e-05
-0.009414791243096179   -0.012446837711086504   -8.300301161496636e-05
-0.0032470925944166453   -0.012203178605845943   0.00015114892904103346
-0.003957835084171615   -0.0009982967393542298   -3.457998159668104e-05
-0.009696446471823496   -0.0013057138072210177   -3.443906737810642e-05
-0.009414791243096179   -0.012446837711086504   -8.300301161496636e-05
-0.009818032838431485   -0.0011832430521341324   1.1821907622987274e-07
-0.0032470925944166453   -0.012203178605845943   0.00015114892904103346
-0.009503862912318653   -0.01235126719759813   -3.3334041999093754e-05
-0.009818032838431485   -0.0011832430521341324   1.1821907622987274e-07
-0.009414791243096179   -0.012446837711086504   -8.300301161496636e-05
-0.0032470925944166453   -0.012203178605845943   0.00015114892904103346
-0.009818032838431485   -0.0011832430521341324   1.1821907622987274e-07
-0.004194194405138312   -0.0007748029567304391   0.00010122761592234501
-0.003957835084171615   -0.0009982967393542298   -3.457998159668104e-05
-0.0032470925944166453   -0.012203178605845943   0.00015114892904103346
-0.009818032838431485   -0.0011832430521341324   1.1821907622987274e-07
-0.003957835084171615   -0.0009982967393542298   -3.457998159668104e-05
-0.009414791243096179   -0.012446837711086504   -8.300301161496636e-05
-0.0032470925944166453   -0.012203178605845943   0.00015114892904103346
-0.004194194405138312   -0.0007748029567304391   0.00010122761592234501
-0.009503862912318653   -0.01235126719759813   -3.3334041999093754e-05
-0.003374256033550454   -0.012091943873937108   0.00023633140995712884
-0.004194194405138312   -0.0007748029567304391   0.00010122761592234501
-0.009818032838431485   -0.0011832430521341324   1.1821907622987274e-07
-0.009503862912318653   -0.01235126719759813   -3.3334041999093754e-05
-0.009939034086906157   -0.0010400340795156137   6.221357359345725e-05
-0.003374256033550454   -0.012091943873937108   0.00023633140995712884
-0.009597043089351116   -0.012243427625227375   1.920447607723198e-05
-0.009939034086906157   -0.0010400340795156137   6.221357359345725e-05
-0.009503862912318653   -0.01235126719759813   -3.3334041999093754e-05
-0.003374256033550454   -0.012091943873937108   0.00023633140995712884
-0.009939034086906157   -0.0010400340795156137   6.221357359345725e-05
-0.004342375893808538   -0.0006669615450605733   0.00017944975794063496
-0.004194194405138312   -0.0007748029567304391   0.00010122761592234501
-0.003374256033550454   -0.012091943873937108   0.00023633140995712884
-0.009939034086906157   -0.0010400340795156137   6.221357359345725e-05
-0.004194194405138312   -0.0007748029567304391   0.00010122761592234501
-0.009503862912318653   -0.01235126719759813   -3.3334041999093754e-05
-0.003374256033550454   -0.012091943873937108   0.00023633140995712884
-0.004342375893808538   -0.0006669615450605733   0.00017944975794063496
-0.009597043089351116   -0.012243427625227375   1.920447607723198e-05
-0.0034811181659835685   -0.01197227429648767   0.0003113232622313166
-0.004342375893808538   -0.0006669615450605733   0.00017944975794063496
-0.009939034086906157   -0.0010400340795156137   6.221357359345725e-05
-0.009597043089351116   -0.012243427625227375   1.920447607723198e-05
-0.010072733883733212   -0.0008746604234970681   0.00012154829073899234
-0.0034811181659835685   -0.01197227429648767   0.0003113232622313166
-0.009685565417563501   -0.012125236320607323   7.71302261054581e-05
-0.010072733883733212   -0.0008746604234970681   0.00012154829073899234
-0.009597043089351116   -0.012243427625227375   1.920447607723198e-05
-0.0034811181659835685   -0.01197227429648767   0.0003113232622313166
-0.010072733883733212   -0.0008746604234970681   0.00012154829073899234
-0.004540774045847121   -0.0005238448931222908   0.00026920253066889773
-0.004342375893808538   -0.0006669615450605733   0.00017944975794063496
-0.0034811181659835685   -0.01197227429648767   0.0003113232622313166
-0.010072733883733212   -0.0008746604234970681   0.00012154829073899234
-0.004342375893808538   -0.0006669615450605733   0.00017944975794063496
-0.009597043089351116   -0.012243427625227375   1.920447607723198e-05
-0.009414791243096179   -0.012446837711086504   -8.300301161496636e-05
-0.009696446471823496   -0.0013057138072210177   -3.443906737810642e-05
-0.01583358285443535   -0.012588213600112523   -0.00026456778845484287
-0.009503862912318653   -0.01235126719759813   -3.3334041999093754e-05
-0.009696446471823496   -0.0013057138072210177   -3.443906737810642e-05
-0.01599051484575641   -0.001390439624762864   -0.00015006726978278225
-0.01583358285443535   -0.012588213600112523   -0.00026456778845484287
-0.016064140978916973   -0.0012945269109896924   -0.00014064896057350737
-0.009503862912318653   -0.01235126719759813   -3.3334041999093754e-05
-0.01591353864166348   -0.012490114310476136   -0.00022611442740534557
-0.016064140978916973   -0.0012945269109896924   -0.00014064896057350737
-0.01583358285443535   -0.012588213600112523   -0.00026456778845484287
-0.009503862912318653   -0.01235126719759813   -3.3334041999093754e-05
-0.016064140978916973   -0.0012945269109896924   -0.00014064896057350737
-0.009818032838431485   -0.0011832430521341324   1.1821907622987274e-07
-0.009696446471823496   -0.0013057138072210177   -3.443906737810642e-05
-0.009503862912318653   -0.01235126719759813   -3.3334041999093754e-05
-0.016064140978916973   -0.0012945269109896924   -0.00014064896057350737
-0.009696446471823496   -0.0013057138072210177   -3.443906737810642e-05
-0.01583358285443535   -0.012588213600112523   -0.00026456778845484287
-0.009503862912318653   -0.01235126719759813   -3.3334041999093754e-05
-0.009818032838431485   -0.0011832430521341324   1.1821907622987274e-07
-0.01591353864166348   -0.012490114310476136   -0.00022611442740534557
-0.009597043089351116   -0.012243427625227375   1.920447607723198e-05
-0.009818032838431485   -0.0011832430521341324   1.1821907622987274e-07
-0.016064140978916973   -0.0012945269109896924   -0.00014064896057350737
-0.01591353864166348   -0.012490114310476136   -0.00022611442740534557
-0.016140672005289992   -0.00118341089382068   -0.00012403186991240113
-0.009597043089351116   -0.012243427625227375   1.920447607723198e-05
-0.01599003938142934   -0.012386535493092803   -0.0001878060738712845
-0.016140672005289992   -0.00118341089382068   -0.00012403186991240113
-0.01591353864166348   -0.012490114310476136   -0.00022611442740534557
-0.009597043089351116   -0.012243427625227375   1.920447607723198e-05
-0.016140672005289992   -0.00118341089382068   -0.00012403186991240113
-0.009939034086906157   -0.0010400340795156137   6.221357359345725e-05
-0.009818032838431485   -0.0011832430521341324   1.1821907622987274e-07
-0.009597043089351116   -0.012243427625227375   1.920447607723198e-05
-0.016140672005289992   -0.00118341089382068   -0.00012403186991240113
-0.009818032838431485   -0.0011832430521341324   1.1821907622987274e-07
-0.01591353864166348   -0.012490114310476136   -0.00022611442740534557
-0.009597043089351116   -0.012243427625227375   1.920447607723198e-05
-0.009939034086906157   -0.0010400340795156137   6.221357359345725e-05
-0.01599003938142934   -0.012386535493092803   -0.0001878060738712845
-0.009685565417563501   -0.012125236320607323   7.71302261054581e-05
-0.009939034086906157   -0.0010400340795156137   6.221357359345725e-05
-0.016140672005289992   -0.00118341089382068   -0.00012403186991240113
-0.01599003938142934   -0.012386535493092803   -0.0001878060738712845
-0.016213047135455343   -0.0010485576053726236   -0.00010204630215025209
-0.009685565417563501   -0.012125236320607323   7.71302261054581e-05
-0.016060528113701608   -0.012274414753731389   -0.00014612103793531052
-0.016213047135455343   -0.0010485576053726236   -0.00010204630215025209
-0.01599003938142934   -0.012386535493092803   -0.0001878060738712845
-0.009685565417563501   -0.012125236320607323   7.71302261054581e-05
-0.016213047135455343   -0.0010485576053726236   -0.00010204630215025209
-0.010072733883733212   -0.0008746604234970681   0.00012154829073899234
-0.009939034086906157   -0.0010400340795156137   6.221357359345725e-05
-0.009685565417563501   -0.012125236320607323   7.71302261054581e-05
-0.016213047135455343   -0.0010485576053726236   -0.00010204630215025209
-0.009939034086906157   -0.0010400340795156137   6.221357359345725e-05
-0.01599003938142934   -0.012386535493092803   -0.0001878060738712845
-0.01583358285443535   -0.012588213600112523   -0.00026456778845484287
-0.01599051484575641   -0.001390439624762864   -0.00015006726978278225
-0.02247782141133429   -0.012646184562121762   -0.000432227902380505
-0.01591353864166348   -0.012490114310476136   -0.00022611442740534557
-0.01599051484575641   -0.001390439624762864   -0.00015006726978278225
-0.022593929138401643   -0.0013745348122045794   -0.0003153168226753622
-0.02247782141133429   -0.012646184562121762   -0.000432227902380505
-0.022643619816938805   -0.0012880393826560786   -0.00031130778662347657
-0.01591353864166348   -0.012490114310476136   -0.00022611442740534557
-0.022549845272270764   -0.012558012615115542   -0.0004042276011687037
-0.022643619816938805   -0.0012880393826560786   -0.00031130778662347657
-0.02247782141133429   -0.012646184562121762   -0.000432227902380505
-0.01591353864166348   -0.012490114310476136   -0.00022611442740534557
-0.022643619816938805   -0.0012880393826560786   -0.00031130778662347657
-0.016064140978916973   -0.0012945269109896924   -0.00014064896057350737
-0.01599051484575641   -0.001390439624762864   -0.00015006726978278225
-0.01591353864166348   -0.012490114310476136   -0.00022611442740534557
-0.022643619816938805   -0.0012880393826560786   -0.00031130778662347657
-0.01599051484575641   -0.001390439624762864   -0.00015006726978278225
-0.02247782141133429   -0.012646184562121762   -0.000432227902380505
-0.01591353864166348   -0.012490114310476136   -0.00022611442740534557
-0.016064140978916973   -0.0012945269109896924   -0.00014064896057350737
-0.022549845272270764   -0.012558012615115542   -0.0004042276011687037
-0.01599003938142934   -0.012386535493092803   -0.0001878060738712845
-0.016064140978916973   -0.0012945269109896924   -0.00014064896057350737
-0.022643619816938805   -0.0012880393826560786   -0.00031130778662347657
-0.022549845272270764   -0.012558012615115542   -0.0004042276011687037
-0.022695470561892396   -0.001191963043450943   -0.0003086488944168176
-0.01599003938142934   -0.012386535493092803   -0.0001878060738712845
-0.02261402433178597   -0.012462023262038279   -0.000377044530176115
-0.022695470561892396   -0.001191963043450943   -0.0003086488944168176
-0.022549845272270764   -0.012558012615115542   -0.0004042276011687037
-0.01599003938142934   -0.012386535493092803   -0.0001878060738712845
-0.022695470561892396   -0.001191963043450943   -0.0003086488944168176
-0.016140672005289992   -0.00118341089382068   -0.00012403186991240113
-0.016064140978916973   -0.0012945269109896924   -0.00014064896057350737
-0.01599003938142934   -0.012386535493092803   -0.0001878060738712845
-0.022695470561892396   -0.001191963043450943   -0.0003086488944168176
-0.016064140978916973   -0.0012945269109896924   -0.00014064896057350737
-0.022549845272270764   -0.012558012615115542   -0.0004042276011687037
-0.01599003938142934   -0.012386535493092803   -0.0001878060738712845
-0.016140672005289992   -0.00118341089382068   -0.00012403186991240113
-0.02261402433178597   -0.012462023262038279   -0.000377044530176115
-0.016060528113701608   -0.012274414753731389   -0.00014612103793531052
-0.016140672005289992   -0.00118341089382068   -0.00012403186991240113
-0.022695470561892396   -0.001191963043450943   -0.0003086488944168176
-0.02261402433178597   -0.012462023262038279   -0.000377044530176115
-0.022734657620178796   -0.0010881381623986434   -0.0003075731434872123
-0.016060528113701608   -0.012274414753731389   -0.00014612103793531052
-0.02267213215633488   -0.012359865690769042   -0.00034907651710256577
-0.022734657620178796   -0.0010881381623986434   -0.0003075731434872123
-0.02261402433178597   -0.012462023262038279   -0.000377044530176115
-0.016060528113701608   -0.012274414753731389   -0.00014612103793531052
-0.022734657620178796   -0.0010881381623986434   -0.0003075731434872123
-0.016213047135455343   -0.0010485576053726236   -0.00010204630215025209
-0.016140672005289992   -0.00118341089382068   -0.00012403186991240113
-0.016060528113701608   -0.012274414753731389   -0.00014612103793531052
-0.022734657620178796   -0.0010881381623986434   -0.0003075731434872123
-0.016140672005289992   -0.00118341089382068   -0.00012403186991240113
-0.02261402433178597   -0.012462023262038279   -0.000377044530176115
-0.02247782141133429   -0.012646184562121762   -0.000432227902380505
-0.022593929138401643   -0.0013745348122045794   -0.0003153168226753622
-0.029357933775554776   -0.01265273809464834   -0.0005715657514218304
-0.022549845272270764   -0.012558012615115542   -0.0004042276011687037
-0.022593929138401643   -0.0013745348122045794   -0.0003153168226753622
-0.02937907674268971   -0.0013644500775764179   -0.00047789909162782577
-0.029357933775554776   -0.01265273809464834   -0.0005715657514218304
-0.02941907401823669   -0.0012705491355675057   -0.000477889413227129
-0.022549845272270764   -0.012558012615115542   -0.0004042276011687037
-0.029419878428550334   -0.012567122030072127   -0.0005596063296927559
-0.02941907401823669   -0.0012705491355675057   -0.000477889413227129
-0.029357933775554776   -0.01265273809464834   -0.0005715657514218304
-0.022549845272270764   -0.012558012615115542   -0.0004042276011687037
-0.02941907401823669   -0.0012705491355675057   -0.000477889413227129
-0.022643619816938805   -0.0012880393826560786   -0.00031130778662347657
-0.022593929138401643   -0.0013745348122045794   -0.0003153168226753622
-0.022549845272270764   -0.012558012615115542   -0.0004042276011687037
-0.02941907401823669   -0.0012705491355675057   -0.000477889413227129
-0.022593929138401643   -0.0013745348122045794   -0.0003153168226753622
-0.029357933775554776   -0.01265273809464834   -0.0005715657514218304
-0.022549845272270764   -0.012558012615115542   -0.0004042276011687037
-0.022643619816938805   -0.0012880393826560786   -0.00031130778662347657
-0.029419878428550334   -0.012567122030072127   -0.0005596063296927559
-0.02261402433178597   -0.012462023262038279   -0.000377044530176115
-0.022643619816938805   -0.0012880393826560786   -0.00031130778662347657
-0.02941907401823669   -0.0012705491355675057   -0.000477889413227129
-0.029419878428550334   -0.012567122030072127   -0.0005596063296927559
-0.02946299775196498   -0.0011768743514101272   -0.00048519972420631055
-0.02261402433178597   -0.012462023262038279   -0.000377044530176115
-0.029475375334973446   -0.012474601916494604   -0.0005456305762571311
-0.02946299775196498   -0.0011768743514101272   -0.00048519972420631055
-0.029419878428550334   -0.012567122030072127   -0.0005596063296927559
-0.02261402433178597   -0.012462023262038279   -0.000377044530176115
-0.02946299775196498   -0.0011768743514101272   -0.00048519972420631055
-0.022695470561892396   -0.001191963043450943   -0.0003086488944168176
-0.022643619816938805   -0.0012880393826560786   -0.00031130778662347657
-0.02261402433178597   -0.012462023262038279   -0.000377044530176115
-0.02946299775196498   -0.0011768743514101272   -0.00048519972420631055
-0.022643619816938805   -0.0012880393826560786   -0.00031130778662347657
-0.029419878428550334   -0.012567122030072127   -0.0005596063296927559
-0.02261402433178597   -0.012462023262038279   -0.000377044530176115
-0.022695470561892396   -0.001191963043450943   -0.0003086488944168176
-0.029475375334973446   -0.012474601916494604   -0.0005456305762571311
-0.02267213215633488   -0.012359865690769042   -0.00034907651710256577
-0.022695470561892396   -0.001191963043450943   -0.0003086488944168176
-0.02946299775196498   -0.0011768743514101272   -0.00048519972420631055
-0.029475375334973446   -0.012474601916494604   -0.0005456305762571311
-0.029495293900633962   -0.0010749822871286595   -0.0004930037766489343
-0.02267213215633488   -0.012359865690769042   -0.00034907651710256577
-0.02952212339427396   -0.012376622851721442   -0.0005326718279539651
-0.029495293900633962   -0.0010749822871286595   -0.0004930037766489343
-0.029475375334973446   -0.012474601916494604   -0.0005456305762571311
-0.02267213215633488   -0.012359865690769042   -0.00034907651710256577
-0.029495293900633962   -0.0010749822871286595   -0.0004930037766489343
-0.022734657620178796   -0.0010881381623986434   -0.0003075731434872123
-0.022695470561892396   -0.001191963043450943   -0.0003086488944168176
-0.02267213215633488   -0.012359865690769042   -0.00034907651710256577
-0.029495293900633962   -0.0010749822871286595   -0.0004930037766489343
-0.022695470561892396   -0.001191963043450943   -0.0003086488944168176
-0.029475375334973446   -0.012474601916494604   -0.0005456305762571311
              </DataArray>   
          </PointData>  
       </Piece>  
   </UnstructuredGrid> 
</VTKFile> 
